NAME: GR_1x5x10_KH_5x10_Run_1
TYPE: TSP
COMMENT: BTSP instance |A|=50 GR nodes |B|=50 KH nodes depot=0.0 end=0.0.0
DIMENSION: 102
EDGE_WEIGHT_TYPE: EXPLICIT
EDGE_WEIGHT_FORMAT: FULL_MATRIX
NODE_COORD_TYPE: NO_COORDS
EDGE_WEIGHT_SECTION
0 10834 13539 9175 7340 12203 5315 8997 14088 5633 5302 11124 7809 12737 13535 8958 7291 14585 11553 11759 7672 11173 7609 8776 8920 9728 12139 12387 11040 8926 10648 6001 12363 6757 13890 8109 13206 11666 11904 12423 8629 13785 9628 10659 12579 5176 7410 9178 8498 11504 9040 999999 999999 999999 999999 999999 999999 999999 999999 999999 999999 999999 999999 999999 999999 999999 999999 999999 999999 999999 999999 999999 999999 999999 999999 999999 999999 999999 999999 999999 999999 999999 999999 999999 999999 999999 999999 999999 999999 999999 999999 999999 999999 999999 999999 999999 999999 999999 999999 999999 999999 999999
999999 0 999999 999999 999999 999999 999999 999999 999999 999999 999999 999999 999999 999999 999999 999999 999999 999999 999999 999999 999999 999999 999999 999999 999999 999999 999999 999999 999999 999999 999999 999999 999999 999999 999999 999999 999999 999999 999999 999999 999999 999999 999999 999999 999999 999999 999999 999999 999999 999999 999999 999999 999999 999999 999999 999999 18287 999999 999999 999999 999999 999999 999999 999999 999999 999999 14552 999999 999999 999999 999999 999999 999999 999999 999999 999999 999999 999999 999999 999999 999999 999999 11276 999999 999999 12507 999999 999999 999999 12476 12748 999999 999999 18118 15813 999999 999999 999999 13573 999999 11947 999999
999999 999999 0 999999 999999 999999 999999 999999 999999 999999 999999 999999 999999 999999 999999 999999 999999 999999 999999 999999 999999 999999 999999 999999 999999 999999 999999 999999 999999 999999 999999 999999 999999 999999 999999 999999 999999 999999 999999 999999 999999 999999 999999 999999 999999 999999 999999 999999 999999 999999 999999 999999 999999 999999 999999 999999 16595 999999 999999 999999 999999 999999 999999 999999 999999 999999 13980 999999 999999 999999 999999 999999 999999 999999 999999 999999 999999 999999 999999 999999 999999 999999 17623 999999 999999 10567 999999 999999 999999 14888 14752 999999 999999 12957 17342 999999 999999 999999 18792 999999 15089 999999
999999 999999 999999 0 999999 999999 999999 999999 999999 999999 999999 999999 999999 999999 999999 999999 999999 999999 999999 999999 999999 999999 999999 999999 999999 999999 999999 999999 999999 999999 999999 999999 999999 999999 999999 999999 999999 999999 999999 999999 999999 999999 999999 999999 999999 999999 999999 999999 999999 999999 999999 999999 999999 999999 999999 999999 15586 999999 999999 999999 999999 999999 999999 999999 999999 999999 10586 999999 999999 999999 999999 999999 999999 999999 999999 999999 999999 999999 999999 999999 999999 999999 13254 999999 999999 17486 999999 999999 999999 18162 12065 999999 999999 19720 11829 999999 999999 999999 16146 999999 19851 999999
999999 999999 999999 999999 0 999999 999999 999999 999999 999999 999999 999999 999999 999999 999999 999999 999999 999999 999999 999999 999999 999999 999999 999999 999999 999999 999999 999999 999999 999999 999999 999999 999999 999999 999999 999999 999999 999999 999999 999999 999999 999999 999999 999999 999999 999999 999999 999999 999999 999999 999999 999999 999999 999999 999999 999999 14217 999999 999999 999999 999999 999999 999999 999999 999999 999999 13968 999999 999999 999999 999999 999999 999999 999999 999999 999999 999999 999999 999999 999999 999999 999999 18025 999999 999999 16543 999999 999999 999999 11185 15960 999999 999999 19137 18013 999999 999999 999999 11027 999999 18682 999999
999999 999999 999999 999999 999999 0 999999 999999 999999 999999 999999 999999 999999 999999 999999 999999 999999 999999 999999 999999 999999 999999 999999 999999 999999 999999 999999 999999 999999 999999 999999 999999 999999 999999 999999 999999 999999 999999 999999 999999 999999 999999 999999 999999 999999 999999 999999 999999 999999 999999 999999 999999 999999 999999 999999 999999 11804 999999 999999 999999 999999 999999 999999 999999 999999 999999 16643 999999 999999 999999 999999 999999 999999 999999 999999 999999 999999 999999 999999 999999 999999 999999 18064 999999 999999 17653 999999 999999 999999 12364 15589 999999 999999 14105 15205 999999 999999 999999 13996 999999 17397 999999
999999 999999 999999 999999 999999 999999 0 999999 999999 999999 999999 999999 999999 999999 999999 999999 999999 999999 999999 999999 999999 999999 999999 999999 999999 999999 999999 999999 999999 999999 999999 999999 999999 999999 999999 999999 999999 999999 999999 999999 999999 999999 999999 999999 999999 999999 999999 999999 999999 999999 999999 999999 999999 999999 999999 999999 18022 999999 999999 999999 999999 999999 999999 999999 999999 999999 19595 999999 999999 999999 999999 999999 999999 999999 999999 999999 999999 999999 999999 999999 999999 999999 12383 999999 999999 11228 999999 999999 999999 19839 17928 999999 999999 10886 13991 999999 999999 999999 10821 999999 15561 999999
999999 999999 999999 999999 999999 999999 999999 0 999999 999999 999999 999999 999999 999999 999999 999999 999999 999999 999999 999999 999999 999999 999999 999999 999999 999999 999999 999999 999999 999999 999999 999999 999999 999999 999999 999999 999999 999999 999999 999999 999999 999999 999999 999999 999999 999999 999999 999999 999999 999999 999999 999999 999999 999999 999999 999999 13961 999999 999999 999999 999999 999999 999999 999999 999999 999999 19038 999999 999999 999999 999999 999999 999999 999999 999999 999999 999999 999999 999999 999999 999999 999999 13517 999999 999999 11019 999999 999999 999999 19956 16639 999999 999999 11310 11017 999999 999999 999999 10733 999999 13645 999999
999999 999999 999999 999999 999999 999999 999999 999999 0 999999 999999 999999 999999 999999 999999 999999 999999 999999 999999 999999 999999 999999 999999 999999 999999 999999 999999 999999 999999 999999 999999 999999 999999 999999 999999 999999 999999 999999 999999 999999 999999 999999 999999 999999 999999 999999 999999 999999 999999 999999 999999 999999 999999 999999 999999 999999 16574 999999 999999 999999 999999 999999 999999 999999 999999 999999 11281 999999 999999 999999 999999 999999 999999 999999 999999 999999 999999 999999 999999 999999 999999 999999 13789 999999 999999 10356 999999 999999 999999 11875 12607 999999 999999 18749 14777 999999 999999 999999 14956 999999 13815 999999
999999 999999 999999 999999 999999 999999 999999 999999 999999 0 999999 999999 999999 999999 999999 999999 999999 999999 999999 999999 999999 999999 999999 999999 999999 999999 999999 999999 999999 999999 999999 999999 999999 999999 999999 999999 999999 999999 999999 999999 999999 999999 999999 999999 999999 999999 999999 999999 999999 999999 999999 999999 999999 999999 999999 999999 11377 999999 999999 999999 999999 999999 999999 999999 999999 999999 13660 999999 999999 999999 999999 999999 999999 999999 999999 999999 999999 999999 999999 999999 999999 999999 17948 999999 999999 12839 999999 999999 999999 10150 19025 999999 999999 11412 11751 999999 999999 999999 13594 999999 10114 999999
999999 999999 999999 999999 999999 999999 999999 999999 999999 999999 0 999999 999999 999999 999999 999999 999999 999999 999999 999999 999999 999999 999999 999999 999999 999999 999999 999999 999999 999999 999999 999999 999999 999999 999999 999999 999999 999999 999999 999999 999999 999999 999999 999999 999999 999999 999999 999999 999999 999999 999999 999999 999999 999999 999999 999999 13546 999999 999999 999999 999999 999999 999999 999999 999999 999999 13855 999999 999999 999999 999999 999999 999999 999999 999999 999999 999999 999999 999999 999999 999999 999999 10521 999999 999999 19900 999999 999999 999999 18385 10622 999999 999999 11070 10188 999999 999999 999999 19373 999999 19543 999999
999999 999999 999999 999999 999999 999999 999999 999999 999999 999999 999999 0 999999 999999 999999 999999 999999 999999 999999 999999 999999 999999 999999 999999 999999 999999 999999 999999 999999 999999 999999 999999 999999 999999 999999 999999 999999 999999 999999 999999 999999 999999 999999 999999 999999 999999 999999 999999 999999 999999 999999 999999 999999 999999 18889 16444 999999 999999 19284 999999 17411 999999 999999 999999 999999 999999 999999 999999 999999 13201 999999 999999 999999 999999 999999 16942 16837 999999 999999 999999 999999 999999 999999 999999 999999 999999 999999 999999 999999 999999 999999 999999 13394 999999 999999 999999 999999 15161 999999 15462 999999 999999
999999 999999 999999 999999 999999 999999 999999 999999 999999 999999 999999 999999 0 999999 999999 999999 999999 999999 999999 999999 999999 999999 999999 999999 999999 999999 999999 999999 999999 999999 999999 999999 999999 999999 999999 999999 999999 999999 999999 999999 999999 999999 999999 999999 999999 999999 999999 999999 999999 999999 999999 999999 999999 999999 13931 19130 999999 999999 18317 999999 11950 999999 999999 999999 999999 999999 999999 999999 999999 10295 999999 999999 999999 999999 999999 13268 14021 999999 999999 999999 999999 999999 999999 999999 999999 999999 999999 999999 999999 999999 999999 999999 16929 999999 999999 999999 999999 12030 999999 10152 999999 999999
999999 999999 999999 999999 999999 999999 999999 999999 999999 999999 999999 999999 999999 0 999999 999999 999999 999999 999999 999999 999999 999999 999999 999999 999999 999999 999999 999999 999999 999999 999999 999999 999999 999999 999999 999999 999999 999999 999999 999999 999999 999999 999999 999999 999999 999999 999999 999999 999999 999999 999999 999999 999999 999999 13803 16970 999999 999999 11347 999999 19064 999999 999999 999999 999999 999999 999999 999999 999999 17400 999999 999999 999999 999999 999999 17569 10478 999999 999999 999999 999999 999999 999999 999999 999999 999999 999999 999999 999999 999999 999999 999999 17191 999999 999999 999999 999999 11970 999999 17993 999999 999999
999999 999999 999999 999999 999999 999999 999999 999999 999999 999999 999999 999999 999999 999999 0 999999 999999 999999 999999 999999 999999 999999 999999 999999 999999 999999 999999 999999 999999 999999 999999 999999 999999 999999 999999 999999 999999 999999 999999 999999 999999 999999 999999 999999 999999 999999 999999 999999 999999 999999 999999 999999 999999 999999 12434 16536 999999 999999 15573 999999 14210 999999 999999 999999 999999 999999 999999 999999 999999 12124 999999 999999 999999 999999 999999 15089 16085 999999 999999 999999 999999 999999 999999 999999 999999 999999 999999 999999 999999 999999 999999 999999 10692 999999 999999 999999 999999 12287 999999 18045 999999 999999
999999 999999 999999 999999 999999 999999 999999 999999 999999 999999 999999 999999 999999 999999 999999 0 999999 999999 999999 999999 999999 999999 999999 999999 999999 999999 999999 999999 999999 999999 999999 999999 999999 999999 999999 999999 999999 999999 999999 999999 999999 999999 999999 999999 999999 999999 999999 999999 999999 999999 999999 999999 999999 999999 12447 17176 999999 999999 18912 999999 12857 999999 999999 999999 999999 999999 999999 999999 999999 12703 999999 999999 999999 999999 999999 17065 15184 999999 999999 999999 999999 999999 999999 999999 999999 999999 999999 999999 999999 999999 999999 999999 10555 999999 999999 999999 999999 16676 999999 17998 999999 999999
999999 999999 999999 999999 999999 999999 999999 999999 999999 999999 999999 999999 999999 999999 999999 999999 0 999999 999999 999999 999999 999999 999999 999999 999999 999999 999999 999999 999999 999999 999999 999999 999999 999999 999999 999999 999999 999999 999999 999999 999999 999999 999999 999999 999999 999999 999999 999999 999999 999999 999999 999999 999999 999999 15000 17228 999999 999999 10847 999999 15138 999999 999999 999999 999999 999999 999999 999999 999999 16780 999999 999999 999999 999999 999999 18391 15446 999999 999999 999999 999999 999999 999999 999999 999999 999999 999999 999999 999999 999999 999999 999999 11982 999999 999999 999999 999999 19495 999999 17006 999999 999999
999999 999999 999999 999999 999999 999999 999999 999999 999999 999999 999999 999999 999999 999999 999999 999999 999999 0 999999 999999 999999 999999 999999 999999 999999 999999 999999 999999 999999 999999 999999 999999 999999 999999 999999 999999 999999 999999 999999 999999 999999 999999 999999 999999 999999 999999 999999 999999 999999 999999 999999 999999 999999 999999 19011 11322 999999 999999 10848 999999 12258 999999 999999 999999 999999 999999 999999 999999 999999 18335 999999 999999 999999 999999 999999 18348 15388 999999 999999 999999 999999 999999 999999 999999 999999 999999 999999 999999 999999 999999 999999 999999 18158 999999 999999 999999 999999 13176 999999 15485 999999 999999
999999 999999 999999 999999 999999 999999 999999 999999 999999 999999 999999 999999 999999 999999 999999 999999 999999 999999 0 999999 999999 999999 999999 999999 999999 999999 999999 999999 999999 999999 999999 999999 999999 999999 999999 999999 999999 999999 999999 999999 999999 999999 999999 999999 999999 999999 999999 999999 999999 999999 999999 999999 999999 999999 18637 14342 999999 999999 17988 999999 14025 999999 999999 999999 999999 999999 999999 999999 999999 13657 999999 999999 999999 999999 999999 14197 15909 999999 999999 999999 999999 999999 999999 999999 999999 999999 999999 999999 999999 999999 999999 999999 16062 999999 999999 999999 999999 17097 999999 12179 999999 999999
999999 999999 999999 999999 999999 999999 999999 999999 999999 999999 999999 999999 999999 999999 999999 999999 999999 999999 999999 0 999999 999999 999999 999999 999999 999999 999999 999999 999999 999999 999999 999999 999999 999999 999999 999999 999999 999999 999999 999999 999999 999999 999999 999999 999999 999999 999999 999999 999999 999999 999999 999999 999999 999999 14044 13383 999999 999999 17263 999999 15064 999999 999999 999999 999999 999999 999999 999999 999999 13488 999999 999999 999999 999999 999999 18343 12565 999999 999999 999999 999999 999999 999999 999999 999999 999999 999999 999999 999999 999999 999999 999999 19917 999999 999999 999999 999999 16528 999999 17417 999999 999999
999999 999999 999999 999999 999999 999999 999999 999999 999999 999999 999999 999999 999999 999999 999999 999999 999999 999999 999999 999999 0 999999 999999 999999 999999 999999 999999 999999 999999 999999 999999 999999 999999 999999 999999 999999 999999 999999 999999 999999 999999 999999 999999 999999 999999 999999 999999 999999 999999 999999 999999 999999 999999 999999 18880 10450 999999 999999 10930 999999 12326 999999 999999 999999 999999 999999 999999 999999 999999 19644 999999 999999 999999 999999 999999 12200 18458 999999 999999 999999 999999 999999 999999 999999 999999 999999 999999 999999 999999 999999 999999 999999 17073 999999 999999 999999 999999 12624 999999 11599 999999 999999
999999 999999 999999 999999 999999 999999 999999 999999 999999 999999 999999 999999 999999 999999 999999 999999 999999 999999 999999 999999 999999 0 999999 999999 999999 999999 999999 999999 999999 999999 999999 999999 999999 999999 999999 999999 999999 999999 999999 999999 999999 999999 999999 999999 999999 999999 999999 999999 999999 999999 999999 18108 999999 999999 999999 999999 999999 999999 999999 999999 999999 18786 999999 999999 999999 999999 999999 999999 999999 999999 11091 999999 999999 999999 15852 999999 999999 999999 999999 19491 17508 999999 999999 13795 999999 999999 17733 13203 999999 999999 999999 999999 999999 999999 999999 999999 15213 999999 999999 999999 999999 999999
999999 999999 999999 999999 999999 999999 999999 999999 999999 999999 999999 999999 999999 999999 999999 999999 999999 999999 999999 999999 999999 999999 0 999999 999999 999999 999999 999999 999999 999999 999999 999999 999999 999999 999999 999999 999999 999999 999999 999999 999999 999999 999999 999999 999999 999999 999999 999999 999999 999999 999999 19487 999999 999999 999999 999999 999999 999999 999999 999999 999999 18520 999999 999999 999999 999999 999999 999999 999999 999999 19505 999999 999999 999999 14678 999999 999999 999999 999999 19309 17048 999999 999999 19859 999999 999999 14838 19637 999999 999999 999999 999999 999999 999999 999999 999999 11150 999999 999999 999999 999999 999999
999999 999999 999999 999999 999999 999999 999999 999999 999999 999999 999999 999999 999999 999999 999999 999999 999999 999999 999999 999999 999999 999999 999999 0 999999 999999 999999 999999 999999 999999 999999 999999 999999 999999 999999 999999 999999 999999 999999 999999 999999 999999 999999 999999 999999 999999 999999 999999 999999 999999 999999 16158 999999 999999 999999 999999 999999 999999 999999 999999 999999 17444 999999 999999 999999 999999 999999 999999 999999 999999 12015 999999 999999 999999 11226 999999 999999 999999 999999 18394 15080 999999 999999 16404 999999 999999 11113 13966 999999 999999 999999 999999 999999 999999 999999 999999 17262 999999 999999 999999 999999 999999
999999 999999 999999 999999 999999 999999 999999 999999 999999 999999 999999 999999 999999 999999 999999 999999 999999 999999 999999 999999 999999 999999 999999 999999 0 999999 999999 999999 999999 999999 999999 999999 999999 999999 999999 999999 999999 999999 999999 999999 999999 999999 999999 999999 999999 999999 999999 999999 999999 999999 999999 12019 999999 999999 999999 999999 999999 999999 999999 999999 999999 17148 999999 999999 999999 999999 999999 999999 999999 999999 15868 999999 999999 999999 19839 999999 999999 999999 999999 19034 12121 999999 999999 13861 999999 999999 13099 14977 999999 999999 999999 999999 999999 999999 999999 999999 10046 999999 999999 999999 999999 999999
999999 999999 999999 999999 999999 999999 999999 999999 999999 999999 999999 999999 999999 999999 999999 999999 999999 999999 999999 999999 999999 999999 999999 999999 999999 0 999999 999999 999999 999999 999999 999999 999999 999999 999999 999999 999999 999999 999999 999999 999999 999999 999999 999999 999999 999999 999999 999999 999999 999999 999999 11669 999999 999999 999999 999999 999999 999999 999999 999999 999999 19476 999999 999999 999999 999999 999999 999999 999999 999999 13169 999999 999999 999999 13534 999999 999999 999999 999999 13126 15525 999999 999999 18682 999999 999999 16066 10500 999999 999999 999999 999999 999999 999999 999999 999999 13422 999999 999999 999999 999999 999999
999999 999999 999999 999999 999999 999999 999999 999999 999999 999999 999999 999999 999999 999999 999999 999999 999999 999999 999999 999999 999999 999999 999999 999999 999999 999999 0 999999 999999 999999 999999 999999 999999 999999 999999 999999 999999 999999 999999 999999 999999 999999 999999 999999 999999 999999 999999 999999 999999 999999 999999 16280 999999 999999 999999 999999 999999 999999 999999 999999 999999 15127 999999 999999 999999 999999 999999 999999 999999 999999 13351 999999 999999 999999 14625 999999 999999 999999 999999 17446 17237 999999 999999 11782 999999 999999 15750 17775 999999 999999 999999 999999 999999 999999 999999 999999 19425 999999 999999 999999 999999 999999
999999 999999 999999 999999 999999 999999 999999 999999 999999 999999 999999 999999 999999 999999 999999 999999 999999 999999 999999 999999 999999 999999 999999 999999 999999 999999 999999 0 999999 999999 999999 999999 999999 999999 999999 999999 999999 999999 999999 999999 999999 999999 999999 999999 999999 999999 999999 999999 999999 999999 999999 12750 999999 999999 999999 999999 999999 999999 999999 999999 999999 12094 999999 999999 999999 999999 999999 999999 999999 999999 13733 999999 999999 999999 19022 999999 999999 999999 999999 18198 19828 999999 999999 18222 999999 999999 13594 10876 999999 999999 999999 999999 999999 999999 999999 999999 18451 999999 999999 999999 999999 999999
999999 999999 999999 999999 999999 999999 999999 999999 999999 999999 999999 999999 999999 999999 999999 999999 999999 999999 999999 999999 999999 999999 999999 999999 999999 999999 999999 999999 0 999999 999999 999999 999999 999999 999999 999999 999999 999999 999999 999999 999999 999999 999999 999999 999999 999999 999999 999999 999999 999999 999999 10898 999999 999999 999999 999999 999999 999999 999999 999999 999999 14156 999999 999999 999999 999999 999999 999999 999999 999999 18242 999999 999999 999999 15538 999999 999999 999999 999999 10554 12368 999999 999999 19699 999999 999999 10825 17040 999999 999999 999999 999999 999999 999999 999999 999999 10988 999999 999999 999999 999999 999999
999999 999999 999999 999999 999999 999999 999999 999999 999999 999999 999999 999999 999999 999999 999999 999999 999999 999999 999999 999999 999999 999999 999999 999999 999999 999999 999999 999999 999999 0 999999 999999 999999 999999 999999 999999 999999 999999 999999 999999 999999 999999 999999 999999 999999 999999 999999 999999 999999 999999 999999 16056 999999 999999 999999 999999 999999 999999 999999 999999 999999 10315 999999 999999 999999 999999 999999 999999 999999 999999 18222 999999 999999 999999 15373 999999 999999 999999 999999 13134 15595 999999 999999 16953 999999 999999 13007 11517 999999 999999 999999 999999 999999 999999 999999 999999 12685 999999 999999 999999 999999 999999
999999 999999 999999 999999 999999 999999 999999 999999 999999 999999 999999 999999 999999 999999 999999 999999 999999 999999 999999 999999 999999 999999 999999 999999 999999 999999 999999 999999 999999 999999 0 999999 999999 999999 999999 999999 999999 999999 999999 999999 999999 999999 999999 999999 999999 999999 999999 999999 999999 999999 999999 16921 999999 999999 999999 999999 999999 999999 999999 999999 999999 17580 999999 999999 999999 999999 999999 999999 999999 999999 10619 999999 999999 999999 19519 999999 999999 999999 999999 10328 11949 999999 999999 16601 999999 999999 10442 13150 999999 999999 999999 999999 999999 999999 999999 999999 15661 999999 999999 999999 999999 999999
999999 999999 999999 999999 999999 999999 999999 999999 999999 999999 999999 999999 999999 999999 999999 999999 999999 999999 999999 999999 999999 999999 999999 999999 999999 999999 999999 999999 999999 999999 999999 0 999999 999999 999999 999999 999999 999999 999999 999999 999999 999999 999999 999999 999999 999999 999999 999999 999999 999999 999999 999999 11276 999999 999999 999999 999999 999999 999999 10313 999999 999999 999999 999999 999999 13247 999999 10193 19828 999999 999999 17148 18947 10924 999999 999999 999999 999999 999999 999999 999999 999999 999999 999999 17407 999999 999999 999999 999999 999999 999999 999999 999999 999999 999999 11076 999999 999999 999999 999999 999999 999999
999999 999999 999999 999999 999999 999999 999999 999999 999999 999999 999999 999999 999999 999999 999999 999999 999999 999999 999999 999999 999999 999999 999999 999999 999999 999999 999999 999999 999999 999999 999999 999999 0 999999 999999 999999 999999 999999 999999 999999 999999 999999 999999 999999 999999 999999 999999 999999 999999 999999 999999 999999 12452 999999 999999 999999 999999 999999 999999 10688 999999 999999 999999 999999 999999 18884 999999 11428 16134 999999 999999 13947 10211 18492 999999 999999 999999 999999 999999 999999 999999 999999 999999 999999 11496 999999 999999 999999 999999 999999 999999 999999 999999 999999 999999 15931 999999 999999 999999 999999 999999 999999
999999 999999 999999 999999 999999 999999 999999 999999 999999 999999 999999 999999 999999 999999 999999 999999 999999 999999 999999 999999 999999 999999 999999 999999 999999 999999 999999 999999 999999 999999 999999 999999 999999 0 999999 999999 999999 999999 999999 999999 999999 999999 999999 999999 999999 999999 999999 999999 999999 999999 999999 999999 10059 999999 999999 999999 999999 999999 999999 13958 999999 999999 999999 999999 999999 14535 999999 19124 13362 999999 999999 14616 12893 15131 999999 999999 999999 999999 999999 999999 999999 999999 999999 999999 10304 999999 999999 999999 999999 999999 999999 999999 999999 999999 999999 10946 999999 999999 999999 999999 999999 999999
999999 999999 999999 999999 999999 999999 999999 999999 999999 999999 999999 999999 999999 999999 999999 999999 999999 999999 999999 999999 999999 999999 999999 999999 999999 999999 999999 999999 999999 999999 999999 999999 999999 999999 0 999999 999999 999999 999999 999999 999999 999999 999999 999999 999999 999999 999999 999999 999999 999999 999999 999999 15052 999999 999999 999999 999999 999999 999999 11252 999999 999999 999999 999999 999999 11538 999999 11620 19247 999999 999999 12032 16668 12480 999999 999999 999999 999999 999999 999999 999999 999999 999999 999999 14672 999999 999999 999999 999999 999999 999999 999999 999999 999999 999999 18974 999999 999999 999999 999999 999999 999999
999999 999999 999999 999999 999999 999999 999999 999999 999999 999999 999999 999999 999999 999999 999999 999999 999999 999999 999999 999999 999999 999999 999999 999999 999999 999999 999999 999999 999999 999999 999999 999999 999999 999999 999999 0 999999 999999 999999 999999 999999 999999 999999 999999 999999 999999 999999 999999 999999 999999 999999 999999 10106 999999 999999 999999 999999 999999 999999 19688 999999 999999 999999 999999 999999 10195 999999 18446 10385 999999 999999 11828 10022 16945 999999 999999 999999 999999 999999 999999 999999 999999 999999 999999 17550 999999 999999 999999 999999 999999 999999 999999 999999 999999 999999 11777 999999 999999 999999 999999 999999 999999
999999 999999 999999 999999 999999 999999 999999 999999 999999 999999 999999 999999 999999 999999 999999 999999 999999 999999 999999 999999 999999 999999 999999 999999 999999 999999 999999 999999 999999 999999 999999 999999 999999 999999 999999 999999 0 999999 999999 999999 999999 999999 999999 999999 999999 999999 999999 999999 999999 999999 999999 999999 14621 999999 999999 999999 999999 999999 999999 12777 999999 999999 999999 999999 999999 10258 999999 11188 12920 999999 999999 12553 10414 18189 999999 999999 999999 999999 999999 999999 999999 999999 999999 999999 12197 999999 999999 999999 999999 999999 999999 999999 999999 999999 999999 16376 999999 999999 999999 999999 999999 999999
999999 999999 999999 999999 999999 999999 999999 999999 999999 999999 999999 999999 999999 999999 999999 999999 999999 999999 999999 999999 999999 999999 999999 999999 999999 999999 999999 999999 999999 999999 999999 999999 999999 999999 999999 999999 999999 0 999999 999999 999999 999999 999999 999999 999999 999999 999999 999999 999999 999999 999999 999999 18871 999999 999999 999999 999999 999999 999999 14016 999999 999999 999999 999999 999999 17814 999999 15162 12745 999999 999999 11811 10681 10808 999999 999999 999999 999999 999999 999999 999999 999999 999999 999999 10556 999999 999999 999999 999999 999999 999999 999999 999999 999999 999999 14579 999999 999999 999999 999999 999999 999999
999999 999999 999999 999999 999999 999999 999999 999999 999999 999999 999999 999999 999999 999999 999999 999999 999999 999999 999999 999999 999999 999999 999999 999999 999999 999999 999999 999999 999999 999999 999999 999999 999999 999999 999999 999999 999999 999999 0 999999 999999 999999 999999 999999 999999 999999 999999 999999 999999 999999 999999 999999 13178 999999 999999 999999 999999 999999 999999 13921 999999 999999 999999 999999 999999 10454 999999 11135 13822 999999 999999 18591 11373 16334 999999 999999 999999 999999 999999 999999 999999 999999 999999 999999 14235 999999 999999 999999 999999 999999 999999 999999 999999 999999 999999 13400 999999 999999 999999 999999 999999 999999
999999 999999 999999 999999 999999 999999 999999 999999 999999 999999 999999 999999 999999 999999 999999 999999 999999 999999 999999 999999 999999 999999 999999 999999 999999 999999 999999 999999 999999 999999 999999 999999 999999 999999 999999 999999 999999 999999 999999 0 999999 999999 999999 999999 999999 999999 999999 999999 999999 999999 999999 999999 15539 999999 999999 999999 999999 999999 999999 16486 999999 999999 999999 999999 999999 15337 999999 18900 14054 999999 999999 15066 16710 18542 999999 999999 999999 999999 999999 999999 999999 999999 999999 999999 12696 999999 999999 999999 999999 999999 999999 999999 999999 999999 999999 15291 999999 999999 999999 999999 999999 999999
999999 999999 999999 999999 999999 999999 999999 999999 999999 999999 999999 999999 999999 999999 999999 999999 999999 999999 999999 999999 999999 999999 999999 999999 999999 999999 999999 999999 999999 999999 999999 999999 999999 999999 999999 999999 999999 999999 999999 999999 0 999999 999999 999999 999999 999999 999999 999999 999999 999999 999999 999999 13837 999999 999999 999999 999999 999999 999999 19037 999999 999999 999999 999999 999999 14236 999999 14099 15117 999999 999999 13133 17396 10670 999999 999999 999999 999999 999999 999999 999999 999999 999999 999999 12010 999999 999999 999999 999999 999999 999999 999999 999999 999999 999999 12276 999999 999999 999999 999999 999999 999999
999999 999999 999999 999999 999999 999999 999999 999999 999999 999999 999999 999999 999999 999999 999999 999999 999999 999999 999999 999999 999999 999999 999999 999999 999999 999999 999999 999999 999999 999999 999999 999999 999999 999999 999999 999999 999999 999999 999999 999999 999999 0 999999 999999 999999 999999 999999 999999 999999 999999 999999 999999 999999 18003 999999 999999 999999 18463 999999 999999 999999 999999 17617 14911 12721 999999 999999 999999 999999 999999 999999 999999 999999 999999 999999 999999 999999 14127 10722 999999 999999 18811 999999 999999 999999 999999 999999 999999 18216 999999 999999 15635 999999 999999 999999 999999 999999 999999 999999 999999 999999 999999
999999 999999 999999 999999 999999 999999 999999 999999 999999 999999 999999 999999 999999 999999 999999 999999 999999 999999 999999 999999 999999 999999 999999 999999 999999 999999 999999 999999 999999 999999 999999 999999 999999 999999 999999 999999 999999 999999 999999 999999 999999 999999 0 999999 999999 999999 999999 999999 999999 999999 999999 999999 999999 13219 999999 999999 999999 11464 999999 999999 999999 999999 10369 16377 17268 999999 999999 999999 999999 999999 999999 999999 999999 999999 999999 999999 999999 12305 11557 999999 999999 18101 999999 999999 999999 999999 999999 999999 14770 999999 999999 19232 999999 999999 999999 999999 999999 999999 999999 999999 999999 999999
999999 999999 999999 999999 999999 999999 999999 999999 999999 999999 999999 999999 999999 999999 999999 999999 999999 999999 999999 999999 999999 999999 999999 999999 999999 999999 999999 999999 999999 999999 999999 999999 999999 999999 999999 999999 999999 999999 999999 999999 999999 999999 999999 0 999999 999999 999999 999999 999999 999999 999999 999999 999999 11761 999999 999999 999999 15322 999999 999999 999999 999999 10377 18547 15439 999999 999999 999999 999999 999999 999999 999999 999999 999999 999999 999999 999999 16047 17196 999999 999999 18566 999999 999999 999999 999999 999999 999999 15681 999999 999999 14423 999999 999999 999999 999999 999999 999999 999999 999999 999999 999999
999999 999999 999999 999999 999999 999999 999999 999999 999999 999999 999999 999999 999999 999999 999999 999999 999999 999999 999999 999999 999999 999999 999999 999999 999999 999999 999999 999999 999999 999999 999999 999999 999999 999999 999999 999999 999999 999999 999999 999999 999999 999999 999999 999999 0 999999 999999 999999 999999 999999 999999 999999 999999 18355 999999 999999 999999 14327 999999 999999 999999 999999 15761 17216 13014 999999 999999 999999 999999 999999 999999 999999 999999 999999 999999 999999 999999 19046 14947 999999 999999 14426 999999 999999 999999 999999 999999 999999 17982 999999 999999 10699 999999 999999 999999 999999 999999 999999 999999 999999 999999 999999
999999 999999 999999 999999 999999 999999 999999 999999 999999 999999 999999 999999 999999 999999 999999 999999 999999 999999 999999 999999 999999 999999 999999 999999 999999 999999 999999 999999 999999 999999 999999 999999 999999 999999 999999 999999 999999 999999 999999 999999 999999 999999 999999 999999 999999 0 999999 999999 999999 999999 999999 999999 999999 19984 999999 999999 999999 13733 999999 999999 999999 999999 15427 14404 19102 999999 999999 999999 999999 999999 999999 999999 999999 999999 999999 999999 999999 18805 10401 999999 999999 14877 999999 999999 999999 999999 999999 999999 17051 999999 999999 14213 999999 999999 999999 999999 999999 999999 999999 999999 999999 999999
999999 999999 999999 999999 999999 999999 999999 999999 999999 999999 999999 999999 999999 999999 999999 999999 999999 999999 999999 999999 999999 999999 999999 999999 999999 999999 999999 999999 999999 999999 999999 999999 999999 999999 999999 999999 999999 999999 999999 999999 999999 999999 999999 999999 999999 999999 0 999999 999999 999999 999999 999999 999999 16550 999999 999999 999999 18902 999999 999999 999999 999999 19824 16580 19168 999999 999999 999999 999999 999999 999999 999999 999999 999999 999999 999999 999999 17044 10021 999999 999999 18512 999999 999999 999999 999999 999999 999999 14485 999999 999999 13030 999999 999999 999999 999999 999999 999999 999999 999999 999999 999999
999999 999999 999999 999999 999999 999999 999999 999999 999999 999999 999999 999999 999999 999999 999999 999999 999999 999999 999999 999999 999999 999999 999999 999999 999999 999999 999999 999999 999999 999999 999999 999999 999999 999999 999999 999999 999999 999999 999999 999999 999999 999999 999999 999999 999999 999999 999999 0 999999 999999 999999 999999 999999 19628 999999 999999 999999 14861 999999 999999 999999 999999 19061 16558 16793 999999 999999 999999 999999 999999 999999 999999 999999 999999 999999 999999 999999 11186 15120 999999 999999 19276 999999 999999 999999 999999 999999 999999 11429 999999 999999 15738 999999 999999 999999 999999 999999 999999 999999 999999 999999 999999
999999 999999 999999 999999 999999 999999 999999 999999 999999 999999 999999 999999 999999 999999 999999 999999 999999 999999 999999 999999 999999 999999 999999 999999 999999 999999 999999 999999 999999 999999 999999 999999 999999 999999 999999 999999 999999 999999 999999 999999 999999 999999 999999 999999 999999 999999 999999 999999 0 999999 999999 999999 999999 13030 999999 999999 999999 13947 999999 999999 999999 999999 14345 12518 14635 999999 999999 999999 999999 999999 999999 999999 999999 999999 999999 999999 999999 11966 19683 999999 999999 18881 999999 999999 999999 999999 999999 999999 14293 999999 999999 14123 999999 999999 999999 999999 999999 999999 999999 999999 999999 999999
999999 999999 999999 999999 999999 999999 999999 999999 999999 999999 999999 999999 999999 999999 999999 999999 999999 999999 999999 999999 999999 999999 999999 999999 999999 999999 999999 999999 999999 999999 999999 999999 999999 999999 999999 999999 999999 999999 999999 999999 999999 999999 999999 999999 999999 999999 999999 999999 999999 0 999999 999999 999999 17512 999999 999999 999999 16290 999999 999999 999999 999999 11401 19967 14800 999999 999999 999999 999999 999999 999999 999999 999999 999999 999999 999999 999999 14409 12101 999999 999999 17577 999999 999999 999999 999999 999999 999999 19040 999999 999999 13311 999999 999999 999999 999999 999999 999999 999999 999999 999999 999999
999999 999999 999999 999999 999999 999999 999999 999999 999999 999999 999999 999999 999999 999999 999999 999999 999999 999999 999999 999999 999999 999999 999999 999999 999999 999999 999999 999999 999999 999999 999999 999999 999999 999999 999999 999999 999999 999999 999999 999999 999999 999999 999999 999999 999999 999999 999999 999999 999999 999999 0 999999 999999 19631 999999 999999 999999 15305 999999 999999 999999 999999 14419 19888 10069 999999 999999 999999 999999 999999 999999 999999 999999 999999 999999 999999 999999 10873 19275 999999 999999 11902 999999 999999 999999 999999 999999 999999 12260 999999 999999 15284 999999 999999 999999 999999 999999 999999 999999 999999 999999 999999
999999 15286 10135 14960 10838 19851 16735 11156 11419 13400 17135 19534 17757 13446 12373 19910 17001 10080 11337 16396 10023 18108 19487 16158 12019 11669 16280 12750 10898 16056 16921 19442 17231 15924 14593 16903 10901 11235 15738 16278 13564 18341 17219 19733 11607 15758 10552 12981 14439 11068 11619 0 999999 999999 999999 999999 999999 999999 999999 999999 999999 999999 999999 999999 999999 999999 999999 999999 999999 999999 999999 999999 999999 999999 999999 999999 999999 999999 999999 999999 999999 999999 999999 999999 999999 999999 999999 999999 999999 999999 999999 999999 999999 999999 999999 999999 999999 999999 999999 999999 999999 13694
999999 12372 13946 14676 13716 17630 10721 10486 17309 11606 19338 11925 17743 13378 13199 15509 10581 18982 10869 16142 12166 10857 18711 14882 10033 15232 12141 12805 10677 15402 16154 11276 12452 10059 15052 10106 14621 18871 13178 15539 13837 13233 15728 16908 15878 17598 13509 18913 17977 11616 15576 999999 0 999999 999999 999999 999999 999999 999999 999999 999999 999999 999999 999999 999999 999999 999999 999999 999999 999999 999999 999999 999999 999999 999999 999999 999999 999999 999999 999999 999999 999999 999999 999999 999999 999999 999999 999999 999999 999999 999999 999999 999999 999999 999999 999999 999999 999999 999999 999999 999999 5660
999999 12336 16105 15529 16936 17414 10513 16259 19907 10281 16194 11381 18318 17738 13415 13461 17196 17092 10059 12199 10932 19862 19196 19617 11572 17856 18211 14688 16784 17662 13510 14915 19663 13727 19822 15484 18404 10645 13520 17874 12591 18003 13219 11761 18355 19984 16550 19628 13030 17512 19631 999999 999999 0 999999 999999 999999 999999 999999 999999 999999 999999 999999 999999 999999 999999 999999 999999 999999 999999 999999 999999 999999 999999 999999 999999 999999 999999 999999 999999 999999 999999 999999 999999 999999 999999 999999 999999 999999 999999 999999 999999 999999 999999 999999 999999 999999 999999 999999 999999 999999 8437
999999 13334 12222 18150 18458 17323 18944 13722 19914 12385 10770 18889 13931 13803 12434 12447 15000 19011 18637 14044 18880 10008 15767 17737 18993 11750 13534 12371 11002 18207 18850 15937 18087 15271 15289 18232 12898 13862 19965 17259 15797 11946 12190 18000 11054 12136 12706 14470 10751 16187 19492 999999 999999 999999 0 999999 999999 999999 999999 999999 999999 999999 999999 999999 999999 999999 999999 999999 999999 999999 999999 999999 999999 999999 999999 999999 999999 999999 999999 999999 999999 999999 999999 999999 999999 999999 999999 999999 999999 999999 999999 999999 999999 999999 999999 999999 999999 999999 999999 999999 999999 6665
999999 18218 14871 15676 17268 18455 11010 18298 19510 13846 13075 16444 19130 16970 16536 17176 17228 11322 14342 13383 10450 12903 18625 11914 19258 16701 16997 12103 14869 11376 13247 11094 14084 17145 11235 17720 13858 12194 15788 13970 18152 11802 11729 17950 16653 12337 10664 10028 19482 12393 16911 999999 999999 999999 999999 0 999999 999999 999999 999999 999999 999999 999999 999999 999999 999999 999999 999999 999999 999999 999999 999999 999999 999999 999999 999999 999999 999999 999999 999999 999999 999999 999999 999999 999999 999999 999999 999999 999999 999999 999999 999999 999999 999999 999999 999999 999999 999999 999999 999999 999999 11277
999999 18287 16595 15586 14217 11804 18022 13961 16574 11377 13546 11996 19770 17589 19524 16867 18848 13151 11357 17629 11980 17314 17474 10023 12371 10679 11446 17097 18948 17779 15526 10690 15806 19352 16701 14894 11005 12814 19015 17887 19029 19746 10769 14660 13005 19200 13001 19132 12327 15869 12437 999999 999999 999999 999999 999999 0 999999 999999 999999 999999 999999 999999 999999 999999 999999 999999 999999 999999 999999 999999 999999 999999 999999 999999 999999 999999 999999 999999 999999 999999 999999 999999 999999 999999 999999 999999 999999 999999 999999 999999 999999 999999 999999 999999 999999 999999 999999 999999 999999 999999 11563
999999 11096 15734 18075 10044 14902 12017 19340 19570 16858 11030 12325 17550 12940 12771 11133 11124 12198 15171 13199 19661 11522 11769 11872 18070 14923 12764 10676 10322 10667 18377 15009 13500 15077 17044 19552 10734 14124 14313 14371 13618 18463 11464 15322 14327 13733 18902 14861 13947 16290 15305 999999 999999 999999 999999 999999 999999 0 999999 999999 999999 999999 999999 999999 999999 999999 999999 999999 999999 999999 999999 999999 999999 999999 999999 999999 999999 999999 999999 999999 999999 999999 999999 999999 999999 999999 999999 999999 999999 999999 999999 999999 999999 999999 999999 999999 999999 999999 999999 999999 999999 12138
999999 18771 12104 19831 10081 18093 16706 18480 13528 12618 17920 19284 18317 11347 15573 18912 10847 10848 17988 17263 10930 19226 15480 17881 17770 16954 13909 14656 15092 14149 14620 15168 16943 15968 18851 15934 14409 12568 18390 11943 10751 17475 15900 18841 17814 19715 13702 17791 16383 14672 19948 999999 999999 999999 999999 999999 999999 999999 0 999999 999999 999999 999999 999999 999999 999999 999999 999999 999999 999999 999999 999999 999999 999999 999999 999999 999999 999999 999999 999999 999999 999999 999999 999999 999999 999999 999999 999999 999999 999999 999999 999999 999999 999999 999999 999999 999999 999999 999999 999999 999999 14436
999999 14608 14471 11556 12909 15536 14810 15543 17390 18790 13034 19767 15400 17568 10046 18846 18562 13182 18668 10517 13481 15284 17024 12750 18753 17431 19635 13211 18474 18407 19547 10313 10688 13958 11252 19688 12777 14016 13921 16486 19037 13657 15938 17028 15936 13005 14534 18725 14941 17154 12560 999999 999999 999999 999999 999999 999999 999999 999999 0 999999 999999 999999 999999 999999 999999 999999 999999 999999 999999 999999 999999 999999 999999 999999 999999 999999 999999 999999 999999 999999 999999 999999 999999 999999 999999 999999 999999 999999 999999 999999 999999 999999 999999 999999 999999 999999 999999 999999 999999 999999 11060
999999 15740 19566 10510 19530 12535 14662 12351 10627 11467 18024 17411 11950 19064 14210 12857 15138 12258 14025 15064 12326 11357 16625 14434 15100 14305 18380 19877 19933 18734 13287 18116 15565 14982 12370 14366 10875 18004 14659 13123 13160 11510 14243 11031 19089 18667 12071 19561 13171 10869 14301 999999 999999 999999 999999 999999 999999 999999 999999 999999 0 999999 999999 999999 999999 999999 999999 999999 999999 999999 999999 999999 999999 999999 999999 999999 999999 999999 999999 999999 999999 999999 999999 999999 999999 999999 999999 999999 999999 999999 999999 999999 999999 999999 999999 999999 999999 999999 999999 999999 999999 5027
999999 19886 10515 18698 14788 11356 11734 18540 12420 16160 13228 12587 11221 15272 13088 12728 14095 17255 13184 15559 10094 18786 18520 17444 17148 19476 15127 12094 14156 10315 17580 15924 13028 17537 13786 16039 15850 16401 19140 16403 11148 15598 17030 14162 17338 11400 18075 16379 17599 15756 13343 999999 999999 999999 999999 999999 999999 999999 999999 999999 999999 0 999999 999999 999999 999999 999999 999999 999999 999999 999999 999999 999999 999999 999999 999999 999999 999999 999999 999999 999999 999999 999999 999999 999999 999999 999999 999999 999999 999999 999999 999999 999999 999999 999999 999999 999999 999999 999999 999999 999999 6211
999999 18334 16311 15949 16385 12626 19843 15618 13465 12182 19215 14524 15219 14227 15286 13774 13241 14248 14369 12840 16712 18624 16114 13035 14382 11118 14976 17549 18337 15591 17828 13145 16335 14678 13450 13688 14690 14015 19984 18821 18074 17617 10369 10377 15761 15427 19824 19061 14345 11401 14419 999999 999999 999999 999999 999999 999999 999999 999999 999999 999999 999999 0 999999 999999 999999 999999 999999 999999 999999 999999 999999 999999 999999 999999 999999 999999 999999 999999 999999 999999 999999 999999 999999 999999 999999 999999 999999 999999 999999 999999 999999 999999 999999 999999 999999 999999 999999 999999 999999 999999 14765
999999 10167 16757 14503 15083 14644 12998 16884 15041 10908 18197 15428 11810 10572 16390 13387 14759 14703 11143 19776 11063 14888 14534 11307 11099 18609 17247 13308 10241 14777 15165 11594 17539 11223 14312 19114 16545 17697 15014 16940 16165 14911 16377 18547 17216 14404 16580 16558 12518 19967 19888 999999 999999 999999 999999 999999 999999 999999 999999 999999 999999 999999 999999 0 999999 999999 999999 999999 999999 999999 999999 999999 999999 999999 999999 999999 999999 999999 999999 999999 999999 999999 999999 999999 999999 999999 999999 999999 999999 999999 999999 999999 999999 999999 999999 999999 999999 999999 999999 999999 999999 11742
999999 13018 18695 13982 17792 14940 18237 13813 16894 10557 17813 11840 15857 13089 15983 10627 12189 16487 15187 18226 14012 19842 12770 14381 13301 19884 14257 19247 17878 17037 13663 15575 10111 19391 17049 14284 18975 12102 19714 17409 19519 12721 17268 15439 13014 19102 19168 16793 14635 14800 10069 999999 999999 999999 999999 999999 999999 999999 999999 999999 999999 999999 999999 999999 0 999999 999999 999999 999999 999999 999999 999999 999999 999999 999999 999999 999999 999999 999999 999999 999999 999999 999999 999999 999999 999999 999999 999999 999999 999999 999999 999999 999999 999999 999999 999999 999999 999999 999999 999999 999999 8566
999999 17361 16216 15947 18840 15597 10301 16942 18114 10932 10190 12010 11196 19658 12762 14642 18597 15456 10878 13775 12845 19973 17303 17658 12369 17263 10208 10510 11291 10043 13622 13247 18884 14535 11538 10195 10258 17814 10454 15337 14236 12367 10064 11656 14765 16867 18197 14071 11518 15725 13866 999999 999999 999999 999999 999999 999999 999999 999999 999999 999999 999999 999999 999999 999999 0 999999 999999 999999 999999 999999 999999 999999 999999 999999 999999 999999 999999 999999 999999 999999 999999 999999 999999 999999 999999 999999 999999 999999 999999 999999 999999 999999 999999 999999 999999 999999 999999 999999 999999 999999 7337
999999 14552 13980 10586 13968 16643 19595 19038 11281 13660 13855 19761 19639 15742 15135 14456 17898 19927 17960 13583 13481 12768 17872 11498 11988 11284 18880 17234 18986 10223 17875 12764 11748 15558 19500 14532 19445 15156 19701 14281 16834 15720 10650 14192 17380 11971 15562 12610 15286 14479 15112 999999 999999 999999 999999 999999 999999 999999 999999 999999 999999 999999 999999 999999 999999 999999 0 999999 999999 999999 999999 999999 999999 999999 999999 999999 999999 999999 999999 999999 999999 999999 999999 999999 999999 999999 999999 999999 999999 999999 999999 999999 999999 999999 999999 999999 999999 999999 999999 999999 999999 6738
999999 16501 17713 17881 13609 11271 17916 13794 19091 12846 18171 11043 14672 19229 14899 13102 11084 13187 11993 17566 10307 19985 15816 16706 11735 17914 15174 12927 18654 13423 14449 10193 11428 19124 11620 18446 11188 15162 11135 18900 14099 10449 13772 13793 17736 15998 13758 17540 19115 18748 11908 999999 999999 999999 999999 999999 999999 999999 999999 999999 999999 999999 999999 999999 999999 999999 999999 0 999999 999999 999999 999999 999999 999999 999999 999999 999999 999999 999999 999999 999999 999999 999999 999999 999999 999999 999999 999999 999999 999999 999999 999999 999999 999999 999999 999999 999999 999999 999999 999999 999999 6627
999999 17142 19096 18842 16266 19163 18051 15644 18174 14126 11413 14275 10049 18288 11075 13674 12428 11007 15295 17461 16824 13765 11300 10525 18183 10197 11249 12094 17343 15400 16322 19828 16134 13362 19247 10385 12920 12745 13822 14054 15117 16416 12876 10884 14740 19825 16171 17817 16609 10363 17253 999999 999999 999999 999999 999999 999999 999999 999999 999999 999999 999999 999999 999999 999999 999999 999999 999999 0 999999 999999 999999 999999 999999 999999 999999 999999 999999 999999 999999 999999 999999 999999 999999 999999 999999 999999 999999 999999 999999 999999 999999 999999 999999 999999 999999 999999 999999 999999 999999 999999 14148
999999 16718 10650 17114 12550 12623 11506 15439 12875 18546 13843 13201 10295 17400 12124 12703 16780 18335 13657 13488 19644 12028 14997 15017 11809 13129 13738 15309 17223 18102 16884 10885 18988 10127 12106 17565 10589 17762 17575 13783 13796 14280 19674 18148 19209 14491 19467 16228 19879 13531 14256 999999 999999 999999 999999 999999 999999 999999 999999 999999 999999 999999 999999 999999 999999 999999 999999 999999 999999 0 999999 999999 999999 999999 999999 999999 999999 999999 999999 999999 999999 999999 999999 999999 999999 999999 999999 999999 999999 999999 999999 999999 999999 999999 999999 999999 999999 999999 999999 999999 999999 5020
999999 18200 16329 19257 12219 12811 11208 14719 12300 16621 19935 13147 14346 18911 14686 19385 13919 12416 15342 19325 13982 11091 19505 12015 15868 13169 13351 13733 18242 18222 10619 11668 18586 17791 14948 11362 14755 17921 17662 16686 16315 11573 13971 17184 12352 10333 17434 13589 17390 15311 17045 999999 999999 999999 999999 999999 999999 999999 999999 999999 999999 999999 999999 999999 999999 999999 999999 999999 999999 999999 0 999999 999999 999999 999999 999999 999999 999999 999999 999999 999999 999999 999999 999999 999999 999999 999999 999999 999999 999999 999999 999999 999999 999999 999999 999999 999999 999999 999999 999999 999999 9489
999999 18078 17266 18266 17571 19048 11635 12153 12080 10774 13543 19918 17817 19272 12637 14707 18281 17359 10738 18126 16209 17092 15744 15797 11556 19804 16651 12976 16143 11653 18562 17148 13947 14616 12032 11828 12553 11811 18591 15066 13133 19057 13342 14656 15909 18635 12518 17099 16750 16202 15590 999999 999999 999999 999999 999999 999999 999999 999999 999999 999999 999999 999999 999999 999999 999999 999999 999999 999999 999999 999999 0 999999 999999 999999 999999 999999 999999 999999 999999 999999 999999 999999 999999 999999 999999 999999 999999 999999 999999 999999 999999 999999 999999 999999 999999 999999 999999 999999 999999 999999 12517
999999 10335 18675 16805 18476 18711 12958 12975 11350 19325 13243 15752 19905 10547 16795 16767 13111 13710 14013 14856 13651 17095 12089 11445 18243 17727 11923 10713 17646 19807 12032 18947 10211 12893 16668 10022 10414 10681 11373 16710 17396 16787 16711 11228 14963 14524 11328 18434 10408 19545 18744 999999 999999 999999 999999 999999 999999 999999 999999 999999 999999 999999 999999 999999 999999 999999 999999 999999 999999 999999 999999 999999 0 999999 999999 999999 999999 999999 999999 999999 999999 999999 999999 999999 999999 999999 999999 999999 999999 999999 999999 999999 999999 999999 999999 999999 999999 999999 999999 999999 999999 14711
999999 12167 12081 14041 16206 15553 17138 16902 16582 14485 18085 14668 15020 14727 13261 12062 12520 17526 16899 19097 18441 16994 12289 14150 18415 19323 16820 15663 10267 11424 10386 10924 18492 15131 12480 16945 18189 10808 16334 18542 10670 19666 16606 13778 11864 18351 10750 19307 19628 13316 16042 999999 999999 999999 999999 999999 999999 999999 999999 999999 999999 999999 999999 999999 999999 999999 999999 999999 999999 999999 999999 999999 999999 0 999999 999999 999999 999999 999999 999999 999999 999999 999999 999999 999999 999999 999999 999999 999999 999999 999999 999999 999999 999999 999999 999999 999999 999999 999999 999999 999999 10786
999999 13072 12166 10058 13648 12805 19255 14675 17638 11221 19597 18275 10380 15428 18618 10495 15477 19352 16519 19424 13157 15852 14678 11226 19839 13534 14625 19022 15538 15373 19519 16404 15965 11104 13242 19771 14958 14532 19928 10998 18539 11662 18960 19708 13953 16098 11688 14324 15761 10704 16008 999999 999999 999999 999999 999999 999999 999999 999999 999999 999999 999999 999999 999999 999999 999999 999999 999999 999999 999999 999999 999999 999999 999999 0 999999 999999 999999 999999 999999 999999 999999 999999 999999 999999 999999 999999 999999 999999 999999 999999 999999 999999 999999 999999 999999 999999 999999 999999 999999 999999 14155
999999 10176 16685 16234 18258 12354 19611 19782 10335 14484 11348 16942 13268 17569 15089 17065 18391 18348 14197 18343 12200 16916 11734 14669 19355 10138 16687 17612 16123 12423 12361 19893 16928 15306 17683 12889 13531 17458 10355 19508 16683 19087 10623 12233 14269 16375 16451 12325 18703 17221 11722 999999 999999 999999 999999 999999 999999 999999 999999 999999 999999 999999 999999 999999 999999 999999 999999 999999 999999 999999 999999 999999 999999 999999 999999 0 999999 999999 999999 999999 999999 999999 999999 999999 999999 999999 999999 999999 999999 999999 999999 999999 999999 999999 999999 999999 999999 999999 999999 999999 999999 9781
999999 12563 17111 15734 17919 17220 18464 12156 16249 18133 19341 16837 14021 10478 16085 15184 15446 15388 15909 12565 18458 18122 10212 19863 10821 12487 12719 16374 14199 11023 15928 16095 19644 14123 13249 10507 14349 14594 16186 17949 15308 10879 10383 17205 12391 15535 10923 15759 19015 13469 19276 999999 999999 999999 999999 999999 999999 999999 999999 999999 999999 999999 999999 999999 999999 999999 999999 999999 999999 999999 999999 999999 999999 999999 999999 999999 0 999999 999999 999999 999999 999999 999999 999999 999999 999999 999999 999999 999999 999999 999999 999999 999999 999999 999999 999999 999999 999999 999999 999999 999999 13537
999999 18712 13113 15440 14304 11440 14610 10293 18764 11773 15781 17936 17024 19586 18645 19861 11606 15114 10444 12221 15729 11196 12486 19413 19325 19545 13993 15117 13481 19557 18471 13828 17848 15343 15990 11750 13797 16141 15876 17235 17500 14127 12305 16047 19046 18805 17044 11186 11966 14409 10873 999999 999999 999999 999999 999999 999999 999999 999999 999999 999999 999999 999999 999999 999999 999999 999999 999999 999999 999999 999999 999999 999999 999999 999999 999999 999999 0 999999 999999 999999 999999 999999 999999 999999 999999 999999 999999 999999 999999 999999 999999 999999 999999 999999 999999 999999 999999 999999 999999 999999 8453
999999 18505 11116 13388 11105 18868 14919 16457 13505 14215 12502 19764 14362 12687 17705 14038 15730 18196 18924 13054 16760 18653 18138 12983 19347 12886 13335 11229 12711 18087 12753 17822 15797 14021 13757 13987 15759 15449 12754 17385 15166 10722 11557 17196 14947 10401 10021 15120 19683 12101 19275 999999 999999 999999 999999 999999 999999 999999 999999 999999 999999 999999 999999 999999 999999 999999 999999 999999 999999 999999 999999 999999 999999 999999 999999 999999 999999 999999 0 999999 999999 999999 999999 999999 999999 999999 999999 999999 999999 999999 999999 999999 999999 999999 999999 999999 999999 999999 999999 999999 999999 7231
999999 15367 11469 19340 10802 18870 17633 18566 12045 16596 19507 17174 16195 14656 11559 13127 19536 19369 14605 19115 14450 19491 19309 18394 19034 13126 17446 18198 10554 13134 10328 17721 17732 10100 17915 13162 16290 16775 10583 18759 17286 15207 16296 12080 14850 16655 18506 12405 11869 10390 11119 999999 999999 999999 999999 999999 999999 999999 999999 999999 999999 999999 999999 999999 999999 999999 999999 999999 999999 999999 999999 999999 999999 999999 999999 999999 999999 999999 999999 0 999999 999999 999999 999999 999999 999999 999999 999999 999999 999999 999999 999999 999999 999999 999999 999999 999999 999999 999999 999999 999999 9512
999999 12142 19341 11282 10956 18314 15579 16443 12931 10733 11853 17792 19260 10507 19109 17982 18039 13322 15496 15888 15045 17508 17048 15080 12121 15525 17237 19828 12368 15595 11949 17435 16809 17348 15061 16131 18533 12684 14115 18474 14309 17675 12913 17846 18437 17999 15736 16763 11323 15666 12868 999999 999999 999999 999999 999999 999999 999999 999999 999999 999999 999999 999999 999999 999999 999999 999999 999999 999999 999999 999999 999999 999999 999999 999999 999999 999999 999999 999999 999999 0 999999 999999 999999 999999 999999 999999 999999 999999 999999 999999 999999 999999 999999 999999 999999 999999 999999 999999 999999 999999 7346
999999 10770 11181 10668 14810 14000 18311 10591 18733 12395 15975 15158 11696 17544 17658 16863 10447 18340 16276 14939 13003 17528 17402 18549 16108 17302 10094 14112 19662 19944 13279 18674 17324 10777 10514 18256 16948 11659 17801 17353 11074 18811 18101 18566 14426 14877 18512 19276 18881 17577 11902 999999 999999 999999 999999 999999 999999 999999 999999 999999 999999 999999 999999 999999 999999 999999 999999 999999 999999 999999 999999 999999 999999 999999 999999 999999 999999 999999 999999 999999 999999 0 999999 999999 999999 999999 999999 999999 999999 999999 999999 999999 999999 999999 999999 999999 999999 999999 999999 999999 999999 11082
999999 11276 17623 13254 18025 18064 12383 13517 13789 17948 10521 13452 11684 10163 18968 11826 14915 18601 19551 13881 18515 11166 10283 18479 15183 14322 19698 15255 11002 12289 19246 13203 14833 12915 19007 18167 16626 12264 17240 13709 13768 16434 17792 12865 13622 16976 10977 18117 17642 18926 10118 999999 999999 999999 999999 999999 999999 999999 999999 999999 999999 999999 999999 999999 999999 999999 999999 999999 999999 999999 999999 999999 999999 999999 999999 999999 999999 999999 999999 999999 999999 999999 0 999999 999999 999999 999999 999999 999999 999999 999999 999999 999999 999999 999999 999999 999999 999999 999999 999999 999999 5799
999999 12142 19993 17299 13675 17080 10708 10381 18354 10462 17637 10189 19809 19311 13541 11103 13231 13686 11749 13004 11086 13795 19859 16404 13861 18682 11782 18222 19699 16953 16601 11461 17700 17251 10596 15872 14647 12142 15022 11277 14155 10397 16953 12171 19675 14412 18134 12320 19565 11049 10860 999999 999999 999999 999999 999999 999999 999999 999999 999999 999999 999999 999999 999999 999999 999999 999999 999999 999999 999999 999999 999999 999999 999999 999999 999999 999999 999999 999999 999999 999999 999999 999999 0 999999 999999 999999 999999 999999 999999 999999 999999 999999 999999 999999 999999 999999 999999 999999 999999 999999 10661
999999 17219 14291 11136 13103 13187 14826 14647 18277 11134 18672 19968 12952 18919 16937 17826 16518 15214 17297 18685 19960 16461 13734 18217 15302 17348 19227 13330 10655 14622 14388 17407 11496 10304 14672 17550 12197 10556 14235 12696 12010 14654 16139 11742 16447 18061 18352 12198 19723 13984 19486 999999 999999 999999 999999 999999 999999 999999 999999 999999 999999 999999 999999 999999 999999 999999 999999 999999 999999 999999 999999 999999 999999 999999 999999 999999 999999 999999 999999 999999 999999 999999 999999 999999 0 999999 999999 999999 999999 999999 999999 999999 999999 999999 999999 999999 999999 999999 999999 999999 999999 8032
999999 12507 10567 17486 16543 17653 11228 11019 10356 12839 19900 11798 17282 11743 10813 17232 18700 11751 14986 17814 16196 12189 15587 17414 19836 18175 19319 18312 16308 13989 19096 17199 12939 10678 11209 11515 19134 19916 15460 13193 19401 13603 13716 19161 17989 19789 16230 15995 15636 18338 14776 999999 999999 999999 999999 999999 999999 999999 999999 999999 999999 999999 999999 999999 999999 999999 999999 999999 999999 999999 999999 999999 999999 999999 999999 999999 999999 999999 999999 999999 999999 999999 999999 999999 999999 0 999999 999999 999999 999999 999999 999999 999999 999999 999999 999999 999999 999999 999999 999999 999999 11367
999999 10948 17553 16259 16902 17988 19180 10104 11165 10340 13148 14766 15809 17774 14438 14233 15348 11995 15175 14210 11616 17733 14838 11113 13099 16066 15750 13594 10825 13007 10442 18958 18105 12792 15879 18300 19027 13675 14315 11908 16720 10860 13640 12794 15711 15681 10255 18068 19357 18961 14304 999999 999999 999999 999999 999999 999999 999999 999999 999999 999999 999999 999999 999999 999999 999999 999999 999999 999999 999999 999999 999999 999999 999999 999999 999999 999999 999999 999999 999999 999999 999999 999999 999999 999999 999999 0 999999 999999 999999 999999 999999 999999 999999 999999 999999 999999 999999 999999 999999 999999 12472
999999 13567 13869 16201 14885 16062 11319 14598 11717 18385 15671 18173 18070 10394 15930 16886 14728 16087 14665 15940 19443 13203 19637 13966 14977 10500 17775 10876 17040 11517 13150 19296 11356 16143 10816 13287 16252 10836 15169 11874 17017 16133 19414 18372 16470 12053 14958 10665 13931 12514 16234 999999 999999 999999 999999 999999 999999 999999 999999 999999 999999 999999 999999 999999 999999 999999 999999 999999 999999 999999 999999 999999 999999 999999 999999 999999 999999 999999 999999 999999 999999 999999 999999 999999 999999 999999 999999 0 999999 999999 999999 999999 999999 999999 999999 999999 999999 999999 999999 999999 999999 10593
999999 11320 13226 18775 14606 11388 17897 10006 14431 19321 10741 15421 16276 10922 19032 19847 17355 17456 18746 15232 19396 11857 11806 13545 13633 17520 11383 16133 17136 14604 11361 18640 15942 15393 19623 18986 14422 12318 10014 13537 12870 18216 14770 15681 17982 17051 14485 11429 14293 19040 12260 999999 999999 999999 999999 999999 999999 999999 999999 999999 999999 999999 999999 999999 999999 999999 999999 999999 999999 999999 999999 999999 999999 999999 999999 999999 999999 999999 999999 999999 999999 999999 999999 999999 999999 999999 999999 999999 0 999999 999999 999999 999999 999999 999999 999999 999999 999999 999999 999999 999999 10360
999999 12476 14888 18162 11185 12364 19839 19956 11875 10150 18385 13967 16973 15255 13301 19225 13334 11651 14677 10136 16428 16243 16519 17726 10042 13405 11307 16173 18565 11727 17501 12386 16340 14160 16429 13503 16802 12546 15330 13727 19424 12161 10221 15463 11336 19990 13650 17606 18278 17172 11844 999999 999999 999999 999999 999999 999999 999999 999999 999999 999999 999999 999999 999999 999999 999999 999999 999999 999999 999999 999999 999999 999999 999999 999999 999999 999999 999999 999999 999999 999999 999999 999999 999999 999999 999999 999999 999999 999999 0 999999 999999 999999 999999 999999 999999 999999 999999 999999 999999 999999 9983
999999 12748 14752 12065 15960 15589 17928 16639 12607 19025 10622 15548 12455 14889 12507 14391 11145 15315 15383 10754 12636 10784 18803 16662 12244 16317 17833 10651 12495 18534 15405 11252 17494 19736 16349 18961 15289 10947 17605 11984 12349 12324 13397 10762 10424 16841 19990 17280 19188 16561 19870 999999 999999 999999 999999 999999 999999 999999 999999 999999 999999 999999 999999 999999 999999 999999 999999 999999 999999 999999 999999 999999 999999 999999 999999 999999 999999 999999 999999 999999 999999 999999 999999 999999 999999 999999 999999 999999 999999 999999 0 999999 999999 999999 999999 999999 999999 999999 999999 999999 999999 11954
999999 15330 14570 10385 16034 17566 11481 15953 17567 18937 16615 12153 16839 12079 11999 14346 13686 11719 17925 12199 14577 18753 10976 12477 19128 13072 11531 17679 15683 12307 12076 12564 15147 19678 15975 12050 16181 19863 10643 15087 16328 15635 19232 14423 10699 14213 13030 15738 14123 13311 15284 999999 999999 999999 999999 999999 999999 999999 999999 999999 999999 999999 999999 999999 999999 999999 999999 999999 999999 999999 999999 999999 999999 999999 999999 999999 999999 999999 999999 999999 999999 999999 999999 999999 999999 999999 999999 999999 999999 999999 999999 0 999999 999999 999999 999999 999999 999999 999999 999999 999999 12523
999999 19772 12395 17633 18333 15601 17973 15234 17829 14959 17444 13394 16929 17191 10692 10555 11982 18158 16062 19917 17073 18145 17559 13590 15865 16426 15390 14897 11004 17880 18675 18415 12106 10165 18619 16827 16740 18147 17809 10011 16590 19867 13671 11382 16463 12149 10011 13591 15138 12492 14263 999999 999999 999999 999999 999999 999999 999999 999999 999999 999999 999999 999999 999999 999999 999999 999999 999999 999999 999999 999999 999999 999999 999999 999999 999999 999999 999999 999999 999999 999999 999999 999999 999999 999999 999999 999999 999999 999999 999999 999999 999999 0 999999 999999 999999 999999 999999 999999 999999 999999 12554
999999 18118 12957 19720 19137 14105 10886 11310 18749 11412 11070 10644 12778 17840 14974 17718 14494 19335 15437 15487 13307 10613 12504 18219 13911 18804 15691 11385 14617 14637 19275 13308 14325 10992 12060 12627 19956 19257 15084 18854 17590 13980 11456 17492 19399 12878 15319 14205 19021 10316 11041 999999 999999 999999 999999 999999 999999 999999 999999 999999 999999 999999 999999 999999 999999 999999 999999 999999 999999 999999 999999 999999 999999 999999 999999 999999 999999 999999 999999 999999 999999 999999 999999 999999 999999 999999 999999 999999 999999 999999 999999 999999 999999 0 999999 999999 999999 999999 999999 999999 999999 10242
999999 15813 17342 11829 18013 15205 13991 11017 14777 11751 10188 15509 14903 15861 10415 19543 10586 18494 17245 16570 16426 15963 15727 16159 15527 11588 11843 16440 13649 19556 16886 18192 18688 17081 16136 16620 14396 16780 16481 12542 15527 15540 17011 16641 14669 17542 16768 16400 19307 10346 10199 999999 999999 999999 999999 999999 999999 999999 999999 999999 999999 999999 999999 999999 999999 999999 999999 999999 999999 999999 999999 999999 999999 999999 999999 999999 999999 999999 999999 999999 999999 999999 999999 999999 999999 999999 999999 999999 999999 999999 999999 999999 999999 999999 0 999999 999999 999999 999999 999999 999999 14150
999999 10138 19849 13067 19587 16940 16749 12046 12698 11870 13761 12121 19646 16673 10026 15688 10995 11483 15300 10337 13757 16790 16917 11176 11897 10002 12435 16371 11824 15826 17520 11076 15931 10946 18974 11777 16376 14579 13400 15291 12276 17923 10775 15406 19581 19134 12795 19472 14400 19100 17302 999999 999999 999999 999999 999999 999999 999999 999999 999999 999999 999999 999999 999999 999999 999999 999999 999999 999999 999999 999999 999999 999999 999999 999999 999999 999999 999999 999999 999999 999999 999999 999999 999999 999999 999999 999999 999999 999999 999999 999999 999999 999999 999999 999999 0 999999 999999 999999 999999 999999 14554
999999 12386 16850 15654 18728 14567 16433 17622 16360 17924 14695 11028 16426 14257 17113 10144 17378 10389 17322 18283 19373 15213 11150 17262 10046 13422 19425 18451 10988 12685 15661 18581 14042 14236 13809 17925 17143 16299 11520 13658 11119 15182 16742 15984 14294 10494 17304 19243 12323 19669 19492 999999 999999 999999 999999 999999 999999 999999 999999 999999 999999 999999 999999 999999 999999 999999 999999 999999 999999 999999 999999 999999 999999 999999 999999 999999 999999 999999 999999 999999 999999 999999 999999 999999 999999 999999 999999 999999 999999 999999 999999 999999 999999 999999 999999 999999 0 999999 999999 999999 999999 7299
999999 19055 18530 18409 15707 19955 15651 12961 17908 13292 11838 15161 12030 11970 12287 16676 19495 13176 17097 16528 12624 16489 16799 17113 11393 14570 18249 14300 18882 13715 11477 11533 11503 18638 15577 15325 13653 13077 19753 15775 13670 13004 10190 18442 19390 11435 14115 13366 10828 15187 12535 999999 999999 999999 999999 999999 999999 999999 999999 999999 999999 999999 999999 999999 999999 999999 999999 999999 999999 999999 999999 999999 999999 999999 999999 999999 999999 999999 999999 999999 999999 999999 999999 999999 999999 999999 999999 999999 999999 999999 999999 999999 999999 999999 999999 999999 999999 0 999999 999999 999999 6683
999999 13573 18792 16146 11027 13996 10821 10733 14956 13594 19373 13847 15606 15444 13419 14692 11853 19951 13794 10629 15744 17483 10293 17616 11411 10777 12159 13431 19228 11157 10618 11540 18214 18900 17946 11899 15191 15095 10736 15803 13936 13708 12257 12965 16527 11281 11386 17613 10313 14407 13265 999999 999999 999999 999999 999999 999999 999999 999999 999999 999999 999999 999999 999999 999999 999999 999999 999999 999999 999999 999999 999999 999999 999999 999999 999999 999999 999999 999999 999999 999999 999999 999999 999999 999999 999999 999999 999999 999999 999999 999999 999999 999999 999999 999999 999999 999999 999999 0 999999 999999 12674
999999 16439 15899 14144 17984 15035 17185 11457 13156 18876 16105 15462 10152 17993 18045 17998 17006 15485 12179 17417 11599 14518 17842 11555 18901 11330 15611 14355 18779 10792 17885 11409 10895 12566 12744 15265 11266 14589 19002 11479 10303 16357 19753 10747 14498 18281 10880 17548 17823 10415 18729 999999 999999 999999 999999 999999 999999 999999 999999 999999 999999 999999 999999 999999 999999 999999 999999 999999 999999 999999 999999 999999 999999 999999 999999 999999 999999 999999 999999 999999 999999 999999 999999 999999 999999 999999 999999 999999 999999 999999 999999 999999 999999 999999 999999 999999 999999 999999 999999 0 999999 5715
999999 11947 15089 19851 18682 17397 15561 13645 13815 10114 19543 17190 19635 17497 11888 11036 18561 13200 12205 11887 10255 15012 10005 10617 18212 19338 14268 15902 17639 10338 10466 13474 10611 17313 19131 13617 19089 11816 11890 14978 10805 18875 11080 18709 19164 12341 15381 17678 15842 15608 15258 999999 999999 999999 999999 999999 999999 999999 999999 999999 999999 999999 999999 999999 999999 999999 999999 999999 999999 999999 999999 999999 999999 999999 999999 999999 999999 999999 999999 999999 999999 999999 999999 999999 999999 999999 999999 999999 999999 999999 999999 999999 999999 999999 999999 999999 999999 999999 999999 999999 0 9193
1 999999 999999 999999 999999 999999 999999 999999 999999 999999 999999 999999 999999 999999 999999 999999 999999 999999 999999 999999 999999 999999 999999 999999 999999 999999 999999 999999 999999 999999 999999 999999 999999 999999 999999 999999 999999 999999 999999 999999 999999 999999 999999 999999 999999 999999 999999 999999 999999 999999 999999 999999 999999 999999 999999 999999 999999 999999 999999 999999 999999 999999 999999 999999 999999 999999 999999 999999 999999 999999 999999 999999 999999 999999 999999 999999 999999 999999 999999 999999 999999 999999 999999 999999 999999 999999 999999 999999 999999 999999 999999 999999 999999 999999 999999 999999 999999 999999 999999 999999 999999 0
EOF