NAME: GR_1x2x10_KH_2x10_Run_2
TYPE: TSP
COMMENT: BTSP instance |A|=20 GR nodes |B|=20 KH nodes depot=0.0 end=0.0.0
DIMENSION: 42
EDGE_WEIGHT_TYPE: EXPLICIT
EDGE_WEIGHT_FORMAT: FULL_MATRIX
NODE_COORD_TYPE: NO_COORDS
EDGE_WEIGHT_SECTION
0 10876 6155 9750 8188 7047 8463 7624 13943 10219 14468 11880 14729 10642 11167 11149 7644 14994 12863 6264 14014 999999 999999 999999 999999 999999 999999 999999 999999 999999 999999 999999 999999 999999 999999 999999 999999 999999 999999 999999 999999 999999
999999 0 999999 999999 999999 999999 999999 999999 999999 999999 999999 999999 999999 999999 999999 999999 999999 999999 999999 999999 999999 14409 999999 15181 14532 999999 999999 999999 10781 11797 999999 999999 999999 16142 999999 15488 18154 999999 999999 10545 16859 999999
999999 999999 0 999999 999999 999999 999999 999999 999999 999999 999999 999999 999999 999999 999999 999999 999999 999999 999999 999999 999999 12978 999999 12893 19789 999999 999999 999999 12953 16088 999999 999999 999999 15410 999999 11848 19106 999999 999999 14645 16197 999999
999999 999999 999999 0 999999 999999 999999 999999 999999 999999 999999 999999 999999 999999 999999 999999 999999 999999 999999 999999 999999 15481 999999 17099 17500 999999 999999 999999 13419 17399 999999 999999 999999 19942 999999 13916 16571 999999 999999 10792 11359 999999
999999 999999 999999 999999 0 999999 999999 999999 999999 999999 999999 999999 999999 999999 999999 999999 999999 999999 999999 999999 999999 15593 999999 15012 12757 999999 999999 999999 16723 18498 999999 999999 999999 15220 999999 18317 16853 999999 999999 19029 11574 999999
999999 999999 999999 999999 999999 0 999999 999999 999999 999999 999999 999999 999999 999999 999999 999999 999999 999999 999999 999999 999999 17632 999999 11406 13911 999999 999999 999999 16910 16074 999999 999999 999999 12396 999999 15405 18096 999999 999999 18860 10662 999999
999999 999999 999999 999999 999999 999999 0 999999 999999 999999 999999 999999 999999 999999 999999 999999 999999 999999 999999 999999 999999 13620 999999 14673 11844 999999 999999 999999 14699 11504 999999 999999 999999 13030 999999 18132 15477 999999 999999 14986 17269 999999
999999 999999 999999 999999 999999 999999 999999 0 999999 999999 999999 999999 999999 999999 999999 999999 999999 999999 999999 999999 999999 16532 999999 16627 18778 999999 999999 999999 10683 10166 999999 999999 999999 17576 999999 15856 15198 999999 999999 16409 15414 999999
999999 999999 999999 999999 999999 999999 999999 999999 0 999999 999999 999999 999999 999999 999999 999999 999999 999999 999999 999999 999999 12148 999999 16752 18326 999999 999999 999999 15899 18531 999999 999999 999999 13322 999999 11182 11403 999999 999999 10861 16185 999999
999999 999999 999999 999999 999999 999999 999999 999999 999999 0 999999 999999 999999 999999 999999 999999 999999 999999 999999 999999 999999 13126 999999 17791 16736 999999 999999 999999 18493 15798 999999 999999 999999 11607 999999 12522 12957 999999 999999 19177 16863 999999
999999 999999 999999 999999 999999 999999 999999 999999 999999 999999 0 999999 999999 999999 999999 999999 999999 999999 999999 999999 999999 11292 999999 10560 16099 999999 999999 999999 12017 14845 999999 999999 999999 14816 999999 10362 15876 999999 999999 13533 10579 999999
999999 999999 999999 999999 999999 999999 999999 999999 999999 999999 999999 0 999999 999999 999999 999999 999999 999999 999999 999999 999999 999999 12077 999999 999999 16712 14761 11620 999999 999999 15151 11155 12922 999999 10343 999999 999999 15621 16253 999999 999999 999999
999999 999999 999999 999999 999999 999999 999999 999999 999999 999999 999999 999999 0 999999 999999 999999 999999 999999 999999 999999 999999 999999 12189 999999 999999 19746 10656 18267 999999 999999 13301 13569 11416 999999 17056 999999 999999 15062 16262 999999 999999 999999
999999 999999 999999 999999 999999 999999 999999 999999 999999 999999 999999 999999 999999 0 999999 999999 999999 999999 999999 999999 999999 999999 14737 999999 999999 12216 16323 11619 999999 999999 19241 12925 11780 999999 10866 999999 999999 17234 10295 999999 999999 999999
999999 999999 999999 999999 999999 999999 999999 999999 999999 999999 999999 999999 999999 999999 0 999999 999999 999999 999999 999999 999999 999999 12621 999999 999999 17554 15818 18429 999999 999999 19987 14850 18297 999999 16551 999999 999999 19081 19592 999999 999999 999999
999999 999999 999999 999999 999999 999999 999999 999999 999999 999999 999999 999999 999999 999999 999999 0 999999 999999 999999 999999 999999 999999 18969 999999 999999 12594 17685 11452 999999 999999 15106 14518 18381 999999 15829 999999 999999 17044 15785 999999 999999 999999
999999 999999 999999 999999 999999 999999 999999 999999 999999 999999 999999 999999 999999 999999 999999 999999 0 999999 999999 999999 999999 999999 11982 999999 999999 13182 12505 13324 999999 999999 17027 16329 17388 999999 10492 999999 999999 14107 12001 999999 999999 999999
999999 999999 999999 999999 999999 999999 999999 999999 999999 999999 999999 999999 999999 999999 999999 999999 999999 0 999999 999999 999999 999999 17591 999999 999999 13230 11227 15649 999999 999999 16096 16100 12855 999999 15941 999999 999999 17050 14103 999999 999999 999999
999999 999999 999999 999999 999999 999999 999999 999999 999999 999999 999999 999999 999999 999999 999999 999999 999999 999999 0 999999 999999 999999 15615 999999 999999 15292 12607 15813 999999 999999 17748 16072 18745 999999 12733 999999 999999 16977 11100 999999 999999 999999
999999 999999 999999 999999 999999 999999 999999 999999 999999 999999 999999 999999 999999 999999 999999 999999 999999 999999 999999 0 999999 999999 10213 999999 999999 16377 14911 13860 999999 999999 15067 14968 14533 999999 14209 999999 999999 16970 18391 999999 999999 999999
999999 999999 999999 999999 999999 999999 999999 999999 999999 999999 999999 999999 999999 999999 999999 999999 999999 999999 999999 999999 0 999999 14696 999999 999999 11067 12259 13601 999999 999999 11053 12267 10706 999999 17136 999999 999999 16582 17786 999999 999999 999999
999999 14409 12978 15481 15593 17632 13620 16532 12148 13126 11292 18619 15423 12951 18355 10616 18778 13265 12100 14188 18854 0 999999 999999 999999 999999 999999 999999 999999 999999 999999 999999 999999 999999 999999 999999 999999 999999 999999 999999 999999 6969
999999 14215 17012 17350 19656 11911 18243 13392 12332 19058 17926 12077 12189 14737 12621 18969 11982 17591 15615 10213 14696 999999 0 999999 999999 999999 999999 999999 999999 999999 999999 999999 999999 999999 999999 999999 999999 999999 999999 999999 999999 9413
999999 15181 12893 17099 15012 11406 14673 16627 16752 17791 10560 15741 14741 17280 13105 11769 16574 12497 12259 10132 18973 999999 999999 0 999999 999999 999999 999999 999999 999999 999999 999999 999999 999999 999999 999999 999999 999999 999999 999999 999999 13231
999999 14532 19789 17500 12757 13911 11844 18778 18326 16736 16099 15770 12894 17587 19598 17623 14982 10013 13389 16795 14590 999999 999999 999999 0 999999 999999 999999 999999 999999 999999 999999 999999 999999 999999 999999 999999 999999 999999 999999 999999 10171
999999 12904 14580 12636 16897 13248 17528 12438 13199 15136 13070 16712 19746 12216 17554 12594 13182 13230 15292 16377 11067 999999 999999 999999 999999 0 999999 999999 999999 999999 999999 999999 999999 999999 999999 999999 999999 999999 999999 999999 999999 5683
999999 11191 15697 15846 10562 13754 14747 12579 12501 12670 13635 14761 10656 16323 15818 17685 12505 11227 12607 14911 12259 999999 999999 999999 999999 999999 0 999999 999999 999999 999999 999999 999999 999999 999999 999999 999999 999999 999999 999999 999999 5784
999999 12331 14866 17094 16737 11490 14380 15661 11889 15204 17656 11620 18267 11619 18429 11452 13324 15649 15813 13860 13601 999999 999999 999999 999999 999999 999999 0 999999 999999 999999 999999 999999 999999 999999 999999 999999 999999 999999 999999 999999 13571
999999 10781 12953 13419 16723 16910 14699 10683 15899 18493 12017 12633 17113 16940 18821 18581 19934 19016 16782 10095 10779 999999 999999 999999 999999 999999 999999 999999 0 999999 999999 999999 999999 999999 999999 999999 999999 999999 999999 999999 999999 9954
999999 11797 16088 17399 18498 16074 11504 10166 18531 15798 14845 15594 10425 14232 18092 17112 10607 14085 18504 12287 15176 999999 999999 999999 999999 999999 999999 999999 999999 0 999999 999999 999999 999999 999999 999999 999999 999999 999999 999999 999999 10231
999999 15685 15415 17767 16870 14816 17906 18050 16180 17086 19558 15151 13301 19241 19987 15106 17027 16096 17748 15067 11053 999999 999999 999999 999999 999999 999999 999999 999999 999999 0 999999 999999 999999 999999 999999 999999 999999 999999 999999 999999 11772
999999 11379 18544 14243 11797 13172 17659 15444 10096 15877 13711 11155 13569 12925 14850 14518 16329 16100 16072 14968 12267 999999 999999 999999 999999 999999 999999 999999 999999 999999 999999 0 999999 999999 999999 999999 999999 999999 999999 999999 999999 12887
999999 10370 10830 10950 13258 17411 12812 19337 15847 13929 16132 12922 11416 11780 18297 18381 17388 12855 18745 14533 10706 999999 999999 999999 999999 999999 999999 999999 999999 999999 999999 999999 0 999999 999999 999999 999999 999999 999999 999999 999999 12052
999999 16142 15410 19942 15220 12396 13030 17576 13322 11607 14816 16059 19373 18646 11382 17573 17673 15908 17402 19739 13037 999999 999999 999999 999999 999999 999999 999999 999999 999999 999999 999999 999999 0 999999 999999 999999 999999 999999 999999 999999 5677
999999 12992 16848 18688 14073 10320 18688 10637 10587 17843 11428 10343 17056 10866 16551 15829 10492 15941 12733 14209 17136 999999 999999 999999 999999 999999 999999 999999 999999 999999 999999 999999 999999 999999 0 999999 999999 999999 999999 999999 999999 5181
999999 15488 11848 13916 18317 15405 18132 15856 11182 12522 10362 17779 15293 15943 10260 17396 12601 11764 19639 19179 17056 999999 999999 999999 999999 999999 999999 999999 999999 999999 999999 999999 999999 999999 999999 0 999999 999999 999999 999999 999999 8019
999999 18154 19106 16571 16853 18096 15477 15198 11403 12957 15876 19004 17372 16812 15874 18140 12034 13198 11928 18582 10494 999999 999999 999999 999999 999999 999999 999999 999999 999999 999999 999999 999999 999999 999999 999999 0 999999 999999 999999 999999 12872
999999 19267 17366 13385 18953 19764 19888 11131 11677 18977 18163 15621 15062 17234 19081 17044 14107 17050 16977 16970 16582 999999 999999 999999 999999 999999 999999 999999 999999 999999 999999 999999 999999 999999 999999 999999 999999 0 999999 999999 999999 9459
999999 12983 10677 19217 16846 12974 17670 16222 18772 12248 11050 16253 16262 10295 19592 15785 12001 14103 11100 18391 17786 999999 999999 999999 999999 999999 999999 999999 999999 999999 999999 999999 999999 999999 999999 999999 999999 999999 0 999999 999999 5337
999999 10545 14645 10792 19029 18860 14986 16409 10861 19177 13533 11763 19852 18570 10716 18201 17433 11374 19261 10975 12117 999999 999999 999999 999999 999999 999999 999999 999999 999999 999999 999999 999999 999999 999999 999999 999999 999999 999999 0 999999 6227
999999 16859 16197 11359 11574 10662 17269 15414 16185 16863 10579 14201 16998 10235 17751 13314 10999 17076 13576 15636 17272 999999 999999 999999 999999 999999 999999 999999 999999 999999 999999 999999 999999 999999 999999 999999 999999 999999 999999 999999 0 13311
1 999999 999999 999999 999999 999999 999999 999999 999999 999999 999999 999999 999999 999999 999999 999999 999999 999999 999999 999999 999999 999999 999999 999999 999999 999999 999999 999999 999999 999999 999999 999999 999999 999999 999999 999999 999999 999999 999999 999999 999999 0
EOF