NAME: GR_1x2x10_KH_2x10_Run_4
TYPE: TSP
COMMENT: BTSP instance |A|=20 GR nodes |B|=20 KH nodes depot=0.0 end=0.0.0
DIMENSION: 42
EDGE_WEIGHT_TYPE: EXPLICIT
EDGE_WEIGHT_FORMAT: FULL_MATRIX
NODE_COORD_TYPE: NO_COORDS
EDGE_WEIGHT_SECTION
0 12148 14402 9417 10183 8471 12881 10442 10839 5082 12905 10986 10365 10741 12051 8887 14192 13486 8484 12127 9155 999999 999999 999999 999999 999999 999999 999999 999999 999999 999999 999999 999999 999999 999999 999999 999999 999999 999999 999999 999999 999999
999999 0 999999 999999 999999 999999 999999 999999 999999 999999 999999 999999 999999 999999 999999 999999 999999 999999 999999 999999 999999 15297 18350 11337 16592 13066 12641 12857 14810 18246 15964 19966 18945 19089 14834 13246 19033 17398 12595 13105 16420 999999
999999 999999 0 999999 999999 999999 999999 999999 999999 999999 999999 999999 999999 999999 999999 999999 999999 999999 999999 999999 999999 18606 14830 14845 13681 10538 10889 17647 12680 13169 11929 11103 17842 12434 17931 15161 13577 14385 13648 12769 11517 999999
999999 999999 999999 0 999999 999999 999999 999999 999999 999999 999999 999999 999999 999999 999999 999999 999999 999999 999999 999999 999999 14912 12449 19938 16186 14025 14815 18503 12931 13702 17404 11777 19445 18659 12647 18486 19880 15611 12282 12681 16538 999999
999999 999999 999999 999999 0 999999 999999 999999 999999 999999 999999 999999 999999 999999 999999 999999 999999 999999 999999 999999 999999 16757 13369 15661 17386 15253 10285 13406 10553 18858 10812 17697 10853 18210 18665 15493 13795 17264 11173 10841 19495 999999
999999 999999 999999 999999 999999 0 999999 999999 999999 999999 999999 999999 999999 999999 999999 999999 999999 999999 999999 999999 999999 11683 12958 12157 11388 14020 11234 13435 16208 14992 12804 19216 17992 18318 17222 19164 17429 14616 11020 11258 11623 999999
999999 999999 999999 999999 999999 999999 0 999999 999999 999999 999999 999999 999999 999999 999999 999999 999999 999999 999999 999999 999999 16647 11820 11946 17240 10398 19925 13854 16157 18611 11150 12690 18536 16488 16690 15950 15372 17985 18098 10399 11175 999999
999999 999999 999999 999999 999999 999999 999999 0 999999 999999 999999 999999 999999 999999 999999 999999 999999 999999 999999 999999 999999 18480 13719 17996 10193 16295 12892 17597 19235 16294 12324 13052 16716 12884 16047 14725 19445 12802 18425 17295 12677 999999
999999 999999 999999 999999 999999 999999 999999 999999 0 999999 999999 999999 999999 999999 999999 999999 999999 999999 999999 999999 999999 10909 14696 14013 12117 15107 15427 10653 15400 10341 17484 12709 12682 11354 19861 18836 14729 19666 11995 17582 16783 999999
999999 999999 999999 999999 999999 999999 999999 999999 999999 0 999999 999999 999999 999999 999999 999999 999999 999999 999999 999999 999999 10806 13197 14878 16191 14566 12380 14958 16561 14605 11803 13246 10469 10621 10970 12495 11559 17887 18262 14884 19908 999999
999999 999999 999999 999999 999999 999999 999999 999999 999999 999999 0 999999 999999 999999 999999 999999 999999 999999 999999 999999 999999 10992 12594 11960 16867 11378 10928 12908 13171 16561 12184 18527 11588 13925 17896 12885 14192 16677 10250 13667 16435 999999
999999 999999 999999 999999 999999 999999 999999 999999 999999 999999 999999 0 999999 999999 999999 999999 999999 999999 999999 999999 999999 15691 15432 13017 10670 19234 19534 16478 16839 12942 19384 12771 13878 12296 17859 15094 14399 16099 11348 13019 16057 999999
999999 999999 999999 999999 999999 999999 999999 999999 999999 999999 999999 999999 0 999999 999999 999999 999999 999999 999999 999999 999999 16369 19414 14197 12688 13806 19923 14795 15543 13854 12197 11687 12874 14326 16501 14693 15414 18091 10767 19557 12107 999999
999999 999999 999999 999999 999999 999999 999999 999999 999999 999999 999999 999999 999999 0 999999 999999 999999 999999 999999 999999 999999 11723 12631 18205 13269 17724 10299 18389 11217 19120 18620 13644 19650 10608 19924 17098 10753 16898 10246 12666 19715 999999
999999 999999 999999 999999 999999 999999 999999 999999 999999 999999 999999 999999 999999 999999 0 999999 999999 999999 999999 999999 999999 11667 17334 16875 10014 14277 14638 17576 16348 11353 10186 12846 18189 13681 19977 14165 17677 11994 18662 11551 15723 999999
999999 999999 999999 999999 999999 999999 999999 999999 999999 999999 999999 999999 999999 999999 999999 0 999999 999999 999999 999999 999999 17805 17075 11284 13103 12450 12337 10920 16702 17607 13468 15403 16430 12376 15077 10066 12385 17163 16488 12347 11909 999999
999999 999999 999999 999999 999999 999999 999999 999999 999999 999999 999999 999999 999999 999999 999999 999999 0 999999 999999 999999 999999 10547 13374 12216 10173 14595 12705 11373 17024 16634 10752 17073 19597 10115 14271 19720 12689 16137 13466 19123 18419 999999
999999 999999 999999 999999 999999 999999 999999 999999 999999 999999 999999 999999 999999 999999 999999 999999 999999 0 999999 999999 999999 12483 17085 15225 14642 11484 19875 10688 13764 19312 18041 17823 19700 12675 10218 10736 16609 16077 10656 16064 12889 999999
999999 999999 999999 999999 999999 999999 999999 999999 999999 999999 999999 999999 999999 999999 999999 999999 999999 999999 0 999999 999999 19754 15698 13845 13756 13098 16921 19497 11704 19765 17561 19666 17248 16376 17338 11995 14552 10864 12504 13069 10546 999999
999999 999999 999999 999999 999999 999999 999999 999999 999999 999999 999999 999999 999999 999999 999999 999999 999999 999999 999999 0 999999 10289 16407 18663 10792 19305 14174 19375 15788 18391 10173 12315 16222 11440 19638 12162 14998 17666 12172 13338 12554 999999
999999 999999 999999 999999 999999 999999 999999 999999 999999 999999 999999 999999 999999 999999 999999 999999 999999 999999 999999 999999 0 15149 19911 11316 16078 16162 17862 14506 16646 19991 18089 11254 10572 18063 13494 10116 19279 14070 13824 19310 13904 999999
999999 15297 18606 14912 16757 11683 16647 18480 10909 10806 10992 15691 16369 11723 11667 17805 10547 12483 19754 10289 15149 0 999999 999999 999999 999999 999999 999999 999999 999999 999999 999999 999999 999999 999999 999999 999999 999999 999999 999999 999999 11117
999999 18350 14830 12449 13369 12958 11820 13719 14696 13197 12594 15432 19414 12631 17334 17075 13374 17085 15698 16407 19911 999999 0 999999 999999 999999 999999 999999 999999 999999 999999 999999 999999 999999 999999 999999 999999 999999 999999 999999 999999 9900
999999 11337 14845 19938 15661 12157 11946 17996 14013 14878 11960 13017 14197 18205 16875 11284 12216 15225 13845 18663 11316 999999 999999 0 999999 999999 999999 999999 999999 999999 999999 999999 999999 999999 999999 999999 999999 999999 999999 999999 999999 10672
999999 16592 13681 16186 17386 11388 17240 10193 12117 16191 16867 10670 12688 13269 10014 13103 10173 14642 13756 10792 16078 999999 999999 999999 0 999999 999999 999999 999999 999999 999999 999999 999999 999999 999999 999999 999999 999999 999999 999999 999999 10873
999999 13066 10538 14025 15253 14020 10398 16295 15107 14566 11378 19234 13806 17724 14277 12450 14595 11484 13098 19305 16162 999999 999999 999999 999999 0 999999 999999 999999 999999 999999 999999 999999 999999 999999 999999 999999 999999 999999 999999 999999 8294
999999 12641 10889 14815 10285 11234 19925 12892 15427 12380 10928 19534 19923 10299 14638 12337 12705 19875 16921 14174 17862 999999 999999 999999 999999 999999 0 999999 999999 999999 999999 999999 999999 999999 999999 999999 999999 999999 999999 999999 999999 8098
999999 12857 17647 18503 13406 13435 13854 17597 10653 14958 12908 16478 14795 18389 17576 10920 11373 10688 19497 19375 14506 999999 999999 999999 999999 999999 999999 0 999999 999999 999999 999999 999999 999999 999999 999999 999999 999999 999999 999999 999999 14206
999999 14810 12680 12931 10553 16208 16157 19235 15400 16561 13171 16839 15543 11217 16348 16702 17024 13764 11704 15788 16646 999999 999999 999999 999999 999999 999999 999999 0 999999 999999 999999 999999 999999 999999 999999 999999 999999 999999 999999 999999 10089
999999 18246 13169 13702 18858 14992 18611 16294 10341 14605 16561 12942 13854 19120 11353 17607 16634 19312 19765 18391 19991 999999 999999 999999 999999 999999 999999 999999 999999 0 999999 999999 999999 999999 999999 999999 999999 999999 999999 999999 999999 9564
999999 15964 11929 17404 10812 12804 11150 12324 17484 11803 12184 19384 12197 18620 10186 13468 10752 18041 17561 10173 18089 999999 999999 999999 999999 999999 999999 999999 999999 999999 0 999999 999999 999999 999999 999999 999999 999999 999999 999999 999999 13052
999999 19966 11103 11777 17697 19216 12690 13052 12709 13246 18527 12771 11687 13644 12846 15403 17073 17823 19666 12315 11254 999999 999999 999999 999999 999999 999999 999999 999999 999999 999999 0 999999 999999 999999 999999 999999 999999 999999 999999 999999 10172
999999 18945 17842 19445 10853 17992 18536 16716 12682 10469 11588 13878 12874 19650 18189 16430 19597 19700 17248 16222 10572 999999 999999 999999 999999 999999 999999 999999 999999 999999 999999 999999 0 999999 999999 999999 999999 999999 999999 999999 999999 6460
999999 19089 12434 18659 18210 18318 16488 12884 11354 10621 13925 12296 14326 10608 13681 12376 10115 12675 16376 11440 18063 999999 999999 999999 999999 999999 999999 999999 999999 999999 999999 999999 999999 0 999999 999999 999999 999999 999999 999999 999999 13472
999999 14834 17931 12647 18665 17222 16690 16047 19861 10970 17896 17859 16501 19924 19977 15077 14271 10218 17338 19638 13494 999999 999999 999999 999999 999999 999999 999999 999999 999999 999999 999999 999999 999999 0 999999 999999 999999 999999 999999 999999 11837
999999 13246 15161 18486 15493 19164 15950 14725 18836 12495 12885 15094 14693 17098 14165 10066 19720 10736 11995 12162 10116 999999 999999 999999 999999 999999 999999 999999 999999 999999 999999 999999 999999 999999 999999 0 999999 999999 999999 999999 999999 7165
999999 19033 13577 19880 13795 17429 15372 19445 14729 11559 14192 14399 15414 10753 17677 12385 12689 16609 14552 14998 19279 999999 999999 999999 999999 999999 999999 999999 999999 999999 999999 999999 999999 999999 999999 999999 0 999999 999999 999999 999999 9256
999999 17398 14385 15611 17264 14616 17985 12802 19666 17887 16677 16099 18091 16898 11994 17163 16137 16077 10864 17666 14070 999999 999999 999999 999999 999999 999999 999999 999999 999999 999999 999999 999999 999999 999999 999999 999999 0 999999 999999 999999 13736
999999 12595 13648 12282 11173 11020 18098 18425 11995 18262 10250 11348 10767 10246 18662 16488 13466 10656 12504 12172 13824 999999 999999 999999 999999 999999 999999 999999 999999 999999 999999 999999 999999 999999 999999 999999 999999 999999 0 999999 999999 9745
999999 13105 12769 12681 10841 11258 10399 17295 17582 14884 13667 13019 19557 12666 11551 12347 19123 16064 13069 13338 19310 999999 999999 999999 999999 999999 999999 999999 999999 999999 999999 999999 999999 999999 999999 999999 999999 999999 999999 0 999999 8526
999999 16420 11517 16538 19495 11623 11175 12677 16783 19908 16435 16057 12107 19715 15723 11909 18419 12889 10546 12554 13904 999999 999999 999999 999999 999999 999999 999999 999999 999999 999999 999999 999999 999999 999999 999999 999999 999999 999999 999999 0 6072
1 999999 999999 999999 999999 999999 999999 999999 999999 999999 999999 999999 999999 999999 999999 999999 999999 999999 999999 999999 999999 999999 999999 999999 999999 999999 999999 999999 999999 999999 999999 999999 999999 999999 999999 999999 999999 999999 999999 999999 999999 0
EOF