NAME: GR_1x2x5_KH_2x5_Run_9
TYPE: TSP
COMMENT: BTSP instance |A|=10 GR nodes |B|=10 KH nodes depot=0.0 end=0.0.0
DIMENSION: 22
EDGE_WEIGHT_TYPE: EXPLICIT
EDGE_WEIGHT_FORMAT: FULL_MATRIX
NODE_COORD_TYPE: NO_COORDS
EDGE_WEIGHT_SECTION
0 12641 12099 11366 7202 8938 5166 14787 9036 8332 13794 999999 999999 999999 999999 999999 999999 999999 999999 999999 999999 999999
999999 0 999999 999999 999999 999999 999999 999999 999999 999999 999999 12161 999999 999999 13143 11688 999999 999999 16349 999999 19310 999999
999999 999999 0 999999 999999 999999 999999 999999 999999 999999 999999 18135 999999 999999 13743 17968 999999 999999 13805 999999 16126 999999
999999 999999 999999 0 999999 999999 999999 999999 999999 999999 999999 18090 999999 999999 11040 11490 999999 999999 10743 999999 13961 999999
999999 999999 999999 999999 0 999999 999999 999999 999999 999999 999999 11701 999999 999999 13187 18989 999999 999999 14240 999999 12988 999999
999999 999999 999999 999999 999999 0 999999 999999 999999 999999 999999 17742 999999 999999 12954 15494 999999 999999 16616 999999 13172 999999
999999 999999 999999 999999 999999 999999 0 999999 999999 999999 999999 999999 19191 16612 999999 999999 12326 17781 999999 16317 999999 999999
999999 999999 999999 999999 999999 999999 999999 0 999999 999999 999999 999999 12067 15418 999999 999999 12454 17942 999999 19507 999999 999999
999999 999999 999999 999999 999999 999999 999999 999999 0 999999 999999 999999 16514 17184 999999 999999 13631 10424 999999 12166 999999 999999
999999 999999 999999 999999 999999 999999 999999 999999 999999 0 999999 999999 16787 19333 999999 999999 11933 12873 999999 16966 999999 999999
999999 999999 999999 999999 999999 999999 999999 999999 999999 999999 0 999999 17103 15246 999999 999999 13419 16492 999999 17374 999999 999999
999999 12161 18135 18090 11701 17742 16586 10076 11967 18849 19496 0 999999 999999 999999 999999 999999 999999 999999 999999 999999 7793
999999 17719 19715 13690 14973 11215 19191 12067 16514 16787 17103 999999 0 999999 999999 999999 999999 999999 999999 999999 999999 10638
999999 12753 14339 16453 18357 19850 16612 15418 17184 19333 15246 999999 999999 0 999999 999999 999999 999999 999999 999999 999999 9754
999999 13143 13743 11040 13187 12954 13191 19869 10361 11925 16649 999999 999999 999999 0 999999 999999 999999 999999 999999 999999 13484
999999 11688 17968 11490 18989 15494 19259 19359 17340 11731 16178 999999 999999 999999 999999 0 999999 999999 999999 999999 999999 11887
999999 17591 15334 10791 17320 12158 12326 12454 13631 11933 13419 999999 999999 999999 999999 999999 0 999999 999999 999999 999999 13119
999999 18089 19652 16820 16171 18228 17781 17942 10424 12873 16492 999999 999999 999999 999999 999999 999999 0 999999 999999 999999 10603
999999 16349 13805 10743 14240 16616 19477 13157 19653 19094 11754 999999 999999 999999 999999 999999 999999 999999 0 999999 999999 6016
999999 12056 18812 14411 18877 18099 16317 19507 12166 16966 17374 999999 999999 999999 999999 999999 999999 999999 999999 0 999999 5673
999999 19310 16126 13961 12988 13172 10023 11151 13423 18426 13561 999999 999999 999999 999999 999999 999999 999999 999999 999999 0 11803
1 999999 999999 999999 999999 999999 999999 999999 999999 999999 999999 999999 999999 999999 999999 999999 999999 999999 999999 999999 999999 0
EOF