NAME: GR_1x5x8_KH_5x8_Run_5
TYPE: TSP
COMMENT: BTSP instance |A|=40 GR nodes |B|=40 KH nodes depot=0.0 end=0.0.0
DIMENSION: 82
EDGE_WEIGHT_TYPE: EXPLICIT
EDGE_WEIGHT_FORMAT: FULL_MATRIX
NODE_COORD_TYPE: NO_COORDS
EDGE_WEIGHT_SECTION
0 14975 13815 8920 8743 13148 7630 5803 5221 13762 5884 11923 6282 9479 8277 8495 6745 13240 10234 8468 9965 14254 11366 13487 8361 6774 7108 13475 5586 6765 8525 5338 7698 11998 13145 14124 11138 7130 9981 14063 11182 999999 999999 999999 999999 999999 999999 999999 999999 999999 999999 999999 999999 999999 999999 999999 999999 999999 999999 999999 999999 999999 999999 999999 999999 999999 999999 999999 999999 999999 999999 999999 999999 999999 999999 999999 999999 999999 999999 999999 999999 999999
999999 0 999999 999999 999999 999999 999999 999999 999999 999999 999999 999999 999999 999999 999999 999999 999999 999999 999999 999999 999999 999999 999999 999999 999999 999999 999999 999999 999999 999999 999999 999999 999999 999999 999999 999999 999999 999999 999999 999999 999999 999999 999999 999999 999999 10487 999999 999999 999999 999999 999999 999999 999999 999999 999999 999999 12957 17984 999999 999999 13040 999999 999999 999999 999999 999999 999999 10786 999999 999999 999999 999999 999999 999999 999999 14359 999999 999999 999999 14238 12501 999999
999999 999999 0 999999 999999 999999 999999 999999 999999 999999 999999 999999 999999 999999 999999 999999 999999 999999 999999 999999 999999 999999 999999 999999 999999 999999 999999 999999 999999 999999 999999 999999 999999 999999 999999 999999 999999 999999 999999 999999 999999 999999 999999 999999 999999 15882 999999 999999 999999 999999 999999 999999 999999 999999 999999 999999 11606 11386 999999 999999 19902 999999 999999 999999 999999 999999 999999 12024 999999 999999 999999 999999 999999 999999 999999 17518 999999 999999 999999 18701 12359 999999
999999 999999 999999 0 999999 999999 999999 999999 999999 999999 999999 999999 999999 999999 999999 999999 999999 999999 999999 999999 999999 999999 999999 999999 999999 999999 999999 999999 999999 999999 999999 999999 999999 999999 999999 999999 999999 999999 999999 999999 999999 999999 999999 999999 999999 13585 999999 999999 999999 999999 999999 999999 999999 999999 999999 999999 17503 10108 999999 999999 16247 999999 999999 999999 999999 999999 999999 12181 999999 999999 999999 999999 999999 999999 999999 14351 999999 999999 999999 12339 19253 999999
999999 999999 999999 999999 0 999999 999999 999999 999999 999999 999999 999999 999999 999999 999999 999999 999999 999999 999999 999999 999999 999999 999999 999999 999999 999999 999999 999999 999999 999999 999999 999999 999999 999999 999999 999999 999999 999999 999999 999999 999999 999999 999999 999999 999999 10357 999999 999999 999999 999999 999999 999999 999999 999999 999999 999999 10237 10898 999999 999999 19436 999999 999999 999999 999999 999999 999999 12063 999999 999999 999999 999999 999999 999999 999999 17626 999999 999999 999999 12691 18637 999999
999999 999999 999999 999999 999999 0 999999 999999 999999 999999 999999 999999 999999 999999 999999 999999 999999 999999 999999 999999 999999 999999 999999 999999 999999 999999 999999 999999 999999 999999 999999 999999 999999 999999 999999 999999 999999 999999 999999 999999 999999 999999 999999 999999 999999 11253 999999 999999 999999 999999 999999 999999 999999 999999 999999 999999 12461 19429 999999 999999 14071 999999 999999 999999 999999 999999 999999 14554 999999 999999 999999 999999 999999 999999 999999 19810 999999 999999 999999 19634 14100 999999
999999 999999 999999 999999 999999 999999 0 999999 999999 999999 999999 999999 999999 999999 999999 999999 999999 999999 999999 999999 999999 999999 999999 999999 999999 999999 999999 999999 999999 999999 999999 999999 999999 999999 999999 999999 999999 999999 999999 999999 999999 999999 999999 999999 999999 18807 999999 999999 999999 999999 999999 999999 999999 999999 999999 999999 13799 14095 999999 999999 15202 999999 999999 999999 999999 999999 999999 13112 999999 999999 999999 999999 999999 999999 999999 13152 999999 999999 999999 15555 11730 999999
999999 999999 999999 999999 999999 999999 999999 0 999999 999999 999999 999999 999999 999999 999999 999999 999999 999999 999999 999999 999999 999999 999999 999999 999999 999999 999999 999999 999999 999999 999999 999999 999999 999999 999999 999999 999999 999999 999999 999999 999999 999999 999999 999999 999999 15229 999999 999999 999999 999999 999999 999999 999999 999999 999999 999999 19514 13924 999999 999999 13290 999999 999999 999999 999999 999999 999999 18746 999999 999999 999999 999999 999999 999999 999999 12502 999999 999999 999999 13936 17370 999999
999999 999999 999999 999999 999999 999999 999999 999999 0 999999 999999 999999 999999 999999 999999 999999 999999 999999 999999 999999 999999 999999 999999 999999 999999 999999 999999 999999 999999 999999 999999 999999 999999 999999 999999 999999 999999 999999 999999 999999 999999 999999 999999 999999 999999 11208 999999 999999 999999 999999 999999 999999 999999 999999 999999 999999 12204 11300 999999 999999 16764 999999 999999 999999 999999 999999 999999 15556 999999 999999 999999 999999 999999 999999 999999 15823 999999 999999 999999 18562 18314 999999
999999 999999 999999 999999 999999 999999 999999 999999 999999 0 999999 999999 999999 999999 999999 999999 999999 999999 999999 999999 999999 999999 999999 999999 999999 999999 999999 999999 999999 999999 999999 999999 999999 999999 999999 999999 999999 999999 999999 999999 999999 999999 999999 999999 999999 999999 999999 13380 999999 12452 999999 999999 16823 999999 999999 999999 999999 999999 999999 19546 999999 999999 999999 999999 999999 999999 11771 999999 16201 18068 999999 999999 999999 999999 999999 999999 19274 999999 999999 999999 999999 999999
999999 999999 999999 999999 999999 999999 999999 999999 999999 999999 0 999999 999999 999999 999999 999999 999999 999999 999999 999999 999999 999999 999999 999999 999999 999999 999999 999999 999999 999999 999999 999999 999999 999999 999999 999999 999999 999999 999999 999999 999999 999999 999999 999999 999999 999999 999999 18734 999999 19252 999999 999999 12063 999999 999999 999999 999999 999999 999999 11011 999999 999999 999999 999999 999999 999999 19170 999999 11138 13126 999999 999999 999999 999999 999999 999999 15477 999999 999999 999999 999999 999999
999999 999999 999999 999999 999999 999999 999999 999999 999999 999999 999999 0 999999 999999 999999 999999 999999 999999 999999 999999 999999 999999 999999 999999 999999 999999 999999 999999 999999 999999 999999 999999 999999 999999 999999 999999 999999 999999 999999 999999 999999 999999 999999 999999 999999 999999 999999 12062 999999 13825 999999 999999 14224 999999 999999 999999 999999 999999 999999 10481 999999 999999 999999 999999 999999 999999 14259 999999 14706 12171 999999 999999 999999 999999 999999 999999 10032 999999 999999 999999 999999 999999
999999 999999 999999 999999 999999 999999 999999 999999 999999 999999 999999 999999 0 999999 999999 999999 999999 999999 999999 999999 999999 999999 999999 999999 999999 999999 999999 999999 999999 999999 999999 999999 999999 999999 999999 999999 999999 999999 999999 999999 999999 999999 999999 999999 999999 999999 999999 15758 999999 14070 999999 999999 10300 999999 999999 999999 999999 999999 999999 11019 999999 999999 999999 999999 999999 999999 16772 999999 10294 13128 999999 999999 999999 999999 999999 999999 16366 999999 999999 999999 999999 999999
999999 999999 999999 999999 999999 999999 999999 999999 999999 999999 999999 999999 999999 0 999999 999999 999999 999999 999999 999999 999999 999999 999999 999999 999999 999999 999999 999999 999999 999999 999999 999999 999999 999999 999999 999999 999999 999999 999999 999999 999999 999999 999999 999999 999999 999999 999999 18393 999999 12599 999999 999999 12666 999999 999999 999999 999999 999999 999999 19757 999999 999999 999999 999999 999999 999999 17148 999999 19947 14574 999999 999999 999999 999999 999999 999999 11771 999999 999999 999999 999999 999999
999999 999999 999999 999999 999999 999999 999999 999999 999999 999999 999999 999999 999999 999999 0 999999 999999 999999 999999 999999 999999 999999 999999 999999 999999 999999 999999 999999 999999 999999 999999 999999 999999 999999 999999 999999 999999 999999 999999 999999 999999 999999 999999 999999 999999 999999 999999 15135 999999 15892 999999 999999 10586 999999 999999 999999 999999 999999 999999 18039 999999 999999 999999 999999 999999 999999 14317 999999 15661 11404 999999 999999 999999 999999 999999 999999 13457 999999 999999 999999 999999 999999
999999 999999 999999 999999 999999 999999 999999 999999 999999 999999 999999 999999 999999 999999 999999 0 999999 999999 999999 999999 999999 999999 999999 999999 999999 999999 999999 999999 999999 999999 999999 999999 999999 999999 999999 999999 999999 999999 999999 999999 999999 999999 999999 999999 999999 999999 999999 12535 999999 11193 999999 999999 15624 999999 999999 999999 999999 999999 999999 16646 999999 999999 999999 999999 999999 999999 15704 999999 18184 19501 999999 999999 999999 999999 999999 999999 12300 999999 999999 999999 999999 999999
999999 999999 999999 999999 999999 999999 999999 999999 999999 999999 999999 999999 999999 999999 999999 999999 0 999999 999999 999999 999999 999999 999999 999999 999999 999999 999999 999999 999999 999999 999999 999999 999999 999999 999999 999999 999999 999999 999999 999999 999999 999999 999999 999999 999999 999999 999999 13521 999999 15222 999999 999999 11533 999999 999999 999999 999999 999999 999999 13634 999999 999999 999999 999999 999999 999999 11889 999999 19177 11422 999999 999999 999999 999999 999999 999999 15060 999999 999999 999999 999999 999999
999999 999999 999999 999999 999999 999999 999999 999999 999999 999999 999999 999999 999999 999999 999999 999999 999999 0 999999 999999 999999 999999 999999 999999 999999 999999 999999 999999 999999 999999 999999 999999 999999 999999 999999 999999 999999 999999 999999 999999 999999 999999 11745 999999 999999 999999 13586 999999 999999 999999 999999 999999 999999 13690 999999 999999 999999 999999 999999 999999 999999 999999 999999 11719 16567 13727 999999 999999 999999 999999 999999 999999 10100 13155 999999 999999 999999 999999 999999 999999 999999 999999
999999 999999 999999 999999 999999 999999 999999 999999 999999 999999 999999 999999 999999 999999 999999 999999 999999 999999 0 999999 999999 999999 999999 999999 999999 999999 999999 999999 999999 999999 999999 999999 999999 999999 999999 999999 999999 999999 999999 999999 999999 999999 10890 999999 999999 999999 18335 999999 999999 999999 999999 999999 999999 11793 999999 999999 999999 999999 999999 999999 999999 999999 999999 11091 18134 18199 999999 999999 999999 999999 999999 999999 15484 12564 999999 999999 999999 999999 999999 999999 999999 999999
999999 999999 999999 999999 999999 999999 999999 999999 999999 999999 999999 999999 999999 999999 999999 999999 999999 999999 999999 0 999999 999999 999999 999999 999999 999999 999999 999999 999999 999999 999999 999999 999999 999999 999999 999999 999999 999999 999999 999999 999999 999999 11191 999999 999999 999999 18641 999999 999999 999999 999999 999999 999999 14220 999999 999999 999999 999999 999999 999999 999999 999999 999999 13453 13166 12196 999999 999999 999999 999999 999999 999999 15162 17827 999999 999999 999999 999999 999999 999999 999999 999999
999999 999999 999999 999999 999999 999999 999999 999999 999999 999999 999999 999999 999999 999999 999999 999999 999999 999999 999999 999999 0 999999 999999 999999 999999 999999 999999 999999 999999 999999 999999 999999 999999 999999 999999 999999 999999 999999 999999 999999 999999 999999 14132 999999 999999 999999 14011 999999 999999 999999 999999 999999 999999 18208 999999 999999 999999 999999 999999 999999 999999 999999 999999 14769 19108 17156 999999 999999 999999 999999 999999 999999 10504 14170 999999 999999 999999 999999 999999 999999 999999 999999
999999 999999 999999 999999 999999 999999 999999 999999 999999 999999 999999 999999 999999 999999 999999 999999 999999 999999 999999 999999 999999 0 999999 999999 999999 999999 999999 999999 999999 999999 999999 999999 999999 999999 999999 999999 999999 999999 999999 999999 999999 999999 11974 999999 999999 999999 10745 999999 999999 999999 999999 999999 999999 11912 999999 999999 999999 999999 999999 999999 999999 999999 999999 17534 10506 10182 999999 999999 999999 999999 999999 999999 17816 15496 999999 999999 999999 999999 999999 999999 999999 999999
999999 999999 999999 999999 999999 999999 999999 999999 999999 999999 999999 999999 999999 999999 999999 999999 999999 999999 999999 999999 999999 999999 0 999999 999999 999999 999999 999999 999999 999999 999999 999999 999999 999999 999999 999999 999999 999999 999999 999999 999999 999999 19717 999999 999999 999999 14901 999999 999999 999999 999999 999999 999999 19569 999999 999999 999999 999999 999999 999999 999999 999999 999999 12361 12149 15005 999999 999999 999999 999999 999999 999999 14716 17170 999999 999999 999999 999999 999999 999999 999999 999999
999999 999999 999999 999999 999999 999999 999999 999999 999999 999999 999999 999999 999999 999999 999999 999999 999999 999999 999999 999999 999999 999999 999999 0 999999 999999 999999 999999 999999 999999 999999 999999 999999 999999 999999 999999 999999 999999 999999 999999 999999 999999 11143 999999 999999 999999 19398 999999 999999 999999 999999 999999 999999 14436 999999 999999 999999 999999 999999 999999 999999 999999 999999 12275 16531 13093 999999 999999 999999 999999 999999 999999 14870 14787 999999 999999 999999 999999 999999 999999 999999 999999
999999 999999 999999 999999 999999 999999 999999 999999 999999 999999 999999 999999 999999 999999 999999 999999 999999 999999 999999 999999 999999 999999 999999 999999 0 999999 999999 999999 999999 999999 999999 999999 999999 999999 999999 999999 999999 999999 999999 999999 999999 999999 19099 999999 999999 999999 13231 999999 999999 999999 999999 999999 999999 12891 999999 999999 999999 999999 999999 999999 999999 999999 999999 12242 10699 13279 999999 999999 999999 999999 999999 999999 10986 18715 999999 999999 999999 999999 999999 999999 999999 999999
999999 999999 999999 999999 999999 999999 999999 999999 999999 999999 999999 999999 999999 999999 999999 999999 999999 999999 999999 999999 999999 999999 999999 999999 999999 0 999999 999999 999999 999999 999999 999999 999999 999999 999999 999999 999999 999999 999999 999999 999999 999999 999999 999999 999999 999999 999999 999999 999999 999999 999999 17439 999999 999999 999999 999999 999999 999999 15277 999999 999999 19785 14308 999999 999999 999999 999999 999999 999999 999999 16581 999999 999999 999999 13981 999999 999999 19860 14321 999999 999999 999999
999999 999999 999999 999999 999999 999999 999999 999999 999999 999999 999999 999999 999999 999999 999999 999999 999999 999999 999999 999999 999999 999999 999999 999999 999999 999999 0 999999 999999 999999 999999 999999 999999 999999 999999 999999 999999 999999 999999 999999 999999 999999 999999 999999 999999 999999 999999 999999 999999 999999 999999 13442 999999 999999 999999 999999 999999 999999 14455 999999 999999 19791 16757 999999 999999 999999 999999 999999 999999 999999 18820 999999 999999 999999 16532 999999 999999 11794 18886 999999 999999 999999
999999 999999 999999 999999 999999 999999 999999 999999 999999 999999 999999 999999 999999 999999 999999 999999 999999 999999 999999 999999 999999 999999 999999 999999 999999 999999 999999 0 999999 999999 999999 999999 999999 999999 999999 999999 999999 999999 999999 999999 999999 999999 999999 999999 999999 999999 999999 999999 999999 999999 999999 15885 999999 999999 999999 999999 999999 999999 10637 999999 999999 11872 15483 999999 999999 999999 999999 999999 999999 999999 18059 999999 999999 999999 18302 999999 999999 15397 17993 999999 999999 999999
999999 999999 999999 999999 999999 999999 999999 999999 999999 999999 999999 999999 999999 999999 999999 999999 999999 999999 999999 999999 999999 999999 999999 999999 999999 999999 999999 999999 0 999999 999999 999999 999999 999999 999999 999999 999999 999999 999999 999999 999999 999999 999999 999999 999999 999999 999999 999999 999999 999999 999999 18070 999999 999999 999999 999999 999999 999999 15492 999999 999999 18827 19630 999999 999999 999999 999999 999999 999999 999999 18537 999999 999999 999999 10033 999999 999999 19566 10375 999999 999999 999999
999999 999999 999999 999999 999999 999999 999999 999999 999999 999999 999999 999999 999999 999999 999999 999999 999999 999999 999999 999999 999999 999999 999999 999999 999999 999999 999999 999999 999999 0 999999 999999 999999 999999 999999 999999 999999 999999 999999 999999 999999 999999 999999 999999 999999 999999 999999 999999 999999 999999 999999 18458 999999 999999 999999 999999 999999 999999 16191 999999 999999 16279 13219 999999 999999 999999 999999 999999 999999 999999 16303 999999 999999 999999 15413 999999 999999 10311 15336 999999 999999 999999
999999 999999 999999 999999 999999 999999 999999 999999 999999 999999 999999 999999 999999 999999 999999 999999 999999 999999 999999 999999 999999 999999 999999 999999 999999 999999 999999 999999 999999 999999 0 999999 999999 999999 999999 999999 999999 999999 999999 999999 999999 999999 999999 999999 999999 999999 999999 999999 999999 999999 999999 18865 999999 999999 999999 999999 999999 999999 18472 999999 999999 14101 12469 999999 999999 999999 999999 999999 999999 999999 11734 999999 999999 999999 14735 999999 999999 12974 13160 999999 999999 999999
999999 999999 999999 999999 999999 999999 999999 999999 999999 999999 999999 999999 999999 999999 999999 999999 999999 999999 999999 999999 999999 999999 999999 999999 999999 999999 999999 999999 999999 999999 999999 0 999999 999999 999999 999999 999999 999999 999999 999999 999999 999999 999999 999999 999999 999999 999999 999999 999999 999999 999999 18780 999999 999999 999999 999999 999999 999999 18665 999999 999999 10225 16818 999999 999999 999999 999999 999999 999999 999999 18860 999999 999999 999999 12236 999999 999999 16457 18896 999999 999999 999999
999999 999999 999999 999999 999999 999999 999999 999999 999999 999999 999999 999999 999999 999999 999999 999999 999999 999999 999999 999999 999999 999999 999999 999999 999999 999999 999999 999999 999999 999999 999999 999999 0 999999 999999 999999 999999 999999 999999 999999 999999 999999 999999 999999 999999 999999 999999 999999 999999 999999 999999 18451 999999 999999 999999 999999 999999 999999 17974 999999 999999 11781 19323 999999 999999 999999 999999 999999 999999 999999 19461 999999 999999 999999 13537 999999 999999 15410 12112 999999 999999 999999
999999 999999 999999 999999 999999 999999 999999 999999 999999 999999 999999 999999 999999 999999 999999 999999 999999 999999 999999 999999 999999 999999 999999 999999 999999 999999 999999 999999 999999 999999 999999 999999 999999 0 999999 999999 999999 999999 999999 999999 999999 14904 999999 12663 16038 999999 999999 999999 12117 999999 19620 999999 999999 999999 14924 11150 999999 999999 999999 999999 999999 999999 999999 999999 999999 999999 999999 999999 999999 999999 999999 17392 999999 999999 999999 999999 999999 999999 999999 999999 999999 999999
999999 999999 999999 999999 999999 999999 999999 999999 999999 999999 999999 999999 999999 999999 999999 999999 999999 999999 999999 999999 999999 999999 999999 999999 999999 999999 999999 999999 999999 999999 999999 999999 999999 999999 0 999999 999999 999999 999999 999999 999999 19184 999999 18749 16417 999999 999999 999999 13053 999999 19550 999999 999999 999999 13763 12402 999999 999999 999999 999999 999999 999999 999999 999999 999999 999999 999999 999999 999999 999999 999999 16314 999999 999999 999999 999999 999999 999999 999999 999999 999999 999999
999999 999999 999999 999999 999999 999999 999999 999999 999999 999999 999999 999999 999999 999999 999999 999999 999999 999999 999999 999999 999999 999999 999999 999999 999999 999999 999999 999999 999999 999999 999999 999999 999999 999999 999999 0 999999 999999 999999 999999 999999 14154 999999 17927 13807 999999 999999 999999 16880 999999 12076 999999 999999 999999 10525 16462 999999 999999 999999 999999 999999 999999 999999 999999 999999 999999 999999 999999 999999 999999 999999 18154 999999 999999 999999 999999 999999 999999 999999 999999 999999 999999
999999 999999 999999 999999 999999 999999 999999 999999 999999 999999 999999 999999 999999 999999 999999 999999 999999 999999 999999 999999 999999 999999 999999 999999 999999 999999 999999 999999 999999 999999 999999 999999 999999 999999 999999 999999 0 999999 999999 999999 999999 10277 999999 13415 14956 999999 999999 999999 12528 999999 19733 999999 999999 999999 12902 11308 999999 999999 999999 999999 999999 999999 999999 999999 999999 999999 999999 999999 999999 999999 999999 10914 999999 999999 999999 999999 999999 999999 999999 999999 999999 999999
999999 999999 999999 999999 999999 999999 999999 999999 999999 999999 999999 999999 999999 999999 999999 999999 999999 999999 999999 999999 999999 999999 999999 999999 999999 999999 999999 999999 999999 999999 999999 999999 999999 999999 999999 999999 999999 0 999999 999999 999999 10279 999999 13890 10272 999999 999999 999999 15372 999999 16212 999999 999999 999999 13167 18294 999999 999999 999999 999999 999999 999999 999999 999999 999999 999999 999999 999999 999999 999999 999999 18248 999999 999999 999999 999999 999999 999999 999999 999999 999999 999999
999999 999999 999999 999999 999999 999999 999999 999999 999999 999999 999999 999999 999999 999999 999999 999999 999999 999999 999999 999999 999999 999999 999999 999999 999999 999999 999999 999999 999999 999999 999999 999999 999999 999999 999999 999999 999999 999999 0 999999 999999 18290 999999 18075 10802 999999 999999 999999 16649 999999 12781 999999 999999 999999 18499 18946 999999 999999 999999 999999 999999 999999 999999 999999 999999 999999 999999 999999 999999 999999 999999 14086 999999 999999 999999 999999 999999 999999 999999 999999 999999 999999
999999 999999 999999 999999 999999 999999 999999 999999 999999 999999 999999 999999 999999 999999 999999 999999 999999 999999 999999 999999 999999 999999 999999 999999 999999 999999 999999 999999 999999 999999 999999 999999 999999 999999 999999 999999 999999 999999 999999 0 999999 15512 999999 10594 18146 999999 999999 999999 12743 999999 17136 999999 999999 999999 10788 10787 999999 999999 999999 999999 999999 999999 999999 999999 999999 999999 999999 999999 999999 999999 999999 17173 999999 999999 999999 999999 999999 999999 999999 999999 999999 999999
999999 999999 999999 999999 999999 999999 999999 999999 999999 999999 999999 999999 999999 999999 999999 999999 999999 999999 999999 999999 999999 999999 999999 999999 999999 999999 999999 999999 999999 999999 999999 999999 999999 999999 999999 999999 999999 999999 999999 999999 0 11939 999999 11549 19166 999999 999999 999999 10752 999999 12074 999999 999999 999999 19514 12552 999999 999999 999999 999999 999999 999999 999999 999999 999999 999999 999999 999999 999999 999999 999999 14161 999999 999999 999999 999999 999999 999999 999999 999999 999999 999999
999999 18348 10708 12620 14458 10482 17147 13401 14470 12411 10780 15207 16422 18680 12751 12292 11760 18674 10809 12014 11062 12148 18796 16256 16904 19953 19500 11827 19818 14978 12799 15920 12104 14904 19184 14154 10277 10279 18290 15512 11939 0 999999 999999 999999 999999 999999 999999 999999 999999 999999 999999 999999 999999 999999 999999 999999 999999 999999 999999 999999 999999 999999 999999 999999 999999 999999 999999 999999 999999 999999 999999 999999 999999 999999 999999 999999 999999 999999 999999 999999 13610
999999 17628 18817 18961 14918 15569 14788 19833 10769 14004 11679 14592 17060 17458 12332 14394 19066 11745 10890 11191 14132 11974 19717 11143 19099 15012 11591 18837 16712 19952 12722 11508 19786 12530 11452 17299 14026 17093 16073 18158 17397 999999 0 999999 999999 999999 999999 999999 999999 999999 999999 999999 999999 999999 999999 999999 999999 999999 999999 999999 999999 999999 999999 999999 999999 999999 999999 999999 999999 999999 999999 999999 999999 999999 999999 999999 999999 999999 999999 999999 999999 10982
999999 10339 12826 18508 16848 13926 11505 14392 14960 19124 10742 17476 12343 18986 16056 16979 15845 13238 11386 11794 12150 18723 18989 13168 16910 16399 18658 19025 16749 18861 10521 17388 15503 12663 18749 17927 13415 13890 18075 10594 11549 999999 999999 0 999999 999999 999999 999999 999999 999999 999999 999999 999999 999999 999999 999999 999999 999999 999999 999999 999999 999999 999999 999999 999999 999999 999999 999999 999999 999999 999999 999999 999999 999999 999999 999999 999999 999999 999999 999999 999999 9947
999999 14622 12921 14675 13354 15437 14815 11885 11760 12842 12932 10738 18643 10513 19057 14793 14172 11276 14702 17427 18142 10620 14193 19339 18247 15324 15747 14082 19326 15544 10119 18764 17926 16038 16417 13807 14956 10272 10802 18146 19166 999999 999999 999999 0 999999 999999 999999 999999 999999 999999 999999 999999 999999 999999 999999 999999 999999 999999 999999 999999 999999 999999 999999 999999 999999 999999 999999 999999 999999 999999 999999 999999 999999 999999 999999 999999 999999 999999 999999 999999 5551
999999 10487 15882 13585 10357 11253 18807 15229 11208 15995 11369 18032 14165 12862 10192 10761 13005 17405 19675 13424 19739 14326 14806 14823 14605 12462 14678 11345 18108 12315 10280 15823 19985 16531 16230 14905 12076 10416 17425 19746 10148 999999 999999 999999 999999 0 999999 999999 999999 999999 999999 999999 999999 999999 999999 999999 999999 999999 999999 999999 999999 999999 999999 999999 999999 999999 999999 999999 999999 999999 999999 999999 999999 999999 999999 999999 999999 999999 999999 999999 999999 13065
999999 15203 10508 14823 16134 15667 13248 13761 18114 16329 13208 15951 10109 10614 17551 10040 16469 13586 18335 18641 14011 10745 14901 19398 13231 13146 13944 17641 15104 14882 18891 15288 14577 14785 16861 19787 19431 13365 19916 18586 10040 999999 999999 999999 999999 999999 0 999999 999999 999999 999999 999999 999999 999999 999999 999999 999999 999999 999999 999999 999999 999999 999999 999999 999999 999999 999999 999999 999999 999999 999999 999999 999999 999999 999999 999999 999999 999999 999999 999999 999999 14634
999999 13648 15109 15619 12297 10586 17126 11080 18164 13380 18734 12062 15758 18393 15135 12535 13521 13454 16760 16458 15031 10320 16094 15192 14095 15793 16859 12983 11022 17410 13332 12039 16305 17122 14936 17102 10998 11642 18837 18552 10248 999999 999999 999999 999999 999999 999999 0 999999 999999 999999 999999 999999 999999 999999 999999 999999 999999 999999 999999 999999 999999 999999 999999 999999 999999 999999 999999 999999 999999 999999 999999 999999 999999 999999 999999 999999 999999 999999 999999 999999 7157
999999 12184 13468 11705 16587 14703 15948 10245 17142 18463 14953 17728 12039 12225 17788 14562 10588 16793 16232 14098 19154 17612 11195 19919 12661 16222 11935 14235 16684 10617 18847 10720 13035 12117 13053 16880 12528 15372 16649 12743 10752 999999 999999 999999 999999 999999 999999 999999 0 999999 999999 999999 999999 999999 999999 999999 999999 999999 999999 999999 999999 999999 999999 999999 999999 999999 999999 999999 999999 999999 999999 999999 999999 999999 999999 999999 999999 999999 999999 999999 999999 6344
999999 13217 14451 18689 17120 12442 16142 19824 14864 12452 19252 13825 14070 12599 15892 11193 15222 11110 17636 18293 19626 10135 18050 11685 13615 14586 12465 10304 11997 12187 12014 17890 10147 10585 13256 16640 13621 12847 17475 12640 11370 999999 999999 999999 999999 999999 999999 999999 999999 0 999999 999999 999999 999999 999999 999999 999999 999999 999999 999999 999999 999999 999999 999999 999999 999999 999999 999999 999999 999999 999999 999999 999999 999999 999999 999999 999999 999999 999999 999999 999999 7226
999999 11711 12393 12483 11679 13975 10224 16335 12157 13206 10688 11983 18758 12037 12654 16411 19558 11088 11002 10466 19005 12491 11814 17206 17625 17306 18713 19644 18961 10859 13728 19249 11405 19620 19550 12076 19733 16212 12781 17136 12074 999999 999999 999999 999999 999999 999999 999999 999999 999999 0 999999 999999 999999 999999 999999 999999 999999 999999 999999 999999 999999 999999 999999 999999 999999 999999 999999 999999 999999 999999 999999 999999 999999 999999 999999 999999 999999 999999 999999 999999 10353
999999 12798 13100 12868 14154 16939 12711 10281 19561 17573 15799 12999 14263 14495 14988 18432 11485 16352 17380 11506 12381 10004 12047 14541 13818 17439 13442 15885 18070 18458 18865 18780 18451 17009 13217 12728 17320 11400 17955 19321 19184 999999 999999 999999 999999 999999 999999 999999 999999 999999 999999 0 999999 999999 999999 999999 999999 999999 999999 999999 999999 999999 999999 999999 999999 999999 999999 999999 999999 999999 999999 999999 999999 999999 999999 999999 999999 999999 999999 999999 999999 8941
999999 19520 12847 14070 11097 11069 19755 10668 14811 16823 12063 14224 10300 12666 10586 15624 11533 11601 18164 17712 18624 19325 15121 12552 10268 17915 18726 12211 19501 17706 12807 15223 17807 13438 15925 10942 13370 12496 15145 13623 16547 999999 999999 999999 999999 999999 999999 999999 999999 999999 999999 999999 0 999999 999999 999999 999999 999999 999999 999999 999999 999999 999999 999999 999999 999999 999999 999999 999999 999999 999999 999999 999999 999999 999999 999999 999999 999999 999999 999999 999999 12333
999999 12036 14426 10056 17905 18591 13266 10253 16465 10518 10004 12689 15734 17215 18724 19462 18367 13690 11793 14220 18208 11912 19569 14436 12891 19138 12688 15275 10188 16263 10150 18012 14637 11341 10819 13112 17637 12362 13309 10716 14137 999999 999999 999999 999999 999999 999999 999999 999999 999999 999999 999999 999999 0 999999 999999 999999 999999 999999 999999 999999 999999 999999 999999 999999 999999 999999 999999 999999 999999 999999 999999 999999 999999 999999 999999 999999 999999 999999 999999 999999 14012
999999 13782 16348 15584 19023 10086 19307 14071 12892 19056 12134 12107 10427 17240 11536 17168 12098 15512 15997 15649 14770 13646 11003 11225 17234 14519 18118 17676 18152 15188 19554 12753 11912 14924 13763 10525 12902 13167 18499 10788 19514 999999 999999 999999 999999 999999 999999 999999 999999 999999 999999 999999 999999 999999 0 999999 999999 999999 999999 999999 999999 999999 999999 999999 999999 999999 999999 999999 999999 999999 999999 999999 999999 999999 999999 999999 999999 999999 999999 999999 999999 14543
999999 18447 14347 11226 10715 14233 18391 12574 10632 15431 14964 17322 16678 16078 17161 16825 14176 19407 13307 11085 10657 18228 14920 11870 16632 15338 19255 14119 11207 18792 19098 13475 14177 11150 12402 16462 11308 18294 18946 10787 12552 999999 999999 999999 999999 999999 999999 999999 999999 999999 999999 999999 999999 999999 999999 0 999999 999999 999999 999999 999999 999999 999999 999999 999999 999999 999999 999999 999999 999999 999999 999999 999999 999999 999999 999999 999999 999999 999999 999999 999999 14088
999999 12957 11606 17503 10237 12461 13799 19514 12204 17229 14868 14813 13643 10897 16543 16228 13022 10575 19728 16062 12400 15211 15543 17538 13036 17550 16935 16249 10541 12367 11936 18609 10045 18340 15666 15555 11694 19666 18389 18938 11918 999999 999999 999999 999999 999999 999999 999999 999999 999999 999999 999999 999999 999999 999999 999999 0 999999 999999 999999 999999 999999 999999 999999 999999 999999 999999 999999 999999 999999 999999 999999 999999 999999 999999 999999 999999 999999 999999 999999 999999 5199
999999 17984 11386 10108 10898 19429 14095 13924 11300 10291 11584 13957 15455 12944 15082 11527 19093 12900 13542 13794 18799 11813 19333 18302 16906 13282 11809 11815 12834 16351 17084 11251 12105 16758 16890 14582 19045 10297 11669 11145 15631 999999 999999 999999 999999 999999 999999 999999 999999 999999 999999 999999 999999 999999 999999 999999 999999 0 999999 999999 999999 999999 999999 999999 999999 999999 999999 999999 999999 999999 999999 999999 999999 999999 999999 999999 999999 999999 999999 999999 999999 5226
999999 10295 19056 10524 19572 12442 19942 12164 12423 10112 19772 14240 14765 13279 16724 16680 17381 11498 14960 15892 18458 16377 13707 18875 13529 15277 14455 10637 15492 16191 18472 18665 17974 12849 17623 11332 15475 11042 11113 10701 17120 999999 999999 999999 999999 999999 999999 999999 999999 999999 999999 999999 999999 999999 999999 999999 999999 999999 0 999999 999999 999999 999999 999999 999999 999999 999999 999999 999999 999999 999999 999999 999999 999999 999999 999999 999999 999999 999999 999999 999999 7366
999999 17585 17834 17744 11354 11959 19841 16330 16392 19546 11011 10481 11019 19757 18039 16646 13634 10914 19251 19750 19298 12258 11418 19753 16893 16533 17130 13360 16916 11713 17793 18844 10779 13050 11048 17198 13443 18168 10287 11016 13353 999999 999999 999999 999999 999999 999999 999999 999999 999999 999999 999999 999999 999999 999999 999999 999999 999999 999999 0 999999 999999 999999 999999 999999 999999 999999 999999 999999 999999 999999 999999 999999 999999 999999 999999 999999 999999 999999 999999 999999 14517
999999 13040 19902 16247 19436 14071 15202 13290 16764 17022 16379 13732 13673 10721 17835 15560 16396 13635 12380 18523 19420 11889 13822 19949 17368 16937 19488 19550 18083 18679 13321 11521 16455 18874 15805 13499 16933 13770 14122 11186 10238 999999 999999 999999 999999 999999 999999 999999 999999 999999 999999 999999 999999 999999 999999 999999 999999 999999 999999 999999 0 999999 999999 999999 999999 999999 999999 999999 999999 999999 999999 999999 999999 999999 999999 999999 999999 999999 999999 999999 999999 14914
999999 10732 19058 13211 10203 15457 18032 12966 14400 13847 19755 15910 18788 14411 16531 17994 12352 18359 19393 13195 11926 13238 13434 19005 14778 19785 19791 11872 18827 16279 14101 10225 11781 10382 15255 18968 15430 12520 13088 18928 19713 999999 999999 999999 999999 999999 999999 999999 999999 999999 999999 999999 999999 999999 999999 999999 999999 999999 999999 999999 999999 0 999999 999999 999999 999999 999999 999999 999999 999999 999999 999999 999999 999999 999999 999999 999999 999999 999999 999999 999999 8432
999999 13818 14447 15381 12656 13891 10687 16775 16031 14400 12064 15115 13626 12385 12037 15499 16955 17406 15788 15618 10559 17907 11390 12126 15003 14308 16757 15483 19630 13219 12469 16818 19323 17511 12569 17784 16566 10235 18815 10629 12290 999999 999999 999999 999999 999999 999999 999999 999999 999999 999999 999999 999999 999999 999999 999999 999999 999999 999999 999999 999999 999999 0 999999 999999 999999 999999 999999 999999 999999 999999 999999 999999 999999 999999 999999 999999 999999 999999 999999 999999 14813
999999 16060 15001 16456 12654 13797 10505 16533 14438 12391 13396 13573 19894 17067 18689 11502 15269 11719 11091 13453 14769 17534 12361 12275 12242 11552 14892 18964 11850 16696 18538 13963 16677 11364 17058 13715 16977 13524 15829 13627 16104 999999 999999 999999 999999 999999 999999 999999 999999 999999 999999 999999 999999 999999 999999 999999 999999 999999 999999 999999 999999 999999 999999 0 999999 999999 999999 999999 999999 999999 999999 999999 999999 999999 999999 999999 999999 999999 999999 999999 999999 12767
999999 18944 16464 17534 13330 17280 12858 14792 11814 12386 14286 14191 12946 19248 17120 19242 12805 16567 18134 13166 19108 10506 12149 16531 10699 14247 12640 14264 13227 13031 16736 10865 18774 12074 13085 17015 16082 17932 13507 11912 11681 999999 999999 999999 999999 999999 999999 999999 999999 999999 999999 999999 999999 999999 999999 999999 999999 999999 999999 999999 999999 999999 999999 999999 0 999999 999999 999999 999999 999999 999999 999999 999999 999999 999999 999999 999999 999999 999999 999999 999999 6294
999999 10850 13618 11981 15210 13063 12126 10932 17603 11550 19811 13787 19640 11096 12812 17399 11335 13727 18199 12196 17156 10182 15005 13093 13279 18532 15615 18054 19889 11112 13280 12686 14192 13087 11570 14992 17892 10113 13135 15676 19056 999999 999999 999999 999999 999999 999999 999999 999999 999999 999999 999999 999999 999999 999999 999999 999999 999999 999999 999999 999999 999999 999999 999999 999999 0 999999 999999 999999 999999 999999 999999 999999 999999 999999 999999 999999 999999 999999 999999 999999 7125
999999 19049 10853 14276 14953 10398 13581 13114 14148 11771 19170 14259 16772 17148 14317 15704 11889 15463 13244 16012 18863 19045 10873 10106 12087 12679 18441 17632 12090 15843 19784 11373 14344 19053 19715 17048 18124 19900 14903 18017 10532 999999 999999 999999 999999 999999 999999 999999 999999 999999 999999 999999 999999 999999 999999 999999 999999 999999 999999 999999 999999 999999 999999 999999 999999 999999 0 999999 999999 999999 999999 999999 999999 999999 999999 999999 999999 999999 999999 999999 999999 5942
999999 10786 12024 12181 12063 14554 13112 18746 15556 17814 14299 10669 19881 11863 15300 15886 13807 11052 10406 14690 14898 12808 15553 14645 15936 16160 16347 13932 13040 12909 10220 12520 11717 17417 19772 19462 12973 16865 12806 10702 13805 999999 999999 999999 999999 999999 999999 999999 999999 999999 999999 999999 999999 999999 999999 999999 999999 999999 999999 999999 999999 999999 999999 999999 999999 999999 999999 0 999999 999999 999999 999999 999999 999999 999999 999999 999999 999999 999999 999999 999999 11215
999999 10218 15928 17205 17872 12704 11478 15138 11868 16201 11138 14706 10294 19947 15661 18184 19177 10969 19649 19689 12928 13567 11728 17820 11650 19300 16248 11211 18906 13301 11797 18743 12068 11854 13945 16848 19801 11800 13619 11376 12646 999999 999999 999999 999999 999999 999999 999999 999999 999999 999999 999999 999999 999999 999999 999999 999999 999999 999999 999999 999999 999999 999999 999999 999999 999999 999999 999999 0 999999 999999 999999 999999 999999 999999 999999 999999 999999 999999 999999 999999 12868
999999 18236 12836 13186 17729 13202 16383 13054 11867 18068 13126 12171 13128 14574 11404 19501 11422 10917 15170 13322 19506 15735 17647 18789 15657 12401 11021 11879 19249 11110 19980 13778 17740 17885 11182 11918 15340 11703 12245 13198 18705 999999 999999 999999 999999 999999 999999 999999 999999 999999 999999 999999 999999 999999 999999 999999 999999 999999 999999 999999 999999 999999 999999 999999 999999 999999 999999 999999 999999 0 999999 999999 999999 999999 999999 999999 999999 999999 999999 999999 999999 12072
999999 17611 15670 18625 15641 17598 13514 10997 19353 13446 19301 15267 16729 12783 16466 14378 14275 14837 10064 17589 14987 19756 16047 13169 12566 16581 18820 18059 18537 16303 11734 18860 19461 11481 19284 14152 13243 10414 11152 13463 16185 999999 999999 999999 999999 999999 999999 999999 999999 999999 999999 999999 999999 999999 999999 999999 999999 999999 999999 999999 999999 999999 999999 999999 999999 999999 999999 999999 999999 999999 0 999999 999999 999999 999999 999999 999999 999999 999999 999999 999999 5729
999999 18485 14021 19536 11396 18591 19192 19426 17403 17331 12931 17933 14595 15539 14467 13533 13765 17438 11264 14471 17009 13947 13456 19435 13571 19470 14151 15243 13563 15429 15632 15417 16975 17392 16314 18154 10914 18248 14086 17173 14161 999999 999999 999999 999999 999999 999999 999999 999999 999999 999999 999999 999999 999999 999999 999999 999999 999999 999999 999999 999999 999999 999999 999999 999999 999999 999999 999999 999999 999999 999999 0 999999 999999 999999 999999 999999 999999 999999 999999 999999 9680
999999 17213 19778 10024 18046 17676 13325 12973 14983 11945 14576 10192 18450 13976 13543 11875 18932 10100 15484 15162 10504 17816 14716 14870 10986 17192 12885 15944 15851 19351 10997 18708 11243 13917 10572 18495 12764 13221 15862 18323 12383 999999 999999 999999 999999 999999 999999 999999 999999 999999 999999 999999 999999 999999 999999 999999 999999 999999 999999 999999 999999 999999 999999 999999 999999 999999 999999 999999 999999 999999 999999 999999 0 999999 999999 999999 999999 999999 999999 999999 999999 12789
999999 17326 15964 10815 15502 13331 14843 14701 17087 16369 18899 13502 14166 12279 18811 18676 15478 13155 12564 17827 14170 15496 17170 14787 18715 13318 16835 12256 12740 19814 15125 17095 10264 12311 15620 13921 14711 19883 19750 16136 15318 999999 999999 999999 999999 999999 999999 999999 999999 999999 999999 999999 999999 999999 999999 999999 999999 999999 999999 999999 999999 999999 999999 999999 999999 999999 999999 999999 999999 999999 999999 999999 999999 0 999999 999999 999999 999999 999999 999999 999999 6186
999999 13548 14736 17134 19659 14092 14275 18634 15165 14847 14532 14255 10063 19636 10020 17580 19099 13056 19271 17319 18503 13556 13325 17157 14734 13981 16532 18302 10033 15413 14735 12236 13537 12395 19074 13971 15084 18050 18850 19149 12370 999999 999999 999999 999999 999999 999999 999999 999999 999999 999999 999999 999999 999999 999999 999999 999999 999999 999999 999999 999999 999999 999999 999999 999999 999999 999999 999999 999999 999999 999999 999999 999999 999999 0 999999 999999 999999 999999 999999 999999 8927
999999 14359 17518 14351 17626 19810 13152 12502 15823 19381 18659 13676 15213 16107 16619 16171 12317 16443 15589 19811 13002 13069 11369 18471 16530 19118 10947 13134 14225 12177 19247 14150 12674 17413 14410 14683 10300 14425 17256 11367 10065 999999 999999 999999 999999 999999 999999 999999 999999 999999 999999 999999 999999 999999 999999 999999 999999 999999 999999 999999 999999 999999 999999 999999 999999 999999 999999 999999 999999 999999 999999 999999 999999 999999 999999 0 999999 999999 999999 999999 999999 6004
999999 19577 16323 19730 13471 13387 12963 13744 16880 19274 15477 10032 16366 11771 13457 12300 15060 18883 17664 16461 10646 19344 19774 19334 17093 18709 12318 16422 14795 13642 14357 16115 19049 10715 15322 16986 12519 13324 14786 15054 15426 999999 999999 999999 999999 999999 999999 999999 999999 999999 999999 999999 999999 999999 999999 999999 999999 999999 999999 999999 999999 999999 999999 999999 999999 999999 999999 999999 999999 999999 999999 999999 999999 999999 999999 999999 0 999999 999999 999999 999999 12013
999999 10336 15764 17200 19761 16654 15029 13047 16950 11494 12383 10911 12066 18905 18435 14465 12060 12142 16728 10600 13003 13787 14428 19048 17923 19860 11794 15397 19566 10311 12974 16457 15410 13057 18034 15975 10263 12626 13008 12528 13462 999999 999999 999999 999999 999999 999999 999999 999999 999999 999999 999999 999999 999999 999999 999999 999999 999999 999999 999999 999999 999999 999999 999999 999999 999999 999999 999999 999999 999999 999999 999999 999999 999999 999999 999999 999999 0 999999 999999 999999 7663
999999 16928 19127 11097 12807 19805 15761 16437 13895 16857 16197 15274 11149 12241 18745 15866 16159 16480 17932 10804 14423 10066 17119 15288 16337 14321 18886 17993 10375 15336 13160 18896 12112 16578 18375 14662 18215 13104 17359 14745 18199 999999 999999 999999 999999 999999 999999 999999 999999 999999 999999 999999 999999 999999 999999 999999 999999 999999 999999 999999 999999 999999 999999 999999 999999 999999 999999 999999 999999 999999 999999 999999 999999 999999 999999 999999 999999 999999 0 999999 999999 13262
999999 14238 18701 12339 12691 19634 15555 13936 18562 18231 14068 18837 17173 19666 15549 19425 15691 11166 15979 15797 13133 13008 18801 16754 15875 17035 14586 18651 12133 15421 17587 16928 15189 11572 16078 15378 16327 13326 18245 15194 15435 999999 999999 999999 999999 999999 999999 999999 999999 999999 999999 999999 999999 999999 999999 999999 999999 999999 999999 999999 999999 999999 999999 999999 999999 999999 999999 999999 999999 999999 999999 999999 999999 999999 999999 999999 999999 999999 999999 0 999999 9207
999999 12501 12359 19253 18637 14100 11730 17370 18314 16062 14974 10794 14339 13482 18638 17092 18758 18298 15103 16156 15170 16709 18602 18784 15787 17771 13041 15377 12233 17955 18838 10005 10666 12207 16528 14291 12674 13218 10020 13069 15002 999999 999999 999999 999999 999999 999999 999999 999999 999999 999999 999999 999999 999999 999999 999999 999999 999999 999999 999999 999999 999999 999999 999999 999999 999999 999999 999999 999999 999999 999999 999999 999999 999999 999999 999999 999999 999999 999999 999999 0 11381
1 999999 999999 999999 999999 999999 999999 999999 999999 999999 999999 999999 999999 999999 999999 999999 999999 999999 999999 999999 999999 999999 999999 999999 999999 999999 999999 999999 999999 999999 999999 999999 999999 999999 999999 999999 999999 999999 999999 999999 999999 999999 999999 999999 999999 999999 999999 999999 999999 999999 999999 999999 999999 999999 999999 999999 999999 999999 999999 999999 999999 999999 999999 999999 999999 999999 999999 999999 999999 999999 999999 999999 999999 999999 999999 999999 999999 999999 999999 999999 999999 0
EOF