NAME: GR_1x2x35_KH_5x10_Run_1
TYPE: TSP
COMMENT: BTSP instance |A|=70 GR nodes |B|=50 KH nodes depot=0.0 end=0.0.0
DIMENSION: 122
EDGE_WEIGHT_TYPE: EXPLICIT
EDGE_WEIGHT_FORMAT: FULL_MATRIX
NODE_COORD_TYPE: NO_COORDS
EDGE_WEIGHT_SECTION
0 11835 7322 5236 10840 12681 14506 10799 10108 7245 5796 5441 5120 13946 8107 7245 5681 9158 5248 14119 9508 10482 8479 13041 10185 9009 9420 7190 8643 13905 5057 13552 14307 10256 9658 11233 11472 7342 9605 13576 12736 5279 9773 11675 13534 5004 10616 13916 9835 12178 11705 13785 12760 10345 13521 14120 6857 10753 14692 8548 10594 10085 11245 8685 14523 10238 13038 5174 7134 14439 14856 999999 999999 999999 999999 999999 999999 999999 999999 999999 999999 999999 999999 999999 999999 999999 999999 999999 999999 999999 999999 999999 999999 999999 999999 999999 999999 999999 999999 999999 999999 999999 999999 999999 999999 999999 999999 999999 999999 999999 999999 999999 999999 999999 999999 999999 999999 999999 999999 999999 999999 999999
999999 0 999999 999999 999999 999999 999999 999999 999999 999999 999999 999999 999999 999999 999999 999999 999999 999999 999999 999999 999999 999999 999999 999999 999999 999999 999999 999999 999999 999999 999999 999999 999999 999999 999999 999999 999999 999999 999999 999999 999999 999999 999999 999999 999999 999999 999999 999999 999999 999999 999999 999999 999999 999999 999999 999999 999999 999999 999999 999999 999999 999999 999999 999999 999999 999999 999999 999999 999999 999999 999999 12180 12950 13431 16474 17251 13658 14961 15532 10930 14849 11603 19796 14548 18151 12935 10053 11411 16323 13738 10782 17343 15336 16138 13510 18873 17160 17045 16188 18185 10385 14612 14288 18033 11840 10452 10501 13204 12009 10281 16308 18886 19460 15685 15536 11100 15930 15622 17615 16107 19294 999999
999999 999999 0 999999 999999 999999 999999 999999 999999 999999 999999 999999 999999 999999 999999 999999 999999 999999 999999 999999 999999 999999 999999 999999 999999 999999 999999 999999 999999 999999 999999 999999 999999 999999 999999 999999 999999 999999 999999 999999 999999 999999 999999 999999 999999 999999 999999 999999 999999 999999 999999 999999 999999 999999 999999 999999 999999 999999 999999 999999 999999 999999 999999 999999 999999 999999 999999 999999 999999 999999 999999 18330 12325 13139 10551 19253 13898 19040 17716 17769 10896 19365 13395 17550 14560 17222 13643 10065 19664 16426 17537 18796 10676 17977 19634 19448 18637 12299 16080 16370 10545 14789 13327 14258 19524 14902 18725 14553 15598 17833 15703 14055 12013 18916 18355 17250 14047 17870 12090 16788 11299 999999
999999 999999 999999 0 999999 999999 999999 999999 999999 999999 999999 999999 999999 999999 999999 999999 999999 999999 999999 999999 999999 999999 999999 999999 999999 999999 999999 999999 999999 999999 999999 999999 999999 999999 999999 999999 999999 999999 999999 999999 999999 999999 999999 999999 999999 999999 999999 999999 999999 999999 999999 999999 999999 999999 999999 999999 999999 999999 999999 999999 999999 999999 999999 999999 999999 999999 999999 999999 999999 999999 999999 10303 15499 12822 17534 11962 17959 19859 12621 16169 18927 12638 18440 10530 14234 18271 11936 17304 19984 18334 17342 13164 16203 11416 11845 15821 13066 13442 11676 13820 10236 16657 17456 10631 10018 19345 13032 18329 11513 11037 17227 18776 19103 13335 14810 10970 12732 19890 16131 16602 12461 999999
999999 999999 999999 999999 0 999999 999999 999999 999999 999999 999999 999999 999999 999999 999999 999999 999999 999999 999999 999999 999999 999999 999999 999999 999999 999999 999999 999999 999999 999999 999999 999999 999999 999999 999999 999999 999999 999999 999999 999999 999999 999999 999999 999999 999999 999999 999999 999999 999999 999999 999999 999999 999999 999999 999999 999999 999999 999999 999999 999999 999999 999999 999999 999999 999999 999999 999999 999999 999999 999999 999999 18477 17355 16488 14646 18078 17754 12598 19839 12684 15418 10732 10949 11244 13299 19980 19410 19713 15906 13043 15380 10625 18130 11918 14561 16782 19818 17609 16192 18340 10905 18521 13542 18562 13994 12747 16544 16807 17973 13594 14430 11392 13421 10694 18509 12800 13214 17453 16204 14679 17265 999999
999999 999999 999999 999999 999999 0 999999 999999 999999 999999 999999 999999 999999 999999 999999 999999 999999 999999 999999 999999 999999 999999 999999 999999 999999 999999 999999 999999 999999 999999 999999 999999 999999 999999 999999 999999 999999 999999 999999 999999 999999 999999 999999 999999 999999 999999 999999 999999 999999 999999 999999 999999 999999 999999 999999 999999 999999 999999 999999 999999 999999 999999 999999 999999 999999 999999 999999 999999 999999 999999 999999 12548 13583 16554 13843 19846 14137 16185 12148 10234 14141 14019 18430 16610 14546 10885 16233 16619 13742 18499 10043 12649 19637 19080 12351 11640 18562 11726 15073 13781 15244 17580 15774 14373 16526 12150 17848 11463 11077 10558 17608 10831 14479 10846 17534 17930 17316 18989 15073 17527 12313 999999
999999 999999 999999 999999 999999 999999 0 999999 999999 999999 999999 999999 999999 999999 999999 999999 999999 999999 999999 999999 999999 999999 999999 999999 999999 999999 999999 999999 999999 999999 999999 999999 999999 999999 999999 999999 999999 999999 999999 999999 999999 999999 999999 999999 999999 999999 999999 999999 999999 999999 999999 999999 999999 999999 999999 999999 999999 999999 999999 999999 999999 999999 999999 999999 999999 999999 999999 999999 999999 999999 999999 10113 13769 16284 13303 18191 11060 13228 13400 10282 15286 12767 14609 12355 18684 11036 11310 19022 10947 19841 19443 17996 14889 15255 18174 15250 16909 12740 14206 19033 18678 12871 10604 19740 13666 15548 10509 12609 19284 12278 15303 13254 17256 13190 14379 16483 19559 13138 13542 10112 13481 999999
999999 999999 999999 999999 999999 999999 999999 0 999999 999999 999999 999999 999999 999999 999999 999999 999999 999999 999999 999999 999999 999999 999999 999999 999999 999999 999999 999999 999999 999999 999999 999999 999999 999999 999999 999999 999999 999999 999999 999999 999999 999999 999999 999999 999999 999999 999999 999999 999999 999999 999999 999999 999999 999999 999999 999999 999999 999999 999999 999999 999999 999999 999999 999999 999999 999999 999999 999999 999999 999999 999999 14634 16077 18744 13814 12494 17745 19762 17418 16374 19415 17119 18368 14042 17924 19227 12008 19454 15269 19908 13819 10755 12961 11853 10737 13732 10859 17785 18375 17221 14845 11627 13569 12944 19928 14014 18787 15331 16586 19366 10882 18253 11571 16973 12871 19585 16702 16341 19232 17335 11955 999999
999999 999999 999999 999999 999999 999999 999999 999999 0 999999 999999 999999 999999 999999 999999 999999 999999 999999 999999 999999 999999 999999 999999 999999 999999 999999 999999 999999 999999 999999 999999 999999 999999 999999 999999 999999 999999 999999 999999 999999 999999 999999 999999 999999 999999 999999 999999 999999 999999 999999 999999 999999 999999 999999 999999 999999 999999 999999 999999 999999 999999 999999 999999 999999 999999 999999 999999 999999 999999 999999 999999 14899 18834 11217 12216 14578 11254 14970 18905 13884 12127 11493 11253 14812 16236 18285 17058 12350 14705 17972 19749 12523 16157 17415 16109 16844 15554 12769 10077 12856 12048 15872 11305 10029 19466 12669 12675 13003 11494 15030 17706 19405 17214 10533 11992 15848 16106 15697 13472 18967 13159 999999
999999 999999 999999 999999 999999 999999 999999 999999 999999 0 999999 999999 999999 999999 999999 999999 999999 999999 999999 999999 999999 999999 999999 999999 999999 999999 999999 999999 999999 999999 999999 999999 999999 999999 999999 999999 999999 999999 999999 999999 999999 999999 999999 999999 999999 999999 999999 999999 999999 999999 999999 999999 999999 999999 999999 999999 999999 999999 999999 999999 999999 999999 999999 999999 999999 999999 999999 999999 999999 999999 999999 11845 19263 12489 16776 15471 11477 15886 17567 12183 15336 13461 18245 19229 16095 15304 19680 16453 15720 14864 18359 10994 11156 16739 12638 19977 16413 17025 12482 11386 15744 18438 16413 12495 17029 12591 17326 13876 15686 16285 16109 13531 11748 13557 13915 14274 15291 17541 17945 10459 12945 999999
999999 999999 999999 999999 999999 999999 999999 999999 999999 999999 0 999999 999999 999999 999999 999999 999999 999999 999999 999999 999999 999999 999999 999999 999999 999999 999999 999999 999999 999999 999999 999999 999999 999999 999999 999999 999999 999999 999999 999999 999999 999999 999999 999999 999999 999999 999999 999999 999999 999999 999999 999999 999999 999999 999999 999999 999999 999999 999999 999999 999999 999999 999999 999999 999999 999999 999999 999999 999999 999999 999999 17021 18648 10921 18550 18560 11364 10402 16661 16017 16719 10987 18988 18994 16409 15570 10968 13420 14754 17297 15264 11479 15950 14848 12942 18638 10339 18751 10021 14916 14435 19657 14995 18106 12444 17851 13720 13907 18615 10311 19133 18012 16140 16744 11721 10428 15912 15710 15599 18239 14016 999999
999999 999999 999999 999999 999999 999999 999999 999999 999999 999999 999999 0 999999 999999 999999 999999 999999 999999 999999 999999 999999 999999 999999 999999 999999 999999 999999 999999 999999 999999 999999 999999 999999 999999 999999 999999 999999 999999 999999 999999 999999 999999 999999 999999 999999 999999 999999 999999 999999 999999 999999 999999 999999 999999 999999 999999 999999 999999 999999 999999 999999 999999 999999 999999 999999 999999 999999 999999 999999 999999 999999 12744 12739 16638 16978 17629 18831 14985 17856 11008 14098 10737 15376 15951 13703 16194 11676 14485 12842 15792 19302 16801 17589 18926 18593 13147 19908 16776 11482 18502 17604 10103 15964 11613 13803 14589 15049 10216 16779 15887 18453 15723 14585 19972 13530 10611 12065 18506 19873 14861 13390 999999
999999 999999 999999 999999 999999 999999 999999 999999 999999 999999 999999 999999 0 999999 999999 999999 999999 999999 999999 999999 999999 999999 999999 999999 999999 999999 999999 999999 999999 999999 999999 999999 999999 999999 999999 999999 999999 999999 999999 999999 999999 999999 999999 999999 999999 999999 999999 999999 999999 999999 999999 999999 999999 999999 999999 999999 999999 999999 999999 999999 999999 999999 999999 999999 999999 999999 999999 999999 999999 999999 999999 13433 11335 12122 17935 13461 16128 13698 10954 10259 15311 15832 17939 12057 13497 19016 13155 15346 13152 17504 11282 10915 16020 19861 16643 19251 17651 10869 12555 10011 15397 16550 18290 10226 10896 10207 12873 10886 16552 13545 14083 14836 11444 16984 14014 16871 19588 18691 14249 11570 12614 999999
999999 999999 999999 999999 999999 999999 999999 999999 999999 999999 999999 999999 999999 0 999999 999999 999999 999999 999999 999999 999999 999999 999999 999999 999999 999999 999999 999999 999999 999999 999999 999999 999999 999999 999999 999999 999999 999999 999999 999999 999999 999999 999999 999999 999999 999999 999999 999999 999999 999999 999999 999999 999999 999999 999999 999999 999999 999999 999999 999999 999999 999999 999999 999999 999999 999999 999999 999999 999999 999999 999999 19367 19071 10366 17237 11939 18318 12215 14051 18264 17497 17864 10999 18407 16867 15965 14392 12273 16197 10204 14306 11768 18886 17592 16481 12631 12337 17603 16398 14363 17417 18002 19998 18877 15102 16320 15363 12778 12386 18276 15494 13234 15027 15120 14970 11644 16935 10209 10063 10381 11259 999999
999999 999999 999999 999999 999999 999999 999999 999999 999999 999999 999999 999999 999999 999999 0 999999 999999 999999 999999 999999 999999 999999 999999 999999 999999 999999 999999 999999 999999 999999 999999 999999 999999 999999 999999 999999 999999 999999 999999 999999 999999 999999 999999 999999 999999 999999 999999 999999 999999 999999 999999 999999 999999 999999 999999 999999 999999 999999 999999 999999 999999 999999 999999 999999 999999 999999 999999 999999 999999 999999 999999 18974 10890 15505 15095 15025 11507 16118 12591 16327 19891 13681 12579 19525 12237 17576 17574 10293 17557 14089 10450 14860 17515 17323 10949 17386 18797 14457 15466 17988 16520 16319 18086 18254 12535 10944 11652 12415 13867 17805 16607 18110 12515 10131 18526 11523 15130 11991 13220 16698 19556 999999
999999 999999 999999 999999 999999 999999 999999 999999 999999 999999 999999 999999 999999 999999 999999 0 999999 999999 999999 999999 999999 999999 999999 999999 999999 999999 999999 999999 999999 999999 999999 999999 999999 999999 999999 999999 999999 999999 999999 999999 999999 999999 999999 999999 999999 999999 999999 999999 999999 999999 999999 999999 999999 999999 999999 999999 999999 999999 999999 999999 999999 999999 999999 999999 999999 999999 999999 999999 999999 999999 999999 11506 18892 19020 13290 11097 19438 15028 18972 13197 17564 11706 14930 12596 19160 11700 19622 16228 17117 18164 18271 11739 11748 10231 16956 11058 16443 18270 11287 18327 13018 16287 15166 10309 12718 18022 12901 14080 13262 18196 12797 11633 10622 18702 15453 15243 14907 14427 19781 12870 18692 999999
999999 999999 999999 999999 999999 999999 999999 999999 999999 999999 999999 999999 999999 999999 999999 999999 0 999999 999999 999999 999999 999999 999999 999999 999999 999999 999999 999999 999999 999999 999999 999999 999999 999999 999999 999999 999999 999999 999999 999999 999999 999999 999999 999999 999999 999999 999999 999999 999999 999999 999999 999999 999999 999999 999999 999999 999999 999999 999999 999999 999999 999999 999999 999999 999999 999999 999999 999999 999999 999999 999999 14146 19370 19454 17806 16894 16272 13343 10853 18755 12688 10117 10226 19575 12113 15593 16564 10937 12213 13625 13630 12388 17594 13720 19596 13335 14935 17206 14805 13561 10856 14108 16543 12138 10776 14091 16149 13936 19448 11762 11697 12341 15580 14680 15355 12469 15584 11843 11702 18774 15439 999999
999999 999999 999999 999999 999999 999999 999999 999999 999999 999999 999999 999999 999999 999999 999999 999999 999999 0 999999 999999 999999 999999 999999 999999 999999 999999 999999 999999 999999 999999 999999 999999 999999 999999 999999 999999 999999 999999 999999 999999 999999 999999 999999 999999 999999 999999 999999 999999 999999 999999 999999 999999 999999 999999 999999 999999 999999 999999 999999 999999 999999 999999 999999 999999 999999 999999 999999 999999 999999 999999 999999 10397 17816 18523 12190 14956 11213 10982 18533 19323 16002 19818 19138 13583 13247 15747 15564 13043 13272 13759 19886 18172 13761 10269 13019 17467 19439 11781 18937 16899 11947 13277 11646 19585 10048 17063 16266 17070 18968 16236 18864 18930 19483 10060 11076 16180 10169 12402 12416 13022 18722 999999
999999 999999 999999 999999 999999 999999 999999 999999 999999 999999 999999 999999 999999 999999 999999 999999 999999 999999 0 999999 999999 999999 999999 999999 999999 999999 999999 999999 999999 999999 999999 999999 999999 999999 999999 999999 999999 999999 999999 999999 999999 999999 999999 999999 999999 999999 999999 999999 999999 999999 999999 999999 999999 999999 999999 999999 999999 999999 999999 999999 999999 999999 999999 999999 999999 999999 999999 999999 999999 999999 999999 15558 17859 16231 11101 14545 17695 16427 16555 19139 11504 16714 14672 14562 18365 16274 15484 16108 15104 15007 11310 14591 10233 12338 13712 19417 13374 13672 19317 15724 16331 11144 12426 10132 18397 17935 10738 13372 17902 17588 12896 16375 15986 13899 11065 12501 16851 17790 15410 16703 16619 999999
999999 999999 999999 999999 999999 999999 999999 999999 999999 999999 999999 999999 999999 999999 999999 999999 999999 999999 999999 0 999999 999999 999999 999999 999999 999999 999999 999999 999999 999999 999999 999999 999999 999999 999999 999999 999999 999999 999999 999999 999999 999999 999999 999999 999999 999999 999999 999999 999999 999999 999999 999999 999999 999999 999999 999999 999999 999999 999999 999999 999999 999999 999999 999999 999999 999999 999999 999999 999999 999999 999999 19850 16137 10358 17594 11510 11737 19000 14889 11007 12132 18731 11675 17719 18369 14343 19207 19609 19960 15351 16119 11671 18531 15441 17309 14451 13660 11925 17246 11208 19297 15026 15040 16124 17257 12247 11491 10237 10448 10898 11841 17802 15596 11298 14239 18884 18288 19994 12436 13344 18824 999999
999999 999999 999999 999999 999999 999999 999999 999999 999999 999999 999999 999999 999999 999999 999999 999999 999999 999999 999999 999999 0 999999 999999 999999 999999 999999 999999 999999 999999 999999 999999 999999 999999 999999 999999 999999 999999 999999 999999 999999 999999 999999 999999 999999 999999 999999 999999 999999 999999 999999 999999 999999 999999 999999 999999 999999 999999 999999 999999 999999 999999 999999 999999 999999 999999 999999 999999 999999 999999 999999 999999 14211 13547 16485 11604 17716 16230 12410 17819 16900 17465 19283 18442 13630 10336 11861 19620 14336 18544 14182 10030 17156 11593 15447 13402 16335 12764 11132 15245 15032 17926 12105 19577 12459 14466 15124 12442 17158 13828 10759 15454 14448 12697 19072 17627 19779 13406 18118 18501 10485 11459 999999
999999 999999 999999 999999 999999 999999 999999 999999 999999 999999 999999 999999 999999 999999 999999 999999 999999 999999 999999 999999 999999 0 999999 999999 999999 999999 999999 999999 999999 999999 999999 999999 999999 999999 999999 999999 999999 999999 999999 999999 999999 999999 999999 999999 999999 999999 999999 999999 999999 999999 999999 999999 999999 999999 999999 999999 999999 999999 999999 999999 999999 999999 999999 999999 999999 999999 999999 999999 999999 999999 999999 14596 10867 10412 12845 18244 14196 12147 15330 18167 19013 16483 10321 16175 18647 12112 10955 12122 13754 17510 10757 12678 14187 19716 17204 12713 14621 13064 10998 10292 11882 11750 13981 12359 17318 18021 15580 16169 19907 14156 12654 17171 12679 17615 10864 18013 12378 11360 13480 18425 10736 999999
999999 999999 999999 999999 999999 999999 999999 999999 999999 999999 999999 999999 999999 999999 999999 999999 999999 999999 999999 999999 999999 999999 0 999999 999999 999999 999999 999999 999999 999999 999999 999999 999999 999999 999999 999999 999999 999999 999999 999999 999999 999999 999999 999999 999999 999999 999999 999999 999999 999999 999999 999999 999999 999999 999999 999999 999999 999999 999999 999999 999999 999999 999999 999999 999999 999999 999999 999999 999999 999999 999999 17722 14800 13956 19545 18941 14390 11706 17352 14283 17172 12331 19205 10203 18780 13655 13367 17928 16356 14446 13824 19112 19220 14551 19272 12682 18484 10189 17965 13577 19664 15401 10433 12887 11359 11926 17305 18535 15557 10595 17898 15275 19707 19790 14208 16074 15446 18159 19086 18521 18468 999999
999999 999999 999999 999999 999999 999999 999999 999999 999999 999999 999999 999999 999999 999999 999999 999999 999999 999999 999999 999999 999999 999999 999999 0 999999 999999 999999 999999 999999 999999 999999 999999 999999 999999 999999 999999 999999 999999 999999 999999 999999 999999 999999 999999 999999 999999 999999 999999 999999 999999 999999 999999 999999 999999 999999 999999 999999 999999 999999 999999 999999 999999 999999 999999 999999 999999 999999 999999 999999 999999 999999 19287 11727 17483 18926 19440 11029 11818 17756 18597 14982 17669 10621 16460 19575 13921 11252 12215 13514 12817 11888 15125 10701 14058 19748 11416 10551 19475 13151 19647 11061 10275 12877 10828 15418 16001 10460 12795 11541 11713 18956 11854 19573 16021 18672 18697 19165 10094 16925 19966 15784 999999
999999 999999 999999 999999 999999 999999 999999 999999 999999 999999 999999 999999 999999 999999 999999 999999 999999 999999 999999 999999 999999 999999 999999 999999 0 999999 999999 999999 999999 999999 999999 999999 999999 999999 999999 999999 999999 999999 999999 999999 999999 999999 999999 999999 999999 999999 999999 999999 999999 999999 999999 999999 999999 999999 999999 999999 999999 999999 999999 999999 999999 999999 999999 999999 999999 999999 999999 999999 999999 999999 999999 16499 16528 13992 17577 16198 17499 17606 11712 18723 13824 18436 11240 13067 12707 11219 19953 11172 17095 15515 17594 17729 12361 18263 16886 10450 13012 11963 11320 14296 16581 10795 13362 11072 17677 18451 15100 19944 14142 15121 14235 17642 17926 11311 11527 19230 14705 10409 14710 17103 15443 999999
999999 999999 999999 999999 999999 999999 999999 999999 999999 999999 999999 999999 999999 999999 999999 999999 999999 999999 999999 999999 999999 999999 999999 999999 999999 0 999999 999999 999999 999999 999999 999999 999999 999999 999999 999999 999999 999999 999999 999999 999999 999999 999999 999999 999999 999999 999999 999999 999999 999999 999999 999999 999999 999999 999999 999999 999999 999999 999999 999999 999999 999999 999999 999999 999999 999999 999999 999999 999999 999999 999999 12088 18619 15788 18728 10055 10237 13687 13496 18748 11979 15874 17817 18007 19717 18760 12359 15742 19826 19913 14143 14753 11981 11869 15614 19036 12837 11217 15675 17632 19124 19654 12401 16631 13577 14741 10395 18262 19281 18443 12175 16692 11994 11481 10942 12227 15063 17985 16112 15685 16854 999999
999999 999999 999999 999999 999999 999999 999999 999999 999999 999999 999999 999999 999999 999999 999999 999999 999999 999999 999999 999999 999999 999999 999999 999999 999999 999999 0 999999 999999 999999 999999 999999 999999 999999 999999 999999 999999 999999 999999 999999 999999 999999 999999 999999 999999 999999 999999 999999 999999 999999 999999 999999 999999 999999 999999 999999 999999 999999 999999 999999 999999 999999 999999 999999 999999 999999 999999 999999 999999 999999 999999 16586 19233 18572 11677 15121 12884 15791 16744 14597 18325 12671 13417 19495 12997 17805 12464 11125 16436 16983 13037 13417 15805 15164 14269 13976 17010 17718 17182 16497 15609 15196 14083 17809 12928 16879 18327 11791 10101 18283 14311 11692 19332 12955 15553 13692 19641 10242 16039 12917 15417 999999
999999 999999 999999 999999 999999 999999 999999 999999 999999 999999 999999 999999 999999 999999 999999 999999 999999 999999 999999 999999 999999 999999 999999 999999 999999 999999 999999 0 999999 999999 999999 999999 999999 999999 999999 999999 999999 999999 999999 999999 999999 999999 999999 999999 999999 999999 999999 999999 999999 999999 999999 999999 999999 999999 999999 999999 999999 999999 999999 999999 999999 999999 999999 999999 999999 999999 999999 999999 999999 999999 999999 17267 10730 14249 10667 19415 17007 11952 11022 19579 11852 14473 18464 16387 13245 13823 10498 11760 12663 11239 18353 19161 15808 15086 13660 10918 11713 14279 15127 10733 10600 12116 18979 16246 19944 14676 13584 17652 17705 12896 10937 16695 16309 14282 19674 13489 19097 13675 17189 10057 13817 999999
999999 999999 999999 999999 999999 999999 999999 999999 999999 999999 999999 999999 999999 999999 999999 999999 999999 999999 999999 999999 999999 999999 999999 999999 999999 999999 999999 999999 0 999999 999999 999999 999999 999999 999999 999999 999999 999999 999999 999999 999999 999999 999999 999999 999999 999999 999999 999999 999999 999999 999999 999999 999999 999999 999999 999999 999999 999999 999999 999999 999999 999999 999999 999999 999999 999999 999999 999999 999999 999999 999999 17273 16490 19567 16827 18958 19083 11771 11191 16786 18906 16016 19921 16063 12534 17768 13148 16993 16083 10850 19038 11935 14133 15484 10069 12490 10696 13606 12269 14530 12779 17729 15323 13234 15886 17699 12059 11406 16710 19185 11259 17894 14143 13961 10541 18338 18519 12427 15278 18097 18197 999999
999999 999999 999999 999999 999999 999999 999999 999999 999999 999999 999999 999999 999999 999999 999999 999999 999999 999999 999999 999999 999999 999999 999999 999999 999999 999999 999999 999999 999999 0 999999 999999 999999 999999 999999 999999 999999 999999 999999 999999 999999 999999 999999 999999 999999 999999 999999 999999 999999 999999 999999 999999 999999 999999 999999 999999 999999 999999 999999 999999 999999 999999 999999 999999 999999 999999 999999 999999 999999 999999 999999 16776 17198 18473 12148 14461 12709 18944 15082 17650 13110 15152 18059 11354 10959 14897 11693 18161 15291 18230 18315 19395 18196 18995 19865 19520 16348 12531 10650 15312 13907 15318 15487 15778 13076 19831 18972 11514 17103 18581 16825 17266 10626 14512 17505 16789 12561 16114 13888 14006 13069 999999
999999 999999 999999 999999 999999 999999 999999 999999 999999 999999 999999 999999 999999 999999 999999 999999 999999 999999 999999 999999 999999 999999 999999 999999 999999 999999 999999 999999 999999 999999 0 999999 999999 999999 999999 999999 999999 999999 999999 999999 999999 999999 999999 999999 999999 999999 999999 999999 999999 999999 999999 999999 999999 999999 999999 999999 999999 999999 999999 999999 999999 999999 999999 999999 999999 999999 999999 999999 999999 999999 999999 13431 16379 14663 12266 16048 19414 11971 18229 10316 14862 10375 16924 17084 19233 13648 18030 17305 19675 14156 13830 17174 10785 18991 19641 16973 12579 18500 17241 14122 16750 18801 19559 13279 14955 10877 13111 16391 12764 17439 18006 17195 15340 15143 18478 17045 18826 18535 19027 10322 13443 999999
999999 999999 999999 999999 999999 999999 999999 999999 999999 999999 999999 999999 999999 999999 999999 999999 999999 999999 999999 999999 999999 999999 999999 999999 999999 999999 999999 999999 999999 999999 999999 0 999999 999999 999999 999999 999999 999999 999999 999999 999999 999999 999999 999999 999999 999999 999999 999999 999999 999999 999999 999999 999999 999999 999999 999999 999999 999999 999999 999999 999999 999999 999999 999999 999999 999999 999999 999999 999999 999999 999999 19194 17245 10435 17778 10793 19072 15410 14175 19362 10111 12343 10843 12735 18769 13676 12332 14092 14529 10406 15120 15690 14332 14757 15692 11549 19444 14405 13514 11776 15522 16091 19396 16846 15166 12971 15090 17412 14595 13330 17185 16074 14229 14780 12923 13986 17827 17712 14818 13317 19445 999999
999999 999999 999999 999999 999999 999999 999999 999999 999999 999999 999999 999999 999999 999999 999999 999999 999999 999999 999999 999999 999999 999999 999999 999999 999999 999999 999999 999999 999999 999999 999999 999999 0 999999 999999 999999 999999 999999 999999 999999 999999 999999 999999 999999 999999 999999 999999 999999 999999 999999 999999 999999 999999 999999 999999 999999 999999 999999 999999 999999 999999 999999 999999 999999 999999 999999 999999 999999 999999 999999 999999 14739 10948 12837 17638 19449 10664 17009 14685 13306 10895 15628 10456 10896 13088 11374 19443 15710 18409 15816 16263 16730 15387 17711 12406 11995 19820 16451 14649 17296 19624 13763 14027 14537 12253 16024 10683 15922 13162 10094 10828 13204 19536 18039 17628 16853 18495 15627 12397 17062 16391 999999
999999 999999 999999 999999 999999 999999 999999 999999 999999 999999 999999 999999 999999 999999 999999 999999 999999 999999 999999 999999 999999 999999 999999 999999 999999 999999 999999 999999 999999 999999 999999 999999 999999 0 999999 999999 999999 999999 999999 999999 999999 999999 999999 999999 999999 999999 999999 999999 999999 999999 999999 999999 999999 999999 999999 999999 999999 999999 999999 999999 999999 999999 999999 999999 999999 999999 999999 999999 999999 999999 999999 12043 16071 17042 18323 13126 15489 12725 18667 11029 13236 16273 18204 10326 16036 16791 13102 14740 13720 18613 13232 15250 16301 19049 15682 15284 15329 18572 18813 13405 11567 19927 13181 10863 10310 15237 14461 16226 15031 12907 18578 18897 16269 18812 10672 12915 18160 18349 11731 15359 15210 999999
999999 999999 999999 999999 999999 999999 999999 999999 999999 999999 999999 999999 999999 999999 999999 999999 999999 999999 999999 999999 999999 999999 999999 999999 999999 999999 999999 999999 999999 999999 999999 999999 999999 999999 0 999999 999999 999999 999999 999999 999999 999999 999999 999999 999999 999999 999999 999999 999999 999999 999999 999999 999999 999999 999999 999999 999999 999999 999999 999999 999999 999999 999999 999999 999999 999999 999999 999999 999999 999999 999999 16922 15280 16259 12978 16432 18042 16576 19843 10754 18275 18620 11297 13591 11906 13636 10516 14405 14006 14807 11599 16604 11536 10262 10759 18474 15616 16719 12044 14787 12258 15435 17529 19491 14934 16407 17204 14659 19424 17531 17533 10615 18390 14124 17600 10243 19193 18776 16765 12472 17242 999999
999999 999999 999999 999999 999999 999999 999999 999999 999999 999999 999999 999999 999999 999999 999999 999999 999999 999999 999999 999999 999999 999999 999999 999999 999999 999999 999999 999999 999999 999999 999999 999999 999999 999999 999999 0 999999 999999 999999 999999 999999 999999 999999 999999 999999 999999 999999 999999 999999 999999 999999 999999 999999 999999 999999 999999 999999 999999 999999 999999 999999 999999 999999 999999 999999 999999 999999 999999 999999 999999 999999 16980 16284 14157 10217 17704 10566 16508 18721 15339 10376 11626 17111 10431 19148 14216 13990 19170 17284 12983 11579 10102 14062 19253 11405 11577 10289 13456 10885 19146 19838 10131 11618 17457 15118 10049 13606 11512 11066 11506 16720 10141 13544 12191 19403 10387 18235 14584 16733 18362 11711 999999
999999 999999 999999 999999 999999 999999 999999 999999 999999 999999 999999 999999 999999 999999 999999 999999 999999 999999 999999 999999 999999 999999 999999 999999 999999 999999 999999 999999 999999 999999 999999 999999 999999 999999 999999 999999 0 999999 999999 999999 999999 999999 999999 999999 999999 999999 999999 999999 999999 999999 999999 999999 999999 999999 999999 999999 999999 999999 999999 999999 999999 999999 999999 999999 999999 999999 999999 999999 999999 999999 999999 10219 11979 14967 10525 16440 16996 19362 13972 12104 19909 19194 17263 13345 18479 13552 17353 12740 14190 12792 10431 15142 17018 16046 12126 15643 18582 15013 11649 15192 10009 18996 16089 18875 11091 12114 13346 19531 13356 18307 13478 15409 19883 17817 17000 18669 11850 16090 14701 12820 17112 999999
999999 999999 999999 999999 999999 999999 999999 999999 999999 999999 999999 999999 999999 999999 999999 999999 999999 999999 999999 999999 999999 999999 999999 999999 999999 999999 999999 999999 999999 999999 999999 999999 999999 999999 999999 999999 999999 0 999999 999999 999999 999999 999999 999999 999999 999999 999999 999999 999999 999999 999999 999999 999999 999999 999999 999999 999999 999999 999999 999999 999999 999999 999999 999999 999999 999999 999999 999999 999999 999999 999999 17036 17524 14187 14643 16446 16622 10778 12993 10113 17663 18270 19983 18837 16959 12997 16712 14124 15337 14759 10067 13361 12148 18458 14029 14029 17031 12988 19655 17439 10440 11562 15394 18957 12333 17009 15869 18971 14899 15704 13428 12188 13698 16466 17839 19854 18706 14005 15273 18085 11865 999999
999999 999999 999999 999999 999999 999999 999999 999999 999999 999999 999999 999999 999999 999999 999999 999999 999999 999999 999999 999999 999999 999999 999999 999999 999999 999999 999999 999999 999999 999999 999999 999999 999999 999999 999999 999999 999999 999999 0 999999 999999 999999 999999 999999 999999 999999 999999 999999 999999 999999 999999 999999 999999 999999 999999 999999 999999 999999 999999 999999 999999 999999 999999 999999 999999 999999 999999 999999 999999 999999 999999 11589 15157 13486 19500 15695 16773 13980 16998 13113 17904 18422 15992 19103 16525 17061 16109 11441 18358 15149 11704 17775 11531 17233 14303 13321 13870 18398 12189 18254 14000 18306 15243 16033 13325 19307 18122 12744 16782 13147 18773 18896 19018 11802 17872 18391 14616 15590 10200 10324 19117 999999
999999 999999 999999 999999 999999 999999 999999 999999 999999 999999 999999 999999 999999 999999 999999 999999 999999 999999 999999 999999 999999 999999 999999 999999 999999 999999 999999 999999 999999 999999 999999 999999 999999 999999 999999 999999 999999 999999 999999 0 999999 999999 999999 999999 999999 999999 999999 999999 999999 999999 999999 999999 999999 999999 999999 999999 999999 999999 999999 999999 999999 999999 999999 999999 999999 999999 999999 999999 999999 999999 999999 13295 17257 16684 19395 15862 15384 11501 19601 12035 18253 12460 12575 12342 15841 18032 12414 14406 17088 15870 10651 16194 12455 14203 16396 16527 15105 10086 16836 12976 10780 10625 12245 18547 10331 19470 13994 19839 14190 10132 19615 15789 15056 16321 19571 14100 19051 11181 12392 11908 10569 999999
999999 999999 999999 999999 999999 999999 999999 999999 999999 999999 999999 999999 999999 999999 999999 999999 999999 999999 999999 999999 999999 999999 999999 999999 999999 999999 999999 999999 999999 999999 999999 999999 999999 999999 999999 999999 999999 999999 999999 999999 0 999999 999999 999999 999999 999999 999999 999999 999999 999999 999999 999999 999999 999999 999999 999999 999999 999999 999999 999999 999999 999999 999999 999999 999999 999999 999999 999999 999999 999999 999999 19106 10892 10971 10413 11259 16337 19124 10444 15511 18361 16950 11650 19395 18990 19620 15432 11927 12468 17401 13695 13091 15543 12549 12635 17519 19120 13937 11496 11379 19408 19605 12284 19703 14909 13887 15001 15767 17228 13909 15697 18160 17108 14986 19724 13227 10918 12152 10056 13276 15239 999999
999999 999999 999999 999999 999999 999999 999999 999999 999999 999999 999999 999999 999999 999999 999999 999999 999999 999999 999999 999999 999999 999999 999999 999999 999999 999999 999999 999999 999999 999999 999999 999999 999999 999999 999999 999999 999999 999999 999999 999999 999999 0 999999 999999 999999 999999 999999 999999 999999 999999 999999 999999 999999 999999 999999 999999 999999 999999 999999 999999 999999 999999 999999 999999 999999 999999 999999 999999 999999 999999 999999 12567 13059 11276 12018 11374 18013 18648 13712 10134 18537 18559 19579 12233 15112 16686 19149 17523 13800 14971 12228 18666 11619 14576 12164 19452 13969 17849 11229 15994 16279 17190 17446 18794 19048 11196 19610 10389 11336 10035 10441 14640 11552 18083 19982 14069 10688 19898 13118 17163 15484 999999
999999 999999 999999 999999 999999 999999 999999 999999 999999 999999 999999 999999 999999 999999 999999 999999 999999 999999 999999 999999 999999 999999 999999 999999 999999 999999 999999 999999 999999 999999 999999 999999 999999 999999 999999 999999 999999 999999 999999 999999 999999 999999 0 999999 999999 999999 999999 999999 999999 999999 999999 999999 999999 999999 999999 999999 999999 999999 999999 999999 999999 999999 999999 999999 999999 999999 999999 999999 999999 999999 999999 14707 13175 13277 17604 13604 19105 12308 11585 14662 16155 10962 10688 18250 16219 16189 17457 19589 13977 19736 10309 10374 18445 11509 12470 13645 18662 17556 18180 15691 13339 15622 11319 11081 12036 14043 16479 16165 11537 17381 11207 14014 18839 13907 17903 19258 13788 19089 17175 18939 19116 999999
999999 999999 999999 999999 999999 999999 999999 999999 999999 999999 999999 999999 999999 999999 999999 999999 999999 999999 999999 999999 999999 999999 999999 999999 999999 999999 999999 999999 999999 999999 999999 999999 999999 999999 999999 999999 999999 999999 999999 999999 999999 999999 999999 0 999999 999999 999999 999999 999999 999999 999999 999999 999999 999999 999999 999999 999999 999999 999999 999999 999999 999999 999999 999999 999999 999999 999999 999999 999999 999999 999999 19888 13523 10750 18930 11930 14071 11132 16585 16887 10600 13095 10466 17396 10364 19408 17693 18461 14257 18755 17374 10082 14497 10539 12591 13897 18688 11440 15749 12089 19182 16541 18264 16784 11137 12539 16643 17323 18168 19037 16205 14594 13787 10237 12606 12103 10018 14893 14918 17139 11756 999999
999999 999999 999999 999999 999999 999999 999999 999999 999999 999999 999999 999999 999999 999999 999999 999999 999999 999999 999999 999999 999999 999999 999999 999999 999999 999999 999999 999999 999999 999999 999999 999999 999999 999999 999999 999999 999999 999999 999999 999999 999999 999999 999999 999999 0 999999 999999 999999 999999 999999 999999 999999 999999 999999 999999 999999 999999 999999 999999 999999 999999 999999 999999 999999 999999 999999 999999 999999 999999 999999 999999 12978 17076 12982 17461 17426 16976 14991 12719 15710 10462 18150 13140 14695 18929 12549 10396 13766 13463 10198 15160 11451 19911 17195 12827 17881 19831 15364 10582 17109 13114 19986 10854 17764 10868 11768 15397 18825 16592 13590 13332 16695 13771 10604 13913 10862 15723 19477 10308 11347 16624 999999
999999 999999 999999 999999 999999 999999 999999 999999 999999 999999 999999 999999 999999 999999 999999 999999 999999 999999 999999 999999 999999 999999 999999 999999 999999 999999 999999 999999 999999 999999 999999 999999 999999 999999 999999 999999 999999 999999 999999 999999 999999 999999 999999 999999 999999 0 999999 999999 999999 999999 999999 999999 999999 999999 999999 999999 999999 999999 999999 999999 999999 999999 999999 999999 999999 999999 999999 999999 999999 999999 999999 10125 18866 12641 13692 11981 19871 18978 13381 18540 13636 14700 12685 17703 12078 16653 17818 17601 19722 13471 10317 15375 10616 18555 14191 15370 13691 10362 14824 16244 15246 13961 19044 11631 10908 18013 13206 13485 15380 10607 12264 12671 15544 11936 17850 14980 17014 18810 10112 11483 14795 999999
999999 999999 999999 999999 999999 999999 999999 999999 999999 999999 999999 999999 999999 999999 999999 999999 999999 999999 999999 999999 999999 999999 999999 999999 999999 999999 999999 999999 999999 999999 999999 999999 999999 999999 999999 999999 999999 999999 999999 999999 999999 999999 999999 999999 999999 999999 0 999999 999999 999999 999999 999999 999999 999999 999999 999999 999999 999999 999999 999999 999999 999999 999999 999999 999999 999999 999999 999999 999999 999999 999999 17277 18150 17879 15961 17410 11933 15710 13474 10882 17406 12835 14797 11184 16679 14749 11644 16734 13986 17040 10327 10151 11553 16334 11241 13868 17534 15048 13271 13042 11187 16781 15406 11928 12630 11453 13306 17599 14948 10825 16952 18765 11544 18385 18487 10514 11203 14362 13403 14168 19368 999999
999999 999999 999999 999999 999999 999999 999999 999999 999999 999999 999999 999999 999999 999999 999999 999999 999999 999999 999999 999999 999999 999999 999999 999999 999999 999999 999999 999999 999999 999999 999999 999999 999999 999999 999999 999999 999999 999999 999999 999999 999999 999999 999999 999999 999999 999999 999999 0 999999 999999 999999 999999 999999 999999 999999 999999 999999 999999 999999 999999 999999 999999 999999 999999 999999 999999 999999 999999 999999 999999 999999 13969 12827 13556 14673 13839 18335 11510 16548 15639 10757 17989 11012 17493 13602 11234 19251 11251 13464 10888 10923 15914 16090 10583 12627 14933 16582 19874 16360 11488 15661 17101 17489 16062 15782 16374 10972 10672 18073 14611 11276 17283 14092 19978 11329 14909 14002 11754 17309 16179 11774 999999
999999 999999 999999 999999 999999 999999 999999 999999 999999 999999 999999 999999 999999 999999 999999 999999 999999 999999 999999 999999 999999 999999 999999 999999 999999 999999 999999 999999 999999 999999 999999 999999 999999 999999 999999 999999 999999 999999 999999 999999 999999 999999 999999 999999 999999 999999 999999 999999 0 999999 999999 999999 999999 999999 999999 999999 999999 999999 999999 999999 999999 999999 999999 999999 999999 999999 999999 999999 999999 999999 999999 10507 13255 12319 10935 13516 18323 13722 15237 15572 10642 18057 12055 13123 18234 10033 19920 13499 17065 14616 14984 11737 10098 12950 11280 12000 11929 14928 17844 17933 13466 14870 13443 16785 12160 19685 11681 16426 12240 19373 10210 13457 10308 13560 11654 18291 18194 14160 15881 13537 12075 999999
999999 999999 999999 999999 999999 999999 999999 999999 999999 999999 999999 999999 999999 999999 999999 999999 999999 999999 999999 999999 999999 999999 999999 999999 999999 999999 999999 999999 999999 999999 999999 999999 999999 999999 999999 999999 999999 999999 999999 999999 999999 999999 999999 999999 999999 999999 999999 999999 999999 0 999999 999999 999999 999999 999999 999999 999999 999999 999999 999999 999999 999999 999999 999999 999999 999999 999999 999999 999999 999999 999999 14335 13748 14199 14343 18573 18957 13148 19126 14643 17689 11163 17461 18357 18832 18198 17274 15685 10751 18570 14784 12708 17848 18428 17710 16912 19281 12570 12804 12327 18454 10028 19199 11195 14748 14417 18265 18375 17469 13013 12007 12482 17090 12855 17748 14197 11065 18266 11259 17679 16556 999999
999999 999999 999999 999999 999999 999999 999999 999999 999999 999999 999999 999999 999999 999999 999999 999999 999999 999999 999999 999999 999999 999999 999999 999999 999999 999999 999999 999999 999999 999999 999999 999999 999999 999999 999999 999999 999999 999999 999999 999999 999999 999999 999999 999999 999999 999999 999999 999999 999999 999999 0 999999 999999 999999 999999 999999 999999 999999 999999 999999 999999 999999 999999 999999 999999 999999 999999 999999 999999 999999 999999 14655 16410 10017 18141 10623 12109 14104 12128 11528 16334 19934 16044 15414 11021 17326 17695 12650 14022 19433 12030 17871 11357 10697 19881 15424 16629 15519 12207 18113 17238 15677 18900 14727 12206 19738 15108 11654 15898 18759 12794 14043 12331 10461 12981 18717 18447 11316 19626 13030 12023 999999
999999 999999 999999 999999 999999 999999 999999 999999 999999 999999 999999 999999 999999 999999 999999 999999 999999 999999 999999 999999 999999 999999 999999 999999 999999 999999 999999 999999 999999 999999 999999 999999 999999 999999 999999 999999 999999 999999 999999 999999 999999 999999 999999 999999 999999 999999 999999 999999 999999 999999 999999 0 999999 999999 999999 999999 999999 999999 999999 999999 999999 999999 999999 999999 999999 999999 999999 999999 999999 999999 999999 12202 18252 16118 14544 14695 17887 11897 12895 10655 17987 11060 17123 13454 18731 17800 15480 15935 16801 17449 16138 11096 16858 17515 19303 14046 11137 12622 13742 14325 15970 13228 12147 13600 16749 13641 10570 12733 12659 15192 13947 14695 13671 10814 19383 12815 19350 12642 13508 11470 10091 999999
999999 999999 999999 999999 999999 999999 999999 999999 999999 999999 999999 999999 999999 999999 999999 999999 999999 999999 999999 999999 999999 999999 999999 999999 999999 999999 999999 999999 999999 999999 999999 999999 999999 999999 999999 999999 999999 999999 999999 999999 999999 999999 999999 999999 999999 999999 999999 999999 999999 999999 999999 999999 0 999999 999999 999999 999999 999999 999999 999999 999999 999999 999999 999999 999999 999999 999999 999999 999999 999999 999999 11102 14858 19671 10259 17435 13616 18177 11603 18981 11387 13243 15015 11903 18048 16546 11146 16424 16366 18123 16666 18315 10344 17309 14473 13835 14447 14964 11329 13364 19176 19106 18651 18525 17379 14771 10632 15360 13606 15635 16121 15181 13847 14240 12041 18298 11922 12058 19349 16548 14687 999999
999999 999999 999999 999999 999999 999999 999999 999999 999999 999999 999999 999999 999999 999999 999999 999999 999999 999999 999999 999999 999999 999999 999999 999999 999999 999999 999999 999999 999999 999999 999999 999999 999999 999999 999999 999999 999999 999999 999999 999999 999999 999999 999999 999999 999999 999999 999999 999999 999999 999999 999999 999999 999999 0 999999 999999 999999 999999 999999 999999 999999 999999 999999 999999 999999 999999 999999 999999 999999 999999 999999 17022 10782 12023 15110 11570 15808 19823 14818 13395 18815 14227 13333 11898 10587 15334 13132 18719 12507 13549 13191 12740 19750 10155 15528 14337 10734 17321 11868 10027 13930 11117 12616 15226 17263 12023 15959 16712 12498 12135 15766 17527 13644 17450 12259 13757 16510 12748 19836 18944 18315 999999
999999 999999 999999 999999 999999 999999 999999 999999 999999 999999 999999 999999 999999 999999 999999 999999 999999 999999 999999 999999 999999 999999 999999 999999 999999 999999 999999 999999 999999 999999 999999 999999 999999 999999 999999 999999 999999 999999 999999 999999 999999 999999 999999 999999 999999 999999 999999 999999 999999 999999 999999 999999 999999 999999 0 999999 999999 999999 999999 999999 999999 999999 999999 999999 999999 999999 999999 999999 999999 999999 999999 18150 18277 15090 17480 11976 14606 13162 17922 12637 10919 19473 15472 14697 18819 14250 13541 15663 18762 10537 16377 17244 11031 17996 19682 19608 14940 19421 19844 17076 11116 14743 18475 13708 19420 16212 11742 17119 17045 14951 10246 12771 19821 19550 19191 15653 12433 16595 19881 11288 17115 999999
999999 999999 999999 999999 999999 999999 999999 999999 999999 999999 999999 999999 999999 999999 999999 999999 999999 999999 999999 999999 999999 999999 999999 999999 999999 999999 999999 999999 999999 999999 999999 999999 999999 999999 999999 999999 999999 999999 999999 999999 999999 999999 999999 999999 999999 999999 999999 999999 999999 999999 999999 999999 999999 999999 999999 0 999999 999999 999999 999999 999999 999999 999999 999999 999999 999999 999999 999999 999999 999999 999999 17459 11353 17882 15229 16476 13801 11116 16655 17336 12193 14248 15064 10945 11294 13368 18164 13485 11303 12515 18625 16101 10008 19402 15201 12828 14661 15495 11249 14399 13374 10690 12780 15471 18352 17073 19086 12662 19818 18247 14782 10919 12762 11300 17092 17060 15626 15391 19424 16561 14353 999999
999999 999999 999999 999999 999999 999999 999999 999999 999999 999999 999999 999999 999999 999999 999999 999999 999999 999999 999999 999999 999999 999999 999999 999999 999999 999999 999999 999999 999999 999999 999999 999999 999999 999999 999999 999999 999999 999999 999999 999999 999999 999999 999999 999999 999999 999999 999999 999999 999999 999999 999999 999999 999999 999999 999999 999999 0 999999 999999 999999 999999 999999 999999 999999 999999 999999 999999 999999 999999 999999 999999 13248 14004 10568 19218 18947 19027 16871 19424 12254 14091 11620 11017 10875 15954 17160 19956 13623 18596 13363 14876 12875 19982 13441 19332 15147 12290 17700 16148 16637 14434 10658 15771 15153 14186 11903 16367 17449 10453 10708 11555 13875 10651 16390 11083 13764 10878 16800 10043 12625 13775 999999
999999 999999 999999 999999 999999 999999 999999 999999 999999 999999 999999 999999 999999 999999 999999 999999 999999 999999 999999 999999 999999 999999 999999 999999 999999 999999 999999 999999 999999 999999 999999 999999 999999 999999 999999 999999 999999 999999 999999 999999 999999 999999 999999 999999 999999 999999 999999 999999 999999 999999 999999 999999 999999 999999 999999 999999 999999 0 999999 999999 999999 999999 999999 999999 999999 999999 999999 999999 999999 999999 999999 17754 11677 10472 18677 19573 16515 15165 16177 13831 14804 18854 12735 18878 11446 17282 13737 19768 19146 10297 17272 14266 15511 17145 14608 10474 17640 19816 19823 13137 11303 17357 10399 16173 15275 16740 12327 17045 19472 13632 19508 10750 17689 15852 12316 11843 10830 15983 18437 19460 14582 999999
999999 999999 999999 999999 999999 999999 999999 999999 999999 999999 999999 999999 999999 999999 999999 999999 999999 999999 999999 999999 999999 999999 999999 999999 999999 999999 999999 999999 999999 999999 999999 999999 999999 999999 999999 999999 999999 999999 999999 999999 999999 999999 999999 999999 999999 999999 999999 999999 999999 999999 999999 999999 999999 999999 999999 999999 999999 999999 0 999999 999999 999999 999999 999999 999999 999999 999999 999999 999999 999999 999999 19405 15253 12433 16667 12256 10635 16050 12223 18814 18050 18248 16309 14995 10491 16792 17112 15073 15149 12210 13999 11286 18190 11557 13424 15598 19968 11813 18494 11922 18491 15246 15744 11474 12931 13983 19061 10839 13912 17237 12288 17332 16206 17973 12967 10508 10459 10691 14418 15420 13009 999999
999999 999999 999999 999999 999999 999999 999999 999999 999999 999999 999999 999999 999999 999999 999999 999999 999999 999999 999999 999999 999999 999999 999999 999999 999999 999999 999999 999999 999999 999999 999999 999999 999999 999999 999999 999999 999999 999999 999999 999999 999999 999999 999999 999999 999999 999999 999999 999999 999999 999999 999999 999999 999999 999999 999999 999999 999999 999999 999999 0 999999 999999 999999 999999 999999 999999 999999 999999 999999 999999 999999 16545 10859 18734 13148 18445 11303 18100 19351 16777 14272 10344 18278 16433 16050 10134 16034 10686 19432 16287 12153 17299 17865 17945 12866 15680 13255 18609 14332 19640 18919 15066 13910 15035 13459 19397 10831 11846 16949 14866 10389 13259 16991 19407 14160 13955 15218 12408 13610 16870 15489 999999
999999 999999 999999 999999 999999 999999 999999 999999 999999 999999 999999 999999 999999 999999 999999 999999 999999 999999 999999 999999 999999 999999 999999 999999 999999 999999 999999 999999 999999 999999 999999 999999 999999 999999 999999 999999 999999 999999 999999 999999 999999 999999 999999 999999 999999 999999 999999 999999 999999 999999 999999 999999 999999 999999 999999 999999 999999 999999 999999 999999 0 999999 999999 999999 999999 999999 999999 999999 999999 999999 999999 18387 15528 15832 10970 19344 19173 15841 16908 14505 19784 17017 17191 16435 12748 17221 13851 10096 18485 16059 10354 19719 13287 15131 15007 12726 11068 12294 18010 18342 11766 17759 13741 14811 11885 19772 13127 19678 10429 14446 11298 14173 13091 11168 15562 17373 17785 17718 12894 13630 16095 999999
999999 999999 999999 999999 999999 999999 999999 999999 999999 999999 999999 999999 999999 999999 999999 999999 999999 999999 999999 999999 999999 999999 999999 999999 999999 999999 999999 999999 999999 999999 999999 999999 999999 999999 999999 999999 999999 999999 999999 999999 999999 999999 999999 999999 999999 999999 999999 999999 999999 999999 999999 999999 999999 999999 999999 999999 999999 999999 999999 999999 999999 0 999999 999999 999999 999999 999999 999999 999999 999999 999999 16388 19060 15543 19609 11010 12621 14417 18333 10838 19816 16432 16395 17002 12751 12473 15126 17033 15386 15415 15443 14700 17266 11802 11844 15997 18601 12252 13683 19172 17423 18376 15331 11959 19048 15172 16247 17351 10508 15159 10500 16904 11848 10165 17994 15395 13914 16886 16913 11497 19470 999999
999999 999999 999999 999999 999999 999999 999999 999999 999999 999999 999999 999999 999999 999999 999999 999999 999999 999999 999999 999999 999999 999999 999999 999999 999999 999999 999999 999999 999999 999999 999999 999999 999999 999999 999999 999999 999999 999999 999999 999999 999999 999999 999999 999999 999999 999999 999999 999999 999999 999999 999999 999999 999999 999999 999999 999999 999999 999999 999999 999999 999999 999999 0 999999 999999 999999 999999 999999 999999 999999 999999 15335 12214 13051 17132 13592 10711 16203 11022 14745 12739 10310 19601 10890 17451 10240 14803 18552 15037 13652 19101 17097 12535 19715 11518 14603 10181 17753 19514 17260 19236 19722 17460 12380 18980 13122 18114 11565 18968 18250 15754 11482 14028 13372 16245 11668 12415 15346 18158 13056 12611 999999
999999 999999 999999 999999 999999 999999 999999 999999 999999 999999 999999 999999 999999 999999 999999 999999 999999 999999 999999 999999 999999 999999 999999 999999 999999 999999 999999 999999 999999 999999 999999 999999 999999 999999 999999 999999 999999 999999 999999 999999 999999 999999 999999 999999 999999 999999 999999 999999 999999 999999 999999 999999 999999 999999 999999 999999 999999 999999 999999 999999 999999 999999 999999 0 999999 999999 999999 999999 999999 999999 999999 14613 12951 17870 18788 17696 16394 14151 15029 17797 12976 18649 15454 19463 14373 18023 15809 14665 12965 14279 16993 12391 14383 11043 18625 19221 17164 19009 12650 19537 18981 19336 15002 10892 13683 12760 17422 19812 10746 16793 19010 18712 13461 10350 19871 15330 18236 17998 10313 10510 14311 999999
999999 999999 999999 999999 999999 999999 999999 999999 999999 999999 999999 999999 999999 999999 999999 999999 999999 999999 999999 999999 999999 999999 999999 999999 999999 999999 999999 999999 999999 999999 999999 999999 999999 999999 999999 999999 999999 999999 999999 999999 999999 999999 999999 999999 999999 999999 999999 999999 999999 999999 999999 999999 999999 999999 999999 999999 999999 999999 999999 999999 999999 999999 999999 999999 0 999999 999999 999999 999999 999999 999999 18135 10586 11355 16734 12342 16359 17747 17063 19402 17983 17187 11716 16214 16136 10039 15083 16287 14105 14657 10845 10772 14556 10458 14692 19606 11034 18188 15691 16368 16163 18160 17012 18010 17500 16687 15175 12743 14311 15721 16025 19092 17766 14544 15892 18313 15126 17031 17945 12378 13951 999999
999999 999999 999999 999999 999999 999999 999999 999999 999999 999999 999999 999999 999999 999999 999999 999999 999999 999999 999999 999999 999999 999999 999999 999999 999999 999999 999999 999999 999999 999999 999999 999999 999999 999999 999999 999999 999999 999999 999999 999999 999999 999999 999999 999999 999999 999999 999999 999999 999999 999999 999999 999999 999999 999999 999999 999999 999999 999999 999999 999999 999999 999999 999999 999999 999999 0 999999 999999 999999 999999 999999 15704 17284 15512 18379 19747 17074 17814 15485 14481 15431 10921 14168 17402 14287 18332 18147 11220 16616 19638 14195 12737 17708 18420 15754 15012 10290 13637 13233 17453 18216 11412 15146 15133 16488 19864 17577 18452 16275 18232 11529 11943 14339 15114 18914 18444 12273 15175 15366 17252 12307 999999
999999 999999 999999 999999 999999 999999 999999 999999 999999 999999 999999 999999 999999 999999 999999 999999 999999 999999 999999 999999 999999 999999 999999 999999 999999 999999 999999 999999 999999 999999 999999 999999 999999 999999 999999 999999 999999 999999 999999 999999 999999 999999 999999 999999 999999 999999 999999 999999 999999 999999 999999 999999 999999 999999 999999 999999 999999 999999 999999 999999 999999 999999 999999 999999 999999 999999 0 999999 999999 999999 999999 13450 15595 10367 13797 17693 14780 12093 17634 18956 16175 19855 19666 17905 11693 10037 15204 18197 15440 15842 15418 16439 11790 17844 16186 14534 16461 15933 15893 18193 19699 10346 10069 15445 19038 15452 12797 16865 17228 12880 11259 19844 18113 14047 15691 13091 12536 17564 14882 14109 14206 999999
999999 999999 999999 999999 999999 999999 999999 999999 999999 999999 999999 999999 999999 999999 999999 999999 999999 999999 999999 999999 999999 999999 999999 999999 999999 999999 999999 999999 999999 999999 999999 999999 999999 999999 999999 999999 999999 999999 999999 999999 999999 999999 999999 999999 999999 999999 999999 999999 999999 999999 999999 999999 999999 999999 999999 999999 999999 999999 999999 999999 999999 999999 999999 999999 999999 999999 999999 0 999999 999999 999999 12166 11497 16471 16113 19813 10024 12463 19238 16775 14311 10920 13516 19936 19302 19684 13793 13234 17345 12630 16905 19359 11339 11676 11231 14287 12747 19294 19816 14147 12969 18551 10272 13817 11445 10055 10944 13043 15164 10887 12582 15150 13816 19605 14771 10469 17077 18873 14818 17253 13101 999999
999999 999999 999999 999999 999999 999999 999999 999999 999999 999999 999999 999999 999999 999999 999999 999999 999999 999999 999999 999999 999999 999999 999999 999999 999999 999999 999999 999999 999999 999999 999999 999999 999999 999999 999999 999999 999999 999999 999999 999999 999999 999999 999999 999999 999999 999999 999999 999999 999999 999999 999999 999999 999999 999999 999999 999999 999999 999999 999999 999999 999999 999999 999999 999999 999999 999999 999999 999999 0 999999 999999 19391 19927 15343 10700 12667 11423 14771 17644 17516 12420 16960 11495 19297 12359 14691 17906 15306 19763 11961 18958 16000 10920 16470 13593 14296 17118 10407 13910 12751 15473 10852 10195 18013 19122 13647 18180 13782 11613 18348 14437 11865 15739 18789 12755 12647 19670 19715 15635 17486 19897 999999
999999 999999 999999 999999 999999 999999 999999 999999 999999 999999 999999 999999 999999 999999 999999 999999 999999 999999 999999 999999 999999 999999 999999 999999 999999 999999 999999 999999 999999 999999 999999 999999 999999 999999 999999 999999 999999 999999 999999 999999 999999 999999 999999 999999 999999 999999 999999 999999 999999 999999 999999 999999 999999 999999 999999 999999 999999 999999 999999 999999 999999 999999 999999 999999 999999 999999 999999 999999 999999 0 999999 10649 14859 10965 13873 10185 16198 17232 16733 14221 16033 19145 10898 11045 11733 14811 10340 18509 18317 14827 10636 10128 16143 17250 17751 12730 10722 11335 17910 13095 13218 16828 14026 15828 13605 18368 15077 16804 14514 13216 13199 16858 13608 18094 19507 16810 13588 15930 17671 16001 13581 999999
999999 999999 999999 999999 999999 999999 999999 999999 999999 999999 999999 999999 999999 999999 999999 999999 999999 999999 999999 999999 999999 999999 999999 999999 999999 999999 999999 999999 999999 999999 999999 999999 999999 999999 999999 999999 999999 999999 999999 999999 999999 999999 999999 999999 999999 999999 999999 999999 999999 999999 999999 999999 999999 999999 999999 999999 999999 999999 999999 999999 999999 999999 999999 999999 999999 999999 999999 999999 999999 999999 0 17900 14080 16231 17764 16338 15263 14189 10478 16071 10741 10556 13884 18455 18380 15339 12239 19562 18583 10989 16068 14853 18264 10110 12490 12817 17052 17533 17806 15233 13953 13533 19555 10723 18623 11424 12201 18141 19710 17625 17346 18991 11462 14701 13106 19374 10285 13763 10728 17386 19376 999999
999999 12180 18330 10303 18477 12548 10113 14634 14899 11845 17021 12744 13433 19367 18974 11506 14146 10397 15558 19850 14211 14596 17722 19287 16499 12088 16586 17267 17273 16776 13431 19194 14739 12043 16922 16980 10219 17036 11589 13295 19106 12567 14707 19888 12978 10125 17277 13969 10507 14335 14655 12202 11102 17022 18150 17459 13248 17754 19405 16545 18387 16388 15335 14613 18135 15704 13450 12166 19391 10649 17900 0 999999 999999 999999 999999 999999 999999 999999 999999 999999 999999 999999 999999 999999 999999 999999 999999 999999 999999 999999 999999 999999 999999 999999 999999 999999 999999 999999 999999 999999 999999 999999 999999 999999 999999 999999 999999 999999 999999 999999 999999 999999 999999 999999 999999 999999 999999 999999 999999 999999 7862
999999 12950 12325 15499 17355 13583 13769 16077 18834 19263 18648 12739 11335 19071 10890 18892 19370 17816 17859 16137 13547 10867 14800 11727 16528 18619 19233 10730 16490 17198 16379 17245 10948 16071 15280 16284 11979 17524 15157 17257 10892 13059 13175 13523 17076 18866 18150 12827 13255 13748 16410 18252 14858 10782 18277 11353 14004 11677 15253 10859 15528 19060 12214 12951 10586 17284 15595 11497 19927 14859 14080 999999 0 999999 999999 999999 999999 999999 999999 999999 999999 999999 999999 999999 999999 999999 999999 999999 999999 999999 999999 999999 999999 999999 999999 999999 999999 999999 999999 999999 999999 999999 999999 999999 999999 999999 999999 999999 999999 999999 999999 999999 999999 999999 999999 999999 999999 999999 999999 999999 999999 13542
999999 13431 13139 12822 16488 16554 16284 18744 11217 12489 10921 16638 12122 10366 15505 19020 19454 18523 16231 10358 16485 10412 13956 17483 13992 15788 18572 14249 19567 18473 14663 10435 12837 17042 16259 14157 14967 14187 13486 16684 10971 11276 13277 10750 12982 12641 17879 13556 12319 14199 10017 16118 19671 12023 15090 17882 10568 10472 12433 18734 15832 15543 13051 17870 11355 15512 10367 16471 15343 10965 16231 999999 999999 0 999999 999999 999999 999999 999999 999999 999999 999999 999999 999999 999999 999999 999999 999999 999999 999999 999999 999999 999999 999999 999999 999999 999999 999999 999999 999999 999999 999999 999999 999999 999999 999999 999999 999999 999999 999999 999999 999999 999999 999999 999999 999999 999999 999999 999999 999999 999999 12834
999999 16474 10551 17534 14646 13843 13303 13814 12216 16776 18550 16978 17935 17237 15095 13290 17806 12190 11101 17594 11604 12845 19545 18926 17577 18728 11677 10667 16827 12148 12266 17778 17638 18323 12978 10217 10525 14643 19500 19395 10413 12018 17604 18930 17461 13692 15961 14673 10935 14343 18141 14544 10259 15110 17480 15229 19218 18677 16667 13148 10970 19609 17132 18788 16734 18379 13797 16113 10700 13873 17764 999999 999999 999999 0 999999 999999 999999 999999 999999 999999 999999 999999 999999 999999 999999 999999 999999 999999 999999 999999 999999 999999 999999 999999 999999 999999 999999 999999 999999 999999 999999 999999 999999 999999 999999 999999 999999 999999 999999 999999 999999 999999 999999 999999 999999 999999 999999 999999 999999 999999 12332
999999 17251 19253 11962 18078 19846 18191 12494 14578 15471 18560 17629 13461 11939 15025 11097 16894 14956 14545 11510 17716 18244 18941 19440 16198 10055 15121 19415 18958 14461 16048 10793 19449 13126 16432 17704 16440 16446 15695 15862 11259 11374 13604 11930 17426 11981 17410 13839 13516 18573 10623 14695 17435 11570 11976 16476 18947 19573 12256 18445 19344 11010 13592 17696 12342 19747 17693 19813 12667 10185 16338 999999 999999 999999 999999 0 999999 999999 999999 999999 999999 999999 999999 999999 999999 999999 999999 999999 999999 999999 999999 999999 999999 999999 999999 999999 999999 999999 999999 999999 999999 999999 999999 999999 999999 999999 999999 999999 999999 999999 999999 999999 999999 999999 999999 999999 999999 999999 999999 999999 999999 13004
999999 13658 13898 17959 17754 14137 11060 17745 11254 11477 11364 18831 16128 18318 11507 19438 16272 11213 17695 11737 16230 14196 14390 11029 17499 10237 12884 17007 19083 12709 19414 19072 10664 15489 18042 10566 16996 16622 16773 15384 16337 18013 19105 14071 16976 19871 11933 18335 18323 18957 12109 17887 13616 15808 14606 13801 19027 16515 10635 11303 19173 12621 10711 16394 16359 17074 14780 10024 11423 16198 15263 999999 999999 999999 999999 999999 0 999999 999999 999999 999999 999999 999999 999999 999999 999999 999999 999999 999999 999999 999999 999999 999999 999999 999999 999999 999999 999999 999999 999999 999999 999999 999999 999999 999999 999999 999999 999999 999999 999999 999999 999999 999999 999999 999999 999999 999999 999999 999999 999999 999999 8006
999999 14961 19040 19859 12598 16185 13228 19762 14970 15886 10402 14985 13698 12215 16118 15028 13343 10982 16427 19000 12410 12147 11706 11818 17606 13687 15791 11952 11771 18944 11971 15410 17009 12725 16576 16508 19362 10778 13980 11501 19124 18648 12308 11132 14991 18978 15710 11510 13722 13148 14104 11897 18177 19823 13162 11116 16871 15165 16050 18100 15841 14417 16203 14151 17747 17814 12093 12463 14771 17232 14189 999999 999999 999999 999999 999999 999999 0 999999 999999 999999 999999 999999 999999 999999 999999 999999 999999 999999 999999 999999 999999 999999 999999 999999 999999 999999 999999 999999 999999 999999 999999 999999 999999 999999 999999 999999 999999 999999 999999 999999 999999 999999 999999 999999 999999 999999 999999 999999 999999 999999 11013
999999 15532 17716 12621 19839 12148 13400 17418 18905 17567 16661 17856 10954 14051 12591 18972 10853 18533 16555 14889 17819 15330 17352 17756 11712 13496 16744 11022 11191 15082 18229 14175 14685 18667 19843 18721 13972 12993 16998 19601 10444 13712 11585 16585 12719 13381 13474 16548 15237 19126 12128 12895 11603 14818 17922 16655 19424 16177 12223 19351 16908 18333 11022 15029 17063 15485 17634 19238 17644 16733 10478 999999 999999 999999 999999 999999 999999 999999 0 999999 999999 999999 999999 999999 999999 999999 999999 999999 999999 999999 999999 999999 999999 999999 999999 999999 999999 999999 999999 999999 999999 999999 999999 999999 999999 999999 999999 999999 999999 999999 999999 999999 999999 999999 999999 999999 999999 999999 999999 999999 999999 9835
999999 10930 17769 16169 12684 10234 10282 16374 13884 12183 16017 11008 10259 18264 16327 13197 18755 19323 19139 11007 16900 18167 14283 18597 18723 18748 14597 19579 16786 17650 10316 19362 13306 11029 10754 15339 12104 10113 13113 12035 15511 10134 14662 16887 15710 18540 10882 15639 15572 14643 11528 10655 18981 13395 12637 17336 12254 13831 18814 16777 14505 10838 14745 17797 19402 14481 18956 16775 17516 14221 16071 999999 999999 999999 999999 999999 999999 999999 999999 0 999999 999999 999999 999999 999999 999999 999999 999999 999999 999999 999999 999999 999999 999999 999999 999999 999999 999999 999999 999999 999999 999999 999999 999999 999999 999999 999999 999999 999999 999999 999999 999999 999999 999999 999999 999999 999999 999999 999999 999999 999999 14778
999999 14849 10896 18927 15418 14141 15286 19415 12127 15336 16719 14098 15311 17497 19891 17564 12688 16002 11504 12132 17465 19013 17172 14982 13824 11979 18325 11852 18906 13110 14862 10111 10895 13236 18275 10376 19909 17663 17904 18253 18361 18537 16155 10600 10462 13636 17406 10757 10642 17689 16334 17987 11387 18815 10919 12193 14091 14804 18050 14272 19784 19816 12739 12976 17983 15431 16175 14311 12420 16033 10741 999999 999999 999999 999999 999999 999999 999999 999999 999999 0 999999 999999 999999 999999 999999 999999 999999 999999 999999 999999 999999 999999 999999 999999 999999 999999 999999 999999 999999 999999 999999 999999 999999 999999 999999 999999 999999 999999 999999 999999 999999 999999 999999 999999 999999 999999 999999 999999 999999 999999 7791
999999 11603 19365 12638 10732 14019 12767 17119 11493 13461 10987 10737 15832 17864 13681 11706 10117 19818 16714 18731 19283 16483 12331 17669 18436 15874 12671 14473 16016 15152 10375 12343 15628 16273 18620 11626 19194 18270 18422 12460 16950 18559 10962 13095 18150 14700 12835 17989 18057 11163 19934 11060 13243 14227 19473 14248 11620 18854 18248 10344 17017 16432 10310 18649 17187 10921 19855 10920 16960 19145 10556 999999 999999 999999 999999 999999 999999 999999 999999 999999 999999 0 999999 999999 999999 999999 999999 999999 999999 999999 999999 999999 999999 999999 999999 999999 999999 999999 999999 999999 999999 999999 999999 999999 999999 999999 999999 999999 999999 999999 999999 999999 999999 999999 999999 999999 999999 999999 999999 999999 999999 14277
999999 19796 13395 18440 10949 18430 14609 18368 11253 18245 18988 15376 17939 10999 12579 14930 10226 19138 14672 11675 18442 10321 19205 10621 11240 17817 13417 18464 19921 18059 16924 10843 10456 18204 11297 17111 17263 19983 15992 12575 11650 19579 10688 10466 13140 12685 14797 11012 12055 17461 16044 17123 15015 13333 15472 15064 11017 12735 16309 18278 17191 16395 19601 15454 11716 14168 19666 13516 11495 10898 13884 999999 999999 999999 999999 999999 999999 999999 999999 999999 999999 999999 0 999999 999999 999999 999999 999999 999999 999999 999999 999999 999999 999999 999999 999999 999999 999999 999999 999999 999999 999999 999999 999999 999999 999999 999999 999999 999999 999999 999999 999999 999999 999999 999999 999999 999999 999999 999999 999999 999999 5474
999999 14548 17550 10530 11244 16610 12355 14042 14812 19229 18994 15951 12057 18407 19525 12596 19575 13583 14562 17719 13630 16175 10203 16460 13067 18007 19495 16387 16063 11354 17084 12735 10896 10326 13591 10431 13345 18837 19103 12342 19395 12233 18250 17396 14695 17703 11184 17493 13123 18357 15414 13454 11903 11898 14697 10945 10875 18878 14995 16433 16435 17002 10890 19463 16214 17402 17905 19936 19297 11045 18455 999999 999999 999999 999999 999999 999999 999999 999999 999999 999999 999999 999999 0 999999 999999 999999 999999 999999 999999 999999 999999 999999 999999 999999 999999 999999 999999 999999 999999 999999 999999 999999 999999 999999 999999 999999 999999 999999 999999 999999 999999 999999 999999 999999 999999 999999 999999 999999 999999 999999 11994
999999 18151 14560 14234 13299 14546 18684 17924 16236 16095 16409 13703 13497 16867 12237 19160 12113 13247 18365 18369 10336 18647 18780 19575 12707 19717 12997 13245 12534 10959 19233 18769 13088 16036 11906 19148 18479 16959 16525 15841 18990 15112 16219 10364 18929 12078 16679 13602 18234 18832 11021 18731 18048 10587 18819 11294 15954 11446 10491 16050 12748 12751 17451 14373 16136 14287 11693 19302 12359 11733 18380 999999 999999 999999 999999 999999 999999 999999 999999 999999 999999 999999 999999 999999 0 999999 999999 999999 999999 999999 999999 999999 999999 999999 999999 999999 999999 999999 999999 999999 999999 999999 999999 999999 999999 999999 999999 999999 999999 999999 999999 999999 999999 999999 999999 999999 999999 999999 999999 999999 999999 10942
999999 12935 17222 18271 19980 10885 11036 19227 18285 15304 15570 16194 19016 15965 17576 11700 15593 15747 16274 14343 11861 12112 13655 13921 11219 18760 17805 13823 17768 14897 13648 13676 11374 16791 13636 14216 13552 12997 17061 18032 19620 16686 16189 19408 12549 16653 14749 11234 10033 18198 17326 17800 16546 15334 14250 13368 17160 17282 16792 10134 17221 12473 10240 18023 10039 18332 10037 19684 14691 14811 15339 999999 999999 999999 999999 999999 999999 999999 999999 999999 999999 999999 999999 999999 999999 0 999999 999999 999999 999999 999999 999999 999999 999999 999999 999999 999999 999999 999999 999999 999999 999999 999999 999999 999999 999999 999999 999999 999999 999999 999999 999999 999999 999999 999999 999999 999999 999999 999999 999999 999999 12563
999999 10053 13643 11936 19410 16233 11310 12008 17058 19680 10968 11676 13155 14392 17574 19622 16564 15564 15484 19207 19620 10955 13367 11252 19953 12359 12464 10498 13148 11693 18030 12332 19443 13102 10516 13990 17353 16712 16109 12414 15432 19149 17457 17693 10396 17818 11644 19251 19920 17274 17695 15480 11146 13132 13541 18164 19956 13737 17112 16034 13851 15126 14803 15809 15083 18147 15204 13793 17906 10340 12239 999999 999999 999999 999999 999999 999999 999999 999999 999999 999999 999999 999999 999999 999999 999999 0 999999 999999 999999 999999 999999 999999 999999 999999 999999 999999 999999 999999 999999 999999 999999 999999 999999 999999 999999 999999 999999 999999 999999 999999 999999 999999 999999 999999 999999 999999 999999 999999 999999 999999 12712
999999 11411 10065 17304 19713 16619 19022 19454 12350 16453 13420 14485 15346 12273 10293 16228 10937 13043 16108 19609 14336 12122 17928 12215 11172 15742 11125 11760 16993 18161 17305 14092 15710 14740 14405 19170 12740 14124 11441 14406 11927 17523 19589 18461 13766 17601 16734 11251 13499 15685 12650 15935 16424 18719 15663 13485 13623 19768 15073 10686 10096 17033 18552 14665 16287 11220 18197 13234 15306 18509 19562 999999 999999 999999 999999 999999 999999 999999 999999 999999 999999 999999 999999 999999 999999 999999 999999 0 999999 999999 999999 999999 999999 999999 999999 999999 999999 999999 999999 999999 999999 999999 999999 999999 999999 999999 999999 999999 999999 999999 999999 999999 999999 999999 999999 999999 999999 999999 999999 999999 999999 11369
999999 16323 19664 19984 15906 13742 10947 15269 14705 15720 14754 12842 13152 16197 17557 17117 12213 13272 15104 19960 18544 13754 16356 13514 17095 19826 16436 12663 16083 15291 19675 14529 18409 13720 14006 17284 14190 15337 18358 17088 12468 13800 13977 14257 13463 19722 13986 13464 17065 10751 14022 16801 16366 12507 18762 11303 18596 19146 15149 19432 18485 15386 15037 12965 14105 16616 15440 17345 19763 18317 18583 999999 999999 999999 999999 999999 999999 999999 999999 999999 999999 999999 999999 999999 999999 999999 999999 999999 0 999999 999999 999999 999999 999999 999999 999999 999999 999999 999999 999999 999999 999999 999999 999999 999999 999999 999999 999999 999999 999999 999999 999999 999999 999999 999999 999999 999999 999999 999999 999999 999999 9433
999999 13738 16426 18334 13043 18499 19841 19908 17972 14864 17297 15792 17504 10204 14089 18164 13625 13759 15007 15351 14182 17510 14446 12817 15515 19913 16983 11239 10850 18230 14156 10406 15816 18613 14807 12983 12792 14759 15149 15870 17401 14971 19736 18755 10198 13471 17040 10888 14616 18570 19433 17449 18123 13549 10537 12515 13363 10297 12210 16287 16059 15415 13652 14279 14657 19638 15842 12630 11961 14827 10989 999999 999999 999999 999999 999999 999999 999999 999999 999999 999999 999999 999999 999999 999999 999999 999999 999999 999999 0 999999 999999 999999 999999 999999 999999 999999 999999 999999 999999 999999 999999 999999 999999 999999 999999 999999 999999 999999 999999 999999 999999 999999 999999 999999 999999 999999 999999 999999 999999 999999 13418
999999 10782 17537 17342 15380 10043 19443 13819 19749 18359 15264 19302 11282 14306 10450 18271 13630 19886 11310 16119 10030 10757 13824 11888 17594 14143 13037 18353 19038 18315 13830 15120 16263 13232 11599 11579 10431 10067 11704 10651 13695 12228 10309 17374 15160 10317 10327 10923 14984 14784 12030 16138 16666 13191 16377 18625 14876 17272 13999 12153 10354 15443 19101 16993 10845 14195 15418 16905 18958 10636 16068 999999 999999 999999 999999 999999 999999 999999 999999 999999 999999 999999 999999 999999 999999 999999 999999 999999 999999 999999 0 999999 999999 999999 999999 999999 999999 999999 999999 999999 999999 999999 999999 999999 999999 999999 999999 999999 999999 999999 999999 999999 999999 999999 999999 999999 999999 999999 999999 999999 999999 9194
999999 17343 18796 13164 10625 12649 17996 10755 12523 10994 11479 16801 10915 11768 14860 11739 12388 18172 14591 11671 17156 12678 19112 15125 17729 14753 13417 19161 11935 19395 17174 15690 16730 15250 16604 10102 15142 13361 17775 16194 13091 18666 10374 10082 11451 15375 10151 15914 11737 12708 17871 11096 18315 12740 17244 16101 12875 14266 11286 17299 19719 14700 17097 12391 10772 12737 16439 19359 16000 10128 14853 999999 999999 999999 999999 999999 999999 999999 999999 999999 999999 999999 999999 999999 999999 999999 999999 999999 999999 999999 999999 0 999999 999999 999999 999999 999999 999999 999999 999999 999999 999999 999999 999999 999999 999999 999999 999999 999999 999999 999999 999999 999999 999999 999999 999999 999999 999999 999999 999999 999999 10671
999999 15336 10676 16203 18130 19637 14889 12961 16157 11156 15950 17589 16020 18886 17515 11748 17594 13761 10233 18531 11593 14187 19220 10701 12361 11981 15805 15808 14133 18196 10785 14332 15387 16301 11536 14062 17018 12148 11531 12455 15543 11619 18445 14497 19911 10616 11553 16090 10098 17848 11357 16858 10344 19750 11031 10008 19982 15511 18190 17865 13287 17266 12535 14383 14556 17708 11790 11339 10920 16143 18264 999999 999999 999999 999999 999999 999999 999999 999999 999999 999999 999999 999999 999999 999999 999999 999999 999999 999999 999999 999999 999999 0 999999 999999 999999 999999 999999 999999 999999 999999 999999 999999 999999 999999 999999 999999 999999 999999 999999 999999 999999 999999 999999 999999 999999 999999 999999 999999 999999 999999 10881
999999 16138 17977 11416 11918 19080 15255 11853 17415 16739 14848 18926 19861 17592 17323 10231 13720 10269 12338 15441 15447 19716 14551 14058 18263 11869 15164 15086 15484 18995 18991 14757 17711 19049 10262 19253 16046 18458 17233 14203 12549 14576 11509 10539 17195 18555 16334 10583 12950 18428 10697 17515 17309 10155 17996 19402 13441 17145 11557 17945 15131 11802 19715 11043 10458 18420 17844 11676 16470 17250 10110 999999 999999 999999 999999 999999 999999 999999 999999 999999 999999 999999 999999 999999 999999 999999 999999 999999 999999 999999 999999 999999 999999 0 999999 999999 999999 999999 999999 999999 999999 999999 999999 999999 999999 999999 999999 999999 999999 999999 999999 999999 999999 999999 999999 999999 999999 999999 999999 999999 999999 13695
999999 13510 19634 11845 14561 12351 18174 10737 16109 12638 12942 18593 16643 16481 10949 16956 19596 13019 13712 17309 13402 17204 19272 19748 16886 15614 14269 13660 10069 19865 19641 15692 12406 15682 10759 11405 12126 14029 14303 16396 12635 12164 12470 12591 12827 14191 11241 12627 11280 17710 19881 19303 14473 15528 19682 15201 19332 14608 13424 12866 15007 11844 11518 18625 14692 15754 16186 11231 13593 17751 12490 999999 999999 999999 999999 999999 999999 999999 999999 999999 999999 999999 999999 999999 999999 999999 999999 999999 999999 999999 999999 999999 999999 999999 0 999999 999999 999999 999999 999999 999999 999999 999999 999999 999999 999999 999999 999999 999999 999999 999999 999999 999999 999999 999999 999999 999999 999999 999999 999999 999999 8071
999999 18873 19448 15821 16782 11640 15250 13732 16844 19977 18638 13147 19251 12631 17386 11058 13335 17467 19417 14451 16335 12713 12682 11416 10450 19036 13976 10918 12490 19520 16973 11549 11995 15284 18474 11577 15643 14029 13321 16527 17519 19452 13645 13897 17881 15370 13868 14933 12000 16912 15424 14046 13835 14337 19608 12828 15147 10474 15598 15680 12726 15997 14603 19221 19606 15012 14534 14287 14296 12730 12817 999999 999999 999999 999999 999999 999999 999999 999999 999999 999999 999999 999999 999999 999999 999999 999999 999999 999999 999999 999999 999999 999999 999999 999999 0 999999 999999 999999 999999 999999 999999 999999 999999 999999 999999 999999 999999 999999 999999 999999 999999 999999 999999 999999 999999 999999 999999 999999 999999 999999 11861
999999 17160 18637 13066 19818 18562 16909 10859 15554 16413 10339 19908 17651 12337 18797 16443 14935 19439 13374 13660 12764 14621 18484 10551 13012 12837 17010 11713 10696 16348 12579 19444 19820 15329 15616 10289 18582 17031 13870 15105 19120 13969 18662 18688 19831 13691 17534 16582 11929 19281 16629 11137 14447 10734 14940 14661 12290 17640 19968 13255 11068 18601 10181 17164 11034 10290 16461 12747 17118 10722 17052 999999 999999 999999 999999 999999 999999 999999 999999 999999 999999 999999 999999 999999 999999 999999 999999 999999 999999 999999 999999 999999 999999 999999 999999 999999 0 999999 999999 999999 999999 999999 999999 999999 999999 999999 999999 999999 999999 999999 999999 999999 999999 999999 999999 999999 999999 999999 999999 999999 999999 10318
999999 17045 12299 13442 17609 11726 12740 17785 12769 17025 18751 16776 10869 17603 14457 18270 17206 11781 13672 11925 11132 13064 10189 19475 11963 11217 17718 14279 13606 12531 18500 14405 16451 18572 16719 13456 15013 12988 18398 10086 13937 17849 17556 11440 15364 10362 15048 19874 14928 12570 15519 12622 14964 17321 19421 15495 17700 19816 11813 18609 12294 12252 17753 19009 18188 13637 15933 19294 10407 11335 17533 999999 999999 999999 999999 999999 999999 999999 999999 999999 999999 999999 999999 999999 999999 999999 999999 999999 999999 999999 999999 999999 999999 999999 999999 999999 999999 0 999999 999999 999999 999999 999999 999999 999999 999999 999999 999999 999999 999999 999999 999999 999999 999999 999999 999999 999999 999999 999999 999999 999999 7302
999999 16188 16080 11676 16192 15073 14206 18375 10077 12482 10021 11482 12555 16398 15466 11287 14805 18937 19317 17246 15245 10998 17965 13151 11320 15675 17182 15127 12269 10650 17241 13514 14649 18813 12044 10885 11649 19655 12189 16836 11496 11229 18180 15749 10582 14824 13271 16360 17844 12804 12207 13742 11329 11868 19844 11249 16148 19823 18494 14332 18010 13683 19514 12650 15691 13233 15893 19816 13910 17910 17806 999999 999999 999999 999999 999999 999999 999999 999999 999999 999999 999999 999999 999999 999999 999999 999999 999999 999999 999999 999999 999999 999999 999999 999999 999999 999999 999999 0 999999 999999 999999 999999 999999 999999 999999 999999 999999 999999 999999 999999 999999 999999 999999 999999 999999 999999 999999 999999 999999 999999 13868
999999 18185 16370 13820 18340 13781 19033 17221 12856 11386 14916 18502 10011 14363 17988 18327 13561 16899 15724 11208 15032 10292 13577 19647 14296 17632 16497 10733 14530 15312 14122 11776 17296 13405 14787 19146 15192 17439 18254 12976 11379 15994 15691 12089 17109 16244 13042 11488 17933 12327 18113 14325 13364 10027 17076 14399 16637 13137 11922 19640 18342 19172 17260 19537 16368 17453 18193 14147 12751 13095 15233 999999 999999 999999 999999 999999 999999 999999 999999 999999 999999 999999 999999 999999 999999 999999 999999 999999 999999 999999 999999 999999 999999 999999 999999 999999 999999 999999 999999 0 999999 999999 999999 999999 999999 999999 999999 999999 999999 999999 999999 999999 999999 999999 999999 999999 999999 999999 999999 999999 999999 13491
999999 10385 10545 10236 10905 15244 18678 14845 12048 15744 14435 17604 15397 17417 16520 13018 10856 11947 16331 19297 17926 11882 19664 11061 16581 19124 15609 10600 12779 13907 16750 15522 19624 11567 12258 19838 10009 10440 14000 10780 19408 16279 13339 19182 13114 15246 11187 15661 13466 18454 17238 15970 19176 13930 11116 13374 14434 11303 18491 18919 11766 17423 19236 18981 16163 18216 19699 12969 15473 13218 13953 999999 999999 999999 999999 999999 999999 999999 999999 999999 999999 999999 999999 999999 999999 999999 999999 999999 999999 999999 999999 999999 999999 999999 999999 999999 999999 999999 999999 999999 0 999999 999999 999999 999999 999999 999999 999999 999999 999999 999999 999999 999999 999999 999999 999999 999999 999999 999999 999999 999999 11163
999999 14612 14789 16657 18521 17580 12871 11627 15872 18438 19657 10103 16550 18002 16319 16287 14108 13277 11144 15026 12105 11750 15401 10275 10795 19654 15196 12116 17729 15318 18801 16091 13763 19927 15435 10131 18996 11562 18306 10625 19605 17190 15622 16541 19986 13961 16781 17101 14870 10028 15677 13228 19106 11117 14743 10690 10658 17357 15246 15066 17759 18376 19722 19336 18160 11412 10346 18551 10852 16828 13533 999999 999999 999999 999999 999999 999999 999999 999999 999999 999999 999999 999999 999999 999999 999999 999999 999999 999999 999999 999999 999999 999999 999999 999999 999999 999999 999999 999999 999999 999999 0 999999 999999 999999 999999 999999 999999 999999 999999 999999 999999 999999 999999 999999 999999 999999 999999 999999 999999 999999 10736
999999 14288 13327 17456 13542 15774 10604 13569 11305 16413 14995 15964 18290 19998 18086 15166 16543 11646 12426 15040 19577 13981 10433 12877 13362 12401 14083 18979 15323 15487 19559 19396 14027 13181 17529 11618 16089 15394 15243 12245 12284 17446 11319 18264 10854 19044 15406 17489 13443 19199 18900 12147 18651 12616 18475 12780 15771 10399 15744 13910 13741 15331 17460 15002 17012 15146 10069 10272 10195 14026 19555 999999 999999 999999 999999 999999 999999 999999 999999 999999 999999 999999 999999 999999 999999 999999 999999 999999 999999 999999 999999 999999 999999 999999 999999 999999 999999 999999 999999 999999 999999 999999 0 999999 999999 999999 999999 999999 999999 999999 999999 999999 999999 999999 999999 999999 999999 999999 999999 999999 999999 8683
999999 18033 14258 10631 18562 14373 19740 12944 10029 12495 18106 11613 10226 18877 18254 10309 12138 19585 10132 16124 12459 12359 12887 10828 11072 16631 17809 16246 13234 15778 13279 16846 14537 10863 19491 17457 18875 18957 16033 18547 19703 18794 11081 16784 17764 11631 11928 16062 16785 11195 14727 13600 18525 15226 13708 15471 15153 16173 11474 15035 14811 11959 12380 10892 18010 15133 15445 13817 18013 15828 10723 999999 999999 999999 999999 999999 999999 999999 999999 999999 999999 999999 999999 999999 999999 999999 999999 999999 999999 999999 999999 999999 999999 999999 999999 999999 999999 999999 999999 999999 999999 999999 999999 0 999999 999999 999999 999999 999999 999999 999999 999999 999999 999999 999999 999999 999999 999999 999999 999999 999999 7304
999999 11840 19524 10018 13994 16526 13666 19928 19466 17029 12444 13803 10896 15102 12535 12718 10776 10048 18397 17257 14466 17318 11359 15418 17677 13577 12928 19944 15886 13076 14955 15166 12253 10310 14934 15118 11091 12333 13325 10331 14909 19048 12036 11137 10868 10908 12630 15782 12160 14748 12206 16749 17379 17263 19420 18352 14186 15275 12931 13459 11885 19048 18980 13683 17500 16488 19038 11445 19122 13605 18623 999999 999999 999999 999999 999999 999999 999999 999999 999999 999999 999999 999999 999999 999999 999999 999999 999999 999999 999999 999999 999999 999999 999999 999999 999999 999999 999999 999999 999999 999999 999999 999999 999999 0 999999 999999 999999 999999 999999 999999 999999 999999 999999 999999 999999 999999 999999 999999 999999 999999 9253
999999 10452 14902 19345 12747 12150 15548 14014 12669 12591 17851 14589 10207 16320 10944 18022 14091 17063 17935 12247 15124 18021 11926 16001 18451 14741 16879 14676 17699 19831 10877 12971 16024 15237 16407 10049 12114 17009 19307 19470 13887 11196 14043 12539 11768 18013 11453 16374 19685 14417 19738 13641 14771 12023 16212 17073 11903 16740 13983 19397 19772 15172 13122 12760 16687 19864 15452 10055 13647 18368 11424 999999 999999 999999 999999 999999 999999 999999 999999 999999 999999 999999 999999 999999 999999 999999 999999 999999 999999 999999 999999 999999 999999 999999 999999 999999 999999 999999 999999 999999 999999 999999 999999 999999 999999 0 999999 999999 999999 999999 999999 999999 999999 999999 999999 999999 999999 999999 999999 999999 999999 7381
999999 10501 18725 13032 16544 17848 10509 18787 12675 17326 13720 15049 12873 15363 11652 12901 16149 16266 10738 11491 12442 15580 17305 10460 15100 10395 18327 13584 12059 18972 13111 15090 10683 14461 17204 13606 13346 15869 18122 13994 15001 19610 16479 16643 15397 13206 13306 10972 11681 18265 15108 10570 10632 15959 11742 19086 16367 12327 19061 10831 13127 16247 18114 17422 15175 17577 12797 10944 18180 15077 12201 999999 999999 999999 999999 999999 999999 999999 999999 999999 999999 999999 999999 999999 999999 999999 999999 999999 999999 999999 999999 999999 999999 999999 999999 999999 999999 999999 999999 999999 999999 999999 999999 999999 999999 999999 0 999999 999999 999999 999999 999999 999999 999999 999999 999999 999999 999999 999999 999999 999999 7667
999999 13204 14553 18329 16807 11463 12609 15331 13003 13876 13907 10216 10886 12778 12415 14080 13936 17070 13372 10237 17158 16169 18535 12795 19944 18262 11791 17652 11406 11514 16391 17412 15922 16226 14659 11512 19531 18971 12744 19839 15767 10389 16165 17323 18825 13485 17599 10672 16426 18375 11654 12733 15360 16712 17119 12662 17449 17045 10839 11846 19678 17351 11565 19812 12743 18452 16865 13043 13782 16804 18141 999999 999999 999999 999999 999999 999999 999999 999999 999999 999999 999999 999999 999999 999999 999999 999999 999999 999999 999999 999999 999999 999999 999999 999999 999999 999999 999999 999999 999999 999999 999999 999999 999999 999999 999999 999999 0 999999 999999 999999 999999 999999 999999 999999 999999 999999 999999 999999 999999 999999 12599
999999 12009 15598 11513 17973 11077 19284 16586 11494 15686 18615 16779 16552 12386 13867 13262 19448 18968 17902 10448 13828 19907 15557 11541 14142 19281 10101 17705 16710 17103 12764 14595 13162 15031 19424 11066 13356 14899 16782 14190 17228 11336 11537 18168 16592 15380 14948 18073 12240 17469 15898 12659 13606 12498 17045 19818 10453 19472 13912 16949 10429 10508 18968 10746 14311 16275 17228 15164 11613 14514 19710 999999 999999 999999 999999 999999 999999 999999 999999 999999 999999 999999 999999 999999 999999 999999 999999 999999 999999 999999 999999 999999 999999 999999 999999 999999 999999 999999 999999 999999 999999 999999 999999 999999 999999 999999 999999 999999 0 999999 999999 999999 999999 999999 999999 999999 999999 999999 999999 999999 999999 14486
999999 10281 17833 11037 13594 10558 12278 19366 15030 16285 10311 15887 13545 18276 17805 18196 11762 16236 17588 10898 10759 14156 10595 11713 15121 18443 18283 12896 19185 18581 17439 13330 10094 12907 17531 11506 18307 15704 13147 10132 13909 10035 17381 19037 13590 10607 10825 14611 19373 13013 18759 15192 15635 12135 14951 18247 10708 13632 17237 14866 14446 15159 18250 16793 15721 18232 12880 10887 18348 13216 17625 999999 999999 999999 999999 999999 999999 999999 999999 999999 999999 999999 999999 999999 999999 999999 999999 999999 999999 999999 999999 999999 999999 999999 999999 999999 999999 999999 999999 999999 999999 999999 999999 999999 999999 999999 999999 999999 999999 0 999999 999999 999999 999999 999999 999999 999999 999999 999999 999999 999999 14014
999999 16308 15703 17227 14430 17608 15303 10882 17706 16109 19133 18453 14083 15494 16607 12797 11697 18864 12896 11841 15454 12654 17898 18956 14235 12175 14311 10937 11259 16825 18006 17185 10828 18578 17533 16720 13478 13428 18773 19615 15697 10441 11207 16205 13332 12264 16952 11276 10210 12007 12794 13947 16121 15766 10246 14782 11555 19508 12288 10389 11298 10500 15754 19010 16025 11529 11259 12582 14437 13199 17346 999999 999999 999999 999999 999999 999999 999999 999999 999999 999999 999999 999999 999999 999999 999999 999999 999999 999999 999999 999999 999999 999999 999999 999999 999999 999999 999999 999999 999999 999999 999999 999999 999999 999999 999999 999999 999999 999999 999999 0 999999 999999 999999 999999 999999 999999 999999 999999 999999 999999 7175
999999 18886 14055 18776 11392 10831 13254 18253 19405 13531 18012 15723 14836 13234 18110 11633 12341 18930 16375 17802 14448 17171 15275 11854 17642 16692 11692 16695 17894 17266 17195 16074 13204 18897 10615 10141 15409 12188 18896 15789 18160 14640 14014 14594 16695 12671 18765 17283 13457 12482 14043 14695 15181 17527 12771 10919 13875 10750 17332 13259 14173 16904 11482 18712 19092 11943 19844 15150 11865 16858 18991 999999 999999 999999 999999 999999 999999 999999 999999 999999 999999 999999 999999 999999 999999 999999 999999 999999 999999 999999 999999 999999 999999 999999 999999 999999 999999 999999 999999 999999 999999 999999 999999 999999 999999 999999 999999 999999 999999 999999 999999 0 999999 999999 999999 999999 999999 999999 999999 999999 999999 8078
999999 19460 12013 19103 13421 14479 17256 11571 17214 11748 16140 14585 11444 15027 12515 10622 15580 19483 15986 15596 12697 12679 19707 19573 17926 11994 19332 16309 14143 10626 15340 14229 19536 16269 18390 13544 19883 13698 19018 15056 17108 11552 18839 13787 13771 15544 11544 14092 10308 17090 12331 13671 13847 13644 19821 12762 10651 17689 16206 16991 13091 11848 14028 13461 17766 14339 18113 13816 15739 13608 11462 999999 999999 999999 999999 999999 999999 999999 999999 999999 999999 999999 999999 999999 999999 999999 999999 999999 999999 999999 999999 999999 999999 999999 999999 999999 999999 999999 999999 999999 999999 999999 999999 999999 999999 999999 999999 999999 999999 999999 999999 999999 0 999999 999999 999999 999999 999999 999999 999999 999999 9942
999999 15685 18916 13335 10694 10846 13190 16973 10533 13557 16744 19972 16984 15120 10131 18702 14680 10060 13899 11298 19072 17615 19790 16021 11311 11481 12955 14282 13961 14512 15143 14780 18039 18812 14124 12191 17817 16466 11802 16321 14986 18083 13907 10237 10604 11936 18385 19978 13560 12855 10461 10814 14240 17450 19550 11300 16390 15852 17973 19407 11168 10165 13372 10350 14544 15114 14047 19605 18789 18094 14701 999999 999999 999999 999999 999999 999999 999999 999999 999999 999999 999999 999999 999999 999999 999999 999999 999999 999999 999999 999999 999999 999999 999999 999999 999999 999999 999999 999999 999999 999999 999999 999999 999999 999999 999999 999999 999999 999999 999999 999999 999999 999999 0 999999 999999 999999 999999 999999 999999 999999 10264
999999 15536 18355 14810 18509 17534 14379 12871 11992 13915 11721 13530 14014 14970 18526 15453 15355 11076 11065 14239 17627 10864 14208 18672 11527 10942 15553 19674 10541 17505 18478 12923 17628 10672 17600 19403 17000 17839 17872 19571 19724 19982 17903 12606 13913 17850 18487 11329 11654 17748 12981 19383 12041 12259 19191 17092 11083 12316 12967 14160 15562 17994 16245 19871 15892 18914 15691 14771 12755 19507 13106 999999 999999 999999 999999 999999 999999 999999 999999 999999 999999 999999 999999 999999 999999 999999 999999 999999 999999 999999 999999 999999 999999 999999 999999 999999 999999 999999 999999 999999 999999 999999 999999 999999 999999 999999 999999 999999 999999 999999 999999 999999 999999 999999 0 999999 999999 999999 999999 999999 999999 7365
999999 11100 17250 10970 12800 17930 16483 19585 15848 14274 10428 10611 16871 11644 11523 15243 12469 16180 12501 18884 19779 18013 16074 18697 19230 12227 13692 13489 18338 16789 17045 13986 16853 12915 10243 10387 18669 19854 18391 14100 13227 14069 19258 12103 10862 14980 10514 14909 18291 14197 18717 12815 18298 13757 15653 17060 13764 11843 10508 13955 17373 15395 11668 15330 18313 18444 13091 10469 12647 16810 19374 999999 999999 999999 999999 999999 999999 999999 999999 999999 999999 999999 999999 999999 999999 999999 999999 999999 999999 999999 999999 999999 999999 999999 999999 999999 999999 999999 999999 999999 999999 999999 999999 999999 999999 999999 999999 999999 999999 999999 999999 999999 999999 999999 999999 0 999999 999999 999999 999999 999999 5823
999999 15930 14047 12732 13214 17316 19559 16702 16106 15291 15912 12065 19588 16935 15130 14907 15584 10169 16851 18288 13406 12378 15446 19165 14705 15063 19641 19097 18519 12561 18826 17827 18495 18160 19193 18235 11850 18706 14616 19051 10918 10688 13788 10018 15723 17014 11203 14002 18194 11065 18447 19350 11922 16510 12433 15626 10878 10830 10459 15218 17785 13914 12415 18236 15126 12273 12536 17077 19670 13588 10285 999999 999999 999999 999999 999999 999999 999999 999999 999999 999999 999999 999999 999999 999999 999999 999999 999999 999999 999999 999999 999999 999999 999999 999999 999999 999999 999999 999999 999999 999999 999999 999999 999999 999999 999999 999999 999999 999999 999999 999999 999999 999999 999999 999999 999999 0 999999 999999 999999 999999 7461
999999 15622 17870 19890 17453 18989 13138 16341 15697 17541 15710 18506 18691 10209 11991 14427 11843 12402 17790 19994 18118 11360 18159 10094 10409 17985 10242 13675 12427 16114 18535 17712 15627 18349 18776 14584 16090 14005 15590 11181 12152 19898 19089 14893 19477 18810 14362 11754 14160 18266 11316 12642 12058 12748 16595 15391 16800 15983 10691 12408 17718 16886 15346 17998 17031 15175 17564 18873 19715 15930 13763 999999 999999 999999 999999 999999 999999 999999 999999 999999 999999 999999 999999 999999 999999 999999 999999 999999 999999 999999 999999 999999 999999 999999 999999 999999 999999 999999 999999 999999 999999 999999 999999 999999 999999 999999 999999 999999 999999 999999 999999 999999 999999 999999 999999 999999 999999 0 999999 999999 999999 7408
999999 17615 12090 16131 16204 15073 13542 19232 13472 17945 15599 19873 14249 10063 13220 19781 11702 12416 15410 12436 18501 13480 19086 16925 14710 16112 16039 17189 15278 13888 19027 14818 12397 11731 16765 16733 14701 15273 10200 12392 10056 13118 17175 14918 10308 10112 13403 17309 15881 11259 19626 13508 19349 19836 19881 19424 10043 18437 14418 13610 12894 16913 18158 10313 17945 15366 14882 14818 15635 17671 10728 999999 999999 999999 999999 999999 999999 999999 999999 999999 999999 999999 999999 999999 999999 999999 999999 999999 999999 999999 999999 999999 999999 999999 999999 999999 999999 999999 999999 999999 999999 999999 999999 999999 999999 999999 999999 999999 999999 999999 999999 999999 999999 999999 999999 999999 999999 999999 0 999999 999999 6203
999999 16107 16788 16602 14679 17527 10112 17335 18967 10459 18239 14861 11570 10381 16698 12870 18774 13022 16703 13344 10485 18425 18521 19966 17103 15685 12917 10057 18097 14006 10322 13317 17062 15359 12472 18362 12820 18085 10324 11908 13276 17163 18939 17139 11347 11483 14168 16179 13537 17679 13030 11470 16548 18944 11288 16561 12625 19460 15420 16870 13630 11497 13056 10510 12378 17252 14109 17253 17486 16001 17386 999999 999999 999999 999999 999999 999999 999999 999999 999999 999999 999999 999999 999999 999999 999999 999999 999999 999999 999999 999999 999999 999999 999999 999999 999999 999999 999999 999999 999999 999999 999999 999999 999999 999999 999999 999999 999999 999999 999999 999999 999999 999999 999999 999999 999999 999999 999999 999999 0 999999 12701
999999 19294 11299 12461 17265 12313 13481 11955 13159 12945 14016 13390 12614 11259 19556 18692 15439 18722 16619 18824 11459 10736 18468 15784 15443 16854 15417 13817 18197 13069 13443 19445 16391 15210 17242 11711 17112 11865 19117 10569 15239 15484 19116 11756 16624 14795 19368 11774 12075 16556 12023 10091 14687 18315 17115 14353 13775 14582 13009 15489 16095 19470 12611 14311 13951 12307 14206 13101 19897 13581 19376 999999 999999 999999 999999 999999 999999 999999 999999 999999 999999 999999 999999 999999 999999 999999 999999 999999 999999 999999 999999 999999 999999 999999 999999 999999 999999 999999 999999 999999 999999 999999 999999 999999 999999 999999 999999 999999 999999 999999 999999 999999 999999 999999 999999 999999 999999 999999 999999 999999 0 14813
1 999999 999999 999999 999999 999999 999999 999999 999999 999999 999999 999999 999999 999999 999999 999999 999999 999999 999999 999999 999999 999999 999999 999999 999999 999999 999999 999999 999999 999999 999999 999999 999999 999999 999999 999999 999999 999999 999999 999999 999999 999999 999999 999999 999999 999999 999999 999999 999999 999999 999999 999999 999999 999999 999999 999999 999999 999999 999999 999999 999999 999999 999999 999999 999999 999999 999999 999999 999999 999999 999999 999999 999999 999999 999999 999999 999999 999999 999999 999999 999999 999999 999999 999999 999999 999999 999999 999999 999999 999999 999999 999999 999999 999999 999999 999999 999999 999999 999999 999999 999999 999999 999999 999999 999999 999999 999999 999999 999999 999999 999999 999999 999999 999999 999999 999999 999999 999999 999999 999999 999999 0
EOF