NAME: GR_1x5x6_KH_5x6_Run_6
TYPE: TSP
COMMENT: BTSP instance |A|=30 GR nodes |B|=30 KH nodes depot=0.0 end=0.0.0
DIMENSION: 62
EDGE_WEIGHT_TYPE: EXPLICIT
EDGE_WEIGHT_FORMAT: FULL_MATRIX
NODE_COORD_TYPE: NO_COORDS
EDGE_WEIGHT_SECTION
0 13876 10104 11761 7744 10501 12288 6381 7641 7685 11411 5305 5255 9179 11894 8990 12372 7226 13562 8933 8835 11440 13497 7127 13748 7916 8394 12467 13496 14523 10475 999999 999999 999999 999999 999999 999999 999999 999999 999999 999999 999999 999999 999999 999999 999999 999999 999999 999999 999999 999999 999999 999999 999999 999999 999999 999999 999999 999999 999999 999999 999999
999999 0 999999 999999 999999 999999 999999 999999 999999 999999 999999 999999 999999 999999 999999 999999 999999 999999 999999 999999 999999 999999 999999 999999 999999 999999 999999 999999 999999 999999 999999 999999 999999 999999 999999 999999 999999 999999 17542 999999 999999 999999 12556 999999 999999 999999 999999 999999 18560 12981 19983 999999 999999 999999 999999 999999 999999 999999 999999 19961 999999 999999
999999 999999 0 999999 999999 999999 999999 999999 999999 999999 999999 999999 999999 999999 999999 999999 999999 999999 999999 999999 999999 999999 999999 999999 999999 999999 999999 999999 999999 999999 999999 999999 999999 999999 999999 999999 999999 999999 16773 999999 999999 999999 15000 999999 999999 999999 999999 999999 18615 13926 13275 999999 999999 999999 999999 999999 999999 999999 999999 13071 999999 999999
999999 999999 999999 0 999999 999999 999999 999999 999999 999999 999999 999999 999999 999999 999999 999999 999999 999999 999999 999999 999999 999999 999999 999999 999999 999999 999999 999999 999999 999999 999999 999999 999999 999999 999999 999999 999999 999999 13410 999999 999999 999999 17209 999999 999999 999999 999999 999999 16573 14334 14917 999999 999999 999999 999999 999999 999999 999999 999999 16954 999999 999999
999999 999999 999999 999999 0 999999 999999 999999 999999 999999 999999 999999 999999 999999 999999 999999 999999 999999 999999 999999 999999 999999 999999 999999 999999 999999 999999 999999 999999 999999 999999 999999 999999 999999 999999 999999 999999 999999 18107 999999 999999 999999 16668 999999 999999 999999 999999 999999 13353 17418 18925 999999 999999 999999 999999 999999 999999 999999 999999 18885 999999 999999
999999 999999 999999 999999 999999 0 999999 999999 999999 999999 999999 999999 999999 999999 999999 999999 999999 999999 999999 999999 999999 999999 999999 999999 999999 999999 999999 999999 999999 999999 999999 999999 999999 999999 999999 999999 999999 999999 15503 999999 999999 999999 14567 999999 999999 999999 999999 999999 10803 16946 16045 999999 999999 999999 999999 999999 999999 999999 999999 14628 999999 999999
999999 999999 999999 999999 999999 999999 0 999999 999999 999999 999999 999999 999999 999999 999999 999999 999999 999999 999999 999999 999999 999999 999999 999999 999999 999999 999999 999999 999999 999999 999999 999999 999999 999999 999999 999999 999999 999999 15899 999999 999999 999999 19997 999999 999999 999999 999999 999999 19812 13823 12595 999999 999999 999999 999999 999999 999999 999999 999999 12662 999999 999999
999999 999999 999999 999999 999999 999999 999999 0 999999 999999 999999 999999 999999 999999 999999 999999 999999 999999 999999 999999 999999 999999 999999 999999 999999 999999 999999 999999 999999 999999 999999 999999 999999 999999 999999 999999 999999 999999 999999 999999 999999 999999 999999 18253 999999 12220 14249 999999 999999 999999 999999 17798 999999 999999 999999 999999 999999 17848 18285 999999 999999 999999
999999 999999 999999 999999 999999 999999 999999 999999 0 999999 999999 999999 999999 999999 999999 999999 999999 999999 999999 999999 999999 999999 999999 999999 999999 999999 999999 999999 999999 999999 999999 999999 999999 999999 999999 999999 999999 999999 999999 999999 999999 999999 999999 18841 999999 13954 18017 999999 999999 999999 999999 18874 999999 999999 999999 999999 999999 11039 11741 999999 999999 999999
999999 999999 999999 999999 999999 999999 999999 999999 999999 0 999999 999999 999999 999999 999999 999999 999999 999999 999999 999999 999999 999999 999999 999999 999999 999999 999999 999999 999999 999999 999999 999999 999999 999999 999999 999999 999999 999999 999999 999999 999999 999999 999999 15524 999999 19572 16718 999999 999999 999999 999999 11131 999999 999999 999999 999999 999999 10345 19835 999999 999999 999999
999999 999999 999999 999999 999999 999999 999999 999999 999999 999999 0 999999 999999 999999 999999 999999 999999 999999 999999 999999 999999 999999 999999 999999 999999 999999 999999 999999 999999 999999 999999 999999 999999 999999 999999 999999 999999 999999 999999 999999 999999 999999 999999 19641 999999 13291 19277 999999 999999 999999 999999 12422 999999 999999 999999 999999 999999 10358 11383 999999 999999 999999
999999 999999 999999 999999 999999 999999 999999 999999 999999 999999 999999 0 999999 999999 999999 999999 999999 999999 999999 999999 999999 999999 999999 999999 999999 999999 999999 999999 999999 999999 999999 999999 999999 999999 999999 999999 999999 999999 999999 999999 999999 999999 999999 15145 999999 12187 14373 999999 999999 999999 999999 16096 999999 999999 999999 999999 999999 12614 12423 999999 999999 999999
999999 999999 999999 999999 999999 999999 999999 999999 999999 999999 999999 999999 0 999999 999999 999999 999999 999999 999999 999999 999999 999999 999999 999999 999999 999999 999999 999999 999999 999999 999999 999999 999999 999999 999999 999999 999999 999999 999999 999999 999999 999999 999999 18971 999999 17243 16461 999999 999999 999999 999999 16418 999999 999999 999999 999999 999999 13766 13655 999999 999999 999999
999999 999999 999999 999999 999999 999999 999999 999999 999999 999999 999999 999999 999999 0 999999 999999 999999 999999 999999 999999 999999 999999 999999 999999 999999 999999 999999 999999 999999 999999 999999 999999 999999 999999 12752 999999 999999 11501 999999 999999 999999 17065 999999 999999 999999 999999 999999 999999 999999 999999 999999 999999 999999 10050 999999 12855 13830 999999 999999 999999 999999 999999
999999 999999 999999 999999 999999 999999 999999 999999 999999 999999 999999 999999 999999 999999 0 999999 999999 999999 999999 999999 999999 999999 999999 999999 999999 999999 999999 999999 999999 999999 999999 999999 999999 999999 16913 999999 999999 19262 999999 999999 999999 15493 999999 999999 999999 999999 999999 999999 999999 999999 999999 999999 999999 14692 999999 17364 15378 999999 999999 999999 999999 999999
999999 999999 999999 999999 999999 999999 999999 999999 999999 999999 999999 999999 999999 999999 999999 0 999999 999999 999999 999999 999999 999999 999999 999999 999999 999999 999999 999999 999999 999999 999999 999999 999999 999999 15614 999999 999999 18673 999999 999999 999999 11129 999999 999999 999999 999999 999999 999999 999999 999999 999999 999999 999999 10847 999999 16195 10554 999999 999999 999999 999999 999999
999999 999999 999999 999999 999999 999999 999999 999999 999999 999999 999999 999999 999999 999999 999999 999999 0 999999 999999 999999 999999 999999 999999 999999 999999 999999 999999 999999 999999 999999 999999 999999 999999 999999 15231 999999 999999 12978 999999 999999 999999 16228 999999 999999 999999 999999 999999 999999 999999 999999 999999 999999 999999 18241 999999 16844 11242 999999 999999 999999 999999 999999
999999 999999 999999 999999 999999 999999 999999 999999 999999 999999 999999 999999 999999 999999 999999 999999 999999 0 999999 999999 999999 999999 999999 999999 999999 999999 999999 999999 999999 999999 999999 999999 999999 999999 16266 999999 999999 17616 999999 999999 999999 18311 999999 999999 999999 999999 999999 999999 999999 999999 999999 999999 999999 11169 999999 13451 15395 999999 999999 999999 999999 999999
999999 999999 999999 999999 999999 999999 999999 999999 999999 999999 999999 999999 999999 999999 999999 999999 999999 999999 0 999999 999999 999999 999999 999999 999999 999999 999999 999999 999999 999999 999999 999999 999999 999999 17645 999999 999999 12788 999999 999999 999999 10848 999999 999999 999999 999999 999999 999999 999999 999999 999999 999999 999999 13583 999999 11905 13969 999999 999999 999999 999999 999999
999999 999999 999999 999999 999999 999999 999999 999999 999999 999999 999999 999999 999999 999999 999999 999999 999999 999999 999999 0 999999 999999 999999 999999 999999 999999 999999 999999 999999 999999 999999 999999 11300 13116 999999 999999 999999 999999 999999 999999 999999 999999 999999 999999 999999 999999 999999 18775 999999 999999 999999 999999 12479 999999 11513 999999 999999 999999 999999 999999 14856 999999
999999 999999 999999 999999 999999 999999 999999 999999 999999 999999 999999 999999 999999 999999 999999 999999 999999 999999 999999 999999 0 999999 999999 999999 999999 999999 999999 999999 999999 999999 999999 999999 15645 14024 999999 999999 999999 999999 999999 999999 999999 999999 999999 999999 999999 999999 999999 11402 999999 999999 999999 999999 13734 999999 18598 999999 999999 999999 999999 999999 14633 999999
999999 999999 999999 999999 999999 999999 999999 999999 999999 999999 999999 999999 999999 999999 999999 999999 999999 999999 999999 999999 999999 0 999999 999999 999999 999999 999999 999999 999999 999999 999999 999999 19774 15644 999999 999999 999999 999999 999999 999999 999999 999999 999999 999999 999999 999999 999999 19353 999999 999999 999999 999999 10543 999999 13353 999999 999999 999999 999999 999999 18984 999999
999999 999999 999999 999999 999999 999999 999999 999999 999999 999999 999999 999999 999999 999999 999999 999999 999999 999999 999999 999999 999999 999999 0 999999 999999 999999 999999 999999 999999 999999 999999 999999 11470 15564 999999 999999 999999 999999 999999 999999 999999 999999 999999 999999 999999 999999 999999 15529 999999 999999 999999 999999 13227 999999 18032 999999 999999 999999 999999 999999 13660 999999
999999 999999 999999 999999 999999 999999 999999 999999 999999 999999 999999 999999 999999 999999 999999 999999 999999 999999 999999 999999 999999 999999 999999 0 999999 999999 999999 999999 999999 999999 999999 999999 12442 17711 999999 999999 999999 999999 999999 999999 999999 999999 999999 999999 999999 999999 999999 19993 999999 999999 999999 999999 16576 999999 13630 999999 999999 999999 999999 999999 18347 999999
999999 999999 999999 999999 999999 999999 999999 999999 999999 999999 999999 999999 999999 999999 999999 999999 999999 999999 999999 999999 999999 999999 999999 999999 0 999999 999999 999999 999999 999999 999999 999999 18109 17045 999999 999999 999999 999999 999999 999999 999999 999999 999999 999999 999999 999999 999999 10512 999999 999999 999999 999999 18746 999999 18299 999999 999999 999999 999999 999999 11508 999999
999999 999999 999999 999999 999999 999999 999999 999999 999999 999999 999999 999999 999999 999999 999999 999999 999999 999999 999999 999999 999999 999999 999999 999999 999999 0 999999 999999 999999 999999 999999 14960 999999 999999 999999 14943 19106 999999 999999 11965 18542 999999 999999 999999 17939 999999 999999 999999 999999 999999 999999 999999 999999 999999 999999 999999 999999 999999 999999 999999 999999 999999
999999 999999 999999 999999 999999 999999 999999 999999 999999 999999 999999 999999 999999 999999 999999 999999 999999 999999 999999 999999 999999 999999 999999 999999 999999 999999 0 999999 999999 999999 999999 13267 999999 999999 999999 13569 10593 999999 999999 16029 16491 999999 999999 999999 11242 999999 999999 999999 999999 999999 999999 999999 999999 999999 999999 999999 999999 999999 999999 999999 999999 999999
999999 999999 999999 999999 999999 999999 999999 999999 999999 999999 999999 999999 999999 999999 999999 999999 999999 999999 999999 999999 999999 999999 999999 999999 999999 999999 999999 0 999999 999999 999999 16176 999999 999999 999999 13209 19481 999999 999999 19644 19844 999999 999999 999999 12956 999999 999999 999999 999999 999999 999999 999999 999999 999999 999999 999999 999999 999999 999999 999999 999999 999999
999999 999999 999999 999999 999999 999999 999999 999999 999999 999999 999999 999999 999999 999999 999999 999999 999999 999999 999999 999999 999999 999999 999999 999999 999999 999999 999999 999999 0 999999 999999 18678 999999 999999 999999 16775 18890 999999 999999 17467 10900 999999 999999 999999 17853 999999 999999 999999 999999 999999 999999 999999 999999 999999 999999 999999 999999 999999 999999 999999 999999 999999
999999 999999 999999 999999 999999 999999 999999 999999 999999 999999 999999 999999 999999 999999 999999 999999 999999 999999 999999 999999 999999 999999 999999 999999 999999 999999 999999 999999 999999 0 999999 14516 999999 999999 999999 18261 12433 999999 999999 11743 15006 999999 999999 999999 12116 999999 999999 999999 999999 999999 999999 999999 999999 999999 999999 999999 999999 999999 999999 999999 999999 999999
999999 999999 999999 999999 999999 999999 999999 999999 999999 999999 999999 999999 999999 999999 999999 999999 999999 999999 999999 999999 999999 999999 999999 999999 999999 999999 999999 999999 999999 999999 0 14148 999999 999999 999999 14739 17720 999999 999999 18851 19780 999999 999999 999999 14735 999999 999999 999999 999999 999999 999999 999999 999999 999999 999999 999999 999999 999999 999999 999999 999999 999999
999999 16360 14296 10830 19564 17531 16170 10340 19114 15654 17786 18749 18870 14864 12971 19551 10837 19382 18440 14887 12703 10556 19710 14760 14626 14960 13267 16176 18678 14516 14148 0 999999 999999 999999 999999 999999 999999 999999 999999 999999 999999 999999 999999 999999 999999 999999 999999 999999 999999 999999 999999 999999 999999 999999 999999 999999 999999 999999 999999 999999 6239
999999 15930 19070 10259 16477 14125 12736 17190 17476 11770 12904 18377 12224 18746 10641 18789 11804 15463 11360 11300 15645 19774 11470 12442 18109 13071 13537 12792 17541 10560 10131 999999 0 999999 999999 999999 999999 999999 999999 999999 999999 999999 999999 999999 999999 999999 999999 999999 999999 999999 999999 999999 999999 999999 999999 999999 999999 999999 999999 999999 999999 5489
999999 11153 16331 11870 14267 10724 19643 10284 19504 13103 14738 12266 11823 15348 19249 10084 12329 17584 12949 13116 14024 15644 15564 17711 17045 12638 11596 15386 10977 11039 12158 999999 999999 0 999999 999999 999999 999999 999999 999999 999999 999999 999999 999999 999999 999999 999999 999999 999999 999999 999999 999999 999999 999999 999999 999999 999999 999999 999999 999999 999999 10971
999999 12328 18056 11454 14582 10164 10920 19649 16953 10806 15488 17843 17893 12752 16913 15614 15231 16266 17645 19356 15789 14626 18461 14944 17210 10544 13123 12846 18241 17884 14099 999999 999999 999999 0 999999 999999 999999 999999 999999 999999 999999 999999 999999 999999 999999 999999 999999 999999 999999 999999 999999 999999 999999 999999 999999 999999 999999 999999 999999 999999 5290
999999 15044 13222 18833 15879 18697 11017 17845 16812 14188 14632 12020 14065 18165 13630 12862 11610 10438 13352 18694 13664 12721 15898 12855 15905 14943 13569 13209 16775 18261 14739 999999 999999 999999 999999 0 999999 999999 999999 999999 999999 999999 999999 999999 999999 999999 999999 999999 999999 999999 999999 999999 999999 999999 999999 999999 999999 999999 999999 999999 999999 12552
999999 17508 15185 18691 15912 12302 11495 16216 13290 13936 19168 12061 15904 11659 15578 14737 17931 19586 16752 17456 17662 15249 16320 11669 10166 19106 10593 19481 18890 12433 17720 999999 999999 999999 999999 999999 0 999999 999999 999999 999999 999999 999999 999999 999999 999999 999999 999999 999999 999999 999999 999999 999999 999999 999999 999999 999999 999999 999999 999999 999999 11233
999999 19162 17017 17021 13226 11518 18549 17849 13825 19460 16229 11238 14157 11501 19262 18673 12978 17616 12788 19005 12059 12859 10039 10982 19944 12033 16197 12545 14540 17330 13849 999999 999999 999999 999999 999999 999999 0 999999 999999 999999 999999 999999 999999 999999 999999 999999 999999 999999 999999 999999 999999 999999 999999 999999 999999 999999 999999 999999 999999 999999 9253
999999 17542 16773 13410 18107 15503 15899 17089 17374 13301 15105 18054 16053 15484 12482 14723 12684 12587 17117 13425 16626 15692 18602 12883 18432 19731 17303 13236 18005 12407 16321 999999 999999 999999 999999 999999 999999 999999 0 999999 999999 999999 999999 999999 999999 999999 999999 999999 999999 999999 999999 999999 999999 999999 999999 999999 999999 999999 999999 999999 999999 11833
999999 10785 17621 14827 12143 19457 11652 12292 18138 12155 15551 10603 13395 11512 11578 10590 12135 16550 18006 17065 16431 14737 19160 14241 14595 11965 16029 19644 17467 11743 18851 999999 999999 999999 999999 999999 999999 999999 999999 0 999999 999999 999999 999999 999999 999999 999999 999999 999999 999999 999999 999999 999999 999999 999999 999999 999999 999999 999999 999999 999999 14577
999999 11439 17279 16118 13963 17233 14913 12708 12463 17572 18439 13207 10260 14426 16183 16250 14425 18659 13482 19942 16816 12617 18806 19184 12712 18542 16491 19844 10900 15006 19780 999999 999999 999999 999999 999999 999999 999999 999999 999999 0 999999 999999 999999 999999 999999 999999 999999 999999 999999 999999 999999 999999 999999 999999 999999 999999 999999 999999 999999 999999 7301
999999 10595 13831 19528 17822 12305 14122 15807 18525 18905 18358 15730 17800 17065 15493 11129 16228 18311 10848 10325 17689 14293 17238 17819 14819 10604 19232 15680 17462 13299 19488 999999 999999 999999 999999 999999 999999 999999 999999 999999 999999 0 999999 999999 999999 999999 999999 999999 999999 999999 999999 999999 999999 999999 999999 999999 999999 999999 999999 999999 999999 11979
999999 12556 15000 17209 16668 14567 19997 10460 19973 13201 11581 10267 12898 12865 14544 16958 12713 13424 13802 15255 19511 15124 15218 13614 14767 10506 15054 14753 18210 16065 12381 999999 999999 999999 999999 999999 999999 999999 999999 999999 999999 999999 0 999999 999999 999999 999999 999999 999999 999999 999999 999999 999999 999999 999999 999999 999999 999999 999999 999999 999999 13583
999999 13372 14602 14570 16883 19887 15331 18253 18841 15524 19641 15145 18971 11295 13909 14844 19261 18664 18743 15397 18861 11283 17862 16189 10902 14034 17242 11218 11049 16335 15771 999999 999999 999999 999999 999999 999999 999999 999999 999999 999999 999999 999999 0 999999 999999 999999 999999 999999 999999 999999 999999 999999 999999 999999 999999 999999 999999 999999 999999 999999 11142
999999 17378 12082 11151 11886 17413 17845 15851 14620 17389 16384 16771 15181 15742 12866 14568 14503 18373 13072 18078 12788 17458 13784 15493 17138 17939 11242 12956 17853 12116 14735 999999 999999 999999 999999 999999 999999 999999 999999 999999 999999 999999 999999 999999 0 999999 999999 999999 999999 999999 999999 999999 999999 999999 999999 999999 999999 999999 999999 999999 999999 8887
999999 16565 15389 19965 10526 13015 16503 12220 13954 19572 13291 12187 17243 11124 19437 10035 14365 13853 15246 10787 15530 11146 10070 17346 12270 16679 10034 15899 12151 10113 13116 999999 999999 999999 999999 999999 999999 999999 999999 999999 999999 999999 999999 999999 999999 0 999999 999999 999999 999999 999999 999999 999999 999999 999999 999999 999999 999999 999999 999999 999999 13035
999999 12370 13000 18288 14038 10009 14416 14249 18017 16718 19277 14373 16461 15623 11687 19897 18298 13697 11439 14330 11804 16326 19585 13947 15783 10873 14072 11413 19341 11153 11159 999999 999999 999999 999999 999999 999999 999999 999999 999999 999999 999999 999999 999999 999999 999999 0 999999 999999 999999 999999 999999 999999 999999 999999 999999 999999 999999 999999 999999 999999 9179
999999 10421 16494 10271 10934 15811 13317 10745 18192 12421 18792 15508 18145 17827 17567 11205 12511 18210 18469 18775 11402 19353 15529 19993 10512 17187 16475 19522 11575 14611 14436 999999 999999 999999 999999 999999 999999 999999 999999 999999 999999 999999 999999 999999 999999 999999 999999 0 999999 999999 999999 999999 999999 999999 999999 999999 999999 999999 999999 999999 999999 8039
999999 18560 18615 16573 13353 10803 19812 14163 12586 13278 10065 14571 13032 19451 16536 14564 10213 19541 17205 12621 12304 15402 18492 17860 19841 11992 13319 17836 10004 18540 19445 999999 999999 999999 999999 999999 999999 999999 999999 999999 999999 999999 999999 999999 999999 999999 999999 999999 0 999999 999999 999999 999999 999999 999999 999999 999999 999999 999999 999999 999999 10909
999999 12981 13926 14334 17418 16946 13823 15684 10191 14951 15724 17044 10085 10401 10599 13596 18535 13985 19582 11068 15198 14978 12994 15451 11120 19595 19038 17212 14188 12164 12872 999999 999999 999999 999999 999999 999999 999999 999999 999999 999999 999999 999999 999999 999999 999999 999999 999999 999999 0 999999 999999 999999 999999 999999 999999 999999 999999 999999 999999 999999 10683
999999 19983 13275 14917 18925 16045 12595 16541 13905 11098 17393 19841 11221 12523 12737 17190 17568 15298 11808 10904 14417 12051 16042 10480 11101 17061 18638 19675 16293 14728 17077 999999 999999 999999 999999 999999 999999 999999 999999 999999 999999 999999 999999 999999 999999 999999 999999 999999 999999 999999 0 999999 999999 999999 999999 999999 999999 999999 999999 999999 999999 7841
999999 16747 11352 17888 12163 15258 12324 17798 18874 11131 12422 16096 16418 11197 14019 13952 16696 12185 19330 15886 18104 16840 10194 13837 17007 10369 16218 19880 16698 15219 13714 999999 999999 999999 999999 999999 999999 999999 999999 999999 999999 999999 999999 999999 999999 999999 999999 999999 999999 999999 999999 0 999999 999999 999999 999999 999999 999999 999999 999999 999999 8230
999999 11726 14051 19032 12233 16583 19001 10375 14864 13543 10383 17129 15918 10062 16900 18864 12672 19057 10774 12479 13734 10543 13227 16576 18746 10988 14834 18092 13667 19586 12616 999999 999999 999999 999999 999999 999999 999999 999999 999999 999999 999999 999999 999999 999999 999999 999999 999999 999999 999999 999999 999999 0 999999 999999 999999 999999 999999 999999 999999 999999 11703
999999 19473 13778 10796 16132 13615 16898 13663 16365 15035 16162 16750 12899 10050 14692 10847 18241 11169 13583 16258 10709 12166 14398 12248 19745 10874 10125 14123 19202 14346 10712 999999 999999 999999 999999 999999 999999 999999 999999 999999 999999 999999 999999 999999 999999 999999 999999 999999 999999 999999 999999 999999 999999 0 999999 999999 999999 999999 999999 999999 999999 13204
999999 13485 12763 12723 12669 19766 12646 14988 10851 17619 13617 13665 10520 12808 11389 16557 13117 15383 13757 11513 18598 13353 18032 13630 18299 14472 14349 11834 16502 13145 14012 999999 999999 999999 999999 999999 999999 999999 999999 999999 999999 999999 999999 999999 999999 999999 999999 999999 999999 999999 999999 999999 999999 999999 0 999999 999999 999999 999999 999999 999999 14034
999999 19264 14963 18672 14897 18528 19012 16455 17739 10646 10886 18539 13281 12855 17364 16195 16844 13451 11905 19084 14750 16282 16563 14403 10007 19397 19988 13497 14323 15420 18596 999999 999999 999999 999999 999999 999999 999999 999999 999999 999999 999999 999999 999999 999999 999999 999999 999999 999999 999999 999999 999999 999999 999999 999999 0 999999 999999 999999 999999 999999 8151
999999 13927 10833 15856 14976 19971 10269 10112 13773 17885 11513 14272 12744 13830 15378 10554 11242 15395 13969 14027 14501 10961 13801 13842 17964 16023 14883 11970 12822 18250 19442 999999 999999 999999 999999 999999 999999 999999 999999 999999 999999 999999 999999 999999 999999 999999 999999 999999 999999 999999 999999 999999 999999 999999 999999 999999 0 999999 999999 999999 999999 11306
999999 17218 16368 17691 19181 17793 12459 17848 11039 10345 10358 12614 13766 14053 16189 17566 14695 11212 13349 11935 10384 19789 14490 10760 13839 19278 14889 11889 18513 13272 15952 999999 999999 999999 999999 999999 999999 999999 999999 999999 999999 999999 999999 999999 999999 999999 999999 999999 999999 999999 999999 999999 999999 999999 999999 999999 999999 0 999999 999999 999999 12554
999999 14483 17045 14542 16833 15621 10696 18285 11741 19835 11383 12423 13655 18663 18827 14742 13221 18660 11180 19523 18704 11997 10418 18655 19400 11464 16431 13088 15744 10259 15473 999999 999999 999999 999999 999999 999999 999999 999999 999999 999999 999999 999999 999999 999999 999999 999999 999999 999999 999999 999999 999999 999999 999999 999999 999999 999999 999999 0 999999 999999 10958
999999 19961 13071 16954 18885 14628 12662 13455 18782 16623 11169 17694 16237 14588 10416 18518 13310 19437 12883 17628 14138 17120 12190 11797 10618 11973 19674 17255 13111 14279 17320 999999 999999 999999 999999 999999 999999 999999 999999 999999 999999 999999 999999 999999 999999 999999 999999 999999 999999 999999 999999 999999 999999 999999 999999 999999 999999 999999 999999 0 999999 9888
999999 19462 15315 11081 11667 17137 17990 12696 10301 10545 12121 14047 17373 15063 16237 10088 14228 18956 15074 14856 14633 18984 13660 18347 11508 15170 19684 13154 10360 12201 15032 999999 999999 999999 999999 999999 999999 999999 999999 999999 999999 999999 999999 999999 999999 999999 999999 999999 999999 999999 999999 999999 999999 999999 999999 999999 999999 999999 999999 999999 0 8470
1 999999 999999 999999 999999 999999 999999 999999 999999 999999 999999 999999 999999 999999 999999 999999 999999 999999 999999 999999 999999 999999 999999 999999 999999 999999 999999 999999 999999 999999 999999 999999 999999 999999 999999 999999 999999 999999 999999 999999 999999 999999 999999 999999 999999 999999 999999 999999 999999 999999 999999 999999 999999 999999 999999 999999 999999 999999 999999 999999 999999 0
EOF