NAME: GR_1x5x8_KH_5x8_Run_3
TYPE: TSP
COMMENT: BTSP instance |A|=40 GR nodes |B|=40 KH nodes depot=0.0 end=0.0.0
DIMENSION: 82
EDGE_WEIGHT_TYPE: EXPLICIT
EDGE_WEIGHT_FORMAT: FULL_MATRIX
NODE_COORD_TYPE: NO_COORDS
EDGE_WEIGHT_SECTION
0 14275 8360 5051 12810 5727 9898 11856 12841 5442 13127 5300 13830 9288 11490 13981 6752 7916 9590 9459 9066 14196 11108 14186 12077 9842 6748 11764 13563 12868 5704 8243 6004 6627 7739 7035 11355 10256 11889 11835 10937 999999 999999 999999 999999 999999 999999 999999 999999 999999 999999 999999 999999 999999 999999 999999 999999 999999 999999 999999 999999 999999 999999 999999 999999 999999 999999 999999 999999 999999 999999 999999 999999 999999 999999 999999 999999 999999 999999 999999 999999 999999
999999 0 999999 999999 999999 999999 999999 999999 999999 999999 999999 999999 999999 999999 999999 999999 999999 999999 999999 999999 999999 999999 999999 999999 999999 999999 999999 999999 999999 999999 999999 999999 999999 999999 999999 999999 999999 999999 999999 999999 999999 999999 999999 17774 18522 999999 999999 999999 999999 999999 999999 18624 999999 999999 999999 999999 999999 999999 999999 15957 11931 999999 999999 999999 999999 999999 999999 19082 18378 999999 999999 15780 999999 999999 999999 999999 999999 999999 999999 999999 999999 999999
999999 999999 0 999999 999999 999999 999999 999999 999999 999999 999999 999999 999999 999999 999999 999999 999999 999999 999999 999999 999999 999999 999999 999999 999999 999999 999999 999999 999999 999999 999999 999999 999999 999999 999999 999999 999999 999999 999999 999999 999999 999999 999999 18937 10422 999999 999999 999999 999999 999999 999999 13466 999999 999999 999999 999999 999999 999999 999999 11337 11788 999999 999999 999999 999999 999999 999999 10723 15260 999999 999999 13496 999999 999999 999999 999999 999999 999999 999999 999999 999999 999999
999999 999999 999999 0 999999 999999 999999 999999 999999 999999 999999 999999 999999 999999 999999 999999 999999 999999 999999 999999 999999 999999 999999 999999 999999 999999 999999 999999 999999 999999 999999 999999 999999 999999 999999 999999 999999 999999 999999 999999 999999 999999 999999 16642 13297 999999 999999 999999 999999 999999 999999 13680 999999 999999 999999 999999 999999 999999 999999 10347 12541 999999 999999 999999 999999 999999 999999 10944 11421 999999 999999 15569 999999 999999 999999 999999 999999 999999 999999 999999 999999 999999
999999 999999 999999 999999 0 999999 999999 999999 999999 999999 999999 999999 999999 999999 999999 999999 999999 999999 999999 999999 999999 999999 999999 999999 999999 999999 999999 999999 999999 999999 999999 999999 999999 999999 999999 999999 999999 999999 999999 999999 999999 999999 999999 17457 19598 999999 999999 999999 999999 999999 999999 17032 999999 999999 999999 999999 999999 999999 999999 15277 16728 999999 999999 999999 999999 999999 999999 19061 10874 999999 999999 18118 999999 999999 999999 999999 999999 999999 999999 999999 999999 999999
999999 999999 999999 999999 999999 0 999999 999999 999999 999999 999999 999999 999999 999999 999999 999999 999999 999999 999999 999999 999999 999999 999999 999999 999999 999999 999999 999999 999999 999999 999999 999999 999999 999999 999999 999999 999999 999999 999999 999999 999999 999999 999999 15794 18153 999999 999999 999999 999999 999999 999999 11281 999999 999999 999999 999999 999999 999999 999999 14233 15114 999999 999999 999999 999999 999999 999999 13284 12377 999999 999999 15411 999999 999999 999999 999999 999999 999999 999999 999999 999999 999999
999999 999999 999999 999999 999999 999999 0 999999 999999 999999 999999 999999 999999 999999 999999 999999 999999 999999 999999 999999 999999 999999 999999 999999 999999 999999 999999 999999 999999 999999 999999 999999 999999 999999 999999 999999 999999 999999 999999 999999 999999 999999 999999 17818 16192 999999 999999 999999 999999 999999 999999 11794 999999 999999 999999 999999 999999 999999 999999 19545 15426 999999 999999 999999 999999 999999 999999 11465 18138 999999 999999 13565 999999 999999 999999 999999 999999 999999 999999 999999 999999 999999
999999 999999 999999 999999 999999 999999 999999 0 999999 999999 999999 999999 999999 999999 999999 999999 999999 999999 999999 999999 999999 999999 999999 999999 999999 999999 999999 999999 999999 999999 999999 999999 999999 999999 999999 999999 999999 999999 999999 999999 999999 999999 999999 13883 17065 999999 999999 999999 999999 999999 999999 14569 999999 999999 999999 999999 999999 999999 999999 15578 15186 999999 999999 999999 999999 999999 999999 18839 17528 999999 999999 10872 999999 999999 999999 999999 999999 999999 999999 999999 999999 999999
999999 999999 999999 999999 999999 999999 999999 999999 0 999999 999999 999999 999999 999999 999999 999999 999999 999999 999999 999999 999999 999999 999999 999999 999999 999999 999999 999999 999999 999999 999999 999999 999999 999999 999999 999999 999999 999999 999999 999999 999999 999999 999999 10613 16236 999999 999999 999999 999999 999999 999999 11017 999999 999999 999999 999999 999999 999999 999999 11197 16639 999999 999999 999999 999999 999999 999999 17279 19265 999999 999999 11175 999999 999999 999999 999999 999999 999999 999999 999999 999999 999999
999999 999999 999999 999999 999999 999999 999999 999999 999999 0 999999 999999 999999 999999 999999 999999 999999 999999 999999 999999 999999 999999 999999 999999 999999 999999 999999 999999 999999 999999 999999 999999 999999 999999 999999 999999 999999 999999 999999 999999 999999 13120 15954 999999 999999 999999 999999 12964 999999 999999 999999 999999 999999 999999 999999 999999 999999 999999 999999 999999 999999 999999 11166 10498 11595 999999 999999 999999 999999 999999 999999 999999 999999 999999 13792 999999 999999 999999 999999 16583 999999 999999
999999 999999 999999 999999 999999 999999 999999 999999 999999 999999 0 999999 999999 999999 999999 999999 999999 999999 999999 999999 999999 999999 999999 999999 999999 999999 999999 999999 999999 999999 999999 999999 999999 999999 999999 999999 999999 999999 999999 999999 999999 17871 15165 999999 999999 999999 999999 13778 999999 999999 999999 999999 999999 999999 999999 999999 999999 999999 999999 999999 999999 999999 14692 17967 13025 999999 999999 999999 999999 999999 999999 999999 999999 999999 12943 999999 999999 999999 999999 16037 999999 999999
999999 999999 999999 999999 999999 999999 999999 999999 999999 999999 999999 0 999999 999999 999999 999999 999999 999999 999999 999999 999999 999999 999999 999999 999999 999999 999999 999999 999999 999999 999999 999999 999999 999999 999999 999999 999999 999999 999999 999999 999999 19238 10382 999999 999999 999999 999999 15129 999999 999999 999999 999999 999999 999999 999999 999999 999999 999999 999999 999999 999999 999999 14144 13042 18189 999999 999999 999999 999999 999999 999999 999999 999999 999999 15228 999999 999999 999999 999999 16993 999999 999999
999999 999999 999999 999999 999999 999999 999999 999999 999999 999999 999999 999999 0 999999 999999 999999 999999 999999 999999 999999 999999 999999 999999 999999 999999 999999 999999 999999 999999 999999 999999 999999 999999 999999 999999 999999 999999 999999 999999 999999 999999 18908 12850 999999 999999 999999 999999 16678 999999 999999 999999 999999 999999 999999 999999 999999 999999 999999 999999 999999 999999 999999 17202 18471 14515 999999 999999 999999 999999 999999 999999 999999 999999 999999 13753 999999 999999 999999 999999 15530 999999 999999
999999 999999 999999 999999 999999 999999 999999 999999 999999 999999 999999 999999 999999 0 999999 999999 999999 999999 999999 999999 999999 999999 999999 999999 999999 999999 999999 999999 999999 999999 999999 999999 999999 999999 999999 999999 999999 999999 999999 999999 999999 14105 10914 999999 999999 999999 999999 18735 999999 999999 999999 999999 999999 999999 999999 999999 999999 999999 999999 999999 999999 999999 13619 11147 16942 999999 999999 999999 999999 999999 999999 999999 999999 999999 13886 999999 999999 999999 999999 14089 999999 999999
999999 999999 999999 999999 999999 999999 999999 999999 999999 999999 999999 999999 999999 999999 0 999999 999999 999999 999999 999999 999999 999999 999999 999999 999999 999999 999999 999999 999999 999999 999999 999999 999999 999999 999999 999999 999999 999999 999999 999999 999999 14547 18675 999999 999999 999999 999999 14226 999999 999999 999999 999999 999999 999999 999999 999999 999999 999999 999999 999999 999999 999999 17558 19802 16013 999999 999999 999999 999999 999999 999999 999999 999999 999999 14930 999999 999999 999999 999999 13567 999999 999999
999999 999999 999999 999999 999999 999999 999999 999999 999999 999999 999999 999999 999999 999999 999999 0 999999 999999 999999 999999 999999 999999 999999 999999 999999 999999 999999 999999 999999 999999 999999 999999 999999 999999 999999 999999 999999 999999 999999 999999 999999 15021 16870 999999 999999 999999 999999 19537 999999 999999 999999 999999 999999 999999 999999 999999 999999 999999 999999 999999 999999 999999 16232 13773 18191 999999 999999 999999 999999 999999 999999 999999 999999 999999 14415 999999 999999 999999 999999 14182 999999 999999
999999 999999 999999 999999 999999 999999 999999 999999 999999 999999 999999 999999 999999 999999 999999 999999 0 999999 999999 999999 999999 999999 999999 999999 999999 999999 999999 999999 999999 999999 999999 999999 999999 999999 999999 999999 999999 999999 999999 999999 999999 11273 12792 999999 999999 999999 999999 14083 999999 999999 999999 999999 999999 999999 999999 999999 999999 999999 999999 999999 999999 999999 10503 15831 18268 999999 999999 999999 999999 999999 999999 999999 999999 999999 10321 999999 999999 999999 999999 15786 999999 999999
999999 999999 999999 999999 999999 999999 999999 999999 999999 999999 999999 999999 999999 999999 999999 999999 999999 0 999999 999999 999999 999999 999999 999999 999999 999999 999999 999999 999999 999999 999999 999999 999999 999999 999999 999999 999999 999999 999999 999999 999999 999999 999999 999999 999999 999999 19999 999999 999999 999999 999999 999999 999999 999999 999999 17246 999999 999999 999999 999999 999999 999999 999999 999999 999999 999999 10400 999999 999999 999999 15384 999999 17109 999999 999999 16253 999999 18487 13856 999999 999999 999999
999999 999999 999999 999999 999999 999999 999999 999999 999999 999999 999999 999999 999999 999999 999999 999999 999999 999999 0 999999 999999 999999 999999 999999 999999 999999 999999 999999 999999 999999 999999 999999 999999 999999 999999 999999 999999 999999 999999 999999 999999 999999 999999 999999 999999 999999 14265 999999 999999 999999 999999 999999 999999 999999 999999 11462 999999 999999 999999 999999 999999 999999 999999 999999 999999 999999 16797 999999 999999 999999 10220 999999 12109 999999 999999 17010 999999 17383 10491 999999 999999 999999
999999 999999 999999 999999 999999 999999 999999 999999 999999 999999 999999 999999 999999 999999 999999 999999 999999 999999 999999 0 999999 999999 999999 999999 999999 999999 999999 999999 999999 999999 999999 999999 999999 999999 999999 999999 999999 999999 999999 999999 999999 999999 999999 999999 999999 999999 18519 999999 999999 999999 999999 999999 999999 999999 999999 10602 999999 999999 999999 999999 999999 999999 999999 999999 999999 999999 12325 999999 999999 999999 11105 999999 15790 999999 999999 16552 999999 16777 15900 999999 999999 999999
999999 999999 999999 999999 999999 999999 999999 999999 999999 999999 999999 999999 999999 999999 999999 999999 999999 999999 999999 999999 0 999999 999999 999999 999999 999999 999999 999999 999999 999999 999999 999999 999999 999999 999999 999999 999999 999999 999999 999999 999999 999999 999999 999999 999999 999999 11121 999999 999999 999999 999999 999999 999999 999999 999999 11321 999999 999999 999999 999999 999999 999999 999999 999999 999999 999999 17553 999999 999999 999999 12907 999999 15176 999999 999999 18544 999999 13949 16972 999999 999999 999999
999999 999999 999999 999999 999999 999999 999999 999999 999999 999999 999999 999999 999999 999999 999999 999999 999999 999999 999999 999999 999999 0 999999 999999 999999 999999 999999 999999 999999 999999 999999 999999 999999 999999 999999 999999 999999 999999 999999 999999 999999 999999 999999 999999 999999 999999 16561 999999 999999 999999 999999 999999 999999 999999 999999 12939 999999 999999 999999 999999 999999 999999 999999 999999 999999 999999 18402 999999 999999 999999 18433 999999 16288 999999 999999 11913 999999 18731 14546 999999 999999 999999
999999 999999 999999 999999 999999 999999 999999 999999 999999 999999 999999 999999 999999 999999 999999 999999 999999 999999 999999 999999 999999 999999 0 999999 999999 999999 999999 999999 999999 999999 999999 999999 999999 999999 999999 999999 999999 999999 999999 999999 999999 999999 999999 999999 999999 999999 16986 999999 999999 999999 999999 999999 999999 999999 999999 17695 999999 999999 999999 999999 999999 999999 999999 999999 999999 999999 10842 999999 999999 999999 14478 999999 11831 999999 999999 19004 999999 11060 15149 999999 999999 999999
999999 999999 999999 999999 999999 999999 999999 999999 999999 999999 999999 999999 999999 999999 999999 999999 999999 999999 999999 999999 999999 999999 999999 0 999999 999999 999999 999999 999999 999999 999999 999999 999999 999999 999999 999999 999999 999999 999999 999999 999999 999999 999999 999999 999999 999999 19218 999999 999999 999999 999999 999999 999999 999999 999999 19467 999999 999999 999999 999999 999999 999999 999999 999999 999999 999999 12191 999999 999999 999999 19975 999999 14373 999999 999999 11572 999999 12292 17068 999999 999999 999999
999999 999999 999999 999999 999999 999999 999999 999999 999999 999999 999999 999999 999999 999999 999999 999999 999999 999999 999999 999999 999999 999999 999999 999999 0 999999 999999 999999 999999 999999 999999 999999 999999 999999 999999 999999 999999 999999 999999 999999 999999 999999 999999 999999 999999 999999 16208 999999 999999 999999 999999 999999 999999 999999 999999 17568 999999 999999 999999 999999 999999 999999 999999 999999 999999 999999 13407 999999 999999 999999 13682 999999 14383 999999 999999 14045 999999 17482 19765 999999 999999 999999
999999 999999 999999 999999 999999 999999 999999 999999 999999 999999 999999 999999 999999 999999 999999 999999 999999 999999 999999 999999 999999 999999 999999 999999 999999 0 999999 999999 999999 999999 999999 999999 999999 999999 999999 999999 999999 999999 999999 999999 999999 999999 999999 999999 999999 999999 999999 999999 999999 999999 13407 999999 999999 15302 999999 999999 16082 999999 999999 999999 999999 15361 999999 999999 999999 14559 999999 999999 999999 11480 999999 999999 999999 13918 999999 999999 15976 999999 999999 999999 999999 999999
999999 999999 999999 999999 999999 999999 999999 999999 999999 999999 999999 999999 999999 999999 999999 999999 999999 999999 999999 999999 999999 999999 999999 999999 999999 999999 0 999999 999999 999999 999999 999999 999999 999999 999999 999999 999999 999999 999999 999999 999999 999999 999999 999999 999999 999999 999999 999999 999999 999999 17012 999999 999999 10970 999999 999999 17085 999999 999999 999999 999999 19603 999999 999999 999999 12743 999999 999999 999999 16625 999999 999999 999999 10584 999999 999999 18013 999999 999999 999999 999999 999999
999999 999999 999999 999999 999999 999999 999999 999999 999999 999999 999999 999999 999999 999999 999999 999999 999999 999999 999999 999999 999999 999999 999999 999999 999999 999999 999999 0 999999 999999 999999 999999 999999 999999 999999 999999 999999 999999 999999 999999 999999 999999 999999 999999 999999 999999 999999 999999 999999 999999 14825 999999 999999 15000 999999 999999 16016 999999 999999 999999 999999 19137 999999 999999 999999 14412 999999 999999 999999 11889 999999 999999 999999 15297 999999 999999 19921 999999 999999 999999 999999 999999
999999 999999 999999 999999 999999 999999 999999 999999 999999 999999 999999 999999 999999 999999 999999 999999 999999 999999 999999 999999 999999 999999 999999 999999 999999 999999 999999 999999 0 999999 999999 999999 999999 999999 999999 999999 999999 999999 999999 999999 999999 999999 999999 999999 999999 999999 999999 999999 999999 999999 15625 999999 999999 19995 999999 999999 17971 999999 999999 999999 999999 18896 999999 999999 999999 16944 999999 999999 999999 15019 999999 999999 999999 11234 999999 999999 13972 999999 999999 999999 999999 999999
999999 999999 999999 999999 999999 999999 999999 999999 999999 999999 999999 999999 999999 999999 999999 999999 999999 999999 999999 999999 999999 999999 999999 999999 999999 999999 999999 999999 999999 0 999999 999999 999999 999999 999999 999999 999999 999999 999999 999999 999999 999999 999999 999999 999999 999999 999999 999999 999999 999999 19117 999999 999999 17380 999999 999999 17884 999999 999999 999999 999999 12238 999999 999999 999999 11692 999999 999999 999999 17778 999999 999999 999999 15308 999999 999999 13188 999999 999999 999999 999999 999999
999999 999999 999999 999999 999999 999999 999999 999999 999999 999999 999999 999999 999999 999999 999999 999999 999999 999999 999999 999999 999999 999999 999999 999999 999999 999999 999999 999999 999999 999999 0 999999 999999 999999 999999 999999 999999 999999 999999 999999 999999 999999 999999 999999 999999 999999 999999 999999 999999 999999 14341 999999 999999 16286 999999 999999 13299 999999 999999 999999 999999 10787 999999 999999 999999 14328 999999 999999 999999 15079 999999 999999 999999 18562 999999 999999 13806 999999 999999 999999 999999 999999
999999 999999 999999 999999 999999 999999 999999 999999 999999 999999 999999 999999 999999 999999 999999 999999 999999 999999 999999 999999 999999 999999 999999 999999 999999 999999 999999 999999 999999 999999 999999 0 999999 999999 999999 999999 999999 999999 999999 999999 999999 999999 999999 999999 999999 999999 999999 999999 999999 999999 15163 999999 999999 16271 999999 999999 19290 999999 999999 999999 999999 14531 999999 999999 999999 13108 999999 999999 999999 17331 999999 999999 999999 17915 999999 999999 11468 999999 999999 999999 999999 999999
999999 999999 999999 999999 999999 999999 999999 999999 999999 999999 999999 999999 999999 999999 999999 999999 999999 999999 999999 999999 999999 999999 999999 999999 999999 999999 999999 999999 999999 999999 999999 999999 0 999999 999999 999999 999999 999999 999999 999999 999999 999999 999999 999999 999999 999999 999999 999999 999999 999999 17656 999999 999999 14401 999999 999999 18168 999999 999999 999999 999999 19034 999999 999999 999999 11748 999999 999999 999999 11732 999999 999999 999999 13124 999999 999999 19590 999999 999999 999999 999999 999999
999999 999999 999999 999999 999999 999999 999999 999999 999999 999999 999999 999999 999999 999999 999999 999999 999999 999999 999999 999999 999999 999999 999999 999999 999999 999999 999999 999999 999999 999999 999999 999999 999999 0 999999 999999 999999 999999 999999 999999 999999 999999 999999 999999 999999 17935 999999 999999 13249 10511 999999 999999 11885 999999 15459 999999 999999 11575 13792 999999 999999 999999 999999 999999 999999 999999 999999 999999 999999 999999 999999 999999 999999 999999 999999 999999 999999 999999 999999 999999 18173 999999
999999 999999 999999 999999 999999 999999 999999 999999 999999 999999 999999 999999 999999 999999 999999 999999 999999 999999 999999 999999 999999 999999 999999 999999 999999 999999 999999 999999 999999 999999 999999 999999 999999 999999 0 999999 999999 999999 999999 999999 999999 999999 999999 999999 999999 11544 999999 999999 15357 13548 999999 999999 11761 999999 15169 999999 999999 16544 14020 999999 999999 999999 999999 999999 999999 999999 999999 999999 999999 999999 999999 999999 999999 999999 999999 999999 999999 999999 999999 999999 19567 999999
999999 999999 999999 999999 999999 999999 999999 999999 999999 999999 999999 999999 999999 999999 999999 999999 999999 999999 999999 999999 999999 999999 999999 999999 999999 999999 999999 999999 999999 999999 999999 999999 999999 999999 999999 0 999999 999999 999999 999999 999999 999999 999999 999999 999999 15113 999999 999999 16471 10885 999999 999999 16438 999999 12274 999999 999999 19099 13700 999999 999999 999999 999999 999999 999999 999999 999999 999999 999999 999999 999999 999999 999999 999999 999999 999999 999999 999999 999999 999999 16941 999999
999999 999999 999999 999999 999999 999999 999999 999999 999999 999999 999999 999999 999999 999999 999999 999999 999999 999999 999999 999999 999999 999999 999999 999999 999999 999999 999999 999999 999999 999999 999999 999999 999999 999999 999999 999999 0 999999 999999 999999 999999 999999 999999 999999 999999 17877 999999 999999 11024 19618 999999 999999 18647 999999 14259 999999 999999 10305 17743 999999 999999 999999 999999 999999 999999 999999 999999 999999 999999 999999 999999 999999 999999 999999 999999 999999 999999 999999 999999 999999 15355 999999
999999 999999 999999 999999 999999 999999 999999 999999 999999 999999 999999 999999 999999 999999 999999 999999 999999 999999 999999 999999 999999 999999 999999 999999 999999 999999 999999 999999 999999 999999 999999 999999 999999 999999 999999 999999 999999 0 999999 999999 999999 999999 999999 999999 999999 17431 999999 999999 12696 13845 999999 999999 16201 999999 16413 999999 999999 16025 16891 999999 999999 999999 999999 999999 999999 999999 999999 999999 999999 999999 999999 999999 999999 999999 999999 999999 999999 999999 999999 999999 17284 999999
999999 999999 999999 999999 999999 999999 999999 999999 999999 999999 999999 999999 999999 999999 999999 999999 999999 999999 999999 999999 999999 999999 999999 999999 999999 999999 999999 999999 999999 999999 999999 999999 999999 999999 999999 999999 999999 999999 0 999999 999999 999999 999999 999999 999999 19237 999999 999999 16355 12575 999999 999999 14702 999999 11250 999999 999999 11147 15481 999999 999999 999999 999999 999999 999999 999999 999999 999999 999999 999999 999999 999999 999999 999999 999999 999999 999999 999999 999999 999999 14404 999999
999999 999999 999999 999999 999999 999999 999999 999999 999999 999999 999999 999999 999999 999999 999999 999999 999999 999999 999999 999999 999999 999999 999999 999999 999999 999999 999999 999999 999999 999999 999999 999999 999999 999999 999999 999999 999999 999999 999999 0 999999 999999 999999 999999 999999 14916 999999 999999 18709 15771 999999 999999 10186 999999 16546 999999 999999 19649 11712 999999 999999 999999 999999 999999 999999 999999 999999 999999 999999 999999 999999 999999 999999 999999 999999 999999 999999 999999 999999 999999 11159 999999
999999 999999 999999 999999 999999 999999 999999 999999 999999 999999 999999 999999 999999 999999 999999 999999 999999 999999 999999 999999 999999 999999 999999 999999 999999 999999 999999 999999 999999 999999 999999 999999 999999 999999 999999 999999 999999 999999 999999 999999 0 999999 999999 999999 999999 18583 999999 999999 17680 12206 999999 999999 18871 999999 13712 999999 999999 10310 19096 999999 999999 999999 999999 999999 999999 999999 999999 999999 999999 999999 999999 999999 999999 999999 999999 999999 999999 999999 999999 999999 18419 999999
999999 15132 14976 16247 17308 12946 18036 12003 18468 13120 17871 19238 18908 14105 14547 15021 11273 14636 16452 18841 18815 15821 16042 13006 16779 19480 14663 18716 13269 19975 11821 16207 15632 14162 10132 18206 16101 12415 19363 16591 10227 0 999999 999999 999999 999999 999999 999999 999999 999999 999999 999999 999999 999999 999999 999999 999999 999999 999999 999999 999999 999999 999999 999999 999999 999999 999999 999999 999999 999999 999999 999999 999999 999999 999999 999999 999999 999999 999999 999999 999999 8269
999999 14909 14268 11278 14518 14038 17265 19097 16538 15954 15165 10382 12850 10914 18675 16870 12792 14544 14596 14905 19803 14299 16625 11794 15594 18809 12680 13011 12144 12173 12238 16277 14213 16170 14016 17685 13586 18486 18391 17408 14828 999999 0 999999 999999 999999 999999 999999 999999 999999 999999 999999 999999 999999 999999 999999 999999 999999 999999 999999 999999 999999 999999 999999 999999 999999 999999 999999 999999 999999 999999 999999 999999 999999 999999 999999 999999 999999 999999 999999 999999 5530
999999 17774 18937 16642 17457 15794 17818 13883 10613 16098 13814 19785 18302 17791 17129 19211 17248 12027 10546 19345 10407 15401 19133 14971 18419 19079 17845 15901 13962 17911 12741 16297 14722 16892 17641 16844 11942 14099 10251 12932 13617 999999 999999 0 999999 999999 999999 999999 999999 999999 999999 999999 999999 999999 999999 999999 999999 999999 999999 999999 999999 999999 999999 999999 999999 999999 999999 999999 999999 999999 999999 999999 999999 999999 999999 999999 999999 999999 999999 999999 999999 6424
999999 18522 10422 13297 19598 18153 16192 17065 16236 14215 14672 19817 16678 17855 12957 15035 15552 14512 19170 12322 15275 13914 10510 13464 11737 16948 18860 13861 10800 14096 15055 12731 14068 16253 17557 17271 14250 14770 17694 15072 17201 999999 999999 999999 0 999999 999999 999999 999999 999999 999999 999999 999999 999999 999999 999999 999999 999999 999999 999999 999999 999999 999999 999999 999999 999999 999999 999999 999999 999999 999999 999999 999999 999999 999999 999999 999999 999999 999999 999999 999999 7001
999999 12094 18228 17375 12548 19013 10061 13235 19069 15780 17226 17020 11003 17496 18401 11466 16191 14814 17558 14423 10934 15368 10660 17481 17229 17061 13175 10770 16191 16654 10204 13870 13187 17935 11544 15113 17877 17431 19237 14916 18583 999999 999999 999999 999999 0 999999 999999 999999 999999 999999 999999 999999 999999 999999 999999 999999 999999 999999 999999 999999 999999 999999 999999 999999 999999 999999 999999 999999 999999 999999 999999 999999 999999 999999 999999 999999 999999 999999 999999 999999 14326
999999 16628 12029 15586 14720 14221 19301 14743 14071 15041 15584 17855 16663 15454 19039 14026 13390 19999 14265 18519 11121 16561 16986 19218 16208 13988 16071 13045 11127 15480 14006 12978 14352 10539 19428 13345 19130 16794 15875 17999 13798 999999 999999 999999 999999 999999 0 999999 999999 999999 999999 999999 999999 999999 999999 999999 999999 999999 999999 999999 999999 999999 999999 999999 999999 999999 999999 999999 999999 999999 999999 999999 999999 999999 999999 999999 999999 999999 999999 999999 999999 8916
999999 19135 16095 12440 12236 14613 12904 13836 18077 12964 13778 15129 16678 18735 14226 19537 14083 10375 19694 11141 15533 18166 18310 15033 17470 16738 15695 12935 10864 15478 13740 19129 16039 11326 11479 16372 16593 13265 18289 16204 18041 999999 999999 999999 999999 999999 999999 0 999999 999999 999999 999999 999999 999999 999999 999999 999999 999999 999999 999999 999999 999999 999999 999999 999999 999999 999999 999999 999999 999999 999999 999999 999999 999999 999999 999999 999999 999999 999999 999999 999999 8036
999999 15589 11234 18007 18747 11153 15815 16373 16673 11411 10697 19754 17529 17289 15969 17696 17962 10790 17842 12067 11671 17120 11835 10770 12657 15544 16811 12566 17397 18854 13620 11772 13133 13249 15357 16471 11024 12696 16355 18709 17680 999999 999999 999999 999999 999999 999999 999999 0 999999 999999 999999 999999 999999 999999 999999 999999 999999 999999 999999 999999 999999 999999 999999 999999 999999 999999 999999 999999 999999 999999 999999 999999 999999 999999 999999 999999 999999 999999 999999 999999 7291
999999 16234 14602 18349 14290 14074 16841 12828 10302 12174 14589 16825 11486 19446 17723 17242 17351 16345 15329 19039 18940 16803 10901 19853 17995 12974 19369 16058 14949 11031 13556 15518 16002 10511 13548 10885 19618 13845 12575 15771 12206 999999 999999 999999 999999 999999 999999 999999 999999 0 999999 999999 999999 999999 999999 999999 999999 999999 999999 999999 999999 999999 999999 999999 999999 999999 999999 999999 999999 999999 999999 999999 999999 999999 999999 999999 999999 999999 999999 999999 999999 12719
999999 15717 12431 10392 18624 10109 11910 15315 10668 12318 17117 15977 15643 11649 11552 12758 12609 15067 18506 15963 14712 16444 16924 10755 12191 13407 17012 14825 15625 19117 14341 15163 17656 11718 16257 15652 17031 16920 12956 12594 18529 999999 999999 999999 999999 999999 999999 999999 999999 999999 0 999999 999999 999999 999999 999999 999999 999999 999999 999999 999999 999999 999999 999999 999999 999999 999999 999999 999999 999999 999999 999999 999999 999999 999999 999999 999999 999999 999999 999999 999999 11830
999999 18624 13466 13680 17032 11281 11794 14569 11017 14251 15126 14187 15944 14707 18963 15923 15192 11314 16471 12574 14850 10492 19185 13678 14663 14817 16528 16849 10825 16524 17435 14214 14734 12562 14526 18851 11368 11312 19119 14102 18585 999999 999999 999999 999999 999999 999999 999999 999999 999999 999999 0 999999 999999 999999 999999 999999 999999 999999 999999 999999 999999 999999 999999 999999 999999 999999 999999 999999 999999 999999 999999 999999 999999 999999 999999 999999 999999 999999 999999 999999 9347
999999 11545 11611 10901 15688 11141 18908 16058 13303 10136 13911 12377 18267 12484 19500 11341 15191 16856 11624 18945 10685 11999 12386 18915 19186 15258 10441 13924 13936 19950 16218 10574 18792 11885 11761 16438 18647 16201 14702 10186 18871 999999 999999 999999 999999 999999 999999 999999 999999 999999 999999 999999 0 999999 999999 999999 999999 999999 999999 999999 999999 999999 999999 999999 999999 999999 999999 999999 999999 999999 999999 999999 999999 999999 999999 999999 999999 999999 999999 999999 999999 6941
999999 12217 18085 16940 11133 15741 14925 12898 11460 12157 14483 13335 13008 14807 16195 14082 16296 15661 15681 15793 15708 14359 17703 18424 11435 15302 10970 15000 19995 17380 16286 16271 14401 16428 18688 16852 13706 17350 19882 13877 10457 999999 999999 999999 999999 999999 999999 999999 999999 999999 999999 999999 999999 0 999999 999999 999999 999999 999999 999999 999999 999999 999999 999999 999999 999999 999999 999999 999999 999999 999999 999999 999999 999999 999999 999999 999999 999999 999999 999999 999999 5718
999999 18983 13578 14997 15549 11968 12186 16846 13536 19932 12669 19866 15847 10188 15037 10859 16317 17588 12750 18904 11401 15876 13295 13225 15698 17615 11426 16195 15194 16962 11988 12042 17214 15459 15169 12274 14259 16413 11250 16546 13712 999999 999999 999999 999999 999999 999999 999999 999999 999999 999999 999999 999999 999999 0 999999 999999 999999 999999 999999 999999 999999 999999 999999 999999 999999 999999 999999 999999 999999 999999 999999 999999 999999 999999 999999 999999 999999 999999 999999 999999 6134
999999 12735 11842 10906 16832 10489 10488 19377 11395 15468 10690 19281 15843 13119 16535 10591 12898 17246 11462 10602 11321 12939 17695 19467 17568 18018 13018 17132 14906 13001 15915 13966 13512 10478 18992 19253 10044 10678 10634 11293 10780 999999 999999 999999 999999 999999 999999 999999 999999 999999 999999 999999 999999 999999 999999 0 999999 999999 999999 999999 999999 999999 999999 999999 999999 999999 999999 999999 999999 999999 999999 999999 999999 999999 999999 999999 999999 999999 999999 999999 999999 14603
999999 15687 14248 17073 18055 15435 11794 15604 12203 18013 19959 17131 18197 12193 17920 17460 12707 18271 15434 13381 18351 19638 19108 16191 19111 16082 17085 16016 17971 17884 13299 19290 18168 18980 15396 19161 19849 17653 16867 14462 10740 999999 999999 999999 999999 999999 999999 999999 999999 999999 999999 999999 999999 999999 999999 999999 0 999999 999999 999999 999999 999999 999999 999999 999999 999999 999999 999999 999999 999999 999999 999999 999999 999999 999999 999999 999999 999999 999999 999999 999999 10398
999999 15321 11582 16025 12418 11587 13898 15266 16585 16877 15028 12342 15733 14437 18249 13167 14091 15175 10134 16730 19277 17603 16164 12018 13933 16490 13945 15549 14258 11460 15868 11900 10852 11575 16544 19099 10305 16025 11147 19649 10310 999999 999999 999999 999999 999999 999999 999999 999999 999999 999999 999999 999999 999999 999999 999999 999999 0 999999 999999 999999 999999 999999 999999 999999 999999 999999 999999 999999 999999 999999 999999 999999 999999 999999 999999 999999 999999 999999 999999 999999 13835
999999 15780 17273 16139 13951 15700 12319 14301 10746 19420 17932 13412 19245 10835 16867 15801 13582 10578 19182 18065 13310 16360 11800 17765 19773 11942 18063 17662 12447 15411 14821 16524 16836 13792 14020 13700 17743 16891 15481 11712 19096 999999 999999 999999 999999 999999 999999 999999 999999 999999 999999 999999 999999 999999 999999 999999 999999 999999 0 999999 999999 999999 999999 999999 999999 999999 999999 999999 999999 999999 999999 999999 999999 999999 999999 999999 999999 999999 999999 999999 999999 11533
999999 15957 11337 10347 15277 14233 19545 15578 11197 16271 14604 18971 17900 17483 12593 17360 13634 13304 11608 19556 18081 13569 17006 15046 11420 13516 11967 16073 15122 14414 12631 14499 16214 14787 15447 19574 19306 10186 18169 17693 12480 999999 999999 999999 999999 999999 999999 999999 999999 999999 999999 999999 999999 999999 999999 999999 999999 999999 999999 0 999999 999999 999999 999999 999999 999999 999999 999999 999999 999999 999999 999999 999999 999999 999999 999999 999999 999999 999999 999999 999999 12105
999999 11931 11788 12541 16728 15114 15426 15186 16639 10927 14282 10808 11988 17348 11027 14944 12150 14909 11048 12387 17575 16332 14510 15532 17668 16245 14693 10036 19412 15788 11547 13762 10160 13394 11368 17278 17096 14869 18656 13336 12679 999999 999999 999999 999999 999999 999999 999999 999999 999999 999999 999999 999999 999999 999999 999999 999999 999999 999999 999999 0 999999 999999 999999 999999 999999 999999 999999 999999 999999 999999 999999 999999 999999 999999 999999 999999 999999 999999 999999 999999 8810
999999 17010 16537 18670 13113 17385 13536 15110 17156 16982 11823 11915 13922 12708 16557 11742 15040 13396 10692 13000 11112 12499 12751 12915 15011 15361 19603 19137 18896 12238 10787 14531 19034 17929 11394 15962 17539 15917 19625 15640 17130 999999 999999 999999 999999 999999 999999 999999 999999 999999 999999 999999 999999 999999 999999 999999 999999 999999 999999 999999 999999 0 999999 999999 999999 999999 999999 999999 999999 999999 999999 999999 999999 999999 999999 999999 999999 999999 999999 999999 999999 14577
999999 17150 16125 16355 19996 15130 14432 14984 10769 11166 14692 14144 17202 13619 17558 16232 10503 18720 18808 11869 17870 14158 16161 14418 14572 15711 16685 17631 18481 11381 10262 19182 16595 19121 12997 11854 13066 14379 14378 14104 16030 999999 999999 999999 999999 999999 999999 999999 999999 999999 999999 999999 999999 999999 999999 999999 999999 999999 999999 999999 999999 999999 0 999999 999999 999999 999999 999999 999999 999999 999999 999999 999999 999999 999999 999999 999999 999999 999999 999999 999999 5111
999999 12020 12606 13130 11984 12824 10999 17848 17660 10498 17967 13042 18471 11147 19802 13773 15831 18657 18812 13071 10479 17275 14264 10912 15320 15355 10135 19660 18389 13030 13951 18088 10992 11760 13366 19386 13488 14829 18228 10088 13341 999999 999999 999999 999999 999999 999999 999999 999999 999999 999999 999999 999999 999999 999999 999999 999999 999999 999999 999999 999999 999999 999999 0 999999 999999 999999 999999 999999 999999 999999 999999 999999 999999 999999 999999 999999 999999 999999 999999 999999 13260
999999 13276 13979 11806 14299 15337 19498 14216 10665 11595 13025 18189 14515 16942 16013 18191 18268 11936 16234 17906 18602 13194 16721 16986 10199 18435 12236 16518 18677 11257 18349 16975 14716 18668 19111 19361 17664 18702 12245 15233 14746 999999 999999 999999 999999 999999 999999 999999 999999 999999 999999 999999 999999 999999 999999 999999 999999 999999 999999 999999 999999 999999 999999 999999 0 999999 999999 999999 999999 999999 999999 999999 999999 999999 999999 999999 999999 999999 999999 999999 999999 6494
999999 17100 14372 15597 13301 14363 11445 17463 14250 13914 19717 19059 17946 12487 18113 16492 15245 11003 17208 11583 17165 18130 13821 18660 10009 14559 12743 14412 16944 11692 14328 13108 11748 11926 12525 16165 11178 12604 10471 12989 12985 999999 999999 999999 999999 999999 999999 999999 999999 999999 999999 999999 999999 999999 999999 999999 999999 999999 999999 999999 999999 999999 999999 999999 999999 0 999999 999999 999999 999999 999999 999999 999999 999999 999999 999999 999999 999999 999999 999999 999999 13284
999999 19885 19235 13818 15769 17657 11206 12909 10722 11649 12622 16862 12626 18385 19551 18751 15412 10400 16797 12325 17553 18402 10842 12191 13407 15264 18724 14991 10940 18626 18399 15137 17733 18119 14838 16779 14936 18253 19976 14125 17594 999999 999999 999999 999999 999999 999999 999999 999999 999999 999999 999999 999999 999999 999999 999999 999999 999999 999999 999999 999999 999999 999999 999999 999999 999999 0 999999 999999 999999 999999 999999 999999 999999 999999 999999 999999 999999 999999 999999 999999 7914
999999 19082 10723 10944 19061 13284 11465 18839 17279 17914 19040 18961 19962 11512 18273 16830 16445 15015 17779 16375 16061 16965 19563 17050 18163 11532 19517 17243 16231 18670 10915 15460 12657 16247 17740 11135 14216 10555 10144 10601 13202 999999 999999 999999 999999 999999 999999 999999 999999 999999 999999 999999 999999 999999 999999 999999 999999 999999 999999 999999 999999 999999 999999 999999 999999 999999 999999 0 999999 999999 999999 999999 999999 999999 999999 999999 999999 999999 999999 999999 999999 6221
999999 18378 15260 11421 10874 12377 18138 17528 19265 13190 11156 19627 11472 13570 16579 13901 19106 12450 19419 16806 14696 17498 16529 19699 18974 19473 12179 14809 11108 17653 11746 12020 10315 13113 12967 18051 18189 19142 12767 10860 12193 999999 999999 999999 999999 999999 999999 999999 999999 999999 999999 999999 999999 999999 999999 999999 999999 999999 999999 999999 999999 999999 999999 999999 999999 999999 999999 999999 0 999999 999999 999999 999999 999999 999999 999999 999999 999999 999999 999999 999999 8665
999999 19300 11282 14817 18311 11627 10578 14759 13039 16026 12063 11500 19245 16728 13737 17547 13721 15330 11516 14696 10260 17420 10987 12026 11506 11480 16625 11889 15019 17778 15079 17331 11732 10521 15716 14927 12457 13793 17008 19883 10862 999999 999999 999999 999999 999999 999999 999999 999999 999999 999999 999999 999999 999999 999999 999999 999999 999999 999999 999999 999999 999999 999999 999999 999999 999999 999999 999999 999999 0 999999 999999 999999 999999 999999 999999 999999 999999 999999 999999 999999 13557
999999 14858 19364 19788 19821 13311 13388 14415 18421 16476 13831 11363 12461 19390 17256 13895 18000 15384 10220 11105 12907 18433 14478 19975 13682 11271 12629 13086 16654 13802 15772 14050 11727 10342 14060 13582 12091 19821 15989 10243 15060 999999 999999 999999 999999 999999 999999 999999 999999 999999 999999 999999 999999 999999 999999 999999 999999 999999 999999 999999 999999 999999 999999 999999 999999 999999 999999 999999 999999 999999 0 999999 999999 999999 999999 999999 999999 999999 999999 999999 999999 8771
999999 15780 13496 15569 18118 15411 13565 10872 11175 17559 13258 19505 15842 14634 17425 14350 17794 14235 17713 13125 13092 14252 10837 13390 19352 10644 13705 16338 13578 12727 18865 19808 17983 18268 18626 18803 17565 15145 18621 12042 12051 999999 999999 999999 999999 999999 999999 999999 999999 999999 999999 999999 999999 999999 999999 999999 999999 999999 999999 999999 999999 999999 999999 999999 999999 999999 999999 999999 999999 999999 999999 0 999999 999999 999999 999999 999999 999999 999999 999999 999999 11856
999999 12497 12719 12185 18357 17426 14053 11405 17133 16767 19292 10408 18859 10574 15043 12146 10445 17109 12109 15790 15176 16288 11831 14373 14383 11285 18677 15356 15307 10318 18413 13141 13939 13903 12851 11734 18335 19396 11653 11479 13156 999999 999999 999999 999999 999999 999999 999999 999999 999999 999999 999999 999999 999999 999999 999999 999999 999999 999999 999999 999999 999999 999999 999999 999999 999999 999999 999999 999999 999999 999999 999999 0 999999 999999 999999 999999 999999 999999 999999 999999 11774
999999 18555 19944 10256 12554 11251 19172 15749 12367 15467 12259 10810 16277 19683 10105 10804 19801 19852 10471 14157 11993 16035 13561 16150 17038 13918 10584 15297 11234 15308 18562 17915 13124 11385 19627 13046 14015 14591 16245 16637 13868 999999 999999 999999 999999 999999 999999 999999 999999 999999 999999 999999 999999 999999 999999 999999 999999 999999 999999 999999 999999 999999 999999 999999 999999 999999 999999 999999 999999 999999 999999 999999 999999 0 999999 999999 999999 999999 999999 999999 999999 9351
999999 14010 18601 19536 13380 12485 17770 19766 13605 13792 12943 15228 13753 13886 14930 14415 10321 11664 10233 12653 15970 18090 12237 11879 12662 16183 11441 17091 17453 16764 13734 16665 16290 18493 10200 15181 15217 15287 14437 15663 15599 999999 999999 999999 999999 999999 999999 999999 999999 999999 999999 999999 999999 999999 999999 999999 999999 999999 999999 999999 999999 999999 999999 999999 999999 999999 999999 999999 999999 999999 999999 999999 999999 999999 0 999999 999999 999999 999999 999999 999999 14557
999999 10391 14219 19660 15295 14463 11617 11634 17457 18746 13931 19482 19018 12180 15069 11913 18110 16253 17010 16552 18544 11913 19004 11572 14045 14438 17632 17490 11423 14340 17406 13633 12269 17976 18275 16467 17187 17423 14927 13315 14940 999999 999999 999999 999999 999999 999999 999999 999999 999999 999999 999999 999999 999999 999999 999999 999999 999999 999999 999999 999999 999999 999999 999999 999999 999999 999999 999999 999999 999999 999999 999999 999999 999999 999999 0 999999 999999 999999 999999 999999 10912
999999 15451 15940 11702 13424 13960 15509 12794 19625 14096 17377 19710 13097 16119 14932 16618 11207 10748 14098 19331 14802 16900 16350 17740 13806 15976 18013 19921 13972 13188 13806 11468 19590 13650 14189 11976 16004 15462 16374 14192 10428 999999 999999 999999 999999 999999 999999 999999 999999 999999 999999 999999 999999 999999 999999 999999 999999 999999 999999 999999 999999 999999 999999 999999 999999 999999 999999 999999 999999 999999 999999 999999 999999 999999 999999 999999 0 999999 999999 999999 999999 11727
999999 12566 11102 11606 15612 14230 16352 14691 15968 19345 15849 19147 17848 12674 10381 18151 11194 18487 17383 16777 13949 18731 11060 12292 17482 14403 12488 18683 10597 14562 14404 18610 16496 16058 19142 13585 16670 11100 11217 16807 15859 999999 999999 999999 999999 999999 999999 999999 999999 999999 999999 999999 999999 999999 999999 999999 999999 999999 999999 999999 999999 999999 999999 999999 999999 999999 999999 999999 999999 999999 999999 999999 999999 999999 999999 999999 999999 0 999999 999999 999999 10958
999999 10756 18756 14817 12901 17949 13469 13416 16222 16110 12891 10711 19735 13529 14677 12423 11951 13856 10491 15900 16972 14546 15149 17068 19765 11883 16082 12817 13439 19863 16578 17031 15492 16997 15886 10703 10408 13917 13707 10068 13442 999999 999999 999999 999999 999999 999999 999999 999999 999999 999999 999999 999999 999999 999999 999999 999999 999999 999999 999999 999999 999999 999999 999999 999999 999999 999999 999999 999999 999999 999999 999999 999999 999999 999999 999999 999999 999999 0 999999 999999 7873
999999 14773 13657 15742 17229 12856 13542 17943 12022 16583 16037 16993 15530 14089 13567 14182 15786 12710 10273 12202 12558 11997 17730 12165 12641 15328 17869 15955 11273 17537 19753 15391 11666 16984 12450 15990 18011 16093 15835 10306 11078 999999 999999 999999 999999 999999 999999 999999 999999 999999 999999 999999 999999 999999 999999 999999 999999 999999 999999 999999 999999 999999 999999 999999 999999 999999 999999 999999 999999 999999 999999 999999 999999 999999 999999 999999 999999 999999 999999 0 999999 7208
999999 19654 14315 11595 17769 18162 19748 11605 19976 15875 19513 13277 18743 14248 11236 18880 15824 18454 17430 17189 10010 17006 17451 13712 18356 10738 13198 12283 18032 14952 14570 14406 16428 18173 19567 16941 15355 17284 14404 11159 18419 999999 999999 999999 999999 999999 999999 999999 999999 999999 999999 999999 999999 999999 999999 999999 999999 999999 999999 999999 999999 999999 999999 999999 999999 999999 999999 999999 999999 999999 999999 999999 999999 999999 999999 999999 999999 999999 999999 999999 0 5565
1 999999 999999 999999 999999 999999 999999 999999 999999 999999 999999 999999 999999 999999 999999 999999 999999 999999 999999 999999 999999 999999 999999 999999 999999 999999 999999 999999 999999 999999 999999 999999 999999 999999 999999 999999 999999 999999 999999 999999 999999 999999 999999 999999 999999 999999 999999 999999 999999 999999 999999 999999 999999 999999 999999 999999 999999 999999 999999 999999 999999 999999 999999 999999 999999 999999 999999 999999 999999 999999 999999 999999 999999 999999 999999 999999 999999 999999 999999 999999 999999 0
EOF