NAME: GR_1x5x10_KH_5x10_Run_10
TYPE: TSP
COMMENT: BTSP instance |A|=50 GR nodes |B|=50 KH nodes depot=0.0 end=0.0.0
DIMENSION: 102
EDGE_WEIGHT_TYPE: EXPLICIT
EDGE_WEIGHT_FORMAT: FULL_MATRIX
NODE_COORD_TYPE: NO_COORDS
EDGE_WEIGHT_SECTION
0 12525 9244 5708 9021 11886 9575 11755 7033 6541 13507 8075 9994 10435 5897 9570 12273 11435 13268 7984 6827 5610 14576 6590 7787 13666 10839 11528 6014 7862 6101 5423 13157 13086 11371 13637 12488 5321 9427 5827 10649 5549 5249 9515 13351 14654 5621 9303 6243 13586 7230 999999 999999 999999 999999 999999 999999 999999 999999 999999 999999 999999 999999 999999 999999 999999 999999 999999 999999 999999 999999 999999 999999 999999 999999 999999 999999 999999 999999 999999 999999 999999 999999 999999 999999 999999 999999 999999 999999 999999 999999 999999 999999 999999 999999 999999 999999 999999 999999 999999 999999 999999
999999 0 999999 999999 999999 999999 999999 999999 999999 999999 999999 999999 999999 999999 999999 999999 999999 999999 999999 999999 999999 999999 999999 999999 999999 999999 999999 999999 999999 999999 999999 999999 999999 999999 999999 999999 999999 999999 999999 999999 999999 999999 999999 999999 999999 999999 999999 999999 999999 999999 999999 999999 999999 999999 999999 999999 999999 999999 999999 999999 999999 999999 999999 999999 999999 999999 999999 999999 12622 10515 999999 999999 999999 14466 17187 14413 999999 999999 999999 18911 999999 13262 999999 999999 999999 999999 999999 999999 999999 15898 999999 999999 999999 14905 999999 19882 999999 999999 999999 999999 999999 999999
999999 999999 0 999999 999999 999999 999999 999999 999999 999999 999999 999999 999999 999999 999999 999999 999999 999999 999999 999999 999999 999999 999999 999999 999999 999999 999999 999999 999999 999999 999999 999999 999999 999999 999999 999999 999999 999999 999999 999999 999999 999999 999999 999999 999999 999999 999999 999999 999999 999999 999999 999999 999999 999999 999999 999999 999999 999999 999999 999999 999999 999999 999999 999999 999999 999999 999999 999999 19158 16609 999999 999999 999999 13272 18624 16775 999999 999999 999999 11563 999999 18528 999999 999999 999999 999999 999999 999999 999999 11212 999999 999999 999999 16712 999999 14924 999999 999999 999999 999999 999999 999999
999999 999999 999999 0 999999 999999 999999 999999 999999 999999 999999 999999 999999 999999 999999 999999 999999 999999 999999 999999 999999 999999 999999 999999 999999 999999 999999 999999 999999 999999 999999 999999 999999 999999 999999 999999 999999 999999 999999 999999 999999 999999 999999 999999 999999 999999 999999 999999 999999 999999 999999 999999 999999 999999 999999 999999 999999 999999 999999 999999 999999 999999 999999 999999 999999 999999 999999 999999 12822 18669 999999 999999 999999 18549 16239 12628 999999 999999 999999 13494 999999 14925 999999 999999 999999 999999 999999 999999 999999 14158 999999 999999 999999 14253 999999 18030 999999 999999 999999 999999 999999 999999
999999 999999 999999 999999 0 999999 999999 999999 999999 999999 999999 999999 999999 999999 999999 999999 999999 999999 999999 999999 999999 999999 999999 999999 999999 999999 999999 999999 999999 999999 999999 999999 999999 999999 999999 999999 999999 999999 999999 999999 999999 999999 999999 999999 999999 999999 999999 999999 999999 999999 999999 999999 999999 999999 999999 999999 999999 999999 999999 999999 999999 999999 999999 999999 999999 999999 999999 999999 15982 17514 999999 999999 999999 10675 10933 11103 999999 999999 999999 16505 999999 16629 999999 999999 999999 999999 999999 999999 999999 15359 999999 999999 999999 14940 999999 11109 999999 999999 999999 999999 999999 999999
999999 999999 999999 999999 999999 0 999999 999999 999999 999999 999999 999999 999999 999999 999999 999999 999999 999999 999999 999999 999999 999999 999999 999999 999999 999999 999999 999999 999999 999999 999999 999999 999999 999999 999999 999999 999999 999999 999999 999999 999999 999999 999999 999999 999999 999999 999999 999999 999999 999999 999999 999999 999999 999999 999999 999999 999999 999999 999999 999999 999999 999999 999999 999999 999999 999999 999999 999999 10403 11106 999999 999999 999999 10861 15019 19790 999999 999999 999999 12119 999999 11158 999999 999999 999999 999999 999999 999999 999999 13399 999999 999999 999999 14105 999999 19771 999999 999999 999999 999999 999999 999999
999999 999999 999999 999999 999999 999999 0 999999 999999 999999 999999 999999 999999 999999 999999 999999 999999 999999 999999 999999 999999 999999 999999 999999 999999 999999 999999 999999 999999 999999 999999 999999 999999 999999 999999 999999 999999 999999 999999 999999 999999 999999 999999 999999 999999 999999 999999 999999 999999 999999 999999 999999 999999 999999 999999 999999 999999 999999 999999 999999 999999 999999 999999 999999 999999 999999 999999 999999 16174 13546 999999 999999 999999 15484 19702 15030 999999 999999 999999 13520 999999 15755 999999 999999 999999 999999 999999 999999 999999 13143 999999 999999 999999 13496 999999 17316 999999 999999 999999 999999 999999 999999
999999 999999 999999 999999 999999 999999 999999 0 999999 999999 999999 999999 999999 999999 999999 999999 999999 999999 999999 999999 999999 999999 999999 999999 999999 999999 999999 999999 999999 999999 999999 999999 999999 999999 999999 999999 999999 999999 999999 999999 999999 999999 999999 999999 999999 999999 999999 999999 999999 999999 999999 999999 999999 999999 999999 999999 999999 999999 999999 999999 999999 999999 999999 999999 999999 999999 999999 999999 12739 12620 999999 999999 999999 12049 10383 14716 999999 999999 999999 17087 999999 13066 999999 999999 999999 999999 999999 999999 999999 19537 999999 999999 999999 11231 999999 18366 999999 999999 999999 999999 999999 999999
999999 999999 999999 999999 999999 999999 999999 999999 0 999999 999999 999999 999999 999999 999999 999999 999999 999999 999999 999999 999999 999999 999999 999999 999999 999999 999999 999999 999999 999999 999999 999999 999999 999999 999999 999999 999999 999999 999999 999999 999999 999999 999999 999999 999999 999999 999999 999999 999999 999999 999999 999999 999999 999999 999999 999999 999999 999999 999999 999999 999999 999999 999999 999999 999999 999999 999999 999999 12107 15516 999999 999999 999999 15585 12193 12289 999999 999999 999999 10954 999999 10259 999999 999999 999999 999999 999999 999999 999999 12435 999999 999999 999999 18334 999999 17231 999999 999999 999999 999999 999999 999999
999999 999999 999999 999999 999999 999999 999999 999999 999999 0 999999 999999 999999 999999 999999 999999 999999 999999 999999 999999 999999 999999 999999 999999 999999 999999 999999 999999 999999 999999 999999 999999 999999 999999 999999 999999 999999 999999 999999 999999 999999 999999 999999 999999 999999 999999 999999 999999 999999 999999 999999 999999 999999 999999 999999 999999 999999 999999 999999 999999 999999 999999 999999 999999 999999 999999 999999 999999 15780 12296 999999 999999 999999 17104 12171 13978 999999 999999 999999 19500 999999 19826 999999 999999 999999 999999 999999 999999 999999 16533 999999 999999 999999 12396 999999 10326 999999 999999 999999 999999 999999 999999
999999 999999 999999 999999 999999 999999 999999 999999 999999 999999 0 999999 999999 999999 999999 999999 999999 999999 999999 999999 999999 999999 999999 999999 999999 999999 999999 999999 999999 999999 999999 999999 999999 999999 999999 999999 999999 999999 999999 999999 999999 999999 999999 999999 999999 999999 999999 999999 999999 999999 999999 999999 999999 999999 999999 999999 999999 999999 999999 999999 999999 999999 999999 999999 999999 999999 999999 999999 18491 12464 999999 999999 999999 11217 10206 14635 999999 999999 999999 11142 999999 15698 999999 999999 999999 999999 999999 999999 999999 14432 999999 999999 999999 11085 999999 10447 999999 999999 999999 999999 999999 999999
999999 999999 999999 999999 999999 999999 999999 999999 999999 999999 999999 0 999999 999999 999999 999999 999999 999999 999999 999999 999999 999999 999999 999999 999999 999999 999999 999999 999999 999999 999999 999999 999999 999999 999999 999999 999999 999999 999999 999999 999999 999999 999999 999999 999999 999999 999999 999999 999999 999999 999999 999999 999999 999999 999999 999999 999999 999999 16812 13336 19638 999999 14961 999999 999999 999999 999999 999999 999999 999999 999999 999999 999999 999999 999999 999999 999999 999999 999999 999999 999999 999999 15185 999999 999999 999999 15026 999999 999999 999999 999999 999999 19411 999999 15634 999999 999999 999999 16414 999999 12305 999999
999999 999999 999999 999999 999999 999999 999999 999999 999999 999999 999999 999999 0 999999 999999 999999 999999 999999 999999 999999 999999 999999 999999 999999 999999 999999 999999 999999 999999 999999 999999 999999 999999 999999 999999 999999 999999 999999 999999 999999 999999 999999 999999 999999 999999 999999 999999 999999 999999 999999 999999 999999 999999 999999 999999 999999 999999 999999 16766 10139 19019 999999 18168 999999 999999 999999 999999 999999 999999 999999 999999 999999 999999 999999 999999 999999 999999 999999 999999 999999 999999 999999 16021 999999 999999 999999 14420 999999 999999 999999 999999 999999 19476 999999 15123 999999 999999 999999 11697 999999 19605 999999
999999 999999 999999 999999 999999 999999 999999 999999 999999 999999 999999 999999 999999 0 999999 999999 999999 999999 999999 999999 999999 999999 999999 999999 999999 999999 999999 999999 999999 999999 999999 999999 999999 999999 999999 999999 999999 999999 999999 999999 999999 999999 999999 999999 999999 999999 999999 999999 999999 999999 999999 999999 999999 999999 999999 999999 999999 999999 14704 19499 16342 999999 15272 999999 999999 999999 999999 999999 999999 999999 999999 999999 999999 999999 999999 999999 999999 999999 999999 999999 999999 999999 10761 999999 999999 999999 18110 999999 999999 999999 999999 999999 16585 999999 13555 999999 999999 999999 17540 999999 15165 999999
999999 999999 999999 999999 999999 999999 999999 999999 999999 999999 999999 999999 999999 999999 0 999999 999999 999999 999999 999999 999999 999999 999999 999999 999999 999999 999999 999999 999999 999999 999999 999999 999999 999999 999999 999999 999999 999999 999999 999999 999999 999999 999999 999999 999999 999999 999999 999999 999999 999999 999999 999999 999999 999999 999999 999999 999999 999999 12507 14103 19203 999999 15839 999999 999999 999999 999999 999999 999999 999999 999999 999999 999999 999999 999999 999999 999999 999999 999999 999999 999999 999999 13885 999999 999999 999999 17219 999999 999999 999999 999999 999999 13675 999999 10855 999999 999999 999999 18737 999999 14929 999999
999999 999999 999999 999999 999999 999999 999999 999999 999999 999999 999999 999999 999999 999999 999999 0 999999 999999 999999 999999 999999 999999 999999 999999 999999 999999 999999 999999 999999 999999 999999 999999 999999 999999 999999 999999 999999 999999 999999 999999 999999 999999 999999 999999 999999 999999 999999 999999 999999 999999 999999 999999 999999 999999 999999 999999 999999 999999 15229 18153 12963 999999 12907 999999 999999 999999 999999 999999 999999 999999 999999 999999 999999 999999 999999 999999 999999 999999 999999 999999 999999 999999 11098 999999 999999 999999 16268 999999 999999 999999 999999 999999 14476 999999 18605 999999 999999 999999 17496 999999 12974 999999
999999 999999 999999 999999 999999 999999 999999 999999 999999 999999 999999 999999 999999 999999 999999 999999 0 999999 999999 999999 999999 999999 999999 999999 999999 999999 999999 999999 999999 999999 999999 999999 999999 999999 999999 999999 999999 999999 999999 999999 999999 999999 999999 999999 999999 999999 999999 999999 999999 999999 999999 999999 999999 999999 999999 999999 999999 999999 10104 10989 13439 999999 17908 999999 999999 999999 999999 999999 999999 999999 999999 999999 999999 999999 999999 999999 999999 999999 999999 999999 999999 999999 16329 999999 999999 999999 14328 999999 999999 999999 999999 999999 19345 999999 12652 999999 999999 999999 16073 999999 19372 999999
999999 999999 999999 999999 999999 999999 999999 999999 999999 999999 999999 999999 999999 999999 999999 999999 999999 0 999999 999999 999999 999999 999999 999999 999999 999999 999999 999999 999999 999999 999999 999999 999999 999999 999999 999999 999999 999999 999999 999999 999999 999999 999999 999999 999999 999999 999999 999999 999999 999999 999999 999999 999999 999999 999999 999999 999999 999999 15380 18240 16079 999999 12720 999999 999999 999999 999999 999999 999999 999999 999999 999999 999999 999999 999999 999999 999999 999999 999999 999999 999999 999999 13454 999999 999999 999999 13819 999999 999999 999999 999999 999999 14818 999999 14739 999999 999999 999999 15178 999999 17338 999999
999999 999999 999999 999999 999999 999999 999999 999999 999999 999999 999999 999999 999999 999999 999999 999999 999999 999999 0 999999 999999 999999 999999 999999 999999 999999 999999 999999 999999 999999 999999 999999 999999 999999 999999 999999 999999 999999 999999 999999 999999 999999 999999 999999 999999 999999 999999 999999 999999 999999 999999 999999 999999 999999 999999 999999 999999 999999 15390 10125 15128 999999 19866 999999 999999 999999 999999 999999 999999 999999 999999 999999 999999 999999 999999 999999 999999 999999 999999 999999 999999 999999 12372 999999 999999 999999 18130 999999 999999 999999 999999 999999 12465 999999 12477 999999 999999 999999 14707 999999 15902 999999
999999 999999 999999 999999 999999 999999 999999 999999 999999 999999 999999 999999 999999 999999 999999 999999 999999 999999 999999 0 999999 999999 999999 999999 999999 999999 999999 999999 999999 999999 999999 999999 999999 999999 999999 999999 999999 999999 999999 999999 999999 999999 999999 999999 999999 999999 999999 999999 999999 999999 999999 999999 999999 999999 999999 999999 999999 999999 12844 17869 15911 999999 15166 999999 999999 999999 999999 999999 999999 999999 999999 999999 999999 999999 999999 999999 999999 999999 999999 999999 999999 999999 17426 999999 999999 999999 17902 999999 999999 999999 999999 999999 16360 999999 17525 999999 999999 999999 17925 999999 16672 999999
999999 999999 999999 999999 999999 999999 999999 999999 999999 999999 999999 999999 999999 999999 999999 999999 999999 999999 999999 999999 0 999999 999999 999999 999999 999999 999999 999999 999999 999999 999999 999999 999999 999999 999999 999999 999999 999999 999999 999999 999999 999999 999999 999999 999999 999999 999999 999999 999999 999999 999999 999999 999999 999999 999999 999999 999999 999999 14661 11727 18639 999999 15139 999999 999999 999999 999999 999999 999999 999999 999999 999999 999999 999999 999999 999999 999999 999999 999999 999999 999999 999999 17323 999999 999999 999999 12947 999999 999999 999999 999999 999999 13590 999999 17221 999999 999999 999999 11204 999999 15116 999999
999999 999999 999999 999999 999999 999999 999999 999999 999999 999999 999999 999999 999999 999999 999999 999999 999999 999999 999999 999999 999999 0 999999 999999 999999 999999 999999 999999 999999 999999 999999 999999 999999 999999 999999 999999 999999 999999 999999 999999 999999 999999 999999 999999 999999 999999 999999 999999 999999 999999 999999 999999 14281 999999 999999 17285 999999 999999 999999 999999 999999 17739 999999 999999 999999 999999 15692 999999 999999 999999 999999 15390 999999 999999 999999 999999 999999 999999 999999 999999 999999 999999 999999 18285 999999 999999 999999 18537 999999 999999 10310 999999 999999 999999 999999 999999 11853 11416 999999 999999 999999 999999
999999 999999 999999 999999 999999 999999 999999 999999 999999 999999 999999 999999 999999 999999 999999 999999 999999 999999 999999 999999 999999 999999 0 999999 999999 999999 999999 999999 999999 999999 999999 999999 999999 999999 999999 999999 999999 999999 999999 999999 999999 999999 999999 999999 999999 999999 999999 999999 999999 999999 999999 999999 16437 999999 999999 16009 999999 999999 999999 999999 999999 13566 999999 999999 999999 999999 14469 999999 999999 999999 999999 14428 999999 999999 999999 999999 999999 999999 999999 999999 999999 999999 999999 16360 999999 999999 999999 14393 999999 999999 11651 999999 999999 999999 999999 999999 15726 13607 999999 999999 999999 999999
999999 999999 999999 999999 999999 999999 999999 999999 999999 999999 999999 999999 999999 999999 999999 999999 999999 999999 999999 999999 999999 999999 999999 0 999999 999999 999999 999999 999999 999999 999999 999999 999999 999999 999999 999999 999999 999999 999999 999999 999999 999999 999999 999999 999999 999999 999999 999999 999999 999999 999999 999999 16178 999999 999999 10592 999999 999999 999999 999999 999999 18582 999999 999999 999999 999999 18252 999999 999999 999999 999999 14047 999999 999999 999999 999999 999999 999999 999999 999999 999999 999999 999999 16750 999999 999999 999999 10441 999999 999999 12686 999999 999999 999999 999999 999999 16642 18862 999999 999999 999999 999999
999999 999999 999999 999999 999999 999999 999999 999999 999999 999999 999999 999999 999999 999999 999999 999999 999999 999999 999999 999999 999999 999999 999999 999999 0 999999 999999 999999 999999 999999 999999 999999 999999 999999 999999 999999 999999 999999 999999 999999 999999 999999 999999 999999 999999 999999 999999 999999 999999 999999 999999 999999 13300 999999 999999 15430 999999 999999 999999 999999 999999 11727 999999 999999 999999 999999 14183 999999 999999 999999 999999 17805 999999 999999 999999 999999 999999 999999 999999 999999 999999 999999 999999 10765 999999 999999 999999 15466 999999 999999 14396 999999 999999 999999 999999 999999 13709 13486 999999 999999 999999 999999
999999 999999 999999 999999 999999 999999 999999 999999 999999 999999 999999 999999 999999 999999 999999 999999 999999 999999 999999 999999 999999 999999 999999 999999 999999 0 999999 999999 999999 999999 999999 999999 999999 999999 999999 999999 999999 999999 999999 999999 999999 999999 999999 999999 999999 999999 999999 999999 999999 999999 999999 999999 16170 999999 999999 19416 999999 999999 999999 999999 999999 10344 999999 999999 999999 999999 17026 999999 999999 999999 999999 10678 999999 999999 999999 999999 999999 999999 999999 999999 999999 999999 999999 14314 999999 999999 999999 18032 999999 999999 18167 999999 999999 999999 999999 999999 18079 11903 999999 999999 999999 999999
999999 999999 999999 999999 999999 999999 999999 999999 999999 999999 999999 999999 999999 999999 999999 999999 999999 999999 999999 999999 999999 999999 999999 999999 999999 999999 0 999999 999999 999999 999999 999999 999999 999999 999999 999999 999999 999999 999999 999999 999999 999999 999999 999999 999999 999999 999999 999999 999999 999999 999999 999999 16388 999999 999999 12156 999999 999999 999999 999999 999999 19659 999999 999999 999999 999999 16282 999999 999999 999999 999999 13367 999999 999999 999999 999999 999999 999999 999999 999999 999999 999999 999999 17737 999999 999999 999999 16891 999999 999999 12537 999999 999999 999999 999999 999999 15493 18875 999999 999999 999999 999999
999999 999999 999999 999999 999999 999999 999999 999999 999999 999999 999999 999999 999999 999999 999999 999999 999999 999999 999999 999999 999999 999999 999999 999999 999999 999999 999999 0 999999 999999 999999 999999 999999 999999 999999 999999 999999 999999 999999 999999 999999 999999 999999 999999 999999 999999 999999 999999 999999 999999 999999 999999 13822 999999 999999 17874 999999 999999 999999 999999 999999 15721 999999 999999 999999 999999 18637 999999 999999 999999 999999 13675 999999 999999 999999 999999 999999 999999 999999 999999 999999 999999 999999 13293 999999 999999 999999 12250 999999 999999 17066 999999 999999 999999 999999 999999 14493 12619 999999 999999 999999 999999
999999 999999 999999 999999 999999 999999 999999 999999 999999 999999 999999 999999 999999 999999 999999 999999 999999 999999 999999 999999 999999 999999 999999 999999 999999 999999 999999 999999 0 999999 999999 999999 999999 999999 999999 999999 999999 999999 999999 999999 999999 999999 999999 999999 999999 999999 999999 999999 999999 999999 999999 999999 13690 999999 999999 18708 999999 999999 999999 999999 999999 15011 999999 999999 999999 999999 15469 999999 999999 999999 999999 17708 999999 999999 999999 999999 999999 999999 999999 999999 999999 999999 999999 10157 999999 999999 999999 16943 999999 999999 18886 999999 999999 999999 999999 999999 12552 14312 999999 999999 999999 999999
999999 999999 999999 999999 999999 999999 999999 999999 999999 999999 999999 999999 999999 999999 999999 999999 999999 999999 999999 999999 999999 999999 999999 999999 999999 999999 999999 999999 999999 0 999999 999999 999999 999999 999999 999999 999999 999999 999999 999999 999999 999999 999999 999999 999999 999999 999999 999999 999999 999999 999999 999999 13691 999999 999999 10972 999999 999999 999999 999999 999999 18112 999999 999999 999999 999999 16196 999999 999999 999999 999999 18475 999999 999999 999999 999999 999999 999999 999999 999999 999999 999999 999999 17922 999999 999999 999999 17854 999999 999999 19979 999999 999999 999999 999999 999999 10021 17831 999999 999999 999999 999999
999999 999999 999999 999999 999999 999999 999999 999999 999999 999999 999999 999999 999999 999999 999999 999999 999999 999999 999999 999999 999999 999999 999999 999999 999999 999999 999999 999999 999999 999999 0 999999 999999 999999 999999 999999 999999 999999 999999 999999 999999 999999 999999 999999 999999 999999 999999 999999 999999 999999 999999 999999 15263 999999 999999 15459 999999 999999 999999 999999 999999 19051 999999 999999 999999 999999 18456 999999 999999 999999 999999 12871 999999 999999 999999 999999 999999 999999 999999 999999 999999 999999 999999 15361 999999 999999 999999 17063 999999 999999 17203 999999 999999 999999 999999 999999 19636 17584 999999 999999 999999 999999
999999 999999 999999 999999 999999 999999 999999 999999 999999 999999 999999 999999 999999 999999 999999 999999 999999 999999 999999 999999 999999 999999 999999 999999 999999 999999 999999 999999 999999 999999 999999 0 999999 999999 999999 999999 999999 999999 999999 999999 999999 999999 999999 999999 999999 999999 999999 999999 999999 999999 999999 999999 999999 18511 16693 999999 11097 999999 999999 999999 999999 999999 999999 17437 18545 999999 999999 999999 999999 999999 19094 999999 999999 999999 999999 999999 10899 999999 999999 999999 14366 999999 999999 999999 13930 18732 999999 999999 999999 999999 999999 999999 999999 999999 999999 999999 999999 999999 999999 999999 999999 999999
999999 999999 999999 999999 999999 999999 999999 999999 999999 999999 999999 999999 999999 999999 999999 999999 999999 999999 999999 999999 999999 999999 999999 999999 999999 999999 999999 999999 999999 999999 999999 999999 0 999999 999999 999999 999999 999999 999999 999999 999999 999999 999999 999999 999999 999999 999999 999999 999999 999999 999999 999999 999999 13791 16826 999999 11907 999999 999999 999999 999999 999999 999999 15299 18969 999999 999999 999999 999999 999999 14577 999999 999999 999999 999999 999999 14896 999999 999999 999999 15246 999999 999999 999999 19470 16794 999999 999999 999999 999999 999999 999999 999999 999999 999999 999999 999999 999999 999999 999999 999999 999999
999999 999999 999999 999999 999999 999999 999999 999999 999999 999999 999999 999999 999999 999999 999999 999999 999999 999999 999999 999999 999999 999999 999999 999999 999999 999999 999999 999999 999999 999999 999999 999999 999999 0 999999 999999 999999 999999 999999 999999 999999 999999 999999 999999 999999 999999 999999 999999 999999 999999 999999 999999 999999 15029 13354 999999 10670 999999 999999 999999 999999 999999 999999 10432 18788 999999 999999 999999 999999 999999 16418 999999 999999 999999 999999 999999 18379 999999 999999 999999 15849 999999 999999 999999 19975 10363 999999 999999 999999 999999 999999 999999 999999 999999 999999 999999 999999 999999 999999 999999 999999 999999
999999 999999 999999 999999 999999 999999 999999 999999 999999 999999 999999 999999 999999 999999 999999 999999 999999 999999 999999 999999 999999 999999 999999 999999 999999 999999 999999 999999 999999 999999 999999 999999 999999 999999 0 999999 999999 999999 999999 999999 999999 999999 999999 999999 999999 999999 999999 999999 999999 999999 999999 999999 999999 16013 16778 999999 12305 999999 999999 999999 999999 999999 999999 10893 10449 999999 999999 999999 999999 999999 10867 999999 999999 999999 999999 999999 18990 999999 999999 999999 16914 999999 999999 999999 12661 15172 999999 999999 999999 999999 999999 999999 999999 999999 999999 999999 999999 999999 999999 999999 999999 999999
999999 999999 999999 999999 999999 999999 999999 999999 999999 999999 999999 999999 999999 999999 999999 999999 999999 999999 999999 999999 999999 999999 999999 999999 999999 999999 999999 999999 999999 999999 999999 999999 999999 999999 999999 0 999999 999999 999999 999999 999999 999999 999999 999999 999999 999999 999999 999999 999999 999999 999999 999999 999999 10101 18581 999999 16796 999999 999999 999999 999999 999999 999999 12481 14985 999999 999999 999999 999999 999999 15141 999999 999999 999999 999999 999999 13168 999999 999999 999999 15430 999999 999999 999999 13856 11855 999999 999999 999999 999999 999999 999999 999999 999999 999999 999999 999999 999999 999999 999999 999999 999999
999999 999999 999999 999999 999999 999999 999999 999999 999999 999999 999999 999999 999999 999999 999999 999999 999999 999999 999999 999999 999999 999999 999999 999999 999999 999999 999999 999999 999999 999999 999999 999999 999999 999999 999999 999999 0 999999 999999 999999 999999 999999 999999 999999 999999 999999 999999 999999 999999 999999 999999 999999 999999 17035 19062 999999 10753 999999 999999 999999 999999 999999 999999 13560 14300 999999 999999 999999 999999 999999 17933 999999 999999 999999 999999 999999 12354 999999 999999 999999 15962 999999 999999 999999 18342 10690 999999 999999 999999 999999 999999 999999 999999 999999 999999 999999 999999 999999 999999 999999 999999 999999
999999 999999 999999 999999 999999 999999 999999 999999 999999 999999 999999 999999 999999 999999 999999 999999 999999 999999 999999 999999 999999 999999 999999 999999 999999 999999 999999 999999 999999 999999 999999 999999 999999 999999 999999 999999 999999 0 999999 999999 999999 999999 999999 999999 999999 999999 999999 999999 999999 999999 999999 999999 999999 12770 17173 999999 18622 999999 999999 999999 999999 999999 999999 17973 16304 999999 999999 999999 999999 999999 14030 999999 999999 999999 999999 999999 14176 999999 999999 999999 11020 999999 999999 999999 14784 17785 999999 999999 999999 999999 999999 999999 999999 999999 999999 999999 999999 999999 999999 999999 999999 999999
999999 999999 999999 999999 999999 999999 999999 999999 999999 999999 999999 999999 999999 999999 999999 999999 999999 999999 999999 999999 999999 999999 999999 999999 999999 999999 999999 999999 999999 999999 999999 999999 999999 999999 999999 999999 999999 999999 0 999999 999999 999999 999999 999999 999999 999999 999999 999999 999999 999999 999999 999999 999999 13461 17834 999999 12526 999999 999999 999999 999999 999999 999999 10762 13354 999999 999999 999999 999999 999999 11560 999999 999999 999999 999999 999999 12860 999999 999999 999999 16056 999999 999999 999999 12784 19939 999999 999999 999999 999999 999999 999999 999999 999999 999999 999999 999999 999999 999999 999999 999999 999999
999999 999999 999999 999999 999999 999999 999999 999999 999999 999999 999999 999999 999999 999999 999999 999999 999999 999999 999999 999999 999999 999999 999999 999999 999999 999999 999999 999999 999999 999999 999999 999999 999999 999999 999999 999999 999999 999999 999999 0 999999 999999 999999 999999 999999 999999 999999 999999 999999 999999 999999 999999 999999 10414 14158 999999 12308 999999 999999 999999 999999 999999 999999 12657 10133 999999 999999 999999 999999 999999 18515 999999 999999 999999 999999 999999 14334 999999 999999 999999 19323 999999 999999 999999 17186 10702 999999 999999 999999 999999 999999 999999 999999 999999 999999 999999 999999 999999 999999 999999 999999 999999
999999 999999 999999 999999 999999 999999 999999 999999 999999 999999 999999 999999 999999 999999 999999 999999 999999 999999 999999 999999 999999 999999 999999 999999 999999 999999 999999 999999 999999 999999 999999 999999 999999 999999 999999 999999 999999 999999 999999 999999 0 999999 999999 999999 999999 999999 999999 999999 999999 999999 999999 999999 999999 12727 10053 999999 16518 999999 999999 999999 999999 999999 999999 13714 14212 999999 999999 999999 999999 999999 12534 999999 999999 999999 999999 999999 14126 999999 999999 999999 18511 999999 999999 999999 11516 19248 999999 999999 999999 999999 999999 999999 999999 999999 999999 999999 999999 999999 999999 999999 999999 999999
999999 999999 999999 999999 999999 999999 999999 999999 999999 999999 999999 999999 999999 999999 999999 999999 999999 999999 999999 999999 999999 999999 999999 999999 999999 999999 999999 999999 999999 999999 999999 999999 999999 999999 999999 999999 999999 999999 999999 999999 999999 0 999999 999999 999999 999999 999999 999999 999999 999999 999999 10698 999999 999999 999999 999999 999999 13196 999999 999999 999999 999999 999999 999999 999999 13489 999999 12332 999999 999999 999999 999999 18981 999999 999999 999999 999999 15488 10584 999999 999999 999999 999999 999999 999999 999999 999999 999999 17067 999999 999999 16889 999999 999999 999999 999999 999999 999999 999999 13131 999999 999999
999999 999999 999999 999999 999999 999999 999999 999999 999999 999999 999999 999999 999999 999999 999999 999999 999999 999999 999999 999999 999999 999999 999999 999999 999999 999999 999999 999999 999999 999999 999999 999999 999999 999999 999999 999999 999999 999999 999999 999999 999999 999999 0 999999 999999 999999 999999 999999 999999 999999 999999 11982 999999 999999 999999 999999 999999 17127 999999 999999 999999 999999 999999 999999 999999 19528 999999 18473 999999 999999 999999 999999 13407 999999 999999 999999 999999 16286 11557 999999 999999 999999 999999 999999 999999 999999 999999 999999 12075 999999 999999 15653 999999 999999 999999 999999 999999 999999 999999 19258 999999 999999
999999 999999 999999 999999 999999 999999 999999 999999 999999 999999 999999 999999 999999 999999 999999 999999 999999 999999 999999 999999 999999 999999 999999 999999 999999 999999 999999 999999 999999 999999 999999 999999 999999 999999 999999 999999 999999 999999 999999 999999 999999 999999 999999 0 999999 999999 999999 999999 999999 999999 999999 19181 999999 999999 999999 999999 999999 12339 999999 999999 999999 999999 999999 999999 999999 19247 999999 11353 999999 999999 999999 999999 12746 999999 999999 999999 999999 11544 16463 999999 999999 999999 999999 999999 999999 999999 999999 999999 18315 999999 999999 14762 999999 999999 999999 999999 999999 999999 999999 10276 999999 999999
999999 999999 999999 999999 999999 999999 999999 999999 999999 999999 999999 999999 999999 999999 999999 999999 999999 999999 999999 999999 999999 999999 999999 999999 999999 999999 999999 999999 999999 999999 999999 999999 999999 999999 999999 999999 999999 999999 999999 999999 999999 999999 999999 999999 0 999999 999999 999999 999999 999999 999999 19701 999999 999999 999999 999999 999999 17605 999999 999999 999999 999999 999999 999999 999999 14488 999999 13897 999999 999999 999999 999999 14865 999999 999999 999999 999999 18574 10166 999999 999999 999999 999999 999999 999999 999999 999999 999999 14275 999999 999999 10044 999999 999999 999999 999999 999999 999999 999999 11998 999999 999999
999999 999999 999999 999999 999999 999999 999999 999999 999999 999999 999999 999999 999999 999999 999999 999999 999999 999999 999999 999999 999999 999999 999999 999999 999999 999999 999999 999999 999999 999999 999999 999999 999999 999999 999999 999999 999999 999999 999999 999999 999999 999999 999999 999999 999999 0 999999 999999 999999 999999 999999 17042 999999 999999 999999 999999 999999 10666 999999 999999 999999 999999 999999 999999 999999 11886 999999 10984 999999 999999 999999 999999 18161 999999 999999 999999 999999 16806 18060 999999 999999 999999 999999 999999 999999 999999 999999 999999 10754 999999 999999 13048 999999 999999 999999 999999 999999 999999 999999 14430 999999 999999
999999 999999 999999 999999 999999 999999 999999 999999 999999 999999 999999 999999 999999 999999 999999 999999 999999 999999 999999 999999 999999 999999 999999 999999 999999 999999 999999 999999 999999 999999 999999 999999 999999 999999 999999 999999 999999 999999 999999 999999 999999 999999 999999 999999 999999 999999 0 999999 999999 999999 999999 13469 999999 999999 999999 999999 999999 15410 999999 999999 999999 999999 999999 999999 999999 11669 999999 16741 999999 999999 999999 999999 18048 999999 999999 999999 999999 19907 15707 999999 999999 999999 999999 999999 999999 999999 999999 999999 18989 999999 999999 15332 999999 999999 999999 999999 999999 999999 999999 14403 999999 999999
999999 999999 999999 999999 999999 999999 999999 999999 999999 999999 999999 999999 999999 999999 999999 999999 999999 999999 999999 999999 999999 999999 999999 999999 999999 999999 999999 999999 999999 999999 999999 999999 999999 999999 999999 999999 999999 999999 999999 999999 999999 999999 999999 999999 999999 999999 999999 0 999999 999999 999999 14842 999999 999999 999999 999999 999999 14217 999999 999999 999999 999999 999999 999999 999999 12913 999999 14519 999999 999999 999999 999999 11759 999999 999999 999999 999999 18811 16938 999999 999999 999999 999999 999999 999999 999999 999999 999999 15497 999999 999999 12250 999999 999999 999999 999999 999999 999999 999999 15432 999999 999999
999999 999999 999999 999999 999999 999999 999999 999999 999999 999999 999999 999999 999999 999999 999999 999999 999999 999999 999999 999999 999999 999999 999999 999999 999999 999999 999999 999999 999999 999999 999999 999999 999999 999999 999999 999999 999999 999999 999999 999999 999999 999999 999999 999999 999999 999999 999999 999999 0 999999 999999 17005 999999 999999 999999 999999 999999 12312 999999 999999 999999 999999 999999 999999 999999 18967 999999 11462 999999 999999 999999 999999 11214 999999 999999 999999 999999 19112 11068 999999 999999 999999 999999 999999 999999 999999 999999 999999 15511 999999 999999 17688 999999 999999 999999 999999 999999 999999 999999 13602 999999 999999
999999 999999 999999 999999 999999 999999 999999 999999 999999 999999 999999 999999 999999 999999 999999 999999 999999 999999 999999 999999 999999 999999 999999 999999 999999 999999 999999 999999 999999 999999 999999 999999 999999 999999 999999 999999 999999 999999 999999 999999 999999 999999 999999 999999 999999 999999 999999 999999 999999 0 999999 10333 999999 999999 999999 999999 999999 19891 999999 999999 999999 999999 999999 999999 999999 15244 999999 16613 999999 999999 999999 999999 14044 999999 999999 999999 999999 11236 11292 999999 999999 999999 999999 999999 999999 999999 999999 999999 13821 999999 999999 16743 999999 999999 999999 999999 999999 999999 999999 11746 999999 999999
999999 999999 999999 999999 999999 999999 999999 999999 999999 999999 999999 999999 999999 999999 999999 999999 999999 999999 999999 999999 999999 999999 999999 999999 999999 999999 999999 999999 999999 999999 999999 999999 999999 999999 999999 999999 999999 999999 999999 999999 999999 999999 999999 999999 999999 999999 999999 999999 999999 999999 0 19755 999999 999999 999999 999999 999999 12230 999999 999999 999999 999999 999999 999999 999999 11835 999999 14227 999999 999999 999999 999999 19337 999999 999999 999999 999999 19756 13199 999999 999999 999999 999999 999999 999999 999999 999999 999999 14875 999999 999999 16322 999999 999999 999999 999999 999999 999999 999999 11816 999999 999999
999999 13681 16573 16979 12047 14172 15155 10230 15005 19177 14776 12921 16174 14893 11019 12963 13200 15394 19342 14262 13148 16805 19679 18565 17737 16584 11302 12303 12399 12846 13671 13020 19079 10831 18645 18142 16024 15951 17937 17080 15985 10698 11982 19181 19701 17042 13469 14842 17005 10333 19755 0 999999 999999 999999 999999 999999 999999 999999 999999 999999 999999 999999 999999 999999 999999 999999 999999 999999 999999 999999 999999 999999 999999 999999 999999 999999 999999 999999 999999 999999 999999 999999 999999 999999 999999 999999 999999 999999 999999 999999 999999 999999 999999 999999 999999 999999 999999 999999 999999 999999 11285
999999 15131 17760 13292 13635 19040 14522 15471 19800 13756 12020 12185 19584 18483 17841 16766 14250 11268 11046 14799 15267 14281 16437 16178 13300 16170 16388 13822 13690 13691 15263 12559 11562 15854 10975 17022 13912 11870 19996 16010 11422 11068 13012 16393 13910 16985 18979 11961 14176 11817 19873 999999 0 999999 999999 999999 999999 999999 999999 999999 999999 999999 999999 999999 999999 999999 999999 999999 999999 999999 999999 999999 999999 999999 999999 999999 999999 999999 999999 999999 999999 999999 999999 999999 999999 999999 999999 999999 999999 999999 999999 999999 999999 999999 999999 999999 999999 999999 999999 999999 999999 10103
999999 11505 13713 12147 19517 17593 11663 11356 19911 18506 18157 19088 15097 11365 10985 11320 14894 12349 13692 10366 16849 12536 11449 11440 19186 11119 10342 14352 17996 13068 11943 18511 13791 15029 16013 10101 17035 12770 13461 10414 12727 17880 16474 17515 19931 15436 19859 13010 10632 16722 13513 999999 999999 0 999999 999999 999999 999999 999999 999999 999999 999999 999999 999999 999999 999999 999999 999999 999999 999999 999999 999999 999999 999999 999999 999999 999999 999999 999999 999999 999999 999999 999999 999999 999999 999999 999999 999999 999999 999999 999999 999999 999999 999999 999999 999999 999999 999999 999999 999999 999999 8442
999999 13262 19581 10792 18081 12502 13488 16182 17998 14547 18981 14082 16585 10580 19549 14075 11062 14660 10137 17798 11064 15561 14776 15338 17314 14355 17312 19568 11348 14277 15221 16693 16826 13354 16778 18581 19062 17173 17834 14158 10053 14385 15375 18695 10558 16148 12756 13284 16079 14623 19316 999999 999999 999999 0 999999 999999 999999 999999 999999 999999 999999 999999 999999 999999 999999 999999 999999 999999 999999 999999 999999 999999 999999 999999 999999 999999 999999 999999 999999 999999 999999 999999 999999 999999 999999 999999 999999 999999 999999 999999 999999 999999 999999 999999 999999 999999 999999 999999 999999 999999 13498
999999 16738 17591 17687 11920 11987 17225 16898 16454 15301 18604 11911 16179 16536 10742 11812 12787 11205 17127 19963 19318 17285 16009 10592 15430 19416 12156 17874 18708 10972 15459 19614 18290 19685 13405 10972 16048 14430 16510 12596 15662 19086 14467 16321 15156 19333 10560 15965 11780 18145 18111 999999 999999 999999 999999 0 999999 999999 999999 999999 999999 999999 999999 999999 999999 999999 999999 999999 999999 999999 999999 999999 999999 999999 999999 999999 999999 999999 999999 999999 999999 999999 999999 999999 999999 999999 999999 999999 999999 999999 999999 999999 999999 999999 999999 999999 999999 999999 999999 999999 999999 12248
999999 17833 14079 17221 12425 17759 17073 18800 13422 13919 11832 15051 12763 19801 11523 10986 11995 18127 16056 18704 13890 13241 14827 19938 19608 14342 16014 14500 14584 12186 12642 11097 11907 10670 12305 16796 10753 18622 12526 12308 16518 12266 15282 13998 13486 10098 11332 17453 19844 12332 10762 999999 999999 999999 999999 999999 0 999999 999999 999999 999999 999999 999999 999999 999999 999999 999999 999999 999999 999999 999999 999999 999999 999999 999999 999999 999999 999999 999999 999999 999999 999999 999999 999999 999999 999999 999999 999999 999999 999999 999999 999999 999999 999999 999999 999999 999999 999999 999999 999999 999999 11980
999999 13621 13763 11208 15524 14585 19454 11772 18493 15274 18974 11042 19039 11971 18861 18619 19235 13498 16317 18101 14505 17560 12203 19154 19245 16719 16812 13087 19351 12770 13395 17738 16192 16495 12817 16805 14937 19409 10931 14374 15433 13196 17127 12339 17605 10666 15410 14217 12312 19891 12230 999999 999999 999999 999999 999999 999999 0 999999 999999 999999 999999 999999 999999 999999 999999 999999 999999 999999 999999 999999 999999 999999 999999 999999 999999 999999 999999 999999 999999 999999 999999 999999 999999 999999 999999 999999 999999 999999 999999 999999 999999 999999 999999 999999 999999 999999 999999 999999 999999 999999 9139
999999 19551 16195 15547 10000 17242 14346 19038 17753 13403 14759 16812 16766 14704 12507 15229 10104 15380 15390 12844 14661 14936 12904 14423 17746 11828 19869 14254 14131 13406 18695 14947 10475 18695 12389 13644 13872 12646 10714 12957 17590 12861 18532 16824 11094 12279 17752 15159 16680 11647 17180 999999 999999 999999 999999 999999 999999 999999 0 999999 999999 999999 999999 999999 999999 999999 999999 999999 999999 999999 999999 999999 999999 999999 999999 999999 999999 999999 999999 999999 999999 999999 999999 999999 999999 999999 999999 999999 999999 999999 999999 999999 999999 999999 999999 999999 999999 999999 999999 999999 999999 9036
999999 11693 13368 18553 16684 12159 10615 19029 11180 17205 12355 13336 10139 19499 14103 18153 10989 18240 10125 17869 11727 15755 13336 14125 16145 10877 16992 19180 15786 13802 15336 15059 16346 13626 16469 15809 11001 11275 18550 19372 13238 11977 14866 17017 16481 14530 18708 10693 19358 10591 10485 999999 999999 999999 999999 999999 999999 999999 999999 0 999999 999999 999999 999999 999999 999999 999999 999999 999999 999999 999999 999999 999999 999999 999999 999999 999999 999999 999999 999999 999999 999999 999999 999999 999999 999999 999999 999999 999999 999999 999999 999999 999999 999999 999999 999999 999999 999999 999999 999999 999999 12332
999999 18909 16158 15350 10031 16431 19644 14880 14131 18152 18041 19638 19019 16342 19203 12963 13439 16079 15128 15911 18639 10521 19947 12506 19631 18267 15176 17643 14847 11023 19790 18356 13655 11494 18803 18612 15191 14410 17040 14914 16074 17289 10879 15572 16595 11153 12446 12906 11112 18791 14601 999999 999999 999999 999999 999999 999999 999999 999999 999999 0 999999 999999 999999 999999 999999 999999 999999 999999 999999 999999 999999 999999 999999 999999 999999 999999 999999 999999 999999 999999 999999 999999 999999 999999 999999 999999 999999 999999 999999 999999 999999 999999 999999 999999 999999 999999 999999 999999 999999 999999 10454
999999 15556 12545 10206 14977 18731 10054 13086 18905 10352 14505 11004 14421 17745 13628 17264 14257 14274 12347 18528 16480 17739 13566 18582 11727 10344 19659 15721 15011 18112 19051 15867 18449 18758 16011 12747 11388 11773 11367 12071 18518 16600 16275 17062 12557 11948 16388 12390 17641 14348 16438 999999 999999 999999 999999 999999 999999 999999 999999 999999 999999 0 999999 999999 999999 999999 999999 999999 999999 999999 999999 999999 999999 999999 999999 999999 999999 999999 999999 999999 999999 999999 999999 999999 999999 999999 999999 999999 999999 999999 999999 999999 999999 999999 999999 999999 999999 999999 999999 999999 999999 5105
999999 13382 17044 14133 18684 13377 19501 15281 14766 10901 16285 14961 18168 15272 15839 12907 17908 12720 19866 15166 15139 14045 19323 19363 15185 13586 12448 12042 19894 12923 16709 14110 13048 12809 16948 10169 16897 13843 15253 17065 18462 14791 17296 17894 14622 15451 19228 15609 11104 14466 11125 999999 999999 999999 999999 999999 999999 999999 999999 999999 999999 999999 0 999999 999999 999999 999999 999999 999999 999999 999999 999999 999999 999999 999999 999999 999999 999999 999999 999999 999999 999999 999999 999999 999999 999999 999999 999999 999999 999999 999999 999999 999999 999999 999999 999999 999999 999999 999999 999999 999999 11966
999999 19302 12406 11754 19280 15894 16673 10507 19363 14377 16012 11703 13414 10411 18377 19422 12719 11782 11221 18459 10051 15591 17955 10536 18404 15663 19157 13639 17214 10440 11761 17437 15299 10432 10893 12481 13560 17973 10762 12657 13714 19120 11454 13275 18440 15443 11663 12590 10696 16341 19349 999999 999999 999999 999999 999999 999999 999999 999999 999999 999999 999999 999999 0 999999 999999 999999 999999 999999 999999 999999 999999 999999 999999 999999 999999 999999 999999 999999 999999 999999 999999 999999 999999 999999 999999 999999 999999 999999 999999 999999 999999 999999 999999 999999 999999 999999 999999 999999 999999 999999 8712
999999 17669 18824 13968 14783 13574 10876 16778 12115 12888 14523 18778 16346 18894 19544 12559 15277 12004 16008 14065 19940 11928 12563 13166 15104 14038 10738 14563 10742 13432 12361 18545 18969 18788 10449 14985 14300 16304 13354 10133 14212 14750 15870 17445 14739 13730 10298 15541 11838 12954 16518 999999 999999 999999 999999 999999 999999 999999 999999 999999 999999 999999 999999 999999 0 999999 999999 999999 999999 999999 999999 999999 999999 999999 999999 999999 999999 999999 999999 999999 999999 999999 999999 999999 999999 999999 999999 999999 999999 999999 999999 999999 999999 999999 999999 999999 999999 999999 999999 999999 999999 13965
999999 15010 18942 14672 17932 10020 14906 13385 10106 19137 17150 13962 14252 16553 13939 14051 13812 12306 10939 18464 14708 17472 19363 14388 17615 19933 12177 10373 18776 16496 12969 10502 11177 19128 19403 19168 12725 10032 11970 13106 11389 13489 19528 19247 14488 11886 11669 12913 18967 15244 11835 999999 999999 999999 999999 999999 999999 999999 999999 999999 999999 999999 999999 999999 999999 0 999999 999999 999999 999999 999999 999999 999999 999999 999999 999999 999999 999999 999999 999999 999999 999999 999999 999999 999999 999999 999999 999999 999999 999999 999999 999999 999999 999999 999999 999999 999999 999999 999999 999999 999999 14893
999999 16530 17509 18318 10410 15503 15249 12205 15789 13202 15594 12191 12001 11915 15721 18020 13947 11948 17576 14153 17373 15692 14469 18252 14183 17026 16282 18637 15469 16196 18456 17676 16051 18975 19006 14441 15519 16332 15181 13930 13202 10826 11660 10241 19652 12170 10340 13043 14244 10298 13847 999999 999999 999999 999999 999999 999999 999999 999999 999999 999999 999999 999999 999999 999999 999999 0 999999 999999 999999 999999 999999 999999 999999 999999 999999 999999 999999 999999 999999 999999 999999 999999 999999 999999 999999 999999 999999 999999 999999 999999 999999 999999 999999 999999 999999 999999 999999 999999 999999 999999 9547
999999 18095 10223 17136 14273 19625 15480 19537 14288 19493 16810 15340 11437 13006 19814 11367 16279 16006 17529 18225 13308 17698 14457 12051 13004 10403 18898 13943 11486 17434 16931 13352 17126 16287 10311 16996 16615 15816 10711 11642 16456 12332 18473 11353 13897 10984 16741 14519 11462 16613 14227 999999 999999 999999 999999 999999 999999 999999 999999 999999 999999 999999 999999 999999 999999 999999 999999 0 999999 999999 999999 999999 999999 999999 999999 999999 999999 999999 999999 999999 999999 999999 999999 999999 999999 999999 999999 999999 999999 999999 999999 999999 999999 999999 999999 999999 999999 999999 999999 999999 999999 6589
999999 12622 19158 12822 15982 10403 16174 12739 12107 15780 18491 10248 17222 17122 18709 16520 10488 19008 13368 10866 19980 14452 10154 16318 14932 17583 19178 12173 13029 12529 16552 11089 12771 18971 16962 12541 17641 18175 11065 18259 11174 17846 19977 17233 17005 11963 11661 11567 15083 12632 19141 999999 999999 999999 999999 999999 999999 999999 999999 999999 999999 999999 999999 999999 999999 999999 999999 999999 0 999999 999999 999999 999999 999999 999999 999999 999999 999999 999999 999999 999999 999999 999999 999999 999999 999999 999999 999999 999999 999999 999999 999999 999999 999999 999999 999999 999999 999999 999999 999999 999999 13575
999999 10515 16609 18669 17514 11106 13546 12620 15516 12296 12464 15260 14816 17843 16036 11463 17092 19954 18783 17138 19135 17141 15912 16944 14278 15982 11364 10525 14797 15854 18527 13925 11840 13573 12181 17140 14396 17621 15040 19546 14515 11572 17064 12715 18126 19162 17101 13817 11866 17151 11645 999999 999999 999999 999999 999999 999999 999999 999999 999999 999999 999999 999999 999999 999999 999999 999999 999999 999999 0 999999 999999 999999 999999 999999 999999 999999 999999 999999 999999 999999 999999 999999 999999 999999 999999 999999 999999 999999 999999 999999 999999 999999 999999 999999 999999 999999 999999 999999 999999 999999 10097
999999 18644 15546 11942 15385 16082 15081 19067 19593 18558 19702 16812 10579 18386 10310 11669 15155 13532 14303 12455 19954 12157 12092 12130 17304 13851 13160 10912 13929 17347 16770 19094 14577 16418 10867 15141 17933 14030 11560 18515 12534 18433 19546 14919 18083 10407 15137 15995 13571 11567 13388 999999 999999 999999 999999 999999 999999 999999 999999 999999 999999 999999 999999 999999 999999 999999 999999 999999 999999 999999 0 999999 999999 999999 999999 999999 999999 999999 999999 999999 999999 999999 999999 999999 999999 999999 999999 999999 999999 999999 999999 999999 999999 999999 999999 999999 999999 999999 999999 999999 999999 6025
999999 19309 14788 14317 10810 14005 16335 15239 13230 11716 18154 13841 18156 17455 15836 16472 18046 10894 14192 18674 16387 15390 14428 14047 17805 10678 13367 13675 17708 18475 12871 11676 13010 17405 13945 11776 16872 11163 10023 14206 14563 10783 13696 14295 12974 11726 10646 16143 17769 10151 18603 999999 999999 999999 999999 999999 999999 999999 999999 999999 999999 999999 999999 999999 999999 999999 999999 999999 999999 999999 999999 0 999999 999999 999999 999999 999999 999999 999999 999999 999999 999999 999999 999999 999999 999999 999999 999999 999999 999999 999999 999999 999999 999999 999999 999999 999999 999999 999999 999999 999999 8336
999999 16234 17581 18639 16746 11483 16163 11136 10211 17967 12854 11107 18262 14639 16837 17529 15837 14646 12442 18419 13638 19342 15877 16264 11418 14813 15935 16603 18136 12082 16649 17475 19861 17938 17914 13910 13325 11832 16410 10193 11385 18981 13407 12746 14865 18161 18048 11759 11214 14044 19337 999999 999999 999999 999999 999999 999999 999999 999999 999999 999999 999999 999999 999999 999999 999999 999999 999999 999999 999999 999999 999999 0 999999 999999 999999 999999 999999 999999 999999 999999 999999 999999 999999 999999 999999 999999 999999 999999 999999 999999 999999 999999 999999 999999 999999 999999 999999 999999 999999 999999 12285
999999 14466 13272 18549 10675 10861 15484 12049 15585 17104 11217 13789 15306 18823 13928 18980 19353 19317 12636 12747 13027 10771 10985 14382 12888 13904 14070 19526 12344 10816 11575 17690 18223 17323 13286 14611 19118 17471 19234 11255 14339 19377 19698 10444 12506 16863 19384 15285 16894 10842 14461 999999 999999 999999 999999 999999 999999 999999 999999 999999 999999 999999 999999 999999 999999 999999 999999 999999 999999 999999 999999 999999 999999 0 999999 999999 999999 999999 999999 999999 999999 999999 999999 999999 999999 999999 999999 999999 999999 999999 999999 999999 999999 999999 999999 999999 999999 999999 999999 999999 999999 10787
999999 17187 18624 16239 10933 15019 19702 10383 12193 12171 10206 15675 17405 10862 11284 11296 14649 19877 12317 19915 13127 14297 17659 12182 13715 13285 19994 15492 10687 12808 11822 15360 16837 19351 14915 15764 18008 14987 15835 11705 13350 18694 12435 14594 13830 11169 15600 17473 19900 11704 15120 999999 999999 999999 999999 999999 999999 999999 999999 999999 999999 999999 999999 999999 999999 999999 999999 999999 999999 999999 999999 999999 999999 999999 0 999999 999999 999999 999999 999999 999999 999999 999999 999999 999999 999999 999999 999999 999999 999999 999999 999999 999999 999999 999999 999999 999999 999999 999999 999999 999999 7535
999999 14413 16775 12628 11103 19790 15030 14716 12289 13978 14635 16431 18693 10080 17495 18437 10919 16922 15093 19232 10144 10692 13803 13921 11038 16278 17054 19796 13308 16942 10796 13969 14574 14026 14275 10666 15541 10301 16544 15272 11119 19879 19576 18169 14192 15825 10900 11863 17698 11664 16448 999999 999999 999999 999999 999999 999999 999999 999999 999999 999999 999999 999999 999999 999999 999999 999999 999999 999999 999999 999999 999999 999999 999999 999999 0 999999 999999 999999 999999 999999 999999 999999 999999 999999 999999 999999 999999 999999 999999 999999 999999 999999 999999 999999 999999 999999 999999 999999 999999 999999 7916
999999 13427 18368 14642 19712 13694 12716 14035 18181 14133 12882 10359 17522 17564 13683 12872 11514 14155 15018 10659 18012 18005 18409 18070 16764 13391 17305 19341 18210 12071 19050 10899 14896 18379 18990 13168 12354 14176 12860 14334 14126 16705 17056 14913 10045 15193 16301 12005 13145 17092 15000 999999 999999 999999 999999 999999 999999 999999 999999 999999 999999 999999 999999 999999 999999 999999 999999 999999 999999 999999 999999 999999 999999 999999 999999 999999 0 999999 999999 999999 999999 999999 999999 999999 999999 999999 999999 999999 999999 999999 999999 999999 999999 999999 999999 999999 999999 999999 999999 999999 999999 13704
999999 14138 14060 11077 13152 12306 11223 12553 12302 15757 13599 12721 10062 12572 11726 18041 16121 10707 11062 18856 13058 17880 16899 13891 14831 18620 15288 12280 14236 16497 13313 15866 19965 12027 13641 12178 12895 13275 10293 11348 11583 15488 16286 11544 18574 16806 19907 18811 19112 11236 19756 999999 999999 999999 999999 999999 999999 999999 999999 999999 999999 999999 999999 999999 999999 999999 999999 999999 999999 999999 999999 999999 999999 999999 999999 999999 999999 0 999999 999999 999999 999999 999999 999999 999999 999999 999999 999999 999999 999999 999999 999999 999999 999999 999999 999999 999999 999999 999999 999999 999999 14189
999999 16554 18399 13907 17010 14013 17452 18160 10689 15764 18838 15148 17919 16784 19637 12253 16088 19782 11167 18196 19379 11013 11902 11293 15251 10677 13190 18001 18627 17893 18626 16582 11007 11969 17609 10798 19479 18485 19213 13587 12574 10584 11557 16463 10166 18060 15707 16938 11068 11292 13199 999999 999999 999999 999999 999999 999999 999999 999999 999999 999999 999999 999999 999999 999999 999999 999999 999999 999999 999999 999999 999999 999999 999999 999999 999999 999999 999999 0 999999 999999 999999 999999 999999 999999 999999 999999 999999 999999 999999 999999 999999 999999 999999 999999 999999 999999 999999 999999 999999 999999 13289
999999 18911 11563 13494 16505 12119 13520 17087 10954 19500 11142 19051 10500 19921 12044 11619 10218 19407 10095 13440 13437 13135 19577 14687 19450 15585 16719 10279 10889 11249 10671 18394 10627 14654 15479 18955 14771 10002 12936 19367 15867 14473 16336 16805 18644 11595 14755 18012 12529 16646 16142 999999 999999 999999 999999 999999 999999 999999 999999 999999 999999 999999 999999 999999 999999 999999 999999 999999 999999 999999 999999 999999 999999 999999 999999 999999 999999 999999 999999 0 999999 999999 999999 999999 999999 999999 999999 999999 999999 999999 999999 999999 999999 999999 999999 999999 999999 999999 999999 999999 999999 9610
999999 19681 14386 10053 13420 14668 12986 13343 17104 12274 11172 14516 14301 16427 10137 13046 11653 10741 16965 13597 19676 17976 10268 19617 14022 14139 12711 13774 15224 18648 19898 14366 15246 15849 16914 15430 15962 11020 16056 19323 18511 16308 12966 13239 11418 13200 19097 10791 12002 19325 10052 999999 999999 999999 999999 999999 999999 999999 999999 999999 999999 999999 999999 999999 999999 999999 999999 999999 999999 999999 999999 999999 999999 999999 999999 999999 999999 999999 999999 999999 0 999999 999999 999999 999999 999999 999999 999999 999999 999999 999999 999999 999999 999999 999999 999999 999999 999999 999999 999999 999999 6282
999999 13262 18528 14925 16629 11158 15755 13066 10259 19826 15698 15010 10224 17568 14839 11454 12350 18352 11912 18048 13909 13063 12688 19699 13149 11107 18119 19741 17041 16194 18297 14984 16580 16121 18387 19033 12474 19932 11492 15541 18688 19809 15799 11022 10931 12002 11526 16328 14780 12479 16702 999999 999999 999999 999999 999999 999999 999999 999999 999999 999999 999999 999999 999999 999999 999999 999999 999999 999999 999999 999999 999999 999999 999999 999999 999999 999999 999999 999999 999999 999999 0 999999 999999 999999 999999 999999 999999 999999 999999 999999 999999 999999 999999 999999 999999 999999 999999 999999 999999 999999 5740
999999 11114 19881 16513 16891 16689 18602 14456 14478 13525 19149 15185 16021 10761 13885 11098 16329 13454 12372 17426 17323 18256 19432 17868 10617 12933 12840 12929 17458 10632 15112 10566 18031 13362 10805 15805 10252 15338 18651 13760 18074 14699 10129 17396 12566 11350 15825 17134 10516 14133 13561 999999 999999 999999 999999 999999 999999 999999 999999 999999 999999 999999 999999 999999 999999 999999 999999 999999 999999 999999 999999 999999 999999 999999 999999 999999 999999 999999 999999 999999 999999 999999 0 999999 999999 999999 999999 999999 999999 999999 999999 999999 999999 999999 999999 999999 999999 999999 999999 999999 999999 6565
999999 13344 18892 17828 12009 19902 17832 14832 18520 11756 16926 18745 16870 15960 13699 10586 10518 15700 13632 10668 12991 18285 16360 16750 10765 14314 17737 13293 10157 17922 15361 12906 10837 13672 15292 18332 11016 17539 18045 18958 18732 13907 10210 18440 13070 16781 14321 12899 11663 19991 15228 999999 999999 999999 999999 999999 999999 999999 999999 999999 999999 999999 999999 999999 999999 999999 999999 999999 999999 999999 999999 999999 999999 999999 999999 999999 999999 999999 999999 999999 999999 999999 999999 0 999999 999999 999999 999999 999999 999999 999999 999999 999999 999999 999999 999999 999999 999999 999999 999999 999999 8090
999999 15186 14971 15793 15128 14902 17058 19256 12914 18939 10182 16309 10939 10989 12925 19326 19255 19768 12437 11229 14903 15819 11732 19599 16080 18279 18222 13111 19108 17650 16686 13930 19470 19975 12661 13856 18342 14784 12784 17186 11516 13081 16133 16193 15120 18433 17293 10896 13375 14762 19724 999999 999999 999999 999999 999999 999999 999999 999999 999999 999999 999999 999999 999999 999999 999999 999999 999999 999999 999999 999999 999999 999999 999999 999999 999999 999999 999999 999999 999999 999999 999999 999999 999999 0 999999 999999 999999 999999 999999 999999 999999 999999 999999 999999 999999 999999 999999 999999 999999 999999 7161
999999 15106 19040 11264 10938 18637 10227 13126 12927 17559 18283 11001 15864 17619 10486 17260 13812 17065 14277 16900 16077 13317 10106 12041 15716 14095 10550 16711 15457 18627 13837 18732 16794 10363 15172 11855 10690 17785 19939 10702 19248 16398 16029 11245 17936 14902 13985 18629 18038 14109 16856 999999 999999 999999 999999 999999 999999 999999 999999 999999 999999 999999 999999 999999 999999 999999 999999 999999 999999 999999 999999 999999 999999 999999 999999 999999 999999 999999 999999 999999 999999 999999 999999 999999 999999 0 999999 999999 999999 999999 999999 999999 999999 999999 999999 999999 999999 999999 999999 999999 999999 5302
999999 16911 16107 10248 12908 13009 10547 12408 19941 19569 16077 15026 14420 18110 17219 16268 14328 13819 18130 17902 12947 11705 19558 19476 11794 10290 14897 17408 10935 17897 17747 12204 12933 12508 18005 10655 12280 16050 12947 19284 10822 14984 14209 18170 10203 11136 17947 14875 10669 17666 11094 999999 999999 999999 999999 999999 999999 999999 999999 999999 999999 999999 999999 999999 999999 999999 999999 999999 999999 999999 999999 999999 999999 999999 999999 999999 999999 999999 999999 999999 999999 999999 999999 999999 999999 999999 0 999999 999999 999999 999999 999999 999999 999999 999999 999999 999999 999999 999999 999999 999999 5183
999999 10140 10652 17602 10931 13281 10093 15363 18786 11709 15866 15415 15781 13024 12467 16266 15330 13323 18101 16262 12198 18537 14393 10441 15466 18032 16891 12250 16943 17854 17063 11737 17275 18115 16404 18704 13468 15513 13180 13233 11383 13146 13277 18864 14964 19276 16448 13841 18919 18824 19075 999999 999999 999999 999999 999999 999999 999999 999999 999999 999999 999999 999999 999999 999999 999999 999999 999999 999999 999999 999999 999999 999999 999999 999999 999999 999999 999999 999999 999999 999999 999999 999999 999999 999999 999999 999999 0 999999 999999 999999 999999 999999 999999 999999 999999 999999 999999 999999 999999 999999 13925
999999 18484 17946 18872 15527 15482 11022 16784 17310 13816 17934 18406 14354 15245 15833 18868 16854 10526 19094 13104 16461 14796 17569 17417 16188 16529 12733 10167 13611 12582 12922 11250 16576 18585 16938 13822 17564 13749 12012 10474 15898 17067 12075 18315 14275 10754 18989 15497 15511 13821 14875 999999 999999 999999 999999 999999 999999 999999 999999 999999 999999 999999 999999 999999 999999 999999 999999 999999 999999 999999 999999 999999 999999 999999 999999 999999 999999 999999 999999 999999 999999 999999 999999 999999 999999 999999 999999 999999 0 999999 999999 999999 999999 999999 999999 999999 999999 999999 999999 999999 999999 12208
999999 15898 11212 14158 15359 13399 13143 19537 12435 16533 14432 15766 17818 15888 14030 18571 15233 15433 16318 15146 15230 14991 10640 19391 14511 19459 13481 16576 11998 14080 12581 18406 17677 11332 19703 12217 16396 14812 11176 11162 10970 14351 10326 18112 12976 16557 11925 10169 10766 10987 12562 999999 999999 999999 999999 999999 999999 999999 999999 999999 999999 999999 999999 999999 999999 999999 999999 999999 999999 999999 999999 999999 999999 999999 999999 999999 999999 999999 999999 999999 999999 999999 999999 999999 999999 999999 999999 999999 999999 0 999999 999999 999999 999999 999999 999999 999999 999999 999999 999999 999999 13215
999999 19906 16676 14399 13583 15227 10208 11338 19206 13268 18166 18735 15102 14438 12404 12264 10278 14148 19972 13646 13045 10310 11651 12686 14396 18167 12537 17066 18886 19979 17203 14044 11799 14995 16318 15116 19647 19350 18147 11187 13851 18412 18866 14446 13869 15052 12169 19035 15082 10065 11786 999999 999999 999999 999999 999999 999999 999999 999999 999999 999999 999999 999999 999999 999999 999999 999999 999999 999999 999999 999999 999999 999999 999999 999999 999999 999999 999999 999999 999999 999999 999999 999999 999999 999999 999999 999999 999999 999999 999999 0 999999 999999 999999 999999 999999 999999 999999 999999 999999 999999 13671
999999 19561 13100 16427 19434 16506 11836 19452 18334 11208 14609 14412 10279 12688 11412 17918 15529 12004 19415 12879 14233 12842 10674 18255 13479 16472 11173 13543 11358 14821 17316 13235 12330 14329 14117 13008 15035 17658 16755 12191 15587 16889 15653 14762 10044 13048 15332 12250 17688 16743 16322 999999 999999 999999 999999 999999 999999 999999 999999 999999 999999 999999 999999 999999 999999 999999 999999 999999 999999 999999 999999 999999 999999 999999 999999 999999 999999 999999 999999 999999 999999 999999 999999 999999 999999 999999 999999 999999 999999 999999 999999 0 999999 999999 999999 999999 999999 999999 999999 999999 999999 5968
999999 15431 10565 17287 14213 11007 14781 15252 14207 17543 11705 19411 19476 16585 13675 14476 19345 14818 12465 16360 13590 18764 12652 12151 11506 18601 19126 12108 16256 17164 10600 14213 17660 12678 18293 14883 11496 11005 11297 13634 12482 10835 15243 15674 16052 13119 17455 17090 10089 10297 18326 999999 999999 999999 999999 999999 999999 999999 999999 999999 999999 999999 999999 999999 999999 999999 999999 999999 999999 999999 999999 999999 999999 999999 999999 999999 999999 999999 999999 999999 999999 999999 999999 999999 999999 999999 999999 999999 999999 999999 999999 999999 0 999999 999999 999999 999999 999999 999999 999999 999999 10603
999999 14905 16712 14253 14940 14105 13496 11231 18334 12396 11085 14894 18946 18979 12607 12080 15160 18335 18112 18344 10324 13608 15161 18135 18363 11337 16261 18399 15640 14742 11180 17562 15013 16140 10603 18804 13243 11308 14118 11094 13007 14813 10496 11126 19870 14990 16022 10584 16087 16625 11296 999999 999999 999999 999999 999999 999999 999999 999999 999999 999999 999999 999999 999999 999999 999999 999999 999999 999999 999999 999999 999999 999999 999999 999999 999999 999999 999999 999999 999999 999999 999999 999999 999999 999999 999999 999999 999999 999999 999999 999999 999999 999999 0 999999 999999 999999 999999 999999 999999 999999 14984
999999 11506 10459 14493 13202 11729 17578 16272 15436 11056 12020 15634 15123 13555 10855 18605 12652 14739 12477 17525 17221 14834 18431 15501 16560 19840 12913 12676 13301 16271 13283 17659 18661 18545 12002 11968 18329 10123 17148 10315 13833 12248 14918 19788 13495 11867 16855 13002 11736 14127 17211 999999 999999 999999 999999 999999 999999 999999 999999 999999 999999 999999 999999 999999 999999 999999 999999 999999 999999 999999 999999 999999 999999 999999 999999 999999 999999 999999 999999 999999 999999 999999 999999 999999 999999 999999 999999 999999 999999 999999 999999 999999 999999 999999 0 999999 999999 999999 999999 999999 999999 5576
999999 19882 14924 18030 11109 19771 17316 18366 17231 10326 10447 10248 12168 14068 10307 14603 18642 18246 10383 17921 15014 18280 16841 15013 17778 18424 19437 10610 15614 10723 12169 13572 14918 16469 10522 10958 15108 12034 15391 12407 11591 10155 14221 11922 11718 15805 18119 13261 12134 16556 16002 999999 999999 999999 999999 999999 999999 999999 999999 999999 999999 999999 999999 999999 999999 999999 999999 999999 999999 999999 999999 999999 999999 999999 999999 999999 999999 999999 999999 999999 999999 999999 999999 999999 999999 999999 999999 999999 999999 999999 999999 999999 999999 999999 999999 0 999999 999999 999999 999999 999999 10858
999999 10411 17158 18734 11905 17714 18014 16303 18815 12852 14490 17300 19475 12849 19793 14670 11575 18462 10884 16879 11640 11853 15726 16642 13709 18079 15493 14493 12552 10021 19636 14451 14421 11887 17509 17505 11283 10823 14816 17807 14524 13285 10478 10986 18366 12508 17514 17583 11393 19892 17553 999999 999999 999999 999999 999999 999999 999999 999999 999999 999999 999999 999999 999999 999999 999999 999999 999999 999999 999999 999999 999999 999999 999999 999999 999999 999999 999999 999999 999999 999999 999999 999999 999999 999999 999999 999999 999999 999999 999999 999999 999999 999999 999999 999999 999999 0 999999 999999 999999 999999 6759
999999 10697 14971 19794 17480 18755 16542 13643 15873 11800 17337 16478 19368 19837 12446 11058 16213 14650 10489 11968 15535 11416 13607 18862 13486 11903 18875 12619 14312 17831 17584 18166 18433 12941 10382 13354 13029 10584 12157 14451 11008 15054 13151 14914 17386 11957 19244 13067 16732 11859 18787 999999 999999 999999 999999 999999 999999 999999 999999 999999 999999 999999 999999 999999 999999 999999 999999 999999 999999 999999 999999 999999 999999 999999 999999 999999 999999 999999 999999 999999 999999 999999 999999 999999 999999 999999 999999 999999 999999 999999 999999 999999 999999 999999 999999 999999 999999 0 999999 999999 999999 14224
999999 19308 10090 10692 17736 15923 11816 18116 18785 19068 18044 16414 11697 17540 18737 17496 16073 15178 14707 17925 11204 14068 11066 12822 10827 17995 19797 15020 19549 10363 12893 11178 15462 14063 14897 18587 11880 13757 15483 13676 14056 18153 18711 14367 16847 15938 12980 17643 11647 17340 19902 999999 999999 999999 999999 999999 999999 999999 999999 999999 999999 999999 999999 999999 999999 999999 999999 999999 999999 999999 999999 999999 999999 999999 999999 999999 999999 999999 999999 999999 999999 999999 999999 999999 999999 999999 999999 999999 999999 999999 999999 999999 999999 999999 999999 999999 999999 999999 0 999999 999999 8586
999999 13979 10023 16431 16742 11826 19631 12378 14758 16010 10123 15489 18659 18351 10020 12505 19594 17919 15226 18864 13791 13118 15025 17244 11106 11175 18758 13247 14441 16172 12203 10377 18471 10545 12086 18554 16547 11413 18326 13173 15277 13131 19258 10276 11998 14430 14403 15432 13602 11746 11816 999999 999999 999999 999999 999999 999999 999999 999999 999999 999999 999999 999999 999999 999999 999999 999999 999999 999999 999999 999999 999999 999999 999999 999999 999999 999999 999999 999999 999999 999999 999999 999999 999999 999999 999999 999999 999999 999999 999999 999999 999999 999999 999999 999999 999999 999999 999999 999999 0 999999 6029
999999 16000 13203 10341 14436 19122 18379 13654 19463 12262 12741 12305 19605 15165 14929 12974 19372 17338 15902 16672 15116 14006 15645 11075 11266 16326 11873 10612 13501 13113 13212 13236 12651 11366 19804 17513 19748 10958 17448 11677 17334 18359 19858 13761 10670 14199 11321 17858 16785 10010 17577 999999 999999 999999 999999 999999 999999 999999 999999 999999 999999 999999 999999 999999 999999 999999 999999 999999 999999 999999 999999 999999 999999 999999 999999 999999 999999 999999 999999 999999 999999 999999 999999 999999 999999 999999 999999 999999 999999 999999 999999 999999 999999 999999 999999 999999 999999 999999 999999 999999 0 14640
1 999999 999999 999999 999999 999999 999999 999999 999999 999999 999999 999999 999999 999999 999999 999999 999999 999999 999999 999999 999999 999999 999999 999999 999999 999999 999999 999999 999999 999999 999999 999999 999999 999999 999999 999999 999999 999999 999999 999999 999999 999999 999999 999999 999999 999999 999999 999999 999999 999999 999999 999999 999999 999999 999999 999999 999999 999999 999999 999999 999999 999999 999999 999999 999999 999999 999999 999999 999999 999999 999999 999999 999999 999999 999999 999999 999999 999999 999999 999999 999999 999999 999999 999999 999999 999999 999999 999999 999999 999999 999999 999999 999999 999999 999999 999999 999999 999999 999999 999999 999999 0
EOF