NAME: GR_1x5x14_KH_5x14_Run_1
TYPE: TSP
COMMENT: BTSP instance |A|=70 GR nodes |B|=70 KH nodes depot=0.0 end=0.0.0
DIMENSION: 142
EDGE_WEIGHT_TYPE: EXPLICIT
EDGE_WEIGHT_FORMAT: FULL_MATRIX
NODE_COORD_TYPE: NO_COORDS
EDGE_WEIGHT_SECTION
0 13149 11566 11398 10247 6272 9398 7061 5717 14889 8343 9822 9143 12901 9448 6680 6737 6286 7449 7678 12046 10023 7389 6794 6340 7859 5206 9620 14554 14747 7862 13783 10721 11828 5673 8436 14078 11740 8874 11504 11033 12131 9919 5357 9017 10621 13185 13574 6083 9912 5074 12827 5466 5927 10862 13370 6316 10186 11148 11716 5090 12129 14107 5869 13218 14140 6183 14274 8444 13543 14936 999999 999999 999999 999999 999999 999999 999999 999999 999999 999999 999999 999999 999999 999999 999999 999999 999999 999999 999999 999999 999999 999999 999999 999999 999999 999999 999999 999999 999999 999999 999999 999999 999999 999999 999999 999999 999999 999999 999999 999999 999999 999999 999999 999999 999999 999999 999999 999999 999999 999999 999999 999999 999999 999999 999999 999999 999999 999999 999999 999999 999999 999999 999999 999999 999999 999999 999999 999999 999999 999999 999999
999999 0 999999 999999 999999 999999 999999 999999 999999 999999 999999 999999 999999 999999 999999 999999 999999 999999 999999 999999 999999 999999 999999 999999 999999 999999 999999 999999 999999 999999 999999 999999 999999 999999 999999 999999 999999 999999 999999 999999 999999 999999 999999 999999 999999 999999 999999 999999 999999 999999 999999 999999 999999 999999 999999 999999 999999 999999 999999 999999 999999 999999 999999 999999 999999 999999 999999 999999 999999 999999 999999 999999 999999 999999 16743 999999 999999 999999 15095 999999 999999 999999 15329 18639 999999 999999 999999 999999 999999 999999 999999 999999 999999 999999 999999 999999 999999 12963 999999 999999 999999 999999 999999 999999 999999 16135 999999 999999 16284 999999 999999 999999 999999 999999 999999 11414 17236 999999 12313 999999 17243 999999 999999 999999 999999 999999 17831 999999 14474 999999 999999 999999 999999 999999 999999 999999 999999 999999 999999 19709 999999 999999
999999 999999 0 999999 999999 999999 999999 999999 999999 999999 999999 999999 999999 999999 999999 999999 999999 999999 999999 999999 999999 999999 999999 999999 999999 999999 999999 999999 999999 999999 999999 999999 999999 999999 999999 999999 999999 999999 999999 999999 999999 999999 999999 999999 999999 999999 999999 999999 999999 999999 999999 999999 999999 999999 999999 999999 999999 999999 999999 999999 999999 999999 999999 999999 999999 999999 999999 999999 999999 999999 999999 999999 999999 999999 18012 999999 999999 999999 14559 999999 999999 999999 19524 18929 999999 999999 999999 999999 999999 999999 999999 999999 999999 999999 999999 999999 999999 10161 999999 999999 999999 999999 999999 999999 999999 18389 999999 999999 13273 999999 999999 999999 999999 999999 999999 10893 12975 999999 13274 999999 19730 999999 999999 999999 999999 999999 19734 999999 14245 999999 999999 999999 999999 999999 999999 999999 999999 999999 999999 13901 999999 999999
999999 999999 999999 0 999999 999999 999999 999999 999999 999999 999999 999999 999999 999999 999999 999999 999999 999999 999999 999999 999999 999999 999999 999999 999999 999999 999999 999999 999999 999999 999999 999999 999999 999999 999999 999999 999999 999999 999999 999999 999999 999999 999999 999999 999999 999999 999999 999999 999999 999999 999999 999999 999999 999999 999999 999999 999999 999999 999999 999999 999999 999999 999999 999999 999999 999999 999999 999999 999999 999999 999999 999999 999999 999999 10722 999999 999999 999999 17667 999999 999999 999999 15953 12018 999999 999999 999999 999999 999999 999999 999999 999999 999999 999999 999999 999999 999999 16844 999999 999999 999999 999999 999999 999999 999999 10886 999999 999999 10425 999999 999999 999999 999999 999999 999999 15116 13895 999999 11623 999999 18956 999999 999999 999999 999999 999999 11750 999999 11823 999999 999999 999999 999999 999999 999999 999999 999999 999999 999999 10234 999999 999999
999999 999999 999999 999999 0 999999 999999 999999 999999 999999 999999 999999 999999 999999 999999 999999 999999 999999 999999 999999 999999 999999 999999 999999 999999 999999 999999 999999 999999 999999 999999 999999 999999 999999 999999 999999 999999 999999 999999 999999 999999 999999 999999 999999 999999 999999 999999 999999 999999 999999 999999 999999 999999 999999 999999 999999 999999 999999 999999 999999 999999 999999 999999 999999 999999 999999 999999 999999 999999 999999 999999 999999 999999 999999 14320 999999 999999 999999 12088 999999 999999 999999 14321 13574 999999 999999 999999 999999 999999 999999 999999 999999 999999 999999 999999 999999 999999 16463 999999 999999 999999 999999 999999 999999 999999 18056 999999 999999 13336 999999 999999 999999 999999 999999 999999 13092 13443 999999 16137 999999 11898 999999 999999 999999 999999 999999 18354 999999 17596 999999 999999 999999 999999 999999 999999 999999 999999 999999 999999 18971 999999 999999
999999 999999 999999 999999 999999 0 999999 999999 999999 999999 999999 999999 999999 999999 999999 999999 999999 999999 999999 999999 999999 999999 999999 999999 999999 999999 999999 999999 999999 999999 999999 999999 999999 999999 999999 999999 999999 999999 999999 999999 999999 999999 999999 999999 999999 999999 999999 999999 999999 999999 999999 999999 999999 999999 999999 999999 999999 999999 999999 999999 999999 999999 999999 999999 999999 999999 999999 999999 999999 999999 999999 999999 999999 999999 17048 999999 999999 999999 14538 999999 999999 999999 17942 16845 999999 999999 999999 999999 999999 999999 999999 999999 999999 999999 999999 999999 999999 17784 999999 999999 999999 999999 999999 999999 999999 15059 999999 999999 15964 999999 999999 999999 999999 999999 999999 16537 15366 999999 16595 999999 17014 999999 999999 999999 999999 999999 11679 999999 13569 999999 999999 999999 999999 999999 999999 999999 999999 999999 999999 16479 999999 999999
999999 999999 999999 999999 999999 999999 0 999999 999999 999999 999999 999999 999999 999999 999999 999999 999999 999999 999999 999999 999999 999999 999999 999999 999999 999999 999999 999999 999999 999999 999999 999999 999999 999999 999999 999999 999999 999999 999999 999999 999999 999999 999999 999999 999999 999999 999999 999999 999999 999999 999999 999999 999999 999999 999999 999999 999999 999999 999999 999999 999999 999999 999999 999999 999999 999999 999999 999999 999999 999999 999999 999999 999999 999999 16289 999999 999999 999999 11560 999999 999999 999999 17542 11465 999999 999999 999999 999999 999999 999999 999999 999999 999999 999999 999999 999999 999999 13666 999999 999999 999999 999999 999999 999999 999999 12321 999999 999999 11304 999999 999999 999999 999999 999999 999999 17525 12286 999999 17729 999999 14765 999999 999999 999999 999999 999999 14243 999999 16418 999999 999999 999999 999999 999999 999999 999999 999999 999999 999999 14746 999999 999999
999999 999999 999999 999999 999999 999999 999999 0 999999 999999 999999 999999 999999 999999 999999 999999 999999 999999 999999 999999 999999 999999 999999 999999 999999 999999 999999 999999 999999 999999 999999 999999 999999 999999 999999 999999 999999 999999 999999 999999 999999 999999 999999 999999 999999 999999 999999 999999 999999 999999 999999 999999 999999 999999 999999 999999 999999 999999 999999 999999 999999 999999 999999 999999 999999 999999 999999 999999 999999 999999 999999 999999 999999 999999 14533 999999 999999 999999 15349 999999 999999 999999 16059 17708 999999 999999 999999 999999 999999 999999 999999 999999 999999 999999 999999 999999 999999 14062 999999 999999 999999 999999 999999 999999 999999 18809 999999 999999 13368 999999 999999 999999 999999 999999 999999 13563 14634 999999 13074 999999 17419 999999 999999 999999 999999 999999 15767 999999 17701 999999 999999 999999 999999 999999 999999 999999 999999 999999 999999 14682 999999 999999
999999 999999 999999 999999 999999 999999 999999 999999 0 999999 999999 999999 999999 999999 999999 999999 999999 999999 999999 999999 999999 999999 999999 999999 999999 999999 999999 999999 999999 999999 999999 999999 999999 999999 999999 999999 999999 999999 999999 999999 999999 999999 999999 999999 999999 999999 999999 999999 999999 999999 999999 999999 999999 999999 999999 999999 999999 999999 999999 999999 999999 999999 999999 999999 999999 999999 999999 999999 999999 999999 999999 999999 999999 999999 14236 999999 999999 999999 14645 999999 999999 999999 16174 14200 999999 999999 999999 999999 999999 999999 999999 999999 999999 999999 999999 999999 999999 13198 999999 999999 999999 999999 999999 999999 999999 13687 999999 999999 10048 999999 999999 999999 999999 999999 999999 17540 18877 999999 19225 999999 14656 999999 999999 999999 999999 999999 19442 999999 14569 999999 999999 999999 999999 999999 999999 999999 999999 999999 999999 16040 999999 999999
999999 999999 999999 999999 999999 999999 999999 999999 999999 0 999999 999999 999999 999999 999999 999999 999999 999999 999999 999999 999999 999999 999999 999999 999999 999999 999999 999999 999999 999999 999999 999999 999999 999999 999999 999999 999999 999999 999999 999999 999999 999999 999999 999999 999999 999999 999999 999999 999999 999999 999999 999999 999999 999999 999999 999999 999999 999999 999999 999999 999999 999999 999999 999999 999999 999999 999999 999999 999999 999999 999999 999999 999999 999999 14315 999999 999999 999999 17471 999999 999999 999999 11319 19494 999999 999999 999999 999999 999999 999999 999999 999999 999999 999999 999999 999999 999999 10515 999999 999999 999999 999999 999999 999999 999999 13260 999999 999999 15617 999999 999999 999999 999999 999999 999999 18019 15704 999999 16195 999999 13497 999999 999999 999999 999999 999999 16793 999999 11468 999999 999999 999999 999999 999999 999999 999999 999999 999999 999999 18257 999999 999999
999999 999999 999999 999999 999999 999999 999999 999999 999999 999999 0 999999 999999 999999 999999 999999 999999 999999 999999 999999 999999 999999 999999 999999 999999 999999 999999 999999 999999 999999 999999 999999 999999 999999 999999 999999 999999 999999 999999 999999 999999 999999 999999 999999 999999 999999 999999 999999 999999 999999 999999 999999 999999 999999 999999 999999 999999 999999 999999 999999 999999 999999 999999 999999 999999 999999 999999 999999 999999 999999 999999 999999 999999 999999 15397 999999 999999 999999 16733 999999 999999 999999 18259 15004 999999 999999 999999 999999 999999 999999 999999 999999 999999 999999 999999 999999 999999 17803 999999 999999 999999 999999 999999 999999 999999 15684 999999 999999 12457 999999 999999 999999 999999 999999 999999 15183 19252 999999 18560 999999 19693 999999 999999 999999 999999 999999 18395 999999 18740 999999 999999 999999 999999 999999 999999 999999 999999 999999 999999 19456 999999 999999
999999 999999 999999 999999 999999 999999 999999 999999 999999 999999 999999 0 999999 999999 999999 999999 999999 999999 999999 999999 999999 999999 999999 999999 999999 999999 999999 999999 999999 999999 999999 999999 999999 999999 999999 999999 999999 999999 999999 999999 999999 999999 999999 999999 999999 999999 999999 999999 999999 999999 999999 999999 999999 999999 999999 999999 999999 999999 999999 999999 999999 999999 999999 999999 999999 999999 999999 999999 999999 999999 999999 999999 999999 999999 11680 999999 999999 999999 15220 999999 999999 999999 14200 13903 999999 999999 999999 999999 999999 999999 999999 999999 999999 999999 999999 999999 999999 17761 999999 999999 999999 999999 999999 999999 999999 19220 999999 999999 15386 999999 999999 999999 999999 999999 999999 13017 10835 999999 17472 999999 12478 999999 999999 999999 999999 999999 11017 999999 14643 999999 999999 999999 999999 999999 999999 999999 999999 999999 999999 11054 999999 999999
999999 999999 999999 999999 999999 999999 999999 999999 999999 999999 999999 999999 0 999999 999999 999999 999999 999999 999999 999999 999999 999999 999999 999999 999999 999999 999999 999999 999999 999999 999999 999999 999999 999999 999999 999999 999999 999999 999999 999999 999999 999999 999999 999999 999999 999999 999999 999999 999999 999999 999999 999999 999999 999999 999999 999999 999999 999999 999999 999999 999999 999999 999999 999999 999999 999999 999999 999999 999999 999999 999999 999999 999999 999999 19180 999999 999999 999999 14944 999999 999999 999999 16407 19219 999999 999999 999999 999999 999999 999999 999999 999999 999999 999999 999999 999999 999999 16239 999999 999999 999999 999999 999999 999999 999999 16419 999999 999999 15357 999999 999999 999999 999999 999999 999999 18256 12624 999999 14672 999999 16267 999999 999999 999999 999999 999999 14190 999999 16991 999999 999999 999999 999999 999999 999999 999999 999999 999999 999999 15490 999999 999999
999999 999999 999999 999999 999999 999999 999999 999999 999999 999999 999999 999999 999999 0 999999 999999 999999 999999 999999 999999 999999 999999 999999 999999 999999 999999 999999 999999 999999 999999 999999 999999 999999 999999 999999 999999 999999 999999 999999 999999 999999 999999 999999 999999 999999 999999 999999 999999 999999 999999 999999 999999 999999 999999 999999 999999 999999 999999 999999 999999 999999 999999 999999 999999 999999 999999 999999 999999 999999 999999 999999 999999 999999 999999 10903 999999 999999 999999 15010 999999 999999 999999 16668 10846 999999 999999 999999 999999 999999 999999 999999 999999 999999 999999 999999 999999 999999 13762 999999 999999 999999 999999 999999 999999 999999 11375 999999 999999 18041 999999 999999 999999 999999 999999 999999 19591 15835 999999 13149 999999 13447 999999 999999 999999 999999 999999 17653 999999 10891 999999 999999 999999 999999 999999 999999 999999 999999 999999 999999 19869 999999 999999
999999 999999 999999 999999 999999 999999 999999 999999 999999 999999 999999 999999 999999 999999 0 999999 999999 999999 999999 999999 999999 999999 999999 999999 999999 999999 999999 999999 999999 999999 999999 999999 999999 999999 999999 999999 999999 999999 999999 999999 999999 999999 999999 999999 999999 999999 999999 999999 999999 999999 999999 999999 999999 999999 999999 999999 999999 999999 999999 999999 999999 999999 999999 999999 999999 999999 999999 999999 999999 999999 999999 999999 999999 999999 18436 999999 999999 999999 12092 999999 999999 999999 13018 16726 999999 999999 999999 999999 999999 999999 999999 999999 999999 999999 999999 999999 999999 17701 999999 999999 999999 999999 999999 999999 999999 14572 999999 999999 14684 999999 999999 999999 999999 999999 999999 18020 19187 999999 15927 999999 16293 999999 999999 999999 999999 999999 14670 999999 11866 999999 999999 999999 999999 999999 999999 999999 999999 999999 999999 12570 999999 999999
999999 999999 999999 999999 999999 999999 999999 999999 999999 999999 999999 999999 999999 999999 999999 0 999999 999999 999999 999999 999999 999999 999999 999999 999999 999999 999999 999999 999999 999999 999999 999999 999999 999999 999999 999999 999999 999999 999999 999999 999999 999999 999999 999999 999999 999999 999999 999999 999999 999999 999999 999999 999999 999999 999999 999999 999999 999999 999999 999999 999999 999999 999999 999999 999999 999999 999999 999999 999999 999999 999999 999999 999999 999999 999999 999999 18746 13389 999999 999999 999999 16387 999999 999999 999999 10487 999999 999999 999999 999999 999999 999999 18940 999999 999999 999999 999999 999999 999999 999999 999999 999999 999999 999999 999999 999999 999999 999999 999999 999999 999999 18610 17418 999999 11707 999999 999999 999999 999999 999999 999999 12206 10111 999999 999999 999999 999999 999999 999999 999999 10197 999999 999999 999999 999999 12991 15203 999999 10800 999999 999999 999999
999999 999999 999999 999999 999999 999999 999999 999999 999999 999999 999999 999999 999999 999999 999999 999999 0 999999 999999 999999 999999 999999 999999 999999 999999 999999 999999 999999 999999 999999 999999 999999 999999 999999 999999 999999 999999 999999 999999 999999 999999 999999 999999 999999 999999 999999 999999 999999 999999 999999 999999 999999 999999 999999 999999 999999 999999 999999 999999 999999 999999 999999 999999 999999 999999 999999 999999 999999 999999 999999 999999 999999 999999 999999 999999 999999 16277 13875 999999 999999 999999 19742 999999 999999 999999 10501 999999 999999 999999 999999 999999 999999 18512 999999 999999 999999 999999 999999 999999 999999 999999 999999 999999 999999 999999 999999 999999 999999 999999 999999 999999 16718 11089 999999 14600 999999 999999 999999 999999 999999 999999 14391 17195 999999 999999 999999 999999 999999 999999 999999 12487 999999 999999 999999 999999 12188 15615 999999 16482 999999 999999 999999
999999 999999 999999 999999 999999 999999 999999 999999 999999 999999 999999 999999 999999 999999 999999 999999 999999 0 999999 999999 999999 999999 999999 999999 999999 999999 999999 999999 999999 999999 999999 999999 999999 999999 999999 999999 999999 999999 999999 999999 999999 999999 999999 999999 999999 999999 999999 999999 999999 999999 999999 999999 999999 999999 999999 999999 999999 999999 999999 999999 999999 999999 999999 999999 999999 999999 999999 999999 999999 999999 999999 999999 999999 999999 999999 999999 15747 14983 999999 999999 999999 10524 999999 999999 999999 13134 999999 999999 999999 999999 999999 999999 17298 999999 999999 999999 999999 999999 999999 999999 999999 999999 999999 999999 999999 999999 999999 999999 999999 999999 999999 13922 11538 999999 16127 999999 999999 999999 999999 999999 999999 12757 19569 999999 999999 999999 999999 999999 999999 999999 18166 999999 999999 999999 999999 14832 14109 999999 15294 999999 999999 999999
999999 999999 999999 999999 999999 999999 999999 999999 999999 999999 999999 999999 999999 999999 999999 999999 999999 999999 0 999999 999999 999999 999999 999999 999999 999999 999999 999999 999999 999999 999999 999999 999999 999999 999999 999999 999999 999999 999999 999999 999999 999999 999999 999999 999999 999999 999999 999999 999999 999999 999999 999999 999999 999999 999999 999999 999999 999999 999999 999999 999999 999999 999999 999999 999999 999999 999999 999999 999999 999999 999999 999999 999999 999999 999999 999999 13231 11905 999999 999999 999999 10736 999999 999999 999999 19234 999999 999999 999999 999999 999999 999999 11843 999999 999999 999999 999999 999999 999999 999999 999999 999999 999999 999999 999999 999999 999999 999999 999999 999999 999999 17557 13771 999999 14621 999999 999999 999999 999999 999999 999999 17451 19249 999999 999999 999999 999999 999999 999999 999999 11236 999999 999999 999999 999999 17715 19259 999999 17344 999999 999999 999999
999999 999999 999999 999999 999999 999999 999999 999999 999999 999999 999999 999999 999999 999999 999999 999999 999999 999999 999999 0 999999 999999 999999 999999 999999 999999 999999 999999 999999 999999 999999 999999 999999 999999 999999 999999 999999 999999 999999 999999 999999 999999 999999 999999 999999 999999 999999 999999 999999 999999 999999 999999 999999 999999 999999 999999 999999 999999 999999 999999 999999 999999 999999 999999 999999 999999 999999 999999 999999 999999 999999 999999 999999 999999 999999 999999 16021 13013 999999 999999 999999 15922 999999 999999 999999 19903 999999 999999 999999 999999 999999 999999 13802 999999 999999 999999 999999 999999 999999 999999 999999 999999 999999 999999 999999 999999 999999 999999 999999 999999 999999 15747 10001 999999 16491 999999 999999 999999 999999 999999 999999 16097 13712 999999 999999 999999 999999 999999 999999 999999 13835 999999 999999 999999 999999 17899 12049 999999 19462 999999 999999 999999
999999 999999 999999 999999 999999 999999 999999 999999 999999 999999 999999 999999 999999 999999 999999 999999 999999 999999 999999 999999 0 999999 999999 999999 999999 999999 999999 999999 999999 999999 999999 999999 999999 999999 999999 999999 999999 999999 999999 999999 999999 999999 999999 999999 999999 999999 999999 999999 999999 999999 999999 999999 999999 999999 999999 999999 999999 999999 999999 999999 999999 999999 999999 999999 999999 999999 999999 999999 999999 999999 999999 999999 999999 999999 999999 999999 10029 10573 999999 999999 999999 17521 999999 999999 999999 17781 999999 999999 999999 999999 999999 999999 14572 999999 999999 999999 999999 999999 999999 999999 999999 999999 999999 999999 999999 999999 999999 999999 999999 999999 999999 14492 14726 999999 16178 999999 999999 999999 999999 999999 999999 19391 16555 999999 999999 999999 999999 999999 999999 999999 14042 999999 999999 999999 999999 13185 14696 999999 15297 999999 999999 999999
999999 999999 999999 999999 999999 999999 999999 999999 999999 999999 999999 999999 999999 999999 999999 999999 999999 999999 999999 999999 999999 0 999999 999999 999999 999999 999999 999999 999999 999999 999999 999999 999999 999999 999999 999999 999999 999999 999999 999999 999999 999999 999999 999999 999999 999999 999999 999999 999999 999999 999999 999999 999999 999999 999999 999999 999999 999999 999999 999999 999999 999999 999999 999999 999999 999999 999999 999999 999999 999999 999999 999999 999999 999999 999999 999999 11149 18646 999999 999999 999999 16580 999999 999999 999999 14363 999999 999999 999999 999999 999999 999999 19158 999999 999999 999999 999999 999999 999999 999999 999999 999999 999999 999999 999999 999999 999999 999999 999999 999999 999999 12099 10923 999999 10817 999999 999999 999999 999999 999999 999999 19308 18789 999999 999999 999999 999999 999999 999999 999999 17991 999999 999999 999999 999999 14797 14778 999999 14689 999999 999999 999999
999999 999999 999999 999999 999999 999999 999999 999999 999999 999999 999999 999999 999999 999999 999999 999999 999999 999999 999999 999999 999999 999999 0 999999 999999 999999 999999 999999 999999 999999 999999 999999 999999 999999 999999 999999 999999 999999 999999 999999 999999 999999 999999 999999 999999 999999 999999 999999 999999 999999 999999 999999 999999 999999 999999 999999 999999 999999 999999 999999 999999 999999 999999 999999 999999 999999 999999 999999 999999 999999 999999 999999 999999 999999 999999 999999 18252 14506 999999 999999 999999 13162 999999 999999 999999 10765 999999 999999 999999 999999 999999 999999 19481 999999 999999 999999 999999 999999 999999 999999 999999 999999 999999 999999 999999 999999 999999 999999 999999 999999 999999 18257 11112 999999 19236 999999 999999 999999 999999 999999 999999 16805 16378 999999 999999 999999 999999 999999 999999 999999 16060 999999 999999 999999 999999 11917 18366 999999 16621 999999 999999 999999
999999 999999 999999 999999 999999 999999 999999 999999 999999 999999 999999 999999 999999 999999 999999 999999 999999 999999 999999 999999 999999 999999 999999 0 999999 999999 999999 999999 999999 999999 999999 999999 999999 999999 999999 999999 999999 999999 999999 999999 999999 999999 999999 999999 999999 999999 999999 999999 999999 999999 999999 999999 999999 999999 999999 999999 999999 999999 999999 999999 999999 999999 999999 999999 999999 999999 999999 999999 999999 999999 999999 999999 999999 999999 999999 999999 15657 17093 999999 999999 999999 19684 999999 999999 999999 17663 999999 999999 999999 999999 999999 999999 17517 999999 999999 999999 999999 999999 999999 999999 999999 999999 999999 999999 999999 999999 999999 999999 999999 999999 999999 10719 10500 999999 16301 999999 999999 999999 999999 999999 999999 15786 14329 999999 999999 999999 999999 999999 999999 999999 16883 999999 999999 999999 999999 10515 11819 999999 14293 999999 999999 999999
999999 999999 999999 999999 999999 999999 999999 999999 999999 999999 999999 999999 999999 999999 999999 999999 999999 999999 999999 999999 999999 999999 999999 999999 0 999999 999999 999999 999999 999999 999999 999999 999999 999999 999999 999999 999999 999999 999999 999999 999999 999999 999999 999999 999999 999999 999999 999999 999999 999999 999999 999999 999999 999999 999999 999999 999999 999999 999999 999999 999999 999999 999999 999999 999999 999999 999999 999999 999999 999999 999999 999999 999999 999999 999999 999999 17710 18655 999999 999999 999999 11228 999999 999999 999999 19328 999999 999999 999999 999999 999999 999999 15463 999999 999999 999999 999999 999999 999999 999999 999999 999999 999999 999999 999999 999999 999999 999999 999999 999999 999999 17650 10386 999999 18509 999999 999999 999999 999999 999999 999999 10670 15045 999999 999999 999999 999999 999999 999999 999999 14209 999999 999999 999999 999999 10541 13056 999999 12870 999999 999999 999999
999999 999999 999999 999999 999999 999999 999999 999999 999999 999999 999999 999999 999999 999999 999999 999999 999999 999999 999999 999999 999999 999999 999999 999999 999999 0 999999 999999 999999 999999 999999 999999 999999 999999 999999 999999 999999 999999 999999 999999 999999 999999 999999 999999 999999 999999 999999 999999 999999 999999 999999 999999 999999 999999 999999 999999 999999 999999 999999 999999 999999 999999 999999 999999 999999 999999 999999 999999 999999 999999 999999 999999 999999 999999 999999 999999 14339 18695 999999 999999 999999 17329 999999 999999 999999 16155 999999 999999 999999 999999 999999 999999 10915 999999 999999 999999 999999 999999 999999 999999 999999 999999 999999 999999 999999 999999 999999 999999 999999 999999 999999 16203 13449 999999 13394 999999 999999 999999 999999 999999 999999 15479 16529 999999 999999 999999 999999 999999 999999 999999 13869 999999 999999 999999 999999 10735 16279 999999 16726 999999 999999 999999
999999 999999 999999 999999 999999 999999 999999 999999 999999 999999 999999 999999 999999 999999 999999 999999 999999 999999 999999 999999 999999 999999 999999 999999 999999 999999 0 999999 999999 999999 999999 999999 999999 999999 999999 999999 999999 999999 999999 999999 999999 999999 999999 999999 999999 999999 999999 999999 999999 999999 999999 999999 999999 999999 999999 999999 999999 999999 999999 999999 999999 999999 999999 999999 999999 999999 999999 999999 999999 999999 999999 999999 999999 999999 999999 999999 19817 13495 999999 999999 999999 12142 999999 999999 999999 12976 999999 999999 999999 999999 999999 999999 13459 999999 999999 999999 999999 999999 999999 999999 999999 999999 999999 999999 999999 999999 999999 999999 999999 999999 999999 16294 11684 999999 10952 999999 999999 999999 999999 999999 999999 17542 18159 999999 999999 999999 999999 999999 999999 999999 14031 999999 999999 999999 999999 13692 19373 999999 16525 999999 999999 999999
999999 999999 999999 999999 999999 999999 999999 999999 999999 999999 999999 999999 999999 999999 999999 999999 999999 999999 999999 999999 999999 999999 999999 999999 999999 999999 999999 0 999999 999999 999999 999999 999999 999999 999999 999999 999999 999999 999999 999999 999999 999999 999999 999999 999999 999999 999999 999999 999999 999999 999999 999999 999999 999999 999999 999999 999999 999999 999999 999999 999999 999999 999999 999999 999999 999999 999999 999999 999999 999999 999999 999999 999999 999999 999999 999999 12824 18871 999999 999999 999999 19932 999999 999999 999999 16792 999999 999999 999999 999999 999999 999999 10219 999999 999999 999999 999999 999999 999999 999999 999999 999999 999999 999999 999999 999999 999999 999999 999999 999999 999999 15000 18689 999999 14718 999999 999999 999999 999999 999999 999999 16110 11376 999999 999999 999999 999999 999999 999999 999999 18743 999999 999999 999999 999999 15073 15490 999999 13456 999999 999999 999999
999999 999999 999999 999999 999999 999999 999999 999999 999999 999999 999999 999999 999999 999999 999999 999999 999999 999999 999999 999999 999999 999999 999999 999999 999999 999999 999999 999999 0 999999 999999 999999 999999 999999 999999 999999 999999 999999 999999 999999 999999 999999 999999 999999 999999 999999 999999 999999 999999 999999 999999 999999 999999 999999 999999 999999 999999 999999 999999 999999 999999 999999 999999 999999 999999 999999 999999 999999 999999 999999 999999 999999 999999 999999 999999 999999 15099 16533 999999 999999 999999 18376 999999 999999 999999 17591 999999 999999 999999 999999 999999 999999 17022 999999 999999 999999 999999 999999 999999 999999 999999 999999 999999 999999 999999 999999 999999 999999 999999 999999 999999 16044 12600 999999 18059 999999 999999 999999 999999 999999 999999 13557 13706 999999 999999 999999 999999 999999 999999 999999 14407 999999 999999 999999 999999 13601 18207 999999 14418 999999 999999 999999
999999 999999 999999 999999 999999 999999 999999 999999 999999 999999 999999 999999 999999 999999 999999 999999 999999 999999 999999 999999 999999 999999 999999 999999 999999 999999 999999 999999 999999 0 999999 999999 999999 999999 999999 999999 999999 999999 999999 999999 999999 999999 999999 999999 999999 999999 999999 999999 999999 999999 999999 999999 999999 999999 999999 999999 999999 999999 999999 999999 999999 999999 999999 999999 999999 999999 999999 999999 999999 999999 999999 17005 999999 16335 999999 999999 999999 999999 999999 999999 999999 999999 999999 999999 999999 999999 999999 13412 14898 999999 999999 999999 999999 999999 999999 999999 18799 999999 17504 14682 999999 999999 999999 16318 12797 999999 17608 13337 999999 999999 999999 999999 999999 15895 999999 999999 999999 999999 999999 999999 999999 999999 999999 12471 999999 999999 999999 999999 999999 999999 999999 999999 999999 999999 999999 999999 999999 999999 999999 999999 14495 999999
999999 999999 999999 999999 999999 999999 999999 999999 999999 999999 999999 999999 999999 999999 999999 999999 999999 999999 999999 999999 999999 999999 999999 999999 999999 999999 999999 999999 999999 999999 0 999999 999999 999999 999999 999999 999999 999999 999999 999999 999999 999999 999999 999999 999999 999999 999999 999999 999999 999999 999999 999999 999999 999999 999999 999999 999999 999999 999999 999999 999999 999999 999999 999999 999999 999999 999999 999999 999999 999999 999999 15546 999999 11541 999999 999999 999999 999999 999999 999999 999999 999999 999999 999999 999999 999999 999999 15998 14471 999999 999999 999999 999999 999999 999999 999999 12360 999999 16552 10271 999999 999999 999999 11680 17530 999999 14282 16903 999999 999999 999999 999999 999999 19135 999999 999999 999999 999999 999999 999999 999999 999999 999999 19222 999999 999999 999999 999999 999999 999999 999999 999999 999999 999999 999999 999999 999999 999999 999999 999999 18090 999999
999999 999999 999999 999999 999999 999999 999999 999999 999999 999999 999999 999999 999999 999999 999999 999999 999999 999999 999999 999999 999999 999999 999999 999999 999999 999999 999999 999999 999999 999999 999999 0 999999 999999 999999 999999 999999 999999 999999 999999 999999 999999 999999 999999 999999 999999 999999 999999 999999 999999 999999 999999 999999 999999 999999 999999 999999 999999 999999 999999 999999 999999 999999 999999 999999 999999 999999 999999 999999 999999 999999 11591 999999 19773 999999 999999 999999 999999 999999 999999 999999 999999 999999 999999 999999 999999 999999 13303 14037 999999 999999 999999 999999 999999 999999 999999 17587 999999 12671 18052 999999 999999 999999 18416 18003 999999 18382 17527 999999 999999 999999 999999 999999 15991 999999 999999 999999 999999 999999 999999 999999 999999 999999 19220 999999 999999 999999 999999 999999 999999 999999 999999 999999 999999 999999 999999 999999 999999 999999 999999 15348 999999
999999 999999 999999 999999 999999 999999 999999 999999 999999 999999 999999 999999 999999 999999 999999 999999 999999 999999 999999 999999 999999 999999 999999 999999 999999 999999 999999 999999 999999 999999 999999 999999 0 999999 999999 999999 999999 999999 999999 999999 999999 999999 999999 999999 999999 999999 999999 999999 999999 999999 999999 999999 999999 999999 999999 999999 999999 999999 999999 999999 999999 999999 999999 999999 999999 999999 999999 999999 999999 999999 999999 16878 999999 13200 999999 999999 999999 999999 999999 999999 999999 999999 999999 999999 999999 999999 999999 15687 11771 999999 999999 999999 999999 999999 999999 999999 12044 999999 19404 13072 999999 999999 999999 11028 11809 999999 16547 17659 999999 999999 999999 999999 999999 17101 999999 999999 999999 999999 999999 999999 999999 999999 999999 19766 999999 999999 999999 999999 999999 999999 999999 999999 999999 999999 999999 999999 999999 999999 999999 999999 11217 999999
999999 999999 999999 999999 999999 999999 999999 999999 999999 999999 999999 999999 999999 999999 999999 999999 999999 999999 999999 999999 999999 999999 999999 999999 999999 999999 999999 999999 999999 999999 999999 999999 999999 0 999999 999999 999999 999999 999999 999999 999999 999999 999999 999999 999999 999999 999999 999999 999999 999999 999999 999999 999999 999999 999999 999999 999999 999999 999999 999999 999999 999999 999999 999999 999999 999999 999999 999999 999999 999999 999999 17627 999999 13037 999999 999999 999999 999999 999999 999999 999999 999999 999999 999999 999999 999999 999999 15472 19848 999999 999999 999999 999999 999999 999999 999999 11316 999999 19842 13119 999999 999999 999999 18139 19258 999999 16122 10088 999999 999999 999999 999999 999999 16204 999999 999999 999999 999999 999999 999999 999999 999999 999999 13330 999999 999999 999999 999999 999999 999999 999999 999999 999999 999999 999999 999999 999999 999999 999999 999999 11150 999999
999999 999999 999999 999999 999999 999999 999999 999999 999999 999999 999999 999999 999999 999999 999999 999999 999999 999999 999999 999999 999999 999999 999999 999999 999999 999999 999999 999999 999999 999999 999999 999999 999999 999999 0 999999 999999 999999 999999 999999 999999 999999 999999 999999 999999 999999 999999 999999 999999 999999 999999 999999 999999 999999 999999 999999 999999 999999 999999 999999 999999 999999 999999 999999 999999 999999 999999 999999 999999 999999 999999 11120 999999 16837 999999 999999 999999 999999 999999 999999 999999 999999 999999 999999 999999 999999 999999 19722 18319 999999 999999 999999 999999 999999 999999 999999 13724 999999 14407 15729 999999 999999 999999 12585 15442 999999 19008 16232 999999 999999 999999 999999 999999 12440 999999 999999 999999 999999 999999 999999 999999 999999 999999 17849 999999 999999 999999 999999 999999 999999 999999 999999 999999 999999 999999 999999 999999 999999 999999 999999 11186 999999
999999 999999 999999 999999 999999 999999 999999 999999 999999 999999 999999 999999 999999 999999 999999 999999 999999 999999 999999 999999 999999 999999 999999 999999 999999 999999 999999 999999 999999 999999 999999 999999 999999 999999 999999 0 999999 999999 999999 999999 999999 999999 999999 999999 999999 999999 999999 999999 999999 999999 999999 999999 999999 999999 999999 999999 999999 999999 999999 999999 999999 999999 999999 999999 999999 999999 999999 999999 999999 999999 999999 13001 999999 19228 999999 999999 999999 999999 999999 999999 999999 999999 999999 999999 999999 999999 999999 10277 19854 999999 999999 999999 999999 999999 999999 999999 13798 999999 15549 17490 999999 999999 999999 18613 12536 999999 12466 11473 999999 999999 999999 999999 999999 13626 999999 999999 999999 999999 999999 999999 999999 999999 999999 13403 999999 999999 999999 999999 999999 999999 999999 999999 999999 999999 999999 999999 999999 999999 999999 999999 10426 999999
999999 999999 999999 999999 999999 999999 999999 999999 999999 999999 999999 999999 999999 999999 999999 999999 999999 999999 999999 999999 999999 999999 999999 999999 999999 999999 999999 999999 999999 999999 999999 999999 999999 999999 999999 999999 0 999999 999999 999999 999999 999999 999999 999999 999999 999999 999999 999999 999999 999999 999999 999999 999999 999999 999999 999999 999999 999999 999999 999999 999999 999999 999999 999999 999999 999999 999999 999999 999999 999999 999999 19033 999999 12810 999999 999999 999999 999999 999999 999999 999999 999999 999999 999999 999999 999999 999999 13742 16717 999999 999999 999999 999999 999999 999999 999999 17927 999999 11051 10119 999999 999999 999999 14834 11469 999999 19196 11620 999999 999999 999999 999999 999999 16258 999999 999999 999999 999999 999999 999999 999999 999999 999999 11970 999999 999999 999999 999999 999999 999999 999999 999999 999999 999999 999999 999999 999999 999999 999999 999999 14357 999999
999999 999999 999999 999999 999999 999999 999999 999999 999999 999999 999999 999999 999999 999999 999999 999999 999999 999999 999999 999999 999999 999999 999999 999999 999999 999999 999999 999999 999999 999999 999999 999999 999999 999999 999999 999999 999999 0 999999 999999 999999 999999 999999 999999 999999 999999 999999 999999 999999 999999 999999 999999 999999 999999 999999 999999 999999 999999 999999 999999 999999 999999 999999 999999 999999 999999 999999 999999 999999 999999 999999 18909 999999 11504 999999 999999 999999 999999 999999 999999 999999 999999 999999 999999 999999 999999 999999 16083 17311 999999 999999 999999 999999 999999 999999 999999 17324 999999 11933 16155 999999 999999 999999 17580 13394 999999 16918 17885 999999 999999 999999 999999 999999 11837 999999 999999 999999 999999 999999 999999 999999 999999 999999 16820 999999 999999 999999 999999 999999 999999 999999 999999 999999 999999 999999 999999 999999 999999 999999 999999 19711 999999
999999 999999 999999 999999 999999 999999 999999 999999 999999 999999 999999 999999 999999 999999 999999 999999 999999 999999 999999 999999 999999 999999 999999 999999 999999 999999 999999 999999 999999 999999 999999 999999 999999 999999 999999 999999 999999 999999 0 999999 999999 999999 999999 999999 999999 999999 999999 999999 999999 999999 999999 999999 999999 999999 999999 999999 999999 999999 999999 999999 999999 999999 999999 999999 999999 999999 999999 999999 999999 999999 999999 17467 999999 12836 999999 999999 999999 999999 999999 999999 999999 999999 999999 999999 999999 999999 999999 11650 16031 999999 999999 999999 999999 999999 999999 999999 17087 999999 15531 11073 999999 999999 999999 15868 17204 999999 17936 10845 999999 999999 999999 999999 999999 18859 999999 999999 999999 999999 999999 999999 999999 999999 999999 17808 999999 999999 999999 999999 999999 999999 999999 999999 999999 999999 999999 999999 999999 999999 999999 999999 13837 999999
999999 999999 999999 999999 999999 999999 999999 999999 999999 999999 999999 999999 999999 999999 999999 999999 999999 999999 999999 999999 999999 999999 999999 999999 999999 999999 999999 999999 999999 999999 999999 999999 999999 999999 999999 999999 999999 999999 999999 0 999999 999999 999999 999999 999999 999999 999999 999999 999999 999999 999999 999999 999999 999999 999999 999999 999999 999999 999999 999999 999999 999999 999999 999999 999999 999999 999999 999999 999999 999999 999999 16563 999999 13800 999999 999999 999999 999999 999999 999999 999999 999999 999999 999999 999999 999999 999999 13061 12056 999999 999999 999999 999999 999999 999999 999999 18382 999999 14160 11582 999999 999999 999999 16608 13254 999999 12804 14277 999999 999999 999999 999999 999999 12903 999999 999999 999999 999999 999999 999999 999999 999999 999999 18261 999999 999999 999999 999999 999999 999999 999999 999999 999999 999999 999999 999999 999999 999999 999999 999999 17141 999999
999999 999999 999999 999999 999999 999999 999999 999999 999999 999999 999999 999999 999999 999999 999999 999999 999999 999999 999999 999999 999999 999999 999999 999999 999999 999999 999999 999999 999999 999999 999999 999999 999999 999999 999999 999999 999999 999999 999999 999999 0 999999 999999 999999 999999 999999 999999 999999 999999 999999 999999 999999 999999 999999 999999 999999 999999 999999 999999 999999 999999 999999 999999 999999 999999 999999 999999 999999 999999 999999 999999 15417 999999 11978 999999 999999 999999 999999 999999 999999 999999 999999 999999 999999 999999 999999 999999 11812 19561 999999 999999 999999 999999 999999 999999 999999 12152 999999 15877 10974 999999 999999 999999 19190 16740 999999 12645 13734 999999 999999 999999 999999 999999 11405 999999 999999 999999 999999 999999 999999 999999 999999 999999 16606 999999 999999 999999 999999 999999 999999 999999 999999 999999 999999 999999 999999 999999 999999 999999 999999 13393 999999
999999 999999 999999 999999 999999 999999 999999 999999 999999 999999 999999 999999 999999 999999 999999 999999 999999 999999 999999 999999 999999 999999 999999 999999 999999 999999 999999 999999 999999 999999 999999 999999 999999 999999 999999 999999 999999 999999 999999 999999 999999 0 999999 999999 999999 999999 999999 999999 999999 999999 999999 999999 999999 999999 999999 999999 999999 999999 999999 999999 999999 999999 999999 999999 999999 999999 999999 999999 999999 999999 999999 18050 999999 12173 999999 999999 999999 999999 999999 999999 999999 999999 999999 999999 999999 999999 999999 18981 14842 999999 999999 999999 999999 999999 999999 999999 16814 999999 14278 18064 999999 999999 999999 17520 15542 999999 13413 13210 999999 999999 999999 999999 999999 19716 999999 999999 999999 999999 999999 999999 999999 999999 999999 16427 999999 999999 999999 999999 999999 999999 999999 999999 999999 999999 999999 999999 999999 999999 999999 999999 19265 999999
999999 999999 999999 999999 999999 999999 999999 999999 999999 999999 999999 999999 999999 999999 999999 999999 999999 999999 999999 999999 999999 999999 999999 999999 999999 999999 999999 999999 999999 999999 999999 999999 999999 999999 999999 999999 999999 999999 999999 999999 999999 999999 0 999999 999999 999999 999999 999999 999999 999999 999999 999999 999999 999999 999999 999999 999999 999999 999999 999999 999999 999999 999999 999999 999999 999999 999999 999999 999999 999999 999999 18342 999999 14765 999999 999999 999999 999999 999999 999999 999999 999999 999999 999999 999999 999999 999999 17929 18652 999999 999999 999999 999999 999999 999999 999999 18037 999999 13485 17421 999999 999999 999999 10238 17759 999999 14537 12233 999999 999999 999999 999999 999999 18622 999999 999999 999999 999999 999999 999999 999999 999999 999999 12082 999999 999999 999999 999999 999999 999999 999999 999999 999999 999999 999999 999999 999999 999999 999999 999999 11017 999999
999999 999999 999999 999999 999999 999999 999999 999999 999999 999999 999999 999999 999999 999999 999999 999999 999999 999999 999999 999999 999999 999999 999999 999999 999999 999999 999999 999999 999999 999999 999999 999999 999999 999999 999999 999999 999999 999999 999999 999999 999999 999999 999999 0 999999 999999 999999 999999 999999 999999 999999 999999 999999 999999 999999 999999 999999 999999 999999 999999 999999 999999 999999 999999 999999 999999 999999 999999 999999 999999 999999 999999 999999 999999 999999 17971 999999 999999 999999 15056 13999 999999 999999 999999 12100 999999 19286 999999 999999 14567 999999 999999 999999 18987 999999 999999 999999 999999 999999 999999 12306 13663 999999 999999 999999 999999 999999 999999 999999 999999 999999 999999 999999 999999 999999 999999 999999 14750 999999 10454 999999 999999 999999 999999 999999 999999 999999 999999 999999 15022 999999 18951 999999 15888 999999 999999 999999 999999 999999 999999 999999 999999
999999 999999 999999 999999 999999 999999 999999 999999 999999 999999 999999 999999 999999 999999 999999 999999 999999 999999 999999 999999 999999 999999 999999 999999 999999 999999 999999 999999 999999 999999 999999 999999 999999 999999 999999 999999 999999 999999 999999 999999 999999 999999 999999 999999 0 999999 999999 999999 999999 999999 999999 999999 999999 999999 999999 999999 999999 999999 999999 999999 999999 999999 999999 999999 999999 999999 999999 999999 999999 999999 999999 999999 999999 999999 999999 17417 999999 999999 999999 12948 10889 999999 999999 999999 11890 999999 19795 999999 999999 19823 999999 999999 999999 18408 999999 999999 999999 999999 999999 999999 12431 12492 999999 999999 999999 999999 999999 999999 999999 999999 999999 999999 999999 999999 999999 999999 999999 14312 999999 18953 999999 999999 999999 999999 999999 999999 999999 999999 999999 15914 999999 12224 999999 10726 999999 999999 999999 999999 999999 999999 999999 999999
999999 999999 999999 999999 999999 999999 999999 999999 999999 999999 999999 999999 999999 999999 999999 999999 999999 999999 999999 999999 999999 999999 999999 999999 999999 999999 999999 999999 999999 999999 999999 999999 999999 999999 999999 999999 999999 999999 999999 999999 999999 999999 999999 999999 999999 0 999999 999999 999999 999999 999999 999999 999999 999999 999999 999999 999999 999999 999999 999999 999999 999999 999999 999999 999999 999999 999999 999999 999999 999999 999999 999999 999999 999999 999999 18875 999999 999999 999999 11514 19899 999999 999999 999999 16983 999999 14851 999999 999999 10132 999999 999999 999999 19812 999999 999999 999999 999999 999999 999999 17801 17118 999999 999999 999999 999999 999999 999999 999999 999999 999999 999999 999999 999999 999999 999999 999999 10978 999999 16928 999999 999999 999999 999999 999999 999999 999999 999999 999999 17841 999999 13542 999999 16945 999999 999999 999999 999999 999999 999999 999999 999999
999999 999999 999999 999999 999999 999999 999999 999999 999999 999999 999999 999999 999999 999999 999999 999999 999999 999999 999999 999999 999999 999999 999999 999999 999999 999999 999999 999999 999999 999999 999999 999999 999999 999999 999999 999999 999999 999999 999999 999999 999999 999999 999999 999999 999999 999999 0 999999 999999 999999 999999 999999 999999 999999 999999 999999 999999 999999 999999 999999 999999 999999 999999 999999 999999 999999 999999 999999 999999 999999 999999 999999 999999 999999 999999 19292 999999 999999 999999 17821 18701 999999 999999 999999 11052 999999 18932 999999 999999 11403 999999 999999 999999 18794 999999 999999 999999 999999 999999 999999 18730 15108 999999 999999 999999 999999 999999 999999 999999 999999 999999 999999 999999 999999 999999 999999 999999 15641 999999 14629 999999 999999 999999 999999 999999 999999 999999 999999 999999 17309 999999 19706 999999 11392 999999 999999 999999 999999 999999 999999 999999 999999
999999 999999 999999 999999 999999 999999 999999 999999 999999 999999 999999 999999 999999 999999 999999 999999 999999 999999 999999 999999 999999 999999 999999 999999 999999 999999 999999 999999 999999 999999 999999 999999 999999 999999 999999 999999 999999 999999 999999 999999 999999 999999 999999 999999 999999 999999 999999 0 999999 999999 999999 999999 999999 999999 999999 999999 999999 999999 999999 999999 999999 999999 999999 999999 999999 999999 999999 999999 999999 999999 999999 999999 999999 999999 999999 13834 999999 999999 999999 17860 18248 999999 999999 999999 12525 999999 13035 999999 999999 14193 999999 999999 999999 17117 999999 999999 999999 999999 999999 999999 15924 14489 999999 999999 999999 999999 999999 999999 999999 999999 999999 999999 999999 999999 999999 999999 999999 17898 999999 10074 999999 999999 999999 999999 999999 999999 999999 999999 999999 15072 999999 18267 999999 16318 999999 999999 999999 999999 999999 999999 999999 999999
999999 999999 999999 999999 999999 999999 999999 999999 999999 999999 999999 999999 999999 999999 999999 999999 999999 999999 999999 999999 999999 999999 999999 999999 999999 999999 999999 999999 999999 999999 999999 999999 999999 999999 999999 999999 999999 999999 999999 999999 999999 999999 999999 999999 999999 999999 999999 999999 0 999999 999999 999999 999999 999999 999999 999999 999999 999999 999999 999999 999999 999999 999999 999999 999999 999999 999999 999999 999999 999999 999999 999999 999999 999999 999999 15742 999999 999999 999999 11850 12830 999999 999999 999999 12971 999999 18108 999999 999999 15818 999999 999999 999999 16568 999999 999999 999999 999999 999999 999999 17252 16949 999999 999999 999999 999999 999999 999999 999999 999999 999999 999999 999999 999999 999999 999999 999999 18801 999999 11543 999999 999999 999999 999999 999999 999999 999999 999999 999999 18288 999999 11371 999999 10953 999999 999999 999999 999999 999999 999999 999999 999999
999999 999999 999999 999999 999999 999999 999999 999999 999999 999999 999999 999999 999999 999999 999999 999999 999999 999999 999999 999999 999999 999999 999999 999999 999999 999999 999999 999999 999999 999999 999999 999999 999999 999999 999999 999999 999999 999999 999999 999999 999999 999999 999999 999999 999999 999999 999999 999999 999999 0 999999 999999 999999 999999 999999 999999 999999 999999 999999 999999 999999 999999 999999 999999 999999 999999 999999 999999 999999 999999 999999 999999 999999 999999 999999 18189 999999 999999 999999 10300 16160 999999 999999 999999 10996 999999 19231 999999 999999 17179 999999 999999 999999 10538 999999 999999 999999 999999 999999 999999 16844 15796 999999 999999 999999 999999 999999 999999 999999 999999 999999 999999 999999 999999 999999 999999 999999 11364 999999 16677 999999 999999 999999 999999 999999 999999 999999 999999 999999 16422 999999 12838 999999 10743 999999 999999 999999 999999 999999 999999 999999 999999
999999 999999 999999 999999 999999 999999 999999 999999 999999 999999 999999 999999 999999 999999 999999 999999 999999 999999 999999 999999 999999 999999 999999 999999 999999 999999 999999 999999 999999 999999 999999 999999 999999 999999 999999 999999 999999 999999 999999 999999 999999 999999 999999 999999 999999 999999 999999 999999 999999 999999 0 999999 999999 999999 999999 999999 999999 999999 999999 999999 999999 999999 999999 999999 999999 999999 999999 999999 999999 999999 999999 999999 999999 999999 999999 19153 999999 999999 999999 14401 12709 999999 999999 999999 19469 999999 10366 999999 999999 15191 999999 999999 999999 12173 999999 999999 999999 999999 999999 999999 18857 12684 999999 999999 999999 999999 999999 999999 999999 999999 999999 999999 999999 999999 999999 999999 999999 19277 999999 15682 999999 999999 999999 999999 999999 999999 999999 999999 999999 15611 999999 10696 999999 14577 999999 999999 999999 999999 999999 999999 999999 999999
999999 999999 999999 999999 999999 999999 999999 999999 999999 999999 999999 999999 999999 999999 999999 999999 999999 999999 999999 999999 999999 999999 999999 999999 999999 999999 999999 999999 999999 999999 999999 999999 999999 999999 999999 999999 999999 999999 999999 999999 999999 999999 999999 999999 999999 999999 999999 999999 999999 999999 999999 0 999999 999999 999999 999999 999999 999999 999999 999999 999999 999999 999999 999999 999999 999999 999999 999999 999999 999999 999999 999999 999999 999999 999999 12254 999999 999999 999999 13102 17475 999999 999999 999999 10814 999999 15626 999999 999999 12541 999999 999999 999999 17766 999999 999999 999999 999999 999999 999999 14945 14156 999999 999999 999999 999999 999999 999999 999999 999999 999999 999999 999999 999999 999999 999999 999999 12695 999999 14227 999999 999999 999999 999999 999999 999999 999999 999999 999999 15612 999999 16167 999999 12351 999999 999999 999999 999999 999999 999999 999999 999999
999999 999999 999999 999999 999999 999999 999999 999999 999999 999999 999999 999999 999999 999999 999999 999999 999999 999999 999999 999999 999999 999999 999999 999999 999999 999999 999999 999999 999999 999999 999999 999999 999999 999999 999999 999999 999999 999999 999999 999999 999999 999999 999999 999999 999999 999999 999999 999999 999999 999999 999999 999999 0 999999 999999 999999 999999 999999 999999 999999 999999 999999 999999 999999 999999 999999 999999 999999 999999 999999 999999 999999 999999 999999 999999 14735 999999 999999 999999 15796 11998 999999 999999 999999 19670 999999 11397 999999 999999 12845 999999 999999 999999 12947 999999 999999 999999 999999 999999 999999 17294 16394 999999 999999 999999 999999 999999 999999 999999 999999 999999 999999 999999 999999 999999 999999 999999 16462 999999 19250 999999 999999 999999 999999 999999 999999 999999 999999 999999 16670 999999 11362 999999 14908 999999 999999 999999 999999 999999 999999 999999 999999
999999 999999 999999 999999 999999 999999 999999 999999 999999 999999 999999 999999 999999 999999 999999 999999 999999 999999 999999 999999 999999 999999 999999 999999 999999 999999 999999 999999 999999 999999 999999 999999 999999 999999 999999 999999 999999 999999 999999 999999 999999 999999 999999 999999 999999 999999 999999 999999 999999 999999 999999 999999 999999 0 999999 999999 999999 999999 999999 999999 999999 999999 999999 999999 999999 999999 999999 999999 999999 999999 999999 999999 999999 999999 999999 12894 999999 999999 999999 10694 15835 999999 999999 999999 11603 999999 19463 999999 999999 19260 999999 999999 999999 12094 999999 999999 999999 999999 999999 999999 11925 16924 999999 999999 999999 999999 999999 999999 999999 999999 999999 999999 999999 999999 999999 999999 999999 19520 999999 10807 999999 999999 999999 999999 999999 999999 999999 999999 999999 15980 999999 19334 999999 15101 999999 999999 999999 999999 999999 999999 999999 999999
999999 999999 999999 999999 999999 999999 999999 999999 999999 999999 999999 999999 999999 999999 999999 999999 999999 999999 999999 999999 999999 999999 999999 999999 999999 999999 999999 999999 999999 999999 999999 999999 999999 999999 999999 999999 999999 999999 999999 999999 999999 999999 999999 999999 999999 999999 999999 999999 999999 999999 999999 999999 999999 999999 0 999999 999999 999999 999999 999999 999999 999999 999999 999999 999999 999999 999999 999999 999999 999999 999999 999999 999999 999999 999999 12071 999999 999999 999999 19156 14886 999999 999999 999999 10513 999999 14375 999999 999999 12198 999999 999999 999999 18128 999999 999999 999999 999999 999999 999999 18740 13578 999999 999999 999999 999999 999999 999999 999999 999999 999999 999999 999999 999999 999999 999999 999999 18927 999999 13005 999999 999999 999999 999999 999999 999999 999999 999999 999999 13225 999999 16131 999999 14512 999999 999999 999999 999999 999999 999999 999999 999999
999999 999999 999999 999999 999999 999999 999999 999999 999999 999999 999999 999999 999999 999999 999999 999999 999999 999999 999999 999999 999999 999999 999999 999999 999999 999999 999999 999999 999999 999999 999999 999999 999999 999999 999999 999999 999999 999999 999999 999999 999999 999999 999999 999999 999999 999999 999999 999999 999999 999999 999999 999999 999999 999999 999999 0 999999 999999 999999 999999 999999 999999 999999 999999 999999 999999 999999 999999 999999 999999 999999 999999 999999 999999 999999 16718 999999 999999 999999 19615 10659 999999 999999 999999 19077 999999 18686 999999 999999 12173 999999 999999 999999 10773 999999 999999 999999 999999 999999 999999 17892 13198 999999 999999 999999 999999 999999 999999 999999 999999 999999 999999 999999 999999 999999 999999 999999 14392 999999 19520 999999 999999 999999 999999 999999 999999 999999 999999 999999 12096 999999 11537 999999 12842 999999 999999 999999 999999 999999 999999 999999 999999
999999 999999 999999 999999 999999 999999 999999 999999 999999 999999 999999 999999 999999 999999 999999 999999 999999 999999 999999 999999 999999 999999 999999 999999 999999 999999 999999 999999 999999 999999 999999 999999 999999 999999 999999 999999 999999 999999 999999 999999 999999 999999 999999 999999 999999 999999 999999 999999 999999 999999 999999 999999 999999 999999 999999 999999 0 999999 999999 999999 999999 999999 999999 999999 999999 999999 999999 999999 999999 999999 999999 999999 999999 999999 999999 19055 999999 999999 999999 13640 11924 999999 999999 999999 10454 999999 10153 999999 999999 17649 999999 999999 999999 13589 999999 999999 999999 999999 999999 999999 10881 15376 999999 999999 999999 999999 999999 999999 999999 999999 999999 999999 999999 999999 999999 999999 999999 11657 999999 11083 999999 999999 999999 999999 999999 999999 999999 999999 999999 18045 999999 18248 999999 12465 999999 999999 999999 999999 999999 999999 999999 999999
999999 999999 999999 999999 999999 999999 999999 999999 999999 999999 999999 999999 999999 999999 999999 999999 999999 999999 999999 999999 999999 999999 999999 999999 999999 999999 999999 999999 999999 999999 999999 999999 999999 999999 999999 999999 999999 999999 999999 999999 999999 999999 999999 999999 999999 999999 999999 999999 999999 999999 999999 999999 999999 999999 999999 999999 999999 0 999999 999999 999999 999999 999999 999999 999999 999999 999999 999999 999999 999999 999999 999999 18831 999999 999999 999999 999999 999999 999999 999999 999999 999999 999999 999999 999999 999999 999999 999999 999999 999999 19887 12630 999999 999999 13537 12200 999999 999999 999999 999999 999999 999999 15660 999999 999999 999999 999999 999999 999999 14868 17917 999999 999999 999999 999999 999999 999999 999999 999999 999999 999999 999999 999999 999999 10207 14503 999999 13272 999999 999999 999999 999999 19291 999999 15505 999999 999999 11056 999999 999999 999999 999999
999999 999999 999999 999999 999999 999999 999999 999999 999999 999999 999999 999999 999999 999999 999999 999999 999999 999999 999999 999999 999999 999999 999999 999999 999999 999999 999999 999999 999999 999999 999999 999999 999999 999999 999999 999999 999999 999999 999999 999999 999999 999999 999999 999999 999999 999999 999999 999999 999999 999999 999999 999999 999999 999999 999999 999999 999999 999999 0 999999 999999 999999 999999 999999 999999 999999 999999 999999 999999 999999 999999 999999 12979 999999 999999 999999 999999 999999 999999 999999 999999 999999 999999 999999 999999 999999 999999 999999 999999 999999 10436 15969 999999 999999 10835 18926 999999 999999 999999 999999 999999 999999 14021 999999 999999 999999 999999 999999 999999 15345 13402 999999 999999 999999 999999 999999 999999 999999 999999 999999 999999 999999 999999 999999 12611 12249 999999 19011 999999 999999 999999 999999 18337 999999 14537 999999 999999 15710 999999 999999 999999 999999
999999 999999 999999 999999 999999 999999 999999 999999 999999 999999 999999 999999 999999 999999 999999 999999 999999 999999 999999 999999 999999 999999 999999 999999 999999 999999 999999 999999 999999 999999 999999 999999 999999 999999 999999 999999 999999 999999 999999 999999 999999 999999 999999 999999 999999 999999 999999 999999 999999 999999 999999 999999 999999 999999 999999 999999 999999 999999 999999 0 999999 999999 999999 999999 999999 999999 999999 999999 999999 999999 999999 999999 13548 999999 999999 999999 999999 999999 999999 999999 999999 999999 999999 999999 999999 999999 999999 999999 999999 999999 17574 15138 999999 999999 19954 13874 999999 999999 999999 999999 999999 999999 11310 999999 999999 999999 999999 999999 999999 19550 15932 999999 999999 999999 999999 999999 999999 999999 999999 999999 999999 999999 999999 999999 12846 10138 999999 17104 999999 999999 999999 999999 12066 999999 16311 999999 999999 12325 999999 999999 999999 999999
999999 999999 999999 999999 999999 999999 999999 999999 999999 999999 999999 999999 999999 999999 999999 999999 999999 999999 999999 999999 999999 999999 999999 999999 999999 999999 999999 999999 999999 999999 999999 999999 999999 999999 999999 999999 999999 999999 999999 999999 999999 999999 999999 999999 999999 999999 999999 999999 999999 999999 999999 999999 999999 999999 999999 999999 999999 999999 999999 999999 0 999999 999999 999999 999999 999999 999999 999999 999999 999999 999999 999999 12286 999999 999999 999999 999999 999999 999999 999999 999999 999999 999999 999999 999999 999999 999999 999999 999999 999999 16867 18244 999999 999999 12921 13564 999999 999999 999999 999999 999999 999999 10205 999999 999999 999999 999999 999999 999999 16088 13588 999999 999999 999999 999999 999999 999999 999999 999999 999999 999999 999999 999999 999999 10657 19511 999999 14501 999999 999999 999999 999999 14166 999999 13942 999999 999999 13322 999999 999999 999999 999999
999999 999999 999999 999999 999999 999999 999999 999999 999999 999999 999999 999999 999999 999999 999999 999999 999999 999999 999999 999999 999999 999999 999999 999999 999999 999999 999999 999999 999999 999999 999999 999999 999999 999999 999999 999999 999999 999999 999999 999999 999999 999999 999999 999999 999999 999999 999999 999999 999999 999999 999999 999999 999999 999999 999999 999999 999999 999999 999999 999999 999999 0 999999 999999 999999 999999 999999 999999 999999 999999 999999 999999 17157 999999 999999 999999 999999 999999 999999 999999 999999 999999 999999 999999 999999 999999 999999 999999 999999 999999 17392 17446 999999 999999 14203 11573 999999 999999 999999 999999 999999 999999 19082 999999 999999 999999 999999 999999 999999 15409 10826 999999 999999 999999 999999 999999 999999 999999 999999 999999 999999 999999 999999 999999 18642 12863 999999 19272 999999 999999 999999 999999 16308 999999 17569 999999 999999 15263 999999 999999 999999 999999
999999 999999 999999 999999 999999 999999 999999 999999 999999 999999 999999 999999 999999 999999 999999 999999 999999 999999 999999 999999 999999 999999 999999 999999 999999 999999 999999 999999 999999 999999 999999 999999 999999 999999 999999 999999 999999 999999 999999 999999 999999 999999 999999 999999 999999 999999 999999 999999 999999 999999 999999 999999 999999 999999 999999 999999 999999 999999 999999 999999 999999 999999 0 999999 999999 999999 999999 999999 999999 999999 999999 999999 13298 999999 999999 999999 999999 999999 999999 999999 999999 999999 999999 999999 999999 999999 999999 999999 999999 999999 17132 18162 999999 999999 18755 13407 999999 999999 999999 999999 999999 999999 16755 999999 999999 999999 999999 999999 999999 16770 11078 999999 999999 999999 999999 999999 999999 999999 999999 999999 999999 999999 999999 999999 14776 13150 999999 15189 999999 999999 999999 999999 17222 999999 11523 999999 999999 11048 999999 999999 999999 999999
999999 999999 999999 999999 999999 999999 999999 999999 999999 999999 999999 999999 999999 999999 999999 999999 999999 999999 999999 999999 999999 999999 999999 999999 999999 999999 999999 999999 999999 999999 999999 999999 999999 999999 999999 999999 999999 999999 999999 999999 999999 999999 999999 999999 999999 999999 999999 999999 999999 999999 999999 999999 999999 999999 999999 999999 999999 999999 999999 999999 999999 999999 999999 0 999999 999999 999999 999999 999999 999999 999999 999999 17339 999999 999999 999999 999999 999999 999999 999999 999999 999999 999999 999999 999999 999999 999999 999999 999999 999999 13246 14866 999999 999999 13419 10730 999999 999999 999999 999999 999999 999999 10371 999999 999999 999999 999999 999999 999999 13148 12452 999999 999999 999999 999999 999999 999999 999999 999999 999999 999999 999999 999999 999999 19888 19969 999999 12441 999999 999999 999999 999999 11383 999999 14657 999999 999999 13598 999999 999999 999999 999999
999999 999999 999999 999999 999999 999999 999999 999999 999999 999999 999999 999999 999999 999999 999999 999999 999999 999999 999999 999999 999999 999999 999999 999999 999999 999999 999999 999999 999999 999999 999999 999999 999999 999999 999999 999999 999999 999999 999999 999999 999999 999999 999999 999999 999999 999999 999999 999999 999999 999999 999999 999999 999999 999999 999999 999999 999999 999999 999999 999999 999999 999999 999999 999999 0 999999 999999 999999 999999 999999 999999 999999 12656 999999 999999 999999 999999 999999 999999 999999 999999 999999 999999 999999 999999 999999 999999 999999 999999 999999 18869 12590 999999 999999 18906 14660 999999 999999 999999 999999 999999 999999 16483 999999 999999 999999 999999 999999 999999 17129 13074 999999 999999 999999 999999 999999 999999 999999 999999 999999 999999 999999 999999 999999 12569 14868 999999 12505 999999 999999 999999 999999 13317 999999 10927 999999 999999 17460 999999 999999 999999 999999
999999 999999 999999 999999 999999 999999 999999 999999 999999 999999 999999 999999 999999 999999 999999 999999 999999 999999 999999 999999 999999 999999 999999 999999 999999 999999 999999 999999 999999 999999 999999 999999 999999 999999 999999 999999 999999 999999 999999 999999 999999 999999 999999 999999 999999 999999 999999 999999 999999 999999 999999 999999 999999 999999 999999 999999 999999 999999 999999 999999 999999 999999 999999 999999 999999 0 999999 999999 999999 999999 999999 999999 16503 999999 999999 999999 999999 999999 999999 999999 999999 999999 999999 999999 999999 999999 999999 999999 999999 999999 15125 13797 999999 999999 16634 10893 999999 999999 999999 999999 999999 999999 12101 999999 999999 999999 999999 999999 999999 11521 19271 999999 999999 999999 999999 999999 999999 999999 999999 999999 999999 999999 999999 999999 15130 10817 999999 13123 999999 999999 999999 999999 19581 999999 10271 999999 999999 18707 999999 999999 999999 999999
999999 999999 999999 999999 999999 999999 999999 999999 999999 999999 999999 999999 999999 999999 999999 999999 999999 999999 999999 999999 999999 999999 999999 999999 999999 999999 999999 999999 999999 999999 999999 999999 999999 999999 999999 999999 999999 999999 999999 999999 999999 999999 999999 999999 999999 999999 999999 999999 999999 999999 999999 999999 999999 999999 999999 999999 999999 999999 999999 999999 999999 999999 999999 999999 999999 999999 0 999999 999999 999999 999999 999999 18940 999999 999999 999999 999999 999999 999999 999999 999999 999999 999999 999999 999999 999999 999999 999999 999999 999999 14705 10553 999999 999999 18199 15082 999999 999999 999999 999999 999999 999999 15975 999999 999999 999999 999999 999999 999999 17306 14979 999999 999999 999999 999999 999999 999999 999999 999999 999999 999999 999999 999999 999999 11971 17332 999999 10227 999999 999999 999999 999999 15943 999999 15409 999999 999999 17414 999999 999999 999999 999999
999999 999999 999999 999999 999999 999999 999999 999999 999999 999999 999999 999999 999999 999999 999999 999999 999999 999999 999999 999999 999999 999999 999999 999999 999999 999999 999999 999999 999999 999999 999999 999999 999999 999999 999999 999999 999999 999999 999999 999999 999999 999999 999999 999999 999999 999999 999999 999999 999999 999999 999999 999999 999999 999999 999999 999999 999999 999999 999999 999999 999999 999999 999999 999999 999999 999999 999999 0 999999 999999 999999 999999 15160 999999 999999 999999 999999 999999 999999 999999 999999 999999 999999 999999 999999 999999 999999 999999 999999 999999 10712 14749 999999 999999 10736 17078 999999 999999 999999 999999 999999 999999 12890 999999 999999 999999 999999 999999 999999 13748 17717 999999 999999 999999 999999 999999 999999 999999 999999 999999 999999 999999 999999 999999 12334 15890 999999 10801 999999 999999 999999 999999 17263 999999 15471 999999 999999 12730 999999 999999 999999 999999
999999 999999 999999 999999 999999 999999 999999 999999 999999 999999 999999 999999 999999 999999 999999 999999 999999 999999 999999 999999 999999 999999 999999 999999 999999 999999 999999 999999 999999 999999 999999 999999 999999 999999 999999 999999 999999 999999 999999 999999 999999 999999 999999 999999 999999 999999 999999 999999 999999 999999 999999 999999 999999 999999 999999 999999 999999 999999 999999 999999 999999 999999 999999 999999 999999 999999 999999 999999 0 999999 999999 999999 17367 999999 999999 999999 999999 999999 999999 999999 999999 999999 999999 999999 999999 999999 999999 999999 999999 999999 15996 18740 999999 999999 14747 11825 999999 999999 999999 999999 999999 999999 19856 999999 999999 999999 999999 999999 999999 11032 13990 999999 999999 999999 999999 999999 999999 999999 999999 999999 999999 999999 999999 999999 10064 16453 999999 11475 999999 999999 999999 999999 17698 999999 16212 999999 999999 19851 999999 999999 999999 999999
999999 999999 999999 999999 999999 999999 999999 999999 999999 999999 999999 999999 999999 999999 999999 999999 999999 999999 999999 999999 999999 999999 999999 999999 999999 999999 999999 999999 999999 999999 999999 999999 999999 999999 999999 999999 999999 999999 999999 999999 999999 999999 999999 999999 999999 999999 999999 999999 999999 999999 999999 999999 999999 999999 999999 999999 999999 999999 999999 999999 999999 999999 999999 999999 999999 999999 999999 999999 999999 0 999999 999999 15637 999999 999999 999999 999999 999999 999999 999999 999999 999999 999999 999999 999999 999999 999999 999999 999999 999999 17272 11753 999999 999999 16861 16014 999999 999999 999999 999999 999999 999999 13490 999999 999999 999999 999999 999999 999999 12025 17752 999999 999999 999999 999999 999999 999999 999999 999999 999999 999999 999999 999999 999999 18770 14944 999999 16395 999999 999999 999999 999999 18835 999999 17450 999999 999999 18628 999999 999999 999999 999999
999999 999999 999999 999999 999999 999999 999999 999999 999999 999999 999999 999999 999999 999999 999999 999999 999999 999999 999999 999999 999999 999999 999999 999999 999999 999999 999999 999999 999999 999999 999999 999999 999999 999999 999999 999999 999999 999999 999999 999999 999999 999999 999999 999999 999999 999999 999999 999999 999999 999999 999999 999999 999999 999999 999999 999999 999999 999999 999999 999999 999999 999999 999999 999999 999999 999999 999999 999999 999999 999999 0 999999 17693 999999 999999 999999 999999 999999 999999 999999 999999 999999 999999 999999 999999 999999 999999 999999 999999 999999 11842 18856 999999 999999 17089 11369 999999 999999 999999 999999 999999 999999 14983 999999 999999 999999 999999 999999 999999 17015 16499 999999 999999 999999 999999 999999 999999 999999 999999 999999 999999 999999 999999 999999 10951 13380 999999 16286 999999 999999 999999 999999 16323 999999 11731 999999 999999 12860 999999 999999 999999 999999
999999 18513 11551 15962 15540 17629 11268 13574 19484 13784 16721 18660 12638 12883 11375 14519 14197 16446 16028 17327 19689 11658 11712 12827 19208 11483 19960 10198 12955 17005 15546 11591 16878 17627 11120 13001 19033 18909 17467 16563 15417 18050 18342 15937 15022 16616 15941 12778 14142 12694 16485 14031 16535 18400 17334 19906 11235 14823 11636 12644 16943 15314 13040 10872 13090 19482 15279 19956 15192 17801 14589 0 999999 999999 999999 999999 999999 999999 999999 999999 999999 999999 999999 999999 999999 999999 999999 999999 999999 999999 999999 999999 999999 999999 999999 999999 999999 999999 999999 999999 999999 999999 999999 999999 999999 999999 999999 999999 999999 999999 999999 999999 999999 999999 999999 999999 999999 999999 999999 999999 999999 999999 999999 999999 999999 999999 999999 999999 999999 999999 999999 999999 999999 999999 999999 999999 999999 999999 999999 999999 999999 14522
999999 14459 17497 14514 11671 17361 12855 14433 19269 14441 16891 12366 15419 15656 15762 10410 11624 11902 15681 16186 17495 13538 19413 13839 13570 15647 11430 11973 19143 10318 15784 14337 19278 17029 13534 11332 11403 18676 10734 12984 16757 19500 17401 16867 10273 13502 14443 11602 14597 13656 18764 19823 19991 19151 11152 12574 16097 18831 12979 13548 12286 17157 13298 17339 12656 16503 18940 15160 17367 15637 17693 999999 0 999999 999999 999999 999999 999999 999999 999999 999999 999999 999999 999999 999999 999999 999999 999999 999999 999999 999999 999999 999999 999999 999999 999999 999999 999999 999999 999999 999999 999999 999999 999999 999999 999999 999999 999999 999999 999999 999999 999999 999999 999999 999999 999999 999999 999999 999999 999999 999999 999999 999999 999999 999999 999999 999999 999999 999999 999999 999999 999999 999999 999999 999999 999999 999999 999999 999999 999999 999999 5773
999999 12342 16982 15639 18335 13044 17471 19905 16887 18918 17260 11076 10990 19164 17441 16148 14267 16983 13340 12401 19320 15444 15315 13228 16036 15483 19796 15831 16983 16335 11541 19773 13200 13037 16837 19228 12810 11504 12836 13800 11978 12173 14765 14662 18201 10544 18030 17184 16583 15449 15141 16164 13445 15295 19055 19642 16188 18897 18037 10781 18275 13609 11868 10010 12059 13024 12062 17638 16205 13696 16746 999999 999999 0 999999 999999 999999 999999 999999 999999 999999 999999 999999 999999 999999 999999 999999 999999 999999 999999 999999 999999 999999 999999 999999 999999 999999 999999 999999 999999 999999 999999 999999 999999 999999 999999 999999 999999 999999 999999 999999 999999 999999 999999 999999 999999 999999 999999 999999 999999 999999 999999 999999 999999 999999 999999 999999 999999 999999 999999 999999 999999 999999 999999 999999 999999 999999 999999 999999 999999 999999 6617
999999 16743 18012 10722 14320 17048 16289 14533 14236 14315 15397 11680 19180 10903 18436 17725 14514 17062 13061 10184 15461 19785 11722 15736 12674 19273 14882 11685 13706 10627 14613 16982 14890 14178 16525 15876 15778 17048 11367 15670 18023 15896 17468 10389 19312 19515 11663 17438 17887 13685 11649 14588 11255 16463 10239 13477 15319 10844 19100 13569 19233 13733 17441 18346 18044 11799 10593 11302 13448 10730 15067 999999 999999 999999 0 999999 999999 999999 999999 999999 999999 999999 999999 999999 999999 999999 999999 999999 999999 999999 999999 999999 999999 999999 999999 999999 999999 999999 999999 999999 999999 999999 999999 999999 999999 999999 999999 999999 999999 999999 999999 999999 999999 999999 999999 999999 999999 999999 999999 999999 999999 999999 999999 999999 999999 999999 999999 999999 999999 999999 999999 999999 999999 999999 999999 999999 999999 999999 999999 999999 999999 10686
999999 13794 16667 17194 12733 19376 10193 14942 14728 11119 10850 16608 18165 11884 18613 12848 19421 18787 13119 18904 11499 10213 18231 13980 18535 10572 12958 19778 14161 16528 11795 14853 12735 15375 15626 17511 15871 15027 19604 16777 12782 15006 18464 17971 17417 18875 19292 13834 15742 18189 19153 12254 14735 12894 12071 16718 19055 17378 18213 17888 16512 12493 16408 15590 19482 16467 16581 17871 16550 11356 12385 999999 999999 999999 999999 0 999999 999999 999999 999999 999999 999999 999999 999999 999999 999999 999999 999999 999999 999999 999999 999999 999999 999999 999999 999999 999999 999999 999999 999999 999999 999999 999999 999999 999999 999999 999999 999999 999999 999999 999999 999999 999999 999999 999999 999999 999999 999999 999999 999999 999999 999999 999999 999999 999999 999999 999999 999999 999999 999999 999999 999999 999999 999999 999999 999999 999999 999999 999999 999999 999999 5661
999999 16556 12796 12450 18364 15527 16637 11965 10353 11740 18176 16109 15362 13464 15236 18746 16277 15747 13231 16021 10029 11149 18252 15657 17710 14339 19817 12824 15099 15772 13883 12911 16755 13932 18512 10583 19112 14263 15269 15267 16597 13822 10499 18617 11581 10348 17653 16800 15511 11103 10955 18979 13931 15550 13206 14150 15275 18139 15716 18112 10588 15122 10727 10805 15351 11326 14960 14075 11290 10180 19466 999999 999999 999999 999999 999999 0 999999 999999 999999 999999 999999 999999 999999 999999 999999 999999 999999 999999 999999 999999 999999 999999 999999 999999 999999 999999 999999 999999 999999 999999 999999 999999 999999 999999 999999 999999 999999 999999 999999 999999 999999 999999 999999 999999 999999 999999 999999 999999 999999 999999 999999 999999 999999 999999 999999 999999 999999 999999 999999 999999 999999 999999 999999 999999 999999 999999 999999 999999 999999 999999 10595
999999 16259 18392 13027 12081 11160 19907 17367 17055 11557 17653 15706 11346 10058 10704 13389 13875 14983 11905 13013 10573 18646 14506 17093 18655 18695 13495 18871 16533 16473 14557 10372 19117 12113 15419 16722 19764 17878 16683 18739 15522 11612 10045 16934 11460 18037 18274 19515 11311 14008 14573 10469 10124 10002 13283 19421 10702 11902 17026 16233 17220 12236 14261 17842 11224 10405 13867 13549 12588 16037 16267 999999 999999 999999 999999 999999 999999 0 999999 999999 999999 999999 999999 999999 999999 999999 999999 999999 999999 999999 999999 999999 999999 999999 999999 999999 999999 999999 999999 999999 999999 999999 999999 999999 999999 999999 999999 999999 999999 999999 999999 999999 999999 999999 999999 999999 999999 999999 999999 999999 999999 999999 999999 999999 999999 999999 999999 999999 999999 999999 999999 999999 999999 999999 999999 999999 999999 999999 999999 999999 999999 6854
999999 15095 14559 17667 12088 14538 11560 15349 14645 17471 16733 15220 14944 15010 12092 19978 15074 13719 17561 10017 16318 14954 17730 12523 11599 18666 18105 15111 16835 17483 16629 13894 14723 13057 18057 19009 13617 15982 11155 15686 17819 10323 11724 17987 15059 18553 14544 15009 11793 10716 17082 16854 17613 16511 16260 12277 17611 12758 10530 16366 19185 17479 18387 17952 11512 17014 15173 14974 13588 10461 13113 999999 999999 999999 999999 999999 999999 999999 0 999999 999999 999999 999999 999999 999999 999999 999999 999999 999999 999999 999999 999999 999999 999999 999999 999999 999999 999999 999999 999999 999999 999999 999999 999999 999999 999999 999999 999999 999999 999999 999999 999999 999999 999999 999999 999999 999999 999999 999999 999999 999999 999999 999999 999999 999999 999999 999999 999999 999999 999999 999999 999999 999999 999999 999999 999999 999999 999999 999999 999999 999999 8340
999999 17159 16147 14006 18503 18708 11068 18310 12940 15515 14446 13443 15258 11462 13274 19215 18502 17622 19146 13798 17548 12957 10042 16722 18455 14225 11599 11526 16672 13718 14702 10024 12788 10595 13154 19319 16880 11088 11251 13604 14860 12226 17921 15056 12948 11514 17821 17860 11850 10300 14401 13102 15796 10694 19156 19615 13640 19383 10632 11765 17614 17258 17044 18961 18195 17815 10763 19711 17589 18411 16642 999999 999999 999999 999999 999999 999999 999999 999999 0 999999 999999 999999 999999 999999 999999 999999 999999 999999 999999 999999 999999 999999 999999 999999 999999 999999 999999 999999 999999 999999 999999 999999 999999 999999 999999 999999 999999 999999 999999 999999 999999 999999 999999 999999 999999 999999 999999 999999 999999 999999 999999 999999 999999 999999 999999 999999 999999 999999 999999 999999 999999 999999 999999 999999 999999 999999 999999 999999 999999 999999 12109
999999 12198 13840 19921 13465 18855 19670 12116 18813 14216 10135 19804 10618 15010 19944 15388 17582 19396 17468 10484 15553 14026 15676 10292 13746 16776 13322 15059 18372 15256 19533 13816 14608 17518 16689 19561 15304 13674 12764 10203 13316 18727 11398 13999 10889 19899 18701 18248 12830 16160 12709 17475 11998 15835 14886 10659 11924 19548 10013 19580 19293 15114 11234 11600 14504 16285 10849 11767 18904 14348 12273 999999 999999 999999 999999 999999 999999 999999 999999 999999 0 999999 999999 999999 999999 999999 999999 999999 999999 999999 999999 999999 999999 999999 999999 999999 999999 999999 999999 999999 999999 999999 999999 999999 999999 999999 999999 999999 999999 999999 999999 999999 999999 999999 999999 999999 999999 999999 999999 999999 999999 999999 999999 999999 999999 999999 999999 999999 999999 999999 999999 999999 999999 999999 999999 999999 999999 999999 999999 999999 999999 12287
999999 13692 14932 13097 16811 18199 13525 13238 19730 13883 13909 11858 18494 12707 19691 16387 19742 10524 10736 15922 17521 16580 13162 19684 11228 17329 12142 19932 18376 16237 12409 14775 17701 18937 10497 14335 19528 13579 12956 12268 19298 13594 16246 12852 14490 16114 14122 15304 18890 18134 19701 16093 14232 13342 11340 17622 12944 11535 13973 10729 15866 13935 12707 15062 14109 11113 14283 13595 16796 17107 16842 999999 999999 999999 999999 999999 999999 999999 999999 999999 999999 0 999999 999999 999999 999999 999999 999999 999999 999999 999999 999999 999999 999999 999999 999999 999999 999999 999999 999999 999999 999999 999999 999999 999999 999999 999999 999999 999999 999999 999999 999999 999999 999999 999999 999999 999999 999999 999999 999999 999999 999999 999999 999999 999999 999999 999999 999999 999999 999999 999999 999999 999999 999999 999999 999999 999999 999999 999999 999999 999999 7766
999999 15329 19524 15953 14321 17942 17542 16059 16174 11319 18259 14200 16407 16668 13018 11914 14059 15405 12039 16282 16777 12405 14121 12853 14816 12138 16326 18254 10886 12810 12027 10393 13251 18152 18677 17558 19963 19289 11480 17314 14570 16473 16289 19783 14161 11798 19746 10116 13088 14567 13383 13922 16614 19868 11610 11319 14481 15297 10616 17047 17933 14404 18809 16959 13371 17436 12496 10898 15435 10755 17302 999999 999999 999999 999999 999999 999999 999999 999999 999999 999999 999999 0 999999 999999 999999 999999 999999 999999 999999 999999 999999 999999 999999 999999 999999 999999 999999 999999 999999 999999 999999 999999 999999 999999 999999 999999 999999 999999 999999 999999 999999 999999 999999 999999 999999 999999 999999 999999 999999 999999 999999 999999 999999 999999 999999 999999 999999 999999 999999 999999 999999 999999 999999 999999 999999 999999 999999 999999 999999 999999 8193
999999 18639 18929 12018 13574 16845 11465 17708 14200 19494 15004 13903 19219 10846 16726 16015 14111 18912 16148 10251 16554 17975 17969 12394 10972 15403 13452 14786 12197 11155 11856 16236 11780 15960 12263 18721 15392 12422 14716 18522 16991 16557 11495 18326 12754 11896 13946 19979 19718 16416 13133 17464 19475 15861 19852 11581 11428 17675 15523 10557 10281 11527 12340 17335 17576 18815 10355 12570 13246 17651 13236 999999 999999 999999 999999 999999 999999 999999 999999 999999 999999 999999 999999 0 999999 999999 999999 999999 999999 999999 999999 999999 999999 999999 999999 999999 999999 999999 999999 999999 999999 999999 999999 999999 999999 999999 999999 999999 999999 999999 999999 999999 999999 999999 999999 999999 999999 999999 999999 999999 999999 999999 999999 999999 999999 999999 999999 999999 999999 999999 999999 999999 999999 999999 999999 999999 999999 999999 999999 999999 999999 13600
999999 13439 15030 11971 19084 18065 15961 14442 15803 12113 19445 13819 14440 18509 14655 17229 18183 13117 10687 18070 11635 11616 10339 11571 17893 11669 14640 15510 11234 14303 11290 13319 13663 16257 12858 13063 11885 15194 13504 17999 19378 15339 13550 12100 11890 16983 11052 12525 12971 10996 19469 10814 19670 11603 10513 19077 10454 15189 13841 17878 10907 18039 12340 11635 10633 19678 14067 18805 13124 15713 16380 999999 999999 999999 999999 999999 999999 999999 999999 999999 999999 999999 999999 999999 0 999999 999999 999999 999999 999999 999999 999999 999999 999999 999999 999999 999999 999999 999999 999999 999999 999999 999999 999999 999999 999999 999999 999999 999999 999999 999999 999999 999999 999999 999999 999999 999999 999999 999999 999999 999999 999999 999999 999999 999999 999999 999999 999999 999999 999999 999999 999999 999999 999999 999999 999999 999999 999999 999999 999999 999999 13024
999999 19585 11531 12755 12221 19793 10857 17178 19261 17943 18974 19076 13529 19659 11966 10487 10501 13134 19234 19903 17781 14363 10765 17663 19328 16155 12976 16792 17591 13069 10676 19858 13007 12035 16105 13506 10818 18184 13055 11921 10776 17677 17342 11253 13984 18798 15120 12823 10668 11814 18518 10187 13001 18813 18394 17416 19174 19144 12394 11191 18725 19715 15598 11885 13073 17744 12403 14616 15395 11613 18364 999999 999999 999999 999999 999999 999999 999999 999999 999999 999999 999999 999999 999999 999999 0 999999 999999 999999 999999 999999 999999 999999 999999 999999 999999 999999 999999 999999 999999 999999 999999 999999 999999 999999 999999 999999 999999 999999 999999 999999 999999 999999 999999 999999 999999 999999 999999 999999 999999 999999 999999 999999 999999 999999 999999 999999 999999 999999 999999 999999 999999 999999 999999 999999 999999 999999 999999 999999 999999 999999 7371
999999 10204 12295 19673 14236 14010 18756 10403 10454 16921 13205 10748 18609 15657 11443 14496 17983 17666 15712 16919 13091 13527 17204 18487 10579 14149 16121 19016 15938 18640 10760 12583 19466 14912 16811 14829 13108 16749 17080 12866 12928 10887 15763 19286 19795 14851 18932 13035 18108 19231 10366 15626 11397 19463 14375 18686 10153 15702 12211 13481 11047 15868 17770 18112 17134 18407 19553 15514 16199 15622 18898 999999 999999 999999 999999 999999 999999 999999 999999 999999 999999 999999 999999 999999 999999 999999 0 999999 999999 999999 999999 999999 999999 999999 999999 999999 999999 999999 999999 999999 999999 999999 999999 999999 999999 999999 999999 999999 999999 999999 999999 999999 999999 999999 999999 999999 999999 999999 999999 999999 999999 999999 999999 999999 999999 999999 999999 999999 999999 999999 999999 999999 999999 999999 999999 999999 999999 999999 999999 999999 999999 8906
999999 16092 12321 19322 13506 13933 10352 13558 15658 11356 19884 16643 12837 18528 10502 11250 16914 15774 10169 17745 18447 10092 15311 18634 13573 15118 17294 18520 19877 13412 15998 13303 15687 15472 19722 10277 13742 16083 11650 13061 11812 18981 17929 18800 17215 16945 13284 16750 17747 14525 11048 16336 17134 12412 18974 10871 12042 10289 10750 15329 18060 16382 11882 12197 13518 19063 14528 15370 12408 14568 10883 999999 999999 999999 999999 999999 999999 999999 999999 999999 999999 999999 999999 999999 999999 999999 999999 0 999999 999999 999999 999999 999999 999999 999999 999999 999999 999999 999999 999999 999999 999999 999999 999999 999999 999999 999999 999999 999999 999999 999999 999999 999999 999999 999999 999999 999999 999999 999999 999999 999999 999999 999999 999999 999999 999999 999999 999999 999999 999999 999999 999999 999999 999999 999999 999999 999999 999999 999999 999999 999999 9031
999999 13820 19509 13641 10035 14000 12248 13672 10362 11995 13969 14509 12852 10396 10963 14290 19363 14724 19902 11924 15810 17656 13042 17785 13664 11482 17156 12757 19660 14898 14471 14037 11771 19848 18319 19854 16717 17311 16031 12056 19561 14842 18652 16870 15501 11743 12786 16527 13279 17760 14045 15591 18122 19292 10363 17862 16178 16685 18675 15841 10382 15486 18310 10152 18320 10303 10381 14693 18019 15632 18974 999999 999999 999999 999999 999999 999999 999999 999999 999999 999999 999999 999999 999999 999999 999999 999999 999999 0 999999 999999 999999 999999 999999 999999 999999 999999 999999 999999 999999 999999 999999 999999 999999 999999 999999 999999 999999 999999 999999 999999 999999 999999 999999 999999 999999 999999 999999 999999 999999 999999 999999 999999 999999 999999 999999 999999 999999 999999 999999 999999 999999 999999 999999 999999 999999 999999 999999 999999 999999 999999 8816
999999 17197 12606 14840 14614 16275 19452 19547 17359 19230 18204 13406 16446 11016 14678 12360 15620 18686 13848 16604 17008 19005 12640 11694 10205 13330 19062 16497 14693 17917 11277 19631 13492 13516 18941 12041 14542 14545 11155 18738 18700 19507 13498 14567 19823 10132 11403 14193 15818 17179 15191 12541 12845 19260 12198 12173 17649 17870 11021 13598 12614 15132 12921 19944 16731 16460 11357 16692 12125 15455 14672 999999 999999 999999 999999 999999 999999 999999 999999 999999 999999 999999 999999 999999 999999 999999 999999 999999 999999 0 999999 999999 999999 999999 999999 999999 999999 999999 999999 999999 999999 999999 999999 999999 999999 999999 999999 999999 999999 999999 999999 999999 999999 999999 999999 999999 999999 999999 999999 999999 999999 999999 999999 999999 999999 999999 999999 999999 999999 999999 999999 999999 999999 999999 999999 999999 999999 999999 999999 999999 999999 9324
999999 16735 18042 18403 18848 15204 11447 14593 17978 11671 15718 19745 12833 16570 12003 10407 15663 19445 17191 15968 10768 12805 17471 11759 12559 19089 16110 10288 17880 16161 10154 17156 15972 16113 12300 16809 10634 15220 15526 15650 16782 14774 13334 12946 16940 19675 19717 10744 18961 12248 17228 12708 14841 15224 14175 12075 18603 19887 10436 17574 16867 17392 17132 13246 18869 15125 14705 10712 15996 17272 11842 999999 999999 999999 999999 999999 999999 999999 999999 999999 999999 999999 999999 999999 999999 999999 999999 999999 999999 999999 0 999999 999999 999999 999999 999999 999999 999999 999999 999999 999999 999999 999999 999999 999999 999999 999999 999999 999999 999999 999999 999999 999999 999999 999999 999999 999999 999999 999999 999999 999999 999999 999999 999999 999999 999999 999999 999999 999999 999999 999999 999999 999999 999999 999999 999999 999999 999999 999999 999999 999999 12913
999999 14469 11396 16391 19837 15907 11124 17228 14839 18833 19096 19742 17627 12124 15747 10032 14581 19848 15604 15788 17389 19093 13493 19246 16071 10692 18964 11076 13966 14516 17177 17542 14106 13511 14438 16051 15787 19751 16292 11279 11546 15204 15068 15383 19153 10866 11893 12405 14236 17271 11143 16395 19158 12014 12417 10075 10489 12630 15969 15138 18244 17446 18162 14866 12590 13797 10553 14749 18740 11753 18856 999999 999999 999999 999999 999999 999999 999999 999999 999999 999999 999999 999999 999999 999999 999999 999999 999999 999999 999999 999999 0 999999 999999 999999 999999 999999 999999 999999 999999 999999 999999 999999 999999 999999 999999 999999 999999 999999 999999 999999 999999 999999 999999 999999 999999 999999 999999 999999 999999 999999 999999 999999 999999 999999 999999 999999 999999 999999 999999 999999 999999 999999 999999 999999 999999 999999 999999 999999 999999 999999 6560
999999 10540 13355 17033 13364 13191 12870 19505 11230 12749 15878 13948 17199 17722 13414 18940 18512 17298 11843 13802 14572 19158 19481 17517 15463 10915 13459 10219 17022 19283 11826 19562 18823 11661 18178 16462 17454 14203 11031 17514 12724 14430 15228 14819 16215 18543 17646 10593 11478 14414 12738 16452 14607 19405 10554 12120 12570 13298 15106 10094 19155 18858 18590 18978 15520 15828 11241 15024 12180 15329 16811 999999 999999 999999 999999 999999 999999 999999 999999 999999 999999 999999 999999 999999 999999 999999 999999 999999 999999 999999 999999 999999 0 999999 999999 999999 999999 999999 999999 999999 999999 999999 999999 999999 999999 999999 999999 999999 999999 999999 999999 999999 999999 999999 999999 999999 999999 999999 999999 999999 999999 999999 999999 999999 999999 999999 999999 999999 999999 999999 999999 999999 999999 999999 999999 999999 999999 999999 999999 999999 999999 12656
999999 10626 15041 11978 10891 17780 14861 15675 10366 18954 19637 17673 12885 16912 17670 16802 15749 17646 19742 12926 11343 15974 12547 17150 15162 16572 19079 11633 18634 17402 10127 16323 16337 17482 14359 11382 13726 18290 12870 11151 19371 16685 13983 18987 18408 19812 18794 17117 16568 10538 12173 17766 12947 12094 18128 10773 13589 16510 17500 15911 19281 16589 13331 10880 19162 15826 10912 14492 15068 14618 11086 999999 999999 999999 999999 999999 999999 999999 999999 999999 999999 999999 999999 999999 999999 999999 999999 999999 999999 999999 999999 999999 999999 0 999999 999999 999999 999999 999999 999999 999999 999999 999999 999999 999999 999999 999999 999999 999999 999999 999999 999999 999999 999999 999999 999999 999999 999999 999999 999999 999999 999999 999999 999999 999999 999999 999999 999999 999999 999999 999999 999999 999999 999999 999999 999999 999999 999999 999999 999999 999999 8035
999999 17011 12876 13400 10580 11510 13004 18753 13498 13494 10434 14733 18771 16715 15085 18310 16634 10688 19356 10945 12676 14786 15665 10730 18672 19809 14498 11323 10555 19480 11766 15460 14146 19206 15594 17517 16055 15304 14701 19395 10035 11766 19625 18529 10286 14903 19341 19982 10229 11504 15777 10741 17959 11993 15768 11841 11626 13537 10835 19954 12921 14203 18755 13419 18906 16634 18199 10736 14747 16861 17089 999999 999999 999999 999999 999999 999999 999999 999999 999999 999999 999999 999999 999999 999999 999999 999999 999999 999999 999999 999999 999999 999999 999999 0 999999 999999 999999 999999 999999 999999 999999 999999 999999 999999 999999 999999 999999 999999 999999 999999 999999 999999 999999 999999 999999 999999 999999 999999 999999 999999 999999 999999 999999 999999 999999 999999 999999 999999 999999 999999 999999 999999 999999 999999 999999 999999 999999 999999 999999 999999 8327
999999 15732 11151 13044 14752 17760 15334 19830 19308 16581 12122 13885 18812 17614 19888 19835 10327 18339 11249 10927 15728 12551 10305 13574 14270 18449 11923 11068 10010 15115 16695 19366 11854 19872 16443 11865 14302 10927 19490 12229 13743 16258 18624 13293 17601 19283 13020 10323 12292 12567 10221 18749 13049 19138 10694 14083 14600 12200 18926 13874 13564 11573 13407 10730 14660 10893 15082 17078 11825 16014 11369 999999 999999 999999 999999 999999 999999 999999 999999 999999 999999 999999 999999 999999 999999 999999 999999 999999 999999 999999 999999 999999 999999 999999 999999 0 999999 999999 999999 999999 999999 999999 999999 999999 999999 999999 999999 999999 999999 999999 999999 999999 999999 999999 999999 999999 999999 999999 999999 999999 999999 999999 999999 999999 999999 999999 999999 999999 999999 999999 999999 999999 999999 999999 999999 999999 999999 999999 999999 999999 999999 12558
999999 13985 19408 14781 11897 15234 12215 13085 18625 13024 18190 18884 12942 15580 13682 13236 12199 13595 14946 13047 14703 13356 18972 13478 14181 17640 16838 19882 12746 18799 12360 17587 12044 11316 13724 13798 17927 17324 17087 18382 12152 16814 18037 18632 14228 13498 12847 11144 19659 16856 19357 13559 16315 16374 18279 17508 17940 18870 15448 12817 10565 17721 18547 18149 16454 15094 15780 17181 19738 12930 16986 999999 999999 999999 999999 999999 999999 999999 999999 999999 999999 999999 999999 999999 999999 999999 999999 999999 999999 999999 999999 999999 999999 999999 999999 999999 0 999999 999999 999999 999999 999999 999999 999999 999999 999999 999999 999999 999999 999999 999999 999999 999999 999999 999999 999999 999999 999999 999999 999999 999999 999999 999999 999999 999999 999999 999999 999999 999999 999999 999999 999999 999999 999999 999999 999999 999999 999999 999999 999999 999999 13099
999999 12963 10161 16844 16463 17784 13666 14062 13198 10515 17803 17761 16239 13762 17701 12871 17158 11067 15893 13007 11349 20000 13319 10108 12885 19168 16629 14184 11171 10110 15377 17640 18157 12970 12642 17315 17376 12663 13069 14769 18575 19687 12559 16306 19689 15150 14700 11524 11665 13758 17626 18032 16056 11966 19750 18272 11508 10154 15468 13340 16273 15031 13392 10346 11074 12619 16464 11228 11945 12074 17389 999999 999999 999999 999999 999999 999999 999999 999999 999999 999999 999999 999999 999999 999999 999999 999999 999999 999999 999999 999999 999999 999999 999999 999999 999999 999999 0 999999 999999 999999 999999 999999 999999 999999 999999 999999 999999 999999 999999 999999 999999 999999 999999 999999 999999 999999 999999 999999 999999 999999 999999 999999 999999 999999 999999 999999 999999 999999 999999 999999 999999 999999 999999 999999 999999 999999 999999 999999 999999 999999 10493
999999 10003 12547 18590 10723 19170 17044 16235 12572 15770 12030 13195 10003 13907 19470 13658 15752 10665 15815 17765 14891 10253 16142 12005 19969 12297 19222 11129 16980 17504 16552 12671 19404 19842 14407 15549 11051 11933 15531 14160 15877 14278 13485 14280 11702 18491 14527 17660 15459 12473 12393 18107 10345 11334 15937 19773 16733 12402 19364 12106 15609 12588 17952 11506 18541 19021 13496 16867 14687 14830 11027 999999 999999 999999 999999 999999 999999 999999 999999 999999 999999 999999 999999 999999 999999 999999 999999 999999 999999 999999 999999 999999 999999 999999 999999 999999 999999 999999 0 999999 999999 999999 999999 999999 999999 999999 999999 999999 999999 999999 999999 999999 999999 999999 999999 999999 999999 999999 999999 999999 999999 999999 999999 999999 999999 999999 999999 999999 999999 999999 999999 999999 999999 999999 999999 999999 999999 999999 999999 999999 999999 9799
999999 15253 10927 19503 18543 10456 14912 10749 16600 11810 10648 12691 17792 15053 11915 16480 12572 10298 18867 17189 11528 17849 17722 13599 13804 15273 19595 19065 19798 14682 10271 18052 13072 13119 15729 17490 10119 16155 11073 11582 10974 18064 17421 12032 13622 10699 14098 15058 18780 13418 18824 11114 17838 15688 16969 11557 16842 15885 10117 13614 12237 18638 16907 13798 10380 16979 15381 13538 17581 10145 10738 999999 999999 999999 999999 999999 999999 999999 999999 999999 999999 999999 999999 999999 999999 999999 999999 999999 999999 999999 999999 999999 999999 999999 999999 999999 999999 999999 999999 0 999999 999999 999999 999999 999999 999999 999999 999999 999999 999999 999999 999999 999999 999999 999999 999999 999999 999999 999999 999999 999999 999999 999999 999999 999999 999999 999999 999999 999999 999999 999999 999999 999999 999999 999999 999999 999999 999999 999999 999999 999999 8647
999999 14091 18057 14433 10263 15980 13106 14764 13071 13434 12517 19426 19808 14041 15190 14091 17047 19027 19022 12794 11071 17580 18203 17523 15949 18986 19107 13943 19650 17874 13461 12566 12767 17455 19022 12984 14125 19768 12144 10673 15146 17588 13822 12306 12431 17801 18730 15924 17252 16844 18857 14945 17294 11925 18740 17892 10881 14573 12138 16982 17297 10805 15762 18247 11979 18892 18988 12585 10263 11523 13320 999999 999999 999999 999999 999999 999999 999999 999999 999999 999999 999999 999999 999999 999999 999999 999999 999999 999999 999999 999999 999999 999999 999999 999999 999999 999999 999999 999999 999999 0 999999 999999 999999 999999 999999 999999 999999 999999 999999 999999 999999 999999 999999 999999 999999 999999 999999 999999 999999 999999 999999 999999 999999 999999 999999 999999 999999 999999 999999 999999 999999 999999 999999 999999 999999 999999 999999 999999 999999 999999 14043
999999 18263 13050 17517 12695 15977 11524 14326 12534 14753 13391 18162 13150 16328 14660 19643 13121 15709 12002 12434 19300 11622 16968 14052 18770 14773 18542 17643 10314 12858 19203 17980 19722 10239 18358 10614 11096 17068 14633 10136 19568 11999 10949 13663 12492 17118 15108 14489 16949 15796 12684 14156 16394 16924 13578 13198 15376 17317 12258 12827 18221 13871 17541 14339 12777 18799 12489 16990 14762 19432 14573 999999 999999 999999 999999 999999 999999 999999 999999 999999 999999 999999 999999 999999 999999 999999 999999 999999 999999 999999 999999 999999 999999 999999 999999 999999 999999 999999 999999 999999 999999 0 999999 999999 999999 999999 999999 999999 999999 999999 999999 999999 999999 999999 999999 999999 999999 999999 999999 999999 999999 999999 999999 999999 999999 999999 999999 999999 999999 999999 999999 999999 999999 999999 999999 999999 999999 999999 999999 999999 999999 6396
999999 12030 18469 16432 17349 12433 17080 16389 11395 19600 16180 19779 18997 15878 14741 15461 12508 19145 15909 18445 11599 19007 11758 18869 15681 17153 10941 10748 18218 15209 14867 11471 15882 11092 15228 15970 15054 13833 13396 13515 15908 13046 11696 19457 13578 15937 15894 14022 18180 12894 19993 11049 13813 11819 16315 19220 19255 15660 14021 11310 10205 19082 16755 10371 16483 12101 15975 12890 19856 13490 14983 999999 999999 999999 999999 999999 999999 999999 999999 999999 999999 999999 999999 999999 999999 999999 999999 999999 999999 999999 999999 999999 999999 999999 999999 999999 999999 999999 999999 999999 999999 999999 0 999999 999999 999999 999999 999999 999999 999999 999999 999999 999999 999999 999999 999999 999999 999999 999999 999999 999999 999999 999999 999999 999999 999999 999999 999999 999999 999999 999999 999999 999999 999999 999999 999999 999999 999999 999999 999999 999999 6302
999999 16057 13377 13333 16143 12124 13205 11059 12937 12663 19661 15268 11194 10848 17681 11311 11849 12399 13714 10141 12220 19500 14061 13308 11225 19974 10353 18293 12530 16318 11680 18416 11028 18139 12585 18613 14834 17580 15868 16608 19190 17520 10238 12896 11046 15593 14349 11928 10476 13864 16293 12909 12919 19440 11292 10851 12974 13240 16027 17478 15572 11885 12569 15811 16106 11125 15526 12516 15154 17642 15642 999999 999999 999999 999999 999999 999999 999999 999999 999999 999999 999999 999999 999999 999999 999999 999999 999999 999999 999999 999999 999999 999999 999999 999999 999999 999999 999999 999999 999999 999999 999999 999999 0 999999 999999 999999 999999 999999 999999 999999 999999 999999 999999 999999 999999 999999 999999 999999 999999 999999 999999 999999 999999 999999 999999 999999 999999 999999 999999 999999 999999 999999 999999 999999 999999 999999 999999 999999 999999 999999 11984
999999 17432 19190 11530 14419 14232 18842 18085 16261 18739 18164 16465 10209 17467 13418 11422 18647 10847 13944 15010 11712 16715 14895 17977 19581 19488 18786 12370 10290 12797 17530 18003 11809 19258 15442 12536 11469 13394 17204 13254 16740 15542 17759 12918 15073 15189 13891 15198 17321 12749 18957 12469 14671 11311 14867 12503 13109 10660 16357 10955 14545 10569 11228 12598 16790 18950 10871 17105 16714 18826 19259 999999 999999 999999 999999 999999 999999 999999 999999 999999 999999 999999 999999 999999 999999 999999 999999 999999 999999 999999 999999 999999 999999 999999 999999 999999 999999 999999 999999 999999 999999 999999 999999 999999 0 999999 999999 999999 999999 999999 999999 999999 999999 999999 999999 999999 999999 999999 999999 999999 999999 999999 999999 999999 999999 999999 999999 999999 999999 999999 999999 999999 999999 999999 999999 999999 999999 999999 999999 999999 999999 11530
999999 16135 18389 10886 18056 15059 12321 18809 13687 13260 15684 19220 16419 11375 14572 14881 11453 12606 10663 13046 18080 15634 10823 15435 19259 17042 10147 19520 11041 19317 18612 12765 10957 13078 17054 19323 10836 13113 17995 10858 14023 10941 18204 19675 15360 12173 16883 11482 12090 11884 11544 19009 17822 17152 17454 11768 19632 10899 13023 13001 14527 14631 11900 17319 18984 14040 14038 15423 10439 19345 10578 999999 999999 999999 999999 999999 999999 999999 999999 999999 999999 999999 999999 999999 999999 999999 999999 999999 999999 999999 999999 999999 999999 999999 999999 999999 999999 999999 999999 999999 999999 999999 999999 999999 999999 0 999999 999999 999999 999999 999999 999999 999999 999999 999999 999999 999999 999999 999999 999999 999999 999999 999999 999999 999999 999999 999999 999999 999999 999999 999999 999999 999999 999999 999999 999999 999999 999999 999999 999999 999999 8112
999999 10272 13660 16171 13235 11385 13747 10014 17910 15338 15890 13036 14761 16723 15688 16874 16497 13213 18174 18037 13276 18974 14032 13530 19487 15066 13479 10719 18061 17608 14282 18382 16547 16122 19008 12466 19196 16918 17936 12804 12645 13413 14537 11771 19916 16624 14564 16543 16841 10844 13516 11892 15885 18837 19185 12159 16535 17659 15391 12365 10389 10936 14139 11127 13165 19057 11656 18501 10974 19777 15792 999999 999999 999999 999999 999999 999999 999999 999999 999999 999999 999999 999999 999999 999999 999999 999999 999999 999999 999999 999999 999999 999999 999999 999999 999999 999999 999999 999999 999999 999999 999999 999999 999999 999999 999999 0 999999 999999 999999 999999 999999 999999 999999 999999 999999 999999 999999 999999 999999 999999 999999 999999 999999 999999 999999 999999 999999 999999 999999 999999 999999 999999 999999 999999 999999 999999 999999 999999 999999 999999 12753
999999 15854 10100 17276 13852 11647 13205 12159 14316 12136 19728 16917 15458 18169 10789 19214 18979 11648 13467 13600 18784 12543 17827 17481 18226 18842 16095 18349 12994 13337 16903 17527 17659 10088 16232 11473 11620 17885 10845 14277 13734 13210 12233 12022 15533 15357 13384 10693 14747 13474 16359 18942 13368 14630 15478 13038 16287 13394 12870 14961 15503 15442 17160 16120 12974 16125 19358 14228 12620 17437 13769 999999 999999 999999 999999 999999 999999 999999 999999 999999 999999 999999 999999 999999 999999 999999 999999 999999 999999 999999 999999 999999 999999 999999 999999 999999 999999 999999 999999 999999 999999 999999 999999 999999 999999 999999 999999 0 999999 999999 999999 999999 999999 999999 999999 999999 999999 999999 999999 999999 999999 999999 999999 999999 999999 999999 999999 999999 999999 999999 999999 999999 999999 999999 999999 999999 999999 999999 999999 999999 999999 8598
999999 16284 13273 10425 13336 15964 11304 13368 10048 15617 12457 15386 15357 18041 14684 18841 17725 18045 15442 13728 11857 13423 11983 14343 17229 11002 14038 10599 17850 11617 12480 10696 12656 11920 16739 18866 13663 12398 12215 12988 13678 15792 18776 11012 14090 17584 17235 15230 13814 13834 12312 15359 17826 19753 15009 15234 18856 19516 18675 17328 11555 12306 10936 12177 14480 19453 19975 10648 12663 13722 19330 999999 999999 999999 999999 999999 999999 999999 999999 999999 999999 999999 999999 999999 999999 999999 999999 999999 999999 999999 999999 999999 999999 999999 999999 999999 999999 999999 999999 999999 999999 999999 999999 999999 999999 999999 999999 999999 0 999999 999999 999999 999999 999999 999999 999999 999999 999999 999999 999999 999999 999999 999999 999999 999999 999999 999999 999999 999999 999999 999999 999999 999999 999999 999999 999999 999999 999999 999999 999999 999999 12951
999999 14098 19439 18243 10297 18944 12150 12255 12650 19746 17913 13651 10144 10364 14621 15319 16697 17407 13967 19117 18495 15886 15142 16751 15415 13222 14625 13659 10324 18138 10168 19025 12307 11390 10680 10222 17259 14289 12780 11360 18168 14915 12252 12624 18968 14932 13620 14019 18394 10729 19183 13214 14233 12488 19143 14078 19746 14868 15345 19550 16088 15409 16770 13148 17129 11521 17306 13748 11032 12025 17015 999999 999999 999999 999999 999999 999999 999999 999999 999999 999999 999999 999999 999999 999999 999999 999999 999999 999999 999999 999999 999999 999999 999999 999999 999999 999999 999999 999999 999999 999999 999999 999999 999999 999999 999999 999999 999999 999999 0 999999 999999 999999 999999 999999 999999 999999 999999 999999 999999 999999 999999 999999 999999 999999 999999 999999 999999 999999 999999 999999 999999 999999 999999 999999 999999 999999 999999 999999 999999 999999 10622
999999 14774 18847 10558 15797 17957 10316 19404 15886 12526 17525 18221 15064 10037 11214 11550 16038 15117 12132 18514 12615 12542 13631 17491 11934 12673 11220 17963 16101 11100 13854 12303 17981 14040 11540 13433 12977 15729 14558 14466 11255 18499 16480 15024 11373 11998 12488 17686 10250 12509 10481 15681 13606 17494 17362 18576 18359 17917 13402 15932 13588 10826 11078 12452 13074 19271 14979 17717 13990 17752 16499 999999 999999 999999 999999 999999 999999 999999 999999 999999 999999 999999 999999 999999 999999 999999 999999 999999 999999 999999 999999 999999 999999 999999 999999 999999 999999 999999 999999 999999 999999 999999 999999 999999 999999 999999 999999 999999 999999 999999 0 999999 999999 999999 999999 999999 999999 999999 999999 999999 999999 999999 999999 999999 999999 999999 999999 999999 999999 999999 999999 999999 999999 999999 999999 999999 999999 999999 999999 999999 999999 6262
999999 13173 10804 13534 12184 15171 19352 15599 18700 10954 15981 16886 13673 11343 13337 18610 16718 13922 17557 15747 14492 12099 18257 10719 17650 16203 16294 15000 16044 13912 19637 15317 11891 19387 19182 17616 13244 19078 19396 18301 19297 10891 14830 16834 12672 19100 15857 18140 16365 11696 11932 10653 17237 12186 12715 18993 12954 10398 13037 16917 19246 19363 10374 12076 15710 10611 11736 13439 12928 15049 11402 999999 999999 999999 999999 999999 999999 999999 999999 999999 999999 999999 999999 999999 999999 999999 999999 999999 999999 999999 999999 999999 999999 999999 999999 999999 999999 999999 999999 999999 999999 999999 999999 999999 999999 999999 999999 999999 999999 999999 999999 0 999999 999999 999999 999999 999999 999999 999999 999999 999999 999999 999999 999999 999999 999999 999999 999999 999999 999999 999999 999999 999999 999999 999999 999999 999999 999999 999999 999999 999999 9699
999999 14883 12332 10212 12470 17164 10699 16273 14260 10357 11973 13289 11264 18890 11894 17418 11089 11538 13771 10001 14726 10923 11112 10500 10386 13449 11684 18689 12600 11683 10012 13047 18140 11245 15720 19443 15191 17466 10020 18173 13199 19302 15535 18506 16363 15101 18162 13548 18422 15863 16683 12365 19132 18666 19766 12824 16384 14827 10076 17088 18489 10262 10171 16219 18358 10761 13031 17681 15088 12022 12798 999999 999999 999999 999999 999999 999999 999999 999999 999999 999999 999999 999999 999999 999999 999999 999999 999999 999999 999999 999999 999999 999999 999999 999999 999999 999999 999999 999999 999999 999999 999999 999999 999999 999999 999999 999999 999999 999999 999999 999999 999999 0 999999 999999 999999 999999 999999 999999 999999 999999 999999 999999 999999 999999 999999 999999 999999 999999 999999 999999 999999 999999 999999 999999 999999 999999 999999 999999 999999 999999 6074
999999 14377 11772 15413 12210 10479 19839 16643 10181 18200 15847 10195 15222 15256 18494 16507 14694 15599 14933 14772 10236 10017 14963 13198 18827 10385 16409 11178 13243 15895 19135 15991 17101 16204 12440 13626 16258 11837 18859 12903 11405 19716 18622 11745 15511 18928 18159 19938 11762 11623 12331 17158 16820 18311 17407 18519 11398 11722 12941 15982 18718 15628 18476 12667 12084 11821 16447 19569 19889 14401 13072 999999 999999 999999 999999 999999 999999 999999 999999 999999 999999 999999 999999 999999 999999 999999 999999 999999 999999 999999 999999 999999 999999 999999 999999 999999 999999 999999 999999 999999 999999 999999 999999 999999 999999 999999 999999 999999 999999 999999 999999 999999 999999 0 999999 999999 999999 999999 999999 999999 999999 999999 999999 999999 999999 999999 999999 999999 999999 999999 999999 999999 999999 999999 999999 999999 999999 999999 999999 999999 999999 12312
999999 10786 11583 15829 12051 16082 17994 19951 18163 16219 16555 16340 10864 11000 16725 11707 14600 16127 14621 16491 16178 10817 19236 16301 18509 13394 10952 14718 18059 19940 18200 13279 17091 17711 18972 12068 16318 15496 13921 19303 13851 15825 13369 11304 17854 15178 14438 18148 13278 17461 11155 19024 18738 12137 14329 15711 10252 14269 13958 10334 16645 11597 10964 18570 11204 18737 16560 17594 15258 19995 11784 999999 999999 999999 999999 999999 999999 999999 999999 999999 999999 999999 999999 999999 999999 999999 999999 999999 999999 999999 999999 999999 999999 999999 999999 999999 999999 999999 999999 999999 999999 999999 999999 999999 999999 999999 999999 999999 999999 999999 999999 999999 999999 999999 0 999999 999999 999999 999999 999999 999999 999999 999999 999999 999999 999999 999999 999999 999999 999999 999999 999999 999999 999999 999999 999999 999999 999999 999999 999999 999999 12785
999999 11414 10893 15116 13092 16537 17525 13563 17540 18019 15183 13017 18256 19591 18020 13436 12897 12007 13157 11977 12500 11886 12968 12872 19287 10076 16888 19927 16876 16281 13423 18767 13290 10433 14544 10653 14841 10122 16401 12358 11678 15216 19707 18763 15208 17680 10949 11467 15233 16902 16311 11976 12844 12884 19354 15584 12241 10502 16713 16526 19233 18728 13365 14150 13147 17373 15042 19872 13527 17926 10756 999999 999999 999999 999999 999999 999999 999999 999999 999999 999999 999999 999999 999999 999999 999999 999999 999999 999999 999999 999999 999999 999999 999999 999999 999999 999999 999999 999999 999999 999999 999999 999999 999999 999999 999999 999999 999999 999999 999999 999999 999999 999999 999999 999999 0 999999 999999 999999 999999 999999 999999 999999 999999 999999 999999 999999 999999 999999 999999 999999 999999 999999 999999 999999 999999 999999 999999 999999 999999 999999 12269
999999 17236 12975 13895 13443 15366 12286 14634 18877 15704 19252 10835 12624 15835 19187 16893 11175 17350 15470 19868 13712 15196 15630 18709 10771 10755 18097 15690 14637 13994 12126 18915 15316 17103 13186 13616 11666 19590 10478 12474 11017 15080 12651 12282 13165 10907 17937 17449 18970 15902 13125 18689 19337 11552 10991 11739 14944 12154 12327 17381 15122 19575 17729 15222 16188 16007 19769 19727 19087 13297 10689 999999 999999 999999 999999 999999 999999 999999 999999 999999 999999 999999 999999 999999 999999 999999 999999 999999 999999 999999 999999 999999 999999 999999 999999 999999 999999 999999 999999 999999 999999 999999 999999 999999 999999 999999 999999 999999 999999 999999 999999 999999 999999 999999 999999 999999 0 999999 999999 999999 999999 999999 999999 999999 999999 999999 999999 999999 999999 999999 999999 999999 999999 999999 999999 999999 999999 999999 999999 999999 999999 7163
999999 10321 14386 16981 18558 19751 13749 19939 17198 16865 15374 10176 14293 16904 19446 16647 19666 17593 17164 12915 16390 14233 19086 12688 18238 10438 14019 16120 18435 18667 16699 13465 14009 18431 16264 11821 10259 19184 15336 19340 11680 18234 12616 14750 14312 10978 15641 17898 18801 11364 19277 12695 16462 19520 18927 14392 11657 15913 17018 11848 17923 17215 19010 10073 12886 16729 13286 15895 10474 18631 18356 999999 999999 999999 999999 999999 999999 999999 999999 999999 999999 999999 999999 999999 999999 999999 999999 999999 999999 999999 999999 999999 999999 999999 999999 999999 999999 999999 999999 999999 999999 999999 999999 999999 999999 999999 999999 999999 999999 999999 999999 999999 999999 999999 999999 999999 999999 0 999999 999999 999999 999999 999999 999999 999999 999999 999999 999999 999999 999999 999999 999999 999999 999999 999999 999999 999999 999999 999999 999999 999999 11660
999999 12313 13274 11623 16137 16595 17729 13074 19225 16195 18560 17472 14672 13149 15927 15612 12817 15703 13228 11520 18679 19428 15078 15609 13189 19760 16068 14033 14194 16231 19116 17391 13457 15570 17830 19437 16798 19628 14560 16388 19926 17930 13251 12899 18514 19316 13156 13997 17971 14979 12034 14381 11338 13127 15097 18917 14908 13316 11413 17418 11524 11277 18136 19003 14907 19599 17862 13148 18122 16315 10402 999999 999999 999999 999999 999999 999999 999999 999999 999999 999999 999999 999999 999999 999999 999999 999999 999999 999999 999999 999999 999999 999999 999999 999999 999999 999999 999999 999999 999999 999999 999999 999999 999999 999999 999999 999999 999999 999999 999999 999999 999999 999999 999999 999999 999999 999999 999999 0 999999 999999 999999 999999 999999 999999 999999 999999 999999 999999 999999 999999 999999 999999 999999 999999 999999 999999 999999 999999 999999 999999 14125
999999 10125 12867 18604 17182 16815 13295 12215 10228 14833 12751 18814 15754 16570 15978 18254 11036 14156 12804 16601 11679 13514 13424 13941 15242 16890 11488 19126 16306 11692 19822 17582 17198 14659 19861 12611 18469 13840 14502 13875 13368 16407 18895 10454 18953 16928 14629 10074 11543 16677 15682 14227 19250 10807 13005 19520 11083 18946 19547 12488 11481 18903 17733 12383 17596 13097 12380 11552 15688 19011 16528 999999 999999 999999 999999 999999 999999 999999 999999 999999 999999 999999 999999 999999 999999 999999 999999 999999 999999 999999 999999 999999 999999 999999 999999 999999 999999 999999 999999 999999 999999 999999 999999 999999 999999 999999 999999 999999 999999 999999 999999 999999 999999 999999 999999 999999 999999 999999 999999 0 999999 999999 999999 999999 999999 999999 999999 999999 999999 999999 999999 999999 999999 999999 999999 999999 999999 999999 999999 999999 999999 8271
999999 17243 19730 18956 11898 17014 14765 17419 14656 13497 19693 12478 16267 13447 16293 16677 19785 11359 17198 18759 12205 10552 19387 12308 19560 17288 13514 12202 14120 12923 19834 14766 12670 17941 19602 19183 18184 16793 14531 18390 11198 18531 19415 18383 11662 15573 18517 12332 14580 12083 15296 19976 14166 18586 14837 11809 16183 18678 13227 19170 15905 16272 10475 13565 10596 16648 18630 16010 14712 10642 10087 999999 999999 999999 999999 999999 999999 999999 999999 999999 999999 999999 999999 999999 999999 999999 999999 999999 999999 999999 999999 999999 999999 999999 999999 999999 999999 999999 999999 999999 999999 999999 999999 999999 999999 999999 999999 999999 999999 999999 999999 999999 999999 999999 999999 999999 999999 999999 999999 999999 0 999999 999999 999999 999999 999999 999999 999999 999999 999999 999999 999999 999999 999999 999999 999999 999999 999999 999999 999999 999999 10084
999999 13566 15120 15301 17659 17741 13565 14892 19939 17125 13663 11163 17814 11566 15170 12206 14391 12757 17451 16097 19391 19308 16805 15786 10670 15479 17542 16110 13557 17228 15474 13169 13829 12782 13763 18551 11337 16917 17283 11676 12993 14524 11275 14331 17265 13901 19643 11762 14501 16492 13886 13941 18613 17414 15884 14900 18552 12596 13135 15174 10437 11964 12408 13497 11045 17202 16546 12618 10116 19408 11824 999999 999999 999999 999999 999999 999999 999999 999999 999999 999999 999999 999999 999999 999999 999999 999999 999999 999999 999999 999999 999999 999999 999999 999999 999999 999999 999999 999999 999999 999999 999999 999999 999999 999999 999999 999999 999999 999999 999999 999999 999999 999999 999999 999999 999999 999999 999999 999999 999999 999999 0 999999 999999 999999 999999 999999 999999 999999 999999 999999 999999 999999 999999 999999 999999 999999 999999 999999 999999 999999 10453
999999 17170 17291 12989 17829 16301 14174 12142 11091 18495 16704 17152 18444 12326 15266 10111 17195 19569 19249 13712 16555 18789 16378 14329 15045 16529 18159 11376 13706 15681 16935 15632 16187 11476 16591 12848 10537 11352 10272 17475 14909 11224 15947 11030 16135 18796 13829 12251 18322 13285 15874 11760 17056 11854 16774 13355 17436 18156 19441 10139 17390 19356 14367 11516 15990 19647 15563 19431 18119 12229 17758 999999 999999 999999 999999 999999 999999 999999 999999 999999 999999 999999 999999 999999 999999 999999 999999 999999 999999 999999 999999 999999 999999 999999 999999 999999 999999 999999 999999 999999 999999 999999 999999 999999 999999 999999 999999 999999 999999 999999 999999 999999 999999 999999 999999 999999 999999 999999 999999 999999 999999 999999 0 999999 999999 999999 999999 999999 999999 999999 999999 999999 999999 999999 999999 999999 999999 999999 999999 999999 999999 12324
999999 15841 15458 12422 14657 12421 11935 17759 17299 12546 13800 12188 15123 16631 15371 15012 10476 11766 16753 14673 11380 10315 15871 13059 15211 19237 17697 13836 18765 12471 19222 19220 19766 13330 17849 13403 11970 16820 17808 18261 16606 16427 12082 17512 11808 16342 13898 15477 11133 17081 16823 14998 14559 18282 12666 13442 11550 18943 17891 16588 11430 14094 12629 19645 16244 13114 15283 18090 17086 12247 11948 999999 999999 999999 999999 999999 999999 999999 999999 999999 999999 999999 999999 999999 999999 999999 999999 999999 999999 999999 999999 999999 999999 999999 999999 999999 999999 999999 999999 999999 999999 999999 999999 999999 999999 999999 999999 999999 999999 999999 999999 999999 999999 999999 999999 999999 999999 999999 999999 999999 999999 999999 999999 0 999999 999999 999999 999999 999999 999999 999999 999999 999999 999999 999999 999999 999999 999999 999999 999999 999999 5369
999999 16975 19394 19166 18130 17514 14877 19147 12607 15471 19257 17879 13699 14918 17580 17931 12239 19660 18061 18126 14294 14952 10583 12256 12642 19155 17347 13791 12895 16499 19685 19141 12548 12918 18921 14350 11464 10016 17670 13791 11329 17318 16027 13017 13357 14826 15395 13426 16246 11933 10195 11778 13041 11381 14083 19615 19339 10207 12611 12846 10657 18642 14776 19888 12569 15130 11971 12334 10064 18770 10951 999999 999999 999999 999999 999999 999999 999999 999999 999999 999999 999999 999999 999999 999999 999999 999999 999999 999999 999999 999999 999999 999999 999999 999999 999999 999999 999999 999999 999999 999999 999999 999999 999999 999999 999999 999999 999999 999999 999999 999999 999999 999999 999999 999999 999999 999999 999999 999999 999999 999999 999999 999999 999999 0 999999 999999 999999 999999 999999 999999 999999 999999 999999 999999 999999 999999 999999 999999 999999 999999 9290
999999 14978 13350 11990 18100 18107 16330 14592 16998 18204 18802 18617 15331 19761 18521 15573 15077 18331 14389 17745 14273 14800 15726 18974 17249 13084 12057 12951 16803 13302 13776 16619 13648 10520 10619 18933 18730 13278 14345 18623 10373 16294 10098 12382 17115 12416 19035 17722 17717 10154 11861 14503 17233 13425 10008 13104 11588 14503 12249 10138 19511 12863 13150 19969 14868 10817 17332 15890 16453 14944 13380 999999 999999 999999 999999 999999 999999 999999 999999 999999 999999 999999 999999 999999 999999 999999 999999 999999 999999 999999 999999 999999 999999 999999 999999 999999 999999 999999 999999 999999 999999 999999 999999 999999 999999 999999 999999 999999 999999 999999 999999 999999 999999 999999 999999 999999 999999 999999 999999 999999 999999 999999 999999 999999 999999 0 999999 999999 999999 999999 999999 999999 999999 999999 999999 999999 999999 999999 999999 999999 999999 6961
999999 17831 19734 11750 18354 11679 14243 15767 19442 16793 18395 11017 14190 17653 14670 13734 17339 10827 12976 18750 10822 13172 12642 17095 18057 10999 11106 18052 12421 14762 17334 12730 15544 16213 13181 16764 12841 15309 13271 14443 11232 14065 19889 18786 12452 19290 10749 10966 15831 17706 19514 18243 13808 19655 19825 15850 10666 13543 16406 16804 14730 12705 19008 12144 13519 11908 12022 11025 13205 12005 10380 999999 999999 999999 999999 999999 999999 999999 999999 999999 999999 999999 999999 999999 999999 999999 999999 999999 999999 999999 999999 999999 999999 999999 999999 999999 999999 999999 999999 999999 999999 999999 999999 999999 999999 999999 999999 999999 999999 999999 999999 999999 999999 999999 999999 999999 999999 999999 999999 999999 999999 999999 999999 999999 999999 999999 0 999999 999999 999999 999999 999999 999999 999999 999999 999999 999999 999999 999999 999999 999999 9302
999999 13421 13774 18405 14079 15621 14634 13279 15933 12673 16791 18156 19094 17190 19112 11983 12660 17204 15139 17391 13191 10823 16143 12928 14439 15464 17170 14333 19722 14549 14140 16275 10779 13128 14027 14312 12294 19043 19789 16562 16173 12163 10217 10748 19172 17412 17016 15779 11285 13639 15629 17236 16767 17682 18698 19220 14565 13272 19011 17104 14501 19272 15189 12441 12505 13123 10227 10801 11475 16395 16286 999999 999999 999999 999999 999999 999999 999999 999999 999999 999999 999999 999999 999999 999999 999999 999999 999999 999999 999999 999999 999999 999999 999999 999999 999999 999999 999999 999999 999999 999999 999999 999999 999999 999999 999999 999999 999999 999999 999999 999999 999999 999999 999999 999999 999999 999999 999999 999999 999999 999999 999999 999999 999999 999999 999999 999999 0 999999 999999 999999 999999 999999 999999 999999 999999 999999 999999 999999 999999 999999 9422
999999 14474 14245 11823 17596 13569 16418 17701 14569 11468 18740 14643 16991 10891 11866 13270 13096 16868 14796 18932 18030 12261 11672 14542 13431 12358 15983 10367 19807 15413 15668 17841 12311 18395 15737 19461 10461 19038 19279 12041 13094 16795 17842 15423 17154 11197 19605 16207 10770 13791 12805 15056 11228 13326 10201 14385 11865 14712 10152 10570 11353 12223 11533 13959 18993 13665 13673 14681 12496 10484 12103 999999 999999 999999 999999 999999 999999 999999 999999 999999 999999 999999 999999 999999 999999 999999 999999 999999 999999 999999 999999 999999 999999 999999 999999 999999 999999 999999 999999 999999 999999 999999 999999 999999 999999 999999 999999 999999 999999 999999 999999 999999 999999 999999 999999 999999 999999 999999 999999 999999 999999 999999 999999 999999 999999 999999 999999 999999 0 999999 999999 999999 999999 999999 999999 999999 999999 999999 999999 999999 999999 14656
999999 10951 13476 10154 16798 14360 17771 11979 18398 14788 17245 10036 19089 15459 18491 19765 17838 15402 14105 11996 12987 14804 19182 19306 13007 10266 16569 17813 10756 15937 18434 12605 14318 10662 14967 12243 10695 14745 18790 13688 12281 12716 17672 15022 15914 17841 17309 15072 18288 16422 15611 15612 16670 15980 13225 12096 18045 11515 17544 17262 14209 19538 11148 19679 15352 17028 12972 19003 19445 14125 17947 999999 999999 999999 999999 999999 999999 999999 999999 999999 999999 999999 999999 999999 999999 999999 999999 999999 999999 999999 999999 999999 999999 999999 999999 999999 999999 999999 999999 999999 999999 999999 999999 999999 999999 999999 999999 999999 999999 999999 999999 999999 999999 999999 999999 999999 999999 999999 999999 999999 999999 999999 999999 999999 999999 999999 999999 999999 999999 0 999999 999999 999999 999999 999999 999999 999999 999999 999999 999999 999999 9681
999999 17996 19879 17564 16317 15415 15279 10195 11649 13166 15742 10325 19738 15308 16182 10197 12487 18166 11236 13835 14042 17991 16060 16883 14209 13869 14031 18743 14407 12413 15837 18868 18193 19877 11245 10823 13158 14349 15792 14601 13187 12287 14609 17489 13672 10475 12960 14255 19641 10465 10589 18481 10538 15752 13339 12264 13798 18104 18466 18665 12531 12886 10848 19834 13990 17066 11559 17317 18622 10094 15862 999999 999999 999999 999999 999999 999999 999999 999999 999999 999999 999999 999999 999999 999999 999999 999999 999999 999999 999999 999999 999999 999999 999999 999999 999999 999999 999999 999999 999999 999999 999999 999999 999999 999999 999999 999999 999999 999999 999999 999999 999999 999999 999999 999999 999999 999999 999999 999999 999999 999999 999999 999999 999999 999999 999999 999999 999999 999999 999999 0 999999 999999 999999 999999 999999 999999 999999 999999 999999 999999 13059
999999 12046 15741 12558 19258 10395 15535 12481 13833 12389 14519 16113 18603 14145 18780 13142 13513 15217 11649 15618 16959 16525 18788 19819 14902 19382 18952 12792 13127 12330 17860 19268 11479 16541 13096 17857 18730 19054 15920 12095 19814 19733 15759 18951 12224 13542 19706 18267 11371 12838 10696 16167 11362 19334 16131 11537 18248 16272 16497 11852 19983 19957 11300 16564 15507 12014 14945 19871 13458 17795 14748 999999 999999 999999 999999 999999 999999 999999 999999 999999 999999 999999 999999 999999 999999 999999 999999 999999 999999 999999 999999 999999 999999 999999 999999 999999 999999 999999 999999 999999 999999 999999 999999 999999 999999 999999 999999 999999 999999 999999 999999 999999 999999 999999 999999 999999 999999 999999 999999 999999 999999 999999 999999 999999 999999 999999 999999 999999 999999 999999 999999 0 999999 999999 999999 999999 999999 999999 999999 999999 999999 7303
999999 15152 13236 15835 18248 19028 16278 11957 10043 14638 17857 17050 14229 12908 13033 13875 12605 16910 10149 14403 12312 17499 14227 10518 12646 19952 15654 17147 12413 14602 13446 13732 11702 12088 12358 11704 19278 19326 15034 17961 13909 10812 19353 12315 18106 13137 11397 11959 11754 14538 13651 13540 15838 15520 13000 16888 19826 19291 18337 12066 14166 16308 17222 11383 13317 19581 15943 17263 17698 18835 16323 999999 999999 999999 999999 999999 999999 999999 999999 999999 999999 999999 999999 999999 999999 999999 999999 999999 999999 999999 999999 999999 999999 999999 999999 999999 999999 999999 999999 999999 999999 999999 999999 999999 999999 999999 999999 999999 999999 999999 999999 999999 999999 999999 999999 999999 999999 999999 999999 999999 999999 999999 999999 999999 999999 999999 999999 999999 999999 999999 999999 999999 0 999999 999999 999999 999999 999999 999999 999999 999999 9127
999999 18094 17697 11662 18419 17126 15514 18432 10758 14733 13729 13174 13713 15677 13223 18550 18768 18771 11928 17107 13554 13825 12092 19399 10371 16794 12376 17764 19611 13710 14449 18323 17710 10095 11479 18823 13418 14177 16951 10130 16083 16880 13506 15888 10726 16945 11392 16318 10953 10743 14577 12351 14908 15101 14512 12842 12465 18464 17656 10313 12944 10887 12170 12108 17862 17960 16144 12000 18393 16079 15904 999999 999999 999999 999999 999999 999999 999999 999999 999999 999999 999999 999999 999999 999999 999999 999999 999999 999999 999999 999999 999999 999999 999999 999999 999999 999999 999999 999999 999999 999999 999999 999999 999999 999999 999999 999999 999999 999999 999999 999999 999999 999999 999999 999999 999999 999999 999999 999999 999999 999999 999999 999999 999999 999999 999999 999999 999999 999999 999999 999999 999999 999999 0 999999 999999 999999 999999 999999 999999 999999 10495
999999 15898 19924 16507 14312 10537 18612 19335 19677 13141 16524 15208 12733 19983 14062 10115 18799 16741 14055 15576 11731 16102 19539 11327 13773 14981 14758 12123 14031 18779 13409 14414 13546 15651 19805 10650 19762 19745 18169 11476 11322 13513 19155 16294 12216 15462 11801 13622 17544 19306 16427 10470 13265 14376 11099 18874 15473 15505 14537 16311 13942 17569 11523 14657 10927 10271 15409 15471 16212 17450 11731 999999 999999 999999 999999 999999 999999 999999 999999 999999 999999 999999 999999 999999 999999 999999 999999 999999 999999 999999 999999 999999 999999 999999 999999 999999 999999 999999 999999 999999 999999 999999 999999 999999 999999 999999 999999 999999 999999 999999 999999 999999 999999 999999 999999 999999 999999 999999 999999 999999 999999 999999 999999 999999 999999 999999 999999 999999 999999 999999 999999 999999 999999 999999 0 999999 999999 999999 999999 999999 999999 6025
999999 16467 19433 16658 12488 11508 13937 15931 17778 15652 12006 14160 17528 13817 16269 12991 12188 14832 17715 17899 13185 14797 11917 10515 10541 10735 13692 15073 13601 16158 17153 16929 15567 12099 19074 11093 14874 14480 15410 16243 10986 19530 16985 18916 16158 12789 11935 18439 18337 16685 12703 14602 17224 18915 15930 11705 11304 14215 14782 14964 17416 11118 15341 16924 16461 16368 16581 15889 11131 18476 13935 999999 999999 999999 999999 999999 999999 999999 999999 999999 999999 999999 999999 999999 999999 999999 999999 999999 999999 999999 999999 999999 999999 999999 999999 999999 999999 999999 999999 999999 999999 999999 999999 999999 999999 999999 999999 999999 999999 999999 999999 999999 999999 999999 999999 999999 999999 999999 999999 999999 999999 999999 999999 999999 999999 999999 999999 999999 999999 999999 999999 999999 999999 999999 999999 0 999999 999999 999999 999999 999999 12419
999999 10461 13457 17025 16519 13666 16838 16219 19789 18056 14771 13141 17612 13242 19096 15203 15615 14109 19259 12049 14696 14778 18366 11819 13056 16279 19373 15490 18207 11646 12671 13046 14904 17172 10430 19903 17346 19846 15026 16423 14418 14653 13993 18835 17325 15185 10201 17289 15361 15062 11779 15579 10636 10538 12084 10824 14088 12703 18452 13932 17158 18005 11015 15514 18838 11224 18784 17621 19773 17638 17923 999999 999999 999999 999999 999999 999999 999999 999999 999999 999999 999999 999999 999999 999999 999999 999999 999999 999999 999999 999999 999999 999999 999999 999999 999999 999999 999999 999999 999999 999999 999999 999999 999999 999999 999999 999999 999999 999999 999999 999999 999999 999999 999999 999999 999999 999999 999999 999999 999999 999999 999999 999999 999999 999999 999999 999999 999999 999999 999999 999999 999999 999999 999999 999999 999999 0 999999 999999 999999 999999 11817
999999 13799 19331 18414 10872 14056 14005 14381 18491 13374 11646 17289 10820 13876 19284 15830 19801 10529 17366 10813 11257 14413 15530 15849 14085 12297 10843 19597 16117 16733 15114 16128 14024 19417 13072 15388 13026 19888 18144 12974 14219 15316 10860 14753 15831 10046 17225 12765 16091 13144 13970 16715 13684 14454 15914 10817 17812 11056 15710 12325 13322 15263 11048 13598 17460 18707 17414 12730 19851 18628 12860 999999 999999 999999 999999 999999 999999 999999 999999 999999 999999 999999 999999 999999 999999 999999 999999 999999 999999 999999 999999 999999 999999 999999 999999 999999 999999 999999 999999 999999 999999 999999 999999 999999 999999 999999 999999 999999 999999 999999 999999 999999 999999 999999 999999 999999 999999 999999 999999 999999 999999 999999 999999 999999 999999 999999 999999 999999 999999 999999 999999 999999 999999 999999 999999 999999 999999 0 999999 999999 999999 11851
999999 10134 18967 17268 14367 12339 11690 15563 15680 15717 10933 12390 16936 14819 19751 10800 16482 15294 17344 19462 15297 14689 16621 14293 12870 16726 16525 13456 14418 13878 19451 19628 19840 11224 12161 12708 15046 14329 12916 11932 16114 10922 10274 18049 12310 17509 15766 17056 10093 10035 17926 14321 19432 13907 14177 16602 19157 12872 12795 18521 15483 12123 11679 13286 15667 17821 13368 12904 17804 12203 11274 999999 999999 999999 999999 999999 999999 999999 999999 999999 999999 999999 999999 999999 999999 999999 999999 999999 999999 999999 999999 999999 999999 999999 999999 999999 999999 999999 999999 999999 999999 999999 999999 999999 999999 999999 999999 999999 999999 999999 999999 999999 999999 999999 999999 999999 999999 999999 999999 999999 999999 999999 999999 999999 999999 999999 999999 999999 999999 999999 999999 999999 999999 999999 999999 999999 999999 999999 0 999999 999999 8721
999999 19709 13901 10234 18971 16479 14746 14682 16040 18257 19456 11054 15490 19869 12570 17760 14787 10244 16622 11969 15676 14287 13012 14443 16515 10306 13955 10833 19113 15770 13771 13529 15883 12508 19096 17956 10401 18425 12855 15946 11632 14953 11429 12869 12915 12347 16447 18708 16154 15264 15375 15413 13402 12271 11669 10929 12462 13690 14785 17996 18585 10406 17299 17376 12026 11797 16657 13078 15699 16028 13452 999999 999999 999999 999999 999999 999999 999999 999999 999999 999999 999999 999999 999999 999999 999999 999999 999999 999999 999999 999999 999999 999999 999999 999999 999999 999999 999999 999999 999999 999999 999999 999999 999999 999999 999999 999999 999999 999999 999999 999999 999999 999999 999999 999999 999999 999999 999999 999999 999999 999999 999999 999999 999999 999999 999999 999999 999999 999999 999999 999999 999999 999999 999999 999999 999999 999999 999999 999999 0 999999 12456
999999 17233 14586 14324 11912 19565 11850 18884 16077 12566 10684 18220 13377 10421 13090 14818 12757 13986 12506 10619 10322 14062 10339 11199 10448 11301 17128 18762 19357 14495 18090 15348 11217 11150 11186 10426 14357 19711 13837 17141 13393 19265 11017 12133 10301 15765 16353 14997 17869 17578 15687 17882 17173 17350 16785 12133 17677 12491 18808 17403 19483 13552 13506 19250 11775 11171 10355 17733 11163 12759 19659 999999 999999 999999 999999 999999 999999 999999 999999 999999 999999 999999 999999 999999 999999 999999 999999 999999 999999 999999 999999 999999 999999 999999 999999 999999 999999 999999 999999 999999 999999 999999 999999 999999 999999 999999 999999 999999 999999 999999 999999 999999 999999 999999 999999 999999 999999 999999 999999 999999 999999 999999 999999 999999 999999 999999 999999 999999 999999 999999 999999 999999 999999 999999 999999 999999 999999 999999 999999 999999 0 12514
1 999999 999999 999999 999999 999999 999999 999999 999999 999999 999999 999999 999999 999999 999999 999999 999999 999999 999999 999999 999999 999999 999999 999999 999999 999999 999999 999999 999999 999999 999999 999999 999999 999999 999999 999999 999999 999999 999999 999999 999999 999999 999999 999999 999999 999999 999999 999999 999999 999999 999999 999999 999999 999999 999999 999999 999999 999999 999999 999999 999999 999999 999999 999999 999999 999999 999999 999999 999999 999999 999999 999999 999999 999999 999999 999999 999999 999999 999999 999999 999999 999999 999999 999999 999999 999999 999999 999999 999999 999999 999999 999999 999999 999999 999999 999999 999999 999999 999999 999999 999999 999999 999999 999999 999999 999999 999999 999999 999999 999999 999999 999999 999999 999999 999999 999999 999999 999999 999999 999999 999999 999999 999999 999999 999999 999999 999999 999999 999999 999999 999999 999999 999999 999999 999999 999999 999999 999999 999999 999999 999999 0
EOF