NAME: GR_1x5x6_KH_5x6_Run_1
TYPE: TSP
COMMENT: BTSP instance |A|=30 GR nodes |B|=30 KH nodes depot=0.0 end=0.0.0
DIMENSION: 62
EDGE_WEIGHT_TYPE: EXPLICIT
EDGE_WEIGHT_FORMAT: FULL_MATRIX
NODE_COORD_TYPE: NO_COORDS
EDGE_WEIGHT_SECTION
0 11802 7729 14851 8675 14345 12564 14240 5497 13755 11168 10032 8185 8488 14704 8404 5761 7237 13448 6975 13052 14564 13279 11002 14544 13023 10306 6606 12599 14048 11455 999999 999999 999999 999999 999999 999999 999999 999999 999999 999999 999999 999999 999999 999999 999999 999999 999999 999999 999999 999999 999999 999999 999999 999999 999999 999999 999999 999999 999999 999999 999999
999999 0 999999 999999 999999 999999 999999 999999 999999 999999 999999 999999 999999 999999 999999 999999 999999 999999 999999 999999 999999 999999 999999 999999 999999 999999 999999 999999 999999 999999 999999 999999 999999 999999 19370 999999 999999 999999 999999 10127 999999 999999 999999 999999 999999 999999 12992 999999 999999 999999 19212 999999 10999 999999 999999 999999 999999 999999 999999 999999 14267 999999
999999 999999 0 999999 999999 999999 999999 999999 999999 999999 999999 999999 999999 999999 999999 999999 999999 999999 999999 999999 999999 999999 999999 999999 999999 999999 999999 999999 999999 999999 999999 999999 999999 999999 17488 999999 999999 999999 999999 19122 999999 999999 999999 999999 999999 999999 15423 999999 999999 999999 10210 999999 10110 999999 999999 999999 999999 999999 999999 999999 18455 999999
999999 999999 999999 0 999999 999999 999999 999999 999999 999999 999999 999999 999999 999999 999999 999999 999999 999999 999999 999999 999999 999999 999999 999999 999999 999999 999999 999999 999999 999999 999999 999999 999999 999999 15712 999999 999999 999999 999999 13717 999999 999999 999999 999999 999999 999999 13977 999999 999999 999999 19515 999999 16750 999999 999999 999999 999999 999999 999999 999999 11095 999999
999999 999999 999999 999999 0 999999 999999 999999 999999 999999 999999 999999 999999 999999 999999 999999 999999 999999 999999 999999 999999 999999 999999 999999 999999 999999 999999 999999 999999 999999 999999 999999 999999 999999 18089 999999 999999 999999 999999 14575 999999 999999 999999 999999 999999 999999 10400 999999 999999 999999 17645 999999 12459 999999 999999 999999 999999 999999 999999 999999 11727 999999
999999 999999 999999 999999 999999 0 999999 999999 999999 999999 999999 999999 999999 999999 999999 999999 999999 999999 999999 999999 999999 999999 999999 999999 999999 999999 999999 999999 999999 999999 999999 999999 999999 999999 13978 999999 999999 999999 999999 16179 999999 999999 999999 999999 999999 999999 16526 999999 999999 999999 16501 999999 14367 999999 999999 999999 999999 999999 999999 999999 13071 999999
999999 999999 999999 999999 999999 999999 0 999999 999999 999999 999999 999999 999999 999999 999999 999999 999999 999999 999999 999999 999999 999999 999999 999999 999999 999999 999999 999999 999999 999999 999999 999999 999999 999999 14927 999999 999999 999999 999999 17832 999999 999999 999999 999999 999999 999999 15107 999999 999999 999999 15053 999999 14194 999999 999999 999999 999999 999999 999999 999999 10498 999999
999999 999999 999999 999999 999999 999999 999999 0 999999 999999 999999 999999 999999 999999 999999 999999 999999 999999 999999 999999 999999 999999 999999 999999 999999 999999 999999 999999 999999 999999 999999 999999 14811 19322 999999 999999 999999 999999 999999 999999 999999 999999 15074 999999 10992 999999 999999 13782 999999 999999 999999 999999 999999 999999 12848 999999 999999 999999 999999 999999 999999 999999
999999 999999 999999 999999 999999 999999 999999 999999 0 999999 999999 999999 999999 999999 999999 999999 999999 999999 999999 999999 999999 999999 999999 999999 999999 999999 999999 999999 999999 999999 999999 999999 13342 17641 999999 999999 999999 999999 999999 999999 999999 999999 19997 999999 10743 999999 999999 11643 999999 999999 999999 999999 999999 999999 11682 999999 999999 999999 999999 999999 999999 999999
999999 999999 999999 999999 999999 999999 999999 999999 999999 0 999999 999999 999999 999999 999999 999999 999999 999999 999999 999999 999999 999999 999999 999999 999999 999999 999999 999999 999999 999999 999999 999999 13944 11356 999999 999999 999999 999999 999999 999999 999999 999999 12435 999999 19321 999999 999999 19539 999999 999999 999999 999999 999999 999999 17782 999999 999999 999999 999999 999999 999999 999999
999999 999999 999999 999999 999999 999999 999999 999999 999999 999999 0 999999 999999 999999 999999 999999 999999 999999 999999 999999 999999 999999 999999 999999 999999 999999 999999 999999 999999 999999 999999 999999 11861 16935 999999 999999 999999 999999 999999 999999 999999 999999 18789 999999 15372 999999 999999 12145 999999 999999 999999 999999 999999 999999 17080 999999 999999 999999 999999 999999 999999 999999
999999 999999 999999 999999 999999 999999 999999 999999 999999 999999 999999 0 999999 999999 999999 999999 999999 999999 999999 999999 999999 999999 999999 999999 999999 999999 999999 999999 999999 999999 999999 999999 18691 19794 999999 999999 999999 999999 999999 999999 999999 999999 14968 999999 14305 999999 999999 12351 999999 999999 999999 999999 999999 999999 15987 999999 999999 999999 999999 999999 999999 999999
999999 999999 999999 999999 999999 999999 999999 999999 999999 999999 999999 999999 0 999999 999999 999999 999999 999999 999999 999999 999999 999999 999999 999999 999999 999999 999999 999999 999999 999999 999999 999999 12118 14337 999999 999999 999999 999999 999999 999999 999999 999999 14288 999999 14889 999999 999999 13017 999999 999999 999999 999999 999999 999999 12992 999999 999999 999999 999999 999999 999999 999999
999999 999999 999999 999999 999999 999999 999999 999999 999999 999999 999999 999999 999999 0 999999 999999 999999 999999 999999 999999 999999 999999 999999 999999 999999 999999 999999 999999 999999 999999 999999 999999 999999 999999 999999 13680 999999 19188 999999 999999 999999 999999 999999 16535 999999 999999 999999 999999 12842 999999 999999 999999 999999 12621 999999 15517 999999 999999 999999 999999 999999 999999
999999 999999 999999 999999 999999 999999 999999 999999 999999 999999 999999 999999 999999 999999 0 999999 999999 999999 999999 999999 999999 999999 999999 999999 999999 999999 999999 999999 999999 999999 999999 999999 999999 999999 999999 17137 999999 15573 999999 999999 999999 999999 999999 12195 999999 999999 999999 999999 12144 999999 999999 999999 999999 10088 999999 16872 999999 999999 999999 999999 999999 999999
999999 999999 999999 999999 999999 999999 999999 999999 999999 999999 999999 999999 999999 999999 999999 0 999999 999999 999999 999999 999999 999999 999999 999999 999999 999999 999999 999999 999999 999999 999999 999999 999999 999999 999999 12360 999999 16367 999999 999999 999999 999999 999999 13208 999999 999999 999999 999999 14949 999999 999999 999999 999999 18278 999999 12829 999999 999999 999999 999999 999999 999999
999999 999999 999999 999999 999999 999999 999999 999999 999999 999999 999999 999999 999999 999999 999999 999999 0 999999 999999 999999 999999 999999 999999 999999 999999 999999 999999 999999 999999 999999 999999 999999 999999 999999 999999 11974 999999 19554 999999 999999 999999 999999 999999 16200 999999 999999 999999 999999 14738 999999 999999 999999 999999 10441 999999 15400 999999 999999 999999 999999 999999 999999
999999 999999 999999 999999 999999 999999 999999 999999 999999 999999 999999 999999 999999 999999 999999 999999 999999 0 999999 999999 999999 999999 999999 999999 999999 999999 999999 999999 999999 999999 999999 999999 999999 999999 999999 17874 999999 11618 999999 999999 999999 999999 999999 11089 999999 999999 999999 999999 11027 999999 999999 999999 999999 15169 999999 16528 999999 999999 999999 999999 999999 999999
999999 999999 999999 999999 999999 999999 999999 999999 999999 999999 999999 999999 999999 999999 999999 999999 999999 999999 0 999999 999999 999999 999999 999999 999999 999999 999999 999999 999999 999999 999999 999999 999999 999999 999999 16976 999999 14935 999999 999999 999999 999999 999999 19012 999999 999999 999999 999999 17412 999999 999999 999999 999999 18501 999999 17062 999999 999999 999999 999999 999999 999999
999999 999999 999999 999999 999999 999999 999999 999999 999999 999999 999999 999999 999999 999999 999999 999999 999999 999999 999999 0 999999 999999 999999 999999 999999 999999 999999 999999 999999 999999 999999 13543 999999 999999 999999 999999 16475 999999 999999 999999 999999 15556 999999 999999 999999 17733 999999 999999 999999 18200 999999 999999 999999 999999 999999 999999 999999 15375 999999 999999 999999 999999
999999 999999 999999 999999 999999 999999 999999 999999 999999 999999 999999 999999 999999 999999 999999 999999 999999 999999 999999 999999 0 999999 999999 999999 999999 999999 999999 999999 999999 999999 999999 13485 999999 999999 999999 999999 15455 999999 999999 999999 999999 11510 999999 999999 999999 13695 999999 999999 999999 17963 999999 999999 999999 999999 999999 999999 999999 19460 999999 999999 999999 999999
999999 999999 999999 999999 999999 999999 999999 999999 999999 999999 999999 999999 999999 999999 999999 999999 999999 999999 999999 999999 999999 0 999999 999999 999999 999999 999999 999999 999999 999999 999999 18889 999999 999999 999999 999999 19734 999999 999999 999999 999999 15104 999999 999999 999999 18410 999999 999999 999999 16448 999999 999999 999999 999999 999999 999999 999999 11064 999999 999999 999999 999999
999999 999999 999999 999999 999999 999999 999999 999999 999999 999999 999999 999999 999999 999999 999999 999999 999999 999999 999999 999999 999999 999999 0 999999 999999 999999 999999 999999 999999 999999 999999 16271 999999 999999 999999 999999 16942 999999 999999 999999 999999 17822 999999 999999 999999 13188 999999 999999 999999 17661 999999 999999 999999 999999 999999 999999 999999 12719 999999 999999 999999 999999
999999 999999 999999 999999 999999 999999 999999 999999 999999 999999 999999 999999 999999 999999 999999 999999 999999 999999 999999 999999 999999 999999 999999 0 999999 999999 999999 999999 999999 999999 999999 14324 999999 999999 999999 999999 18619 999999 999999 999999 999999 18798 999999 999999 999999 18680 999999 999999 999999 15851 999999 999999 999999 999999 999999 999999 999999 10764 999999 999999 999999 999999
999999 999999 999999 999999 999999 999999 999999 999999 999999 999999 999999 999999 999999 999999 999999 999999 999999 999999 999999 999999 999999 999999 999999 999999 0 999999 999999 999999 999999 999999 999999 19882 999999 999999 999999 999999 19225 999999 999999 999999 999999 12848 999999 999999 999999 19613 999999 999999 999999 15254 999999 999999 999999 999999 999999 999999 999999 11967 999999 999999 999999 999999
999999 999999 999999 999999 999999 999999 999999 999999 999999 999999 999999 999999 999999 999999 999999 999999 999999 999999 999999 999999 999999 999999 999999 999999 999999 0 999999 999999 999999 999999 999999 999999 999999 999999 999999 999999 999999 999999 17912 999999 15977 999999 999999 999999 999999 999999 999999 999999 999999 999999 999999 16783 999999 999999 999999 999999 19816 999999 13884 19402 999999 999999
999999 999999 999999 999999 999999 999999 999999 999999 999999 999999 999999 999999 999999 999999 999999 999999 999999 999999 999999 999999 999999 999999 999999 999999 999999 999999 0 999999 999999 999999 999999 999999 999999 999999 999999 999999 999999 999999 12244 999999 15891 999999 999999 999999 999999 999999 999999 999999 999999 999999 999999 19072 999999 999999 999999 999999 19048 999999 11847 17943 999999 999999
999999 999999 999999 999999 999999 999999 999999 999999 999999 999999 999999 999999 999999 999999 999999 999999 999999 999999 999999 999999 999999 999999 999999 999999 999999 999999 999999 0 999999 999999 999999 999999 999999 999999 999999 999999 999999 999999 17672 999999 17616 999999 999999 999999 999999 999999 999999 999999 999999 999999 999999 12072 999999 999999 999999 999999 15515 999999 12034 12938 999999 999999
999999 999999 999999 999999 999999 999999 999999 999999 999999 999999 999999 999999 999999 999999 999999 999999 999999 999999 999999 999999 999999 999999 999999 999999 999999 999999 999999 999999 0 999999 999999 999999 999999 999999 999999 999999 999999 999999 13855 999999 19547 999999 999999 999999 999999 999999 999999 999999 999999 999999 999999 10347 999999 999999 999999 999999 10998 999999 17087 17638 999999 999999
999999 999999 999999 999999 999999 999999 999999 999999 999999 999999 999999 999999 999999 999999 999999 999999 999999 999999 999999 999999 999999 999999 999999 999999 999999 999999 999999 999999 999999 0 999999 999999 999999 999999 999999 999999 999999 999999 10706 999999 15660 999999 999999 999999 999999 999999 999999 999999 999999 999999 999999 18884 999999 999999 999999 999999 18789 999999 18044 15085 999999 999999
999999 999999 999999 999999 999999 999999 999999 999999 999999 999999 999999 999999 999999 999999 999999 999999 999999 999999 999999 999999 999999 999999 999999 999999 999999 999999 999999 999999 999999 999999 0 999999 999999 999999 999999 999999 999999 999999 15353 999999 16257 999999 999999 999999 999999 999999 999999 999999 999999 999999 999999 18863 999999 999999 999999 999999 12066 999999 11852 17701 999999 999999
999999 19705 17249 11992 12201 15676 15308 12787 16685 14519 11300 13959 18681 18203 10892 14931 19870 10068 15651 13543 13485 18889 16271 14324 19882 16556 15990 19623 12755 10796 10480 0 999999 999999 999999 999999 999999 999999 999999 999999 999999 999999 999999 999999 999999 999999 999999 999999 999999 999999 999999 999999 999999 999999 999999 999999 999999 999999 999999 999999 999999 7028
999999 13510 15278 16637 14351 18715 19967 14811 13342 13944 11861 18691 12118 19807 15386 10886 15718 11678 17703 13747 17718 13985 18954 16651 19781 19537 13718 18652 10517 10804 10344 999999 0 999999 999999 999999 999999 999999 999999 999999 999999 999999 999999 999999 999999 999999 999999 999999 999999 999999 999999 999999 999999 999999 999999 999999 999999 999999 999999 999999 999999 9811
999999 12102 16447 13873 18280 12415 10468 19322 17641 11356 16935 19794 14337 18004 14645 18252 10247 15817 10311 13800 19153 14143 13780 13768 12682 16064 12552 11840 19666 13592 12197 999999 999999 0 999999 999999 999999 999999 999999 999999 999999 999999 999999 999999 999999 999999 999999 999999 999999 999999 999999 999999 999999 999999 999999 999999 999999 999999 999999 999999 999999 7400
999999 19370 17488 15712 18089 13978 14927 12030 11519 17426 17808 13221 16624 12427 16346 10684 19494 19393 17887 16444 17201 19144 17889 19955 12192 11258 14813 13777 17900 11184 17998 999999 999999 999999 0 999999 999999 999999 999999 999999 999999 999999 999999 999999 999999 999999 999999 999999 999999 999999 999999 999999 999999 999999 999999 999999 999999 999999 999999 999999 999999 6000
999999 13590 13617 12510 19189 12256 18020 11278 12544 16036 16090 10843 16914 13680 17137 12360 11974 17874 16976 19066 11752 13796 18762 13432 17805 10503 16535 18556 13395 18034 19696 999999 999999 999999 999999 0 999999 999999 999999 999999 999999 999999 999999 999999 999999 999999 999999 999999 999999 999999 999999 999999 999999 999999 999999 999999 999999 999999 999999 999999 999999 7517
999999 14862 12890 12797 18749 12497 12102 11189 14898 12435 18112 19630 18308 12566 13819 12720 12555 11202 10035 16475 15455 19734 16942 18619 19225 13760 10774 18296 13773 16524 16945 999999 999999 999999 999999 999999 0 999999 999999 999999 999999 999999 999999 999999 999999 999999 999999 999999 999999 999999 999999 999999 999999 999999 999999 999999 999999 999999 999999 999999 999999 10358
999999 12966 15944 10298 14049 13004 15095 15959 16225 17828 18613 13211 13085 19188 15573 16367 19554 11618 14935 16244 11892 13263 11548 19292 16442 19031 18128 19093 12592 13766 18844 999999 999999 999999 999999 999999 999999 0 999999 999999 999999 999999 999999 999999 999999 999999 999999 999999 999999 999999 999999 999999 999999 999999 999999 999999 999999 999999 999999 999999 999999 13891
999999 13165 13219 16425 12370 16101 19425 13224 11136 10246 10333 11932 11449 18121 15303 13251 16571 13337 10805 13452 12554 16045 15645 19046 12484 17912 12244 17672 13855 10706 15353 999999 999999 999999 999999 999999 999999 999999 0 999999 999999 999999 999999 999999 999999 999999 999999 999999 999999 999999 999999 999999 999999 999999 999999 999999 999999 999999 999999 999999 999999 11852
999999 10127 19122 13717 14575 16179 17832 18947 19978 16499 18109 11927 13890 15040 13174 13257 12614 10847 18355 18069 14984 18633 19609 16572 14848 17240 10236 10410 16694 15926 14357 999999 999999 999999 999999 999999 999999 999999 999999 0 999999 999999 999999 999999 999999 999999 999999 999999 999999 999999 999999 999999 999999 999999 999999 999999 999999 999999 999999 999999 999999 12659
999999 18535 13840 17199 17178 12656 13395 16497 14832 16343 16246 17784 19604 16526 12058 14222 13312 10594 12421 10467 18305 18658 17698 19520 18766 15977 15891 17616 19547 15660 16257 999999 999999 999999 999999 999999 999999 999999 999999 999999 0 999999 999999 999999 999999 999999 999999 999999 999999 999999 999999 999999 999999 999999 999999 999999 999999 999999 999999 999999 999999 9559
999999 12004 15167 17364 15076 13939 15316 19632 13450 11942 14904 10717 11372 11967 17284 11023 16629 12093 16823 15556 11510 15104 17822 18798 12848 15213 10688 13753 17577 19919 15043 999999 999999 999999 999999 999999 999999 999999 999999 999999 999999 0 999999 999999 999999 999999 999999 999999 999999 999999 999999 999999 999999 999999 999999 999999 999999 999999 999999 999999 999999 6327
999999 10572 11600 14804 19672 13477 18798 15074 19997 12435 18789 14968 14288 13072 17835 11713 13461 13656 18104 12897 14523 18370 19037 15684 18869 17141 10078 16673 18102 12425 17736 999999 999999 999999 999999 999999 999999 999999 999999 999999 999999 999999 0 999999 999999 999999 999999 999999 999999 999999 999999 999999 999999 999999 999999 999999 999999 999999 999999 999999 999999 13875
999999 12777 11290 12574 19987 13643 13389 14732 19321 10512 17639 10954 12322 16535 12195 13208 16200 11089 19012 15157 17240 14566 18012 12151 19180 10787 18882 19697 12397 16410 13654 999999 999999 999999 999999 999999 999999 999999 999999 999999 999999 999999 999999 0 999999 999999 999999 999999 999999 999999 999999 999999 999999 999999 999999 999999 999999 999999 999999 999999 999999 12485
999999 18496 10588 19082 19290 11661 17909 10992 10743 19321 15372 14305 14889 10342 14869 18711 14122 14488 17713 14590 15065 11013 13859 12282 15574 12367 12351 18884 16935 10033 17366 999999 999999 999999 999999 999999 999999 999999 999999 999999 999999 999999 999999 999999 0 999999 999999 999999 999999 999999 999999 999999 999999 999999 999999 999999 999999 999999 999999 999999 999999 11678
999999 11280 14071 13545 13884 16978 15952 17228 16487 17954 15567 14999 12025 10929 10263 19674 10428 12770 15194 17733 13695 18410 13188 18680 19613 11521 19330 15817 12888 18593 18934 999999 999999 999999 999999 999999 999999 999999 999999 999999 999999 999999 999999 999999 999999 0 999999 999999 999999 999999 999999 999999 999999 999999 999999 999999 999999 999999 999999 999999 999999 9700
999999 12992 15423 13977 10400 16526 15107 12020 13281 13222 15002 18219 14107 13009 10262 17664 18081 11612 18235 14469 18352 12140 15024 17383 11506 18635 19542 13546 14553 13728 14284 999999 999999 999999 999999 999999 999999 999999 999999 999999 999999 999999 999999 999999 999999 999999 0 999999 999999 999999 999999 999999 999999 999999 999999 999999 999999 999999 999999 999999 999999 14261
999999 14841 17801 10359 14633 17688 19522 13782 11643 19539 12145 12351 13017 15214 10924 10581 16011 18650 14883 17252 10706 11379 14930 14041 13956 13173 13540 11193 16534 10392 16804 999999 999999 999999 999999 999999 999999 999999 999999 999999 999999 999999 999999 999999 999999 999999 999999 0 999999 999999 999999 999999 999999 999999 999999 999999 999999 999999 999999 999999 999999 8046
999999 19935 11504 14215 15875 14349 10375 15410 12397 10424 12662 19278 16376 12842 12144 14949 14738 11027 17412 19267 18074 12031 13010 19963 19205 18368 11972 10881 13480 14763 19092 999999 999999 999999 999999 999999 999999 999999 999999 999999 999999 999999 999999 999999 999999 999999 999999 999999 0 999999 999999 999999 999999 999999 999999 999999 999999 999999 999999 999999 999999 13258
999999 16357 19697 16332 15299 10192 10780 10621 18939 10612 18273 19974 10767 13418 19215 12537 16375 18548 19721 18200 17963 16448 17661 15851 15254 10055 15357 16231 13196 15383 13876 999999 999999 999999 999999 999999 999999 999999 999999 999999 999999 999999 999999 999999 999999 999999 999999 999999 999999 0 999999 999999 999999 999999 999999 999999 999999 999999 999999 999999 999999 14137
999999 19212 10210 19515 17645 16501 15053 15789 19640 14982 15559 11391 13100 13644 14339 14705 16235 17719 19722 17919 11559 14523 16612 16520 11634 16462 11249 16354 13082 10173 17472 999999 999999 999999 999999 999999 999999 999999 999999 999999 999999 999999 999999 999999 999999 999999 999999 999999 999999 999999 0 999999 999999 999999 999999 999999 999999 999999 999999 999999 999999 6091
999999 19659 12704 17510 19985 10569 16274 14552 17980 19611 12661 16719 18470 18705 17174 15174 18385 10744 15835 16250 17414 10018 11306 19779 11361 16783 19072 12072 10347 18884 18863 999999 999999 999999 999999 999999 999999 999999 999999 999999 999999 999999 999999 999999 999999 999999 999999 999999 999999 999999 999999 0 999999 999999 999999 999999 999999 999999 999999 999999 999999 13823
999999 10999 10110 16750 12459 14367 14194 18640 15937 12952 17555 17748 12699 18694 11572 18169 19382 16593 11099 10798 16141 18555 10509 19925 16863 13036 17462 13778 14958 18913 19717 999999 999999 999999 999999 999999 999999 999999 999999 999999 999999 999999 999999 999999 999999 999999 999999 999999 999999 999999 999999 999999 0 999999 999999 999999 999999 999999 999999 999999 999999 10287
999999 15495 19064 14861 17590 16103 16826 15562 15683 12256 19524 10598 12641 12621 10088 18278 10441 15169 18501 11950 15994 19036 14824 13003 17356 15512 18735 17631 19473 16607 10091 999999 999999 999999 999999 999999 999999 999999 999999 999999 999999 999999 999999 999999 999999 999999 999999 999999 999999 999999 999999 999999 999999 0 999999 999999 999999 999999 999999 999999 999999 5841
999999 17661 12326 11511 15163 11719 11225 12848 11682 17782 17080 15987 12992 19116 16992 10187 14990 12934 10013 14101 18227 13710 15151 19664 12138 13031 18408 14099 13938 13067 10259 999999 999999 999999 999999 999999 999999 999999 999999 999999 999999 999999 999999 999999 999999 999999 999999 999999 999999 999999 999999 999999 999999 999999 0 999999 999999 999999 999999 999999 999999 5906
999999 13407 18480 13227 17537 10576 10148 10452 10780 10962 11977 13409 11094 15517 16872 12829 15400 16528 17062 19178 11877 14636 11581 11441 12553 16499 18744 16630 16653 12959 15822 999999 999999 999999 999999 999999 999999 999999 999999 999999 999999 999999 999999 999999 999999 999999 999999 999999 999999 999999 999999 999999 999999 999999 999999 0 999999 999999 999999 999999 999999 10045
999999 12916 18998 13989 18887 17688 17410 15725 15728 17739 19089 10056 10062 12556 10143 11409 14802 19136 10309 19033 12280 10394 10666 15712 14490 19816 19048 15515 10998 18789 12066 999999 999999 999999 999999 999999 999999 999999 999999 999999 999999 999999 999999 999999 999999 999999 999999 999999 999999 999999 999999 999999 999999 999999 999999 999999 0 999999 999999 999999 999999 7030
999999 16456 16528 16594 13757 14959 13198 17893 19100 16405 17435 15333 17550 12949 17934 19141 14005 10724 17513 15375 19460 11064 12719 10764 11967 19141 17744 16352 13688 14684 15920 999999 999999 999999 999999 999999 999999 999999 999999 999999 999999 999999 999999 999999 999999 999999 999999 999999 999999 999999 999999 999999 999999 999999 999999 999999 999999 0 999999 999999 999999 5937
999999 15471 18017 13694 11365 19881 12348 18372 17780 19147 10247 12464 19019 18436 19670 16041 16636 16669 16027 13608 10171 11228 13776 11167 16186 13884 11847 12034 17087 18044 11852 999999 999999 999999 999999 999999 999999 999999 999999 999999 999999 999999 999999 999999 999999 999999 999999 999999 999999 999999 999999 999999 999999 999999 999999 999999 999999 999999 0 999999 999999 8699
999999 10690 11489 10445 15392 10635 15608 15037 10128 10765 13701 17376 12221 17704 19737 11897 15758 10595 11890 12795 18114 16842 12009 19698 16166 19402 17943 12938 17638 15085 17701 999999 999999 999999 999999 999999 999999 999999 999999 999999 999999 999999 999999 999999 999999 999999 999999 999999 999999 999999 999999 999999 999999 999999 999999 999999 999999 999999 999999 0 999999 10983
999999 14267 18455 11095 11727 13071 10498 15269 10224 19486 15964 11947 12654 15343 13885 17423 11410 18472 16615 16625 14544 11276 15070 13882 14775 11022 16000 18457 18176 10272 17590 999999 999999 999999 999999 999999 999999 999999 999999 999999 999999 999999 999999 999999 999999 999999 999999 999999 999999 999999 999999 999999 999999 999999 999999 999999 999999 999999 999999 999999 0 12958
1 999999 999999 999999 999999 999999 999999 999999 999999 999999 999999 999999 999999 999999 999999 999999 999999 999999 999999 999999 999999 999999 999999 999999 999999 999999 999999 999999 999999 999999 999999 999999 999999 999999 999999 999999 999999 999999 999999 999999 999999 999999 999999 999999 999999 999999 999999 999999 999999 999999 999999 999999 999999 999999 999999 999999 999999 999999 999999 999999 999999 0
EOF