NAME: GR_1x2x10_KH_2x10_Run_8
TYPE: TSP
COMMENT: BTSP instance |A|=20 GR nodes |B|=20 KH nodes depot=0.0 end=0.0.0
DIMENSION: 42
EDGE_WEIGHT_TYPE: EXPLICIT
EDGE_WEIGHT_FORMAT: FULL_MATRIX
NODE_COORD_TYPE: NO_COORDS
EDGE_WEIGHT_SECTION
0 10483 11046 11682 13215 13002 11500 7459 6105 13667 8131 14069 14600 14418 13174 5076 6312 13601 9266 14991 13639 999999 999999 999999 999999 999999 999999 999999 999999 999999 999999 999999 999999 999999 999999 999999 999999 999999 999999 999999 999999 999999
999999 0 999999 999999 999999 999999 999999 999999 999999 999999 999999 999999 999999 999999 999999 999999 999999 999999 999999 999999 999999 999999 10923 15418 999999 999999 18978 999999 999999 14722 999999 17533 999999 11473 999999 999999 16900 11135 14175 999999 17592 999999
999999 999999 0 999999 999999 999999 999999 999999 999999 999999 999999 999999 999999 999999 999999 999999 999999 999999 999999 999999 999999 999999 15911 10905 999999 999999 15664 999999 999999 18433 999999 12537 999999 19630 999999 999999 13313 15425 14568 999999 19570 999999
999999 999999 999999 0 999999 999999 999999 999999 999999 999999 999999 999999 999999 999999 999999 999999 999999 999999 999999 999999 999999 999999 10868 15608 999999 999999 14596 999999 999999 15397 999999 12095 999999 19871 999999 999999 14083 12389 14581 999999 19382 999999
999999 999999 999999 999999 0 999999 999999 999999 999999 999999 999999 999999 999999 999999 999999 999999 999999 999999 999999 999999 999999 999999 17185 10757 999999 999999 14009 999999 999999 18998 999999 17637 999999 10126 999999 999999 18442 11746 18735 999999 17234 999999
999999 999999 999999 999999 999999 0 999999 999999 999999 999999 999999 999999 999999 999999 999999 999999 999999 999999 999999 999999 999999 999999 13033 11383 999999 999999 16757 999999 999999 13889 999999 17401 999999 13264 999999 999999 10834 11121 13401 999999 15772 999999
999999 999999 999999 999999 999999 999999 0 999999 999999 999999 999999 999999 999999 999999 999999 999999 999999 999999 999999 999999 999999 999999 13800 12290 999999 999999 13450 999999 999999 13729 999999 11126 999999 17859 999999 999999 18327 16061 13477 999999 18561 999999
999999 999999 999999 999999 999999 999999 999999 0 999999 999999 999999 999999 999999 999999 999999 999999 999999 999999 999999 999999 999999 999999 15671 12084 999999 999999 15395 999999 999999 10193 999999 10749 999999 16609 999999 999999 18123 10288 18870 999999 13865 999999
999999 999999 999999 999999 999999 999999 999999 999999 0 999999 999999 999999 999999 999999 999999 999999 999999 999999 999999 999999 999999 999999 18438 15037 999999 999999 10453 999999 999999 18681 999999 13547 999999 14145 999999 999999 14529 15761 13504 999999 19410 999999
999999 999999 999999 999999 999999 999999 999999 999999 999999 0 999999 999999 999999 999999 999999 999999 999999 999999 999999 999999 999999 999999 14918 12132 999999 999999 15596 999999 999999 17608 999999 14967 999999 13279 999999 999999 17209 13585 11044 999999 19781 999999
999999 999999 999999 999999 999999 999999 999999 999999 999999 999999 0 999999 999999 999999 999999 999999 999999 999999 999999 999999 999999 999999 18612 14705 999999 999999 18004 999999 999999 12017 999999 14595 999999 19578 999999 999999 18532 15352 13693 999999 16365 999999
999999 999999 999999 999999 999999 999999 999999 999999 999999 999999 999999 0 999999 999999 999999 999999 999999 999999 999999 999999 999999 13653 999999 999999 11385 18251 999999 11636 13278 999999 18642 999999 12706 999999 19026 10123 999999 999999 999999 18299 999999 999999
999999 999999 999999 999999 999999 999999 999999 999999 999999 999999 999999 999999 0 999999 999999 999999 999999 999999 999999 999999 999999 10420 999999 999999 15621 18066 999999 17594 15695 999999 11733 999999 13538 999999 13140 14177 999999 999999 999999 10636 999999 999999
999999 999999 999999 999999 999999 999999 999999 999999 999999 999999 999999 999999 999999 0 999999 999999 999999 999999 999999 999999 999999 11639 999999 999999 16731 12937 999999 13803 11295 999999 12332 999999 12157 999999 10446 16246 999999 999999 999999 13017 999999 999999
999999 999999 999999 999999 999999 999999 999999 999999 999999 999999 999999 999999 999999 999999 0 999999 999999 999999 999999 999999 999999 10928 999999 999999 19470 12048 999999 10369 19911 999999 14258 999999 16344 999999 10288 15839 999999 999999 999999 16489 999999 999999
999999 999999 999999 999999 999999 999999 999999 999999 999999 999999 999999 999999 999999 999999 999999 0 999999 999999 999999 999999 999999 16590 999999 999999 14329 13734 999999 17338 16356 999999 15523 999999 19862 999999 16167 19528 999999 999999 999999 15908 999999 999999
999999 999999 999999 999999 999999 999999 999999 999999 999999 999999 999999 999999 999999 999999 999999 999999 0 999999 999999 999999 999999 14324 999999 999999 11078 12469 999999 19164 17649 999999 18559 999999 13896 999999 15964 11330 999999 999999 999999 17130 999999 999999
999999 999999 999999 999999 999999 999999 999999 999999 999999 999999 999999 999999 999999 999999 999999 999999 999999 0 999999 999999 999999 16907 999999 999999 18079 16929 999999 10751 12339 999999 19992 999999 11143 999999 11898 10990 999999 999999 999999 12282 999999 999999
999999 999999 999999 999999 999999 999999 999999 999999 999999 999999 999999 999999 999999 999999 999999 999999 999999 999999 0 999999 999999 14847 999999 999999 11051 13353 999999 14226 13335 999999 18132 999999 18059 999999 10196 16204 999999 999999 999999 17786 999999 999999
999999 999999 999999 999999 999999 999999 999999 999999 999999 999999 999999 999999 999999 999999 999999 999999 999999 999999 999999 0 999999 11429 999999 999999 12944 11723 999999 13880 13539 999999 18948 999999 11322 999999 19902 14342 999999 999999 999999 14959 999999 999999
999999 999999 999999 999999 999999 999999 999999 999999 999999 999999 999999 999999 999999 999999 999999 999999 999999 999999 999999 999999 0 13293 999999 999999 14577 10672 999999 14388 18687 999999 11318 999999 13745 999999 12369 17134 999999 999999 999999 11299 999999 999999
999999 17981 19836 15602 18360 13131 17638 13310 11876 19187 10749 13653 10420 11639 10928 16590 14324 16907 14847 11429 13293 0 999999 999999 999999 999999 999999 999999 999999 999999 999999 999999 999999 999999 999999 999999 999999 999999 999999 999999 999999 10061
999999 10923 15911 10868 17185 13033 13800 15671 18438 14918 18612 15438 12159 11172 13065 11440 10122 16630 19911 17875 16524 999999 0 999999 999999 999999 999999 999999 999999 999999 999999 999999 999999 999999 999999 999999 999999 999999 999999 999999 999999 5371
999999 15418 10905 15608 10757 11383 12290 12084 15037 12132 14705 19214 19357 13166 12061 18867 12244 17510 13852 17219 15037 999999 999999 0 999999 999999 999999 999999 999999 999999 999999 999999 999999 999999 999999 999999 999999 999999 999999 999999 999999 9370
999999 16470 16543 18238 18987 16654 13240 18968 15582 12799 14475 11385 15621 16731 19470 14329 11078 18079 11051 12944 14577 999999 999999 999999 0 999999 999999 999999 999999 999999 999999 999999 999999 999999 999999 999999 999999 999999 999999 999999 999999 6096
999999 13926 14992 16366 18774 10524 10760 10759 13271 13940 13633 18251 18066 12937 12048 13734 12469 16929 13353 11723 10672 999999 999999 999999 999999 0 999999 999999 999999 999999 999999 999999 999999 999999 999999 999999 999999 999999 999999 999999 999999 9748
999999 18978 15664 14596 14009 16757 13450 15395 10453 15596 18004 13768 17782 11740 15254 12417 13529 19799 19100 12288 19125 999999 999999 999999 999999 999999 0 999999 999999 999999 999999 999999 999999 999999 999999 999999 999999 999999 999999 999999 999999 10931
999999 18053 18493 19301 18229 19032 16899 18422 10138 19371 10685 11636 17594 13803 10369 17338 19164 10751 14226 13880 14388 999999 999999 999999 999999 999999 999999 0 999999 999999 999999 999999 999999 999999 999999 999999 999999 999999 999999 999999 999999 14298
999999 11296 18096 13279 13405 15597 19475 17026 19318 15794 18204 13278 15695 11295 19911 16356 17649 12339 13335 13539 18687 999999 999999 999999 999999 999999 999999 999999 0 999999 999999 999999 999999 999999 999999 999999 999999 999999 999999 999999 999999 14280
999999 14722 18433 15397 18998 13889 13729 10193 18681 17608 12017 17112 16755 16314 15890 12847 18167 12720 13825 14821 12102 999999 999999 999999 999999 999999 999999 999999 999999 0 999999 999999 999999 999999 999999 999999 999999 999999 999999 999999 999999 5369
999999 14394 11450 13663 19520 13398 12362 16750 11510 18122 11861 18642 11733 12332 14258 15523 18559 19992 18132 18948 11318 999999 999999 999999 999999 999999 999999 999999 999999 999999 0 999999 999999 999999 999999 999999 999999 999999 999999 999999 999999 11785
999999 17533 12537 12095 17637 17401 11126 10749 13547 14967 14595 14387 13741 17521 12015 12805 13310 15095 16226 18059 11754 999999 999999 999999 999999 999999 999999 999999 999999 999999 999999 0 999999 999999 999999 999999 999999 999999 999999 999999 999999 6486
999999 14201 16697 14358 15046 19630 10930 15156 10379 13791 12726 12706 13538 12157 16344 19862 13896 11143 18059 11322 13745 999999 999999 999999 999999 999999 999999 999999 999999 999999 999999 999999 0 999999 999999 999999 999999 999999 999999 999999 999999 11537
999999 11473 19630 19871 10126 13264 17859 16609 14145 13279 19578 14519 19527 17140 16264 15882 18947 18480 17075 11806 10615 999999 999999 999999 999999 999999 999999 999999 999999 999999 999999 999999 999999 0 999999 999999 999999 999999 999999 999999 999999 13758
999999 14098 14429 14364 12760 19411 12127 14917 19308 15276 13404 19026 13140 10446 10288 16167 15964 11898 10196 19902 12369 999999 999999 999999 999999 999999 999999 999999 999999 999999 999999 999999 999999 999999 0 999999 999999 999999 999999 999999 999999 6405
999999 16639 14876 11371 17739 11736 11806 14627 11423 19845 18202 10123 14177 16246 15839 19528 11330 10990 16204 14342 17134 999999 999999 999999 999999 999999 999999 999999 999999 999999 999999 999999 999999 999999 999999 0 999999 999999 999999 999999 999999 6548
999999 16900 13313 14083 18442 10834 18327 18123 14529 17209 18532 10775 18673 10338 14167 13618 16054 11275 14257 18982 17500 999999 999999 999999 999999 999999 999999 999999 999999 999999 999999 999999 999999 999999 999999 999999 0 999999 999999 999999 999999 5802
999999 11135 15425 12389 11746 11121 16061 10288 15761 13585 15352 14745 19574 12299 17483 18823 13828 16264 19418 17619 10778 999999 999999 999999 999999 999999 999999 999999 999999 999999 999999 999999 999999 999999 999999 999999 999999 0 999999 999999 999999 13427
999999 14175 14568 14581 18735 13401 13477 18870 13504 11044 13693 17418 11668 16610 15674 14195 19735 13512 17542 16554 15620 999999 999999 999999 999999 999999 999999 999999 999999 999999 999999 999999 999999 999999 999999 999999 999999 999999 0 999999 999999 11396
999999 17063 16775 17146 15268 10471 18865 17208 13532 10327 16399 18299 10636 13017 16489 15908 17130 12282 17786 14959 11299 999999 999999 999999 999999 999999 999999 999999 999999 999999 999999 999999 999999 999999 999999 999999 999999 999999 999999 0 999999 11858
999999 17592 19570 19382 17234 15772 18561 13865 19410 19781 16365 16626 14658 11014 13410 14427 16257 10152 19385 17614 15637 999999 999999 999999 999999 999999 999999 999999 999999 999999 999999 999999 999999 999999 999999 999999 999999 999999 999999 999999 0 12678
1 999999 999999 999999 999999 999999 999999 999999 999999 999999 999999 999999 999999 999999 999999 999999 999999 999999 999999 999999 999999 999999 999999 999999 999999 999999 999999 999999 999999 999999 999999 999999 999999 999999 999999 999999 999999 999999 999999 999999 999999 0
EOF