NAME: GR_1x5x8_KH_5x8_Run_7
TYPE: TSP
COMMENT: BTSP instance |A|=40 GR nodes |B|=40 KH nodes depot=0.0 end=0.0.0
DIMENSION: 82
EDGE_WEIGHT_TYPE: EXPLICIT
EDGE_WEIGHT_FORMAT: FULL_MATRIX
NODE_COORD_TYPE: NO_COORDS
EDGE_WEIGHT_SECTION
0 14121 9981 14814 13838 14099 6026 5447 5855 5699 5568 7856 11937 7355 10242 13003 5891 13020 6874 6486 6482 6664 9864 11499 7268 14631 14480 9440 8021 7430 5646 11337 9791 13690 7434 14334 8057 11981 7504 11155 13600 999999 999999 999999 999999 999999 999999 999999 999999 999999 999999 999999 999999 999999 999999 999999 999999 999999 999999 999999 999999 999999 999999 999999 999999 999999 999999 999999 999999 999999 999999 999999 999999 999999 999999 999999 999999 999999 999999 999999 999999 999999
999999 0 999999 999999 999999 999999 999999 999999 999999 999999 999999 999999 999999 999999 999999 999999 999999 999999 999999 999999 999999 999999 999999 999999 999999 999999 999999 999999 999999 999999 999999 999999 999999 999999 999999 999999 999999 999999 999999 999999 999999 15514 10863 16652 19666 11973 18078 11965 11559 17615 15102 14697 15524 11743 18879 13063 18072 19104 17422 10860 13101 18916 19850 16218 18942 16376 11437 16189 18372 12034 11224 10814 15074 13129 12249 17370 13202 12034 18872 17098 19575 999999
999999 999999 0 999999 999999 999999 999999 999999 999999 999999 999999 999999 999999 999999 999999 999999 999999 999999 999999 999999 999999 999999 999999 999999 999999 999999 999999 999999 999999 999999 999999 999999 999999 999999 999999 999999 999999 999999 999999 999999 999999 16307 16319 19158 10997 12023 19268 13433 14951 17149 15617 14986 11021 17422 11248 14672 14611 17005 11861 15663 17534 15827 16346 12164 15013 10676 12460 12818 10351 11080 13001 12966 14478 14704 15715 19160 15785 10949 12507 13930 18418 999999
999999 999999 999999 0 999999 999999 999999 999999 999999 999999 999999 999999 999999 999999 999999 999999 999999 999999 999999 999999 999999 999999 999999 999999 999999 999999 999999 999999 999999 999999 999999 999999 999999 999999 999999 999999 999999 999999 999999 999999 999999 15297 17537 11299 17129 19813 15767 16386 11171 12583 13236 17371 17337 16041 11026 18821 14455 16433 18245 16457 12441 14800 15199 17388 15057 13924 14763 10937 12675 18635 15114 19283 19621 15726 17123 15329 16175 13346 17903 16282 16839 999999
999999 999999 999999 999999 0 999999 999999 999999 999999 999999 999999 999999 999999 999999 999999 999999 999999 999999 999999 999999 999999 999999 999999 999999 999999 999999 999999 999999 999999 999999 999999 999999 999999 999999 999999 999999 999999 999999 999999 999999 999999 13688 12395 16305 15762 10101 18704 13912 13455 14523 11619 18107 14365 16529 12780 14258 14116 15304 13841 19061 11870 19773 11658 10166 12147 19578 14213 18430 12052 15435 15825 10541 14020 10834 11110 12684 17624 13422 17789 10927 10332 999999
999999 999999 999999 999999 999999 0 999999 999999 999999 999999 999999 999999 999999 999999 999999 999999 999999 999999 999999 999999 999999 999999 999999 999999 999999 999999 999999 999999 999999 999999 999999 999999 999999 999999 999999 999999 999999 999999 999999 999999 999999 17345 12520 14548 10956 19971 19238 14563 13696 16647 10680 17812 10069 16136 14818 13292 15560 18719 19371 16963 15288 16450 14265 15586 16171 14605 13080 14726 14208 12651 15077 13269 12469 12851 18850 16112 12841 15830 15955 16100 16076 999999
999999 999999 999999 999999 999999 999999 0 999999 999999 999999 999999 999999 999999 999999 999999 999999 999999 999999 999999 999999 999999 999999 999999 999999 999999 999999 999999 999999 999999 999999 999999 999999 999999 999999 999999 999999 999999 999999 999999 999999 999999 18517 13182 19084 16131 13648 16441 15105 19256 14051 17676 14819 12533 19827 12749 17069 17543 17208 18775 14411 16242 14581 14525 11064 12600 18996 13780 18449 10504 16978 12905 10975 14492 10759 14781 14206 19428 13263 17556 11149 13583 999999
999999 999999 999999 999999 999999 999999 999999 0 999999 999999 999999 999999 999999 999999 999999 999999 999999 999999 999999 999999 999999 999999 999999 999999 999999 999999 999999 999999 999999 999999 999999 999999 999999 999999 999999 999999 999999 999999 999999 999999 999999 18123 11057 18875 13018 10093 10716 13250 19825 17461 10775 12558 19527 12913 16379 13201 17433 19439 16036 11967 15858 11618 18564 15089 14691 16697 19356 19288 16913 10256 11977 19857 10928 18667 16278 18873 10520 15958 14493 14176 17666 999999
999999 999999 999999 999999 999999 999999 999999 999999 0 999999 999999 999999 999999 999999 999999 999999 999999 999999 999999 999999 999999 999999 999999 999999 999999 999999 999999 999999 999999 999999 999999 999999 999999 999999 999999 999999 999999 999999 999999 999999 999999 14322 15936 10582 14426 13145 12302 19131 13644 13925 14253 10060 18268 11827 12533 12216 17519 10484 11415 17650 10565 12449 15490 19326 15633 16163 19096 11304 12808 16631 19484 12959 16186 16228 18879 18573 12418 16495 17967 19207 11915 999999
999999 999999 999999 999999 999999 999999 999999 999999 999999 0 999999 999999 999999 999999 999999 999999 999999 999999 999999 999999 999999 999999 999999 999999 999999 999999 999999 999999 999999 999999 999999 999999 999999 999999 999999 999999 999999 999999 999999 999999 999999 16657 15984 16373 13783 12634 14434 10726 17902 19183 15199 15119 18163 16222 10408 13863 16298 10769 18006 11090 12161 16150 16653 17164 12980 16893 10344 10876 12113 17496 18088 15487 12865 14889 12175 17769 19361 17636 10276 17771 13407 999999
999999 999999 999999 999999 999999 999999 999999 999999 999999 999999 0 999999 999999 999999 999999 999999 999999 999999 999999 999999 999999 999999 999999 999999 999999 999999 999999 999999 999999 999999 999999 999999 999999 999999 999999 999999 999999 999999 999999 999999 999999 11974 11594 13968 15998 16939 19557 18456 12631 11342 15401 19279 11642 11196 18097 15079 18496 14842 12985 10075 12577 10377 15020 18954 10038 11921 11723 10369 16943 14006 12611 17724 11482 17903 15699 12380 12617 12426 15798 10702 14526 999999
999999 999999 999999 999999 999999 999999 999999 999999 999999 999999 999999 0 999999 999999 999999 999999 999999 999999 999999 999999 999999 999999 999999 999999 999999 999999 999999 999999 999999 999999 999999 999999 999999 999999 999999 999999 999999 999999 999999 999999 999999 19314 15432 17129 13682 12784 13399 18904 16914 17460 19281 16830 16655 13549 15337 16773 13170 18455 17509 19783 15159 11879 12741 14403 14369 19480 18231 18600 16869 10228 14521 15914 17817 12413 15284 13682 11006 14687 16967 19693 17649 999999
999999 999999 999999 999999 999999 999999 999999 999999 999999 999999 999999 999999 0 999999 999999 999999 999999 999999 999999 999999 999999 999999 999999 999999 999999 999999 999999 999999 999999 999999 999999 999999 999999 999999 999999 999999 999999 999999 999999 999999 999999 17265 18154 18760 10628 14494 15633 10329 12817 14953 12629 12274 14871 10101 10294 18755 18736 17138 17365 11466 15963 18137 17711 17483 13906 11518 13155 18860 10622 10335 18240 14410 11697 12365 18356 10979 15733 12804 13993 11956 19179 999999
999999 999999 999999 999999 999999 999999 999999 999999 999999 999999 999999 999999 999999 0 999999 999999 999999 999999 999999 999999 999999 999999 999999 999999 999999 999999 999999 999999 999999 999999 999999 999999 999999 999999 999999 999999 999999 999999 999999 999999 999999 11620 14878 19526 18566 10789 12344 16539 14769 15884 13332 10869 15913 17776 15279 16777 17934 19367 14853 13983 13646 18440 17783 13555 10843 17558 17104 14922 13961 16962 14608 19156 17401 14322 11686 18298 17735 17604 17195 13215 15619 999999
999999 999999 999999 999999 999999 999999 999999 999999 999999 999999 999999 999999 999999 999999 0 999999 999999 999999 999999 999999 999999 999999 999999 999999 999999 999999 999999 999999 999999 999999 999999 999999 999999 999999 999999 999999 999999 999999 999999 999999 999999 12460 16277 13746 13415 17388 17096 15990 14791 17224 18960 17621 19150 18333 15815 19595 14143 13731 10805 12821 15264 17139 17012 14194 10280 12860 19992 10547 16447 16060 14288 14135 13665 10197 12500 10107 14002 18915 16527 19897 17313 999999
999999 999999 999999 999999 999999 999999 999999 999999 999999 999999 999999 999999 999999 999999 999999 0 999999 999999 999999 999999 999999 999999 999999 999999 999999 999999 999999 999999 999999 999999 999999 999999 999999 999999 999999 999999 999999 999999 999999 999999 999999 11616 14204 13865 16266 12382 14944 16167 16062 19363 11839 16958 11710 10129 13163 10014 19181 16561 10222 17699 12106 11731 13707 15176 19196 11398 16365 17415 13717 14446 16010 16503 18852 17210 10411 18087 14147 15953 19533 14181 14757 999999
999999 999999 999999 999999 999999 999999 999999 999999 999999 999999 999999 999999 999999 999999 999999 999999 0 999999 999999 999999 999999 999999 999999 999999 999999 999999 999999 999999 999999 999999 999999 999999 999999 999999 999999 999999 999999 999999 999999 999999 999999 12060 16767 16769 16420 18724 17126 13986 19946 16759 10046 16303 16412 11108 12825 15526 18651 15736 18403 13088 18374 14281 12083 18007 19893 10507 19616 10345 14123 12150 17872 14848 10037 14451 18050 10734 13900 16134 19567 17384 17677 999999
999999 999999 999999 999999 999999 999999 999999 999999 999999 999999 999999 999999 999999 999999 999999 999999 999999 0 999999 999999 999999 999999 999999 999999 999999 999999 999999 999999 999999 999999 999999 999999 999999 999999 999999 999999 999999 999999 999999 999999 999999 14418 11743 17731 12433 14462 12538 14249 19656 15091 13422 18618 16445 19882 10788 13200 15185 16578 19662 16042 15049 19062 10951 10797 17898 13862 17869 13897 14345 19244 16857 10344 17013 14702 11371 19418 19140 16001 11045 12620 13560 999999
999999 999999 999999 999999 999999 999999 999999 999999 999999 999999 999999 999999 999999 999999 999999 999999 999999 999999 0 999999 999999 999999 999999 999999 999999 999999 999999 999999 999999 999999 999999 999999 999999 999999 999999 999999 999999 999999 999999 999999 999999 13581 11836 10577 10862 18740 14008 13476 16316 18108 13662 15902 19087 19291 19928 12741 19435 10218 17101 16588 17874 15765 11961 18880 19541 10620 10923 14511 12039 18851 15923 18638 16796 15032 18124 13040 15554 13442 19987 19462 15719 999999
999999 999999 999999 999999 999999 999999 999999 999999 999999 999999 999999 999999 999999 999999 999999 999999 999999 999999 999999 0 999999 999999 999999 999999 999999 999999 999999 999999 999999 999999 999999 999999 999999 999999 999999 999999 999999 999999 999999 999999 999999 16961 12393 14921 12542 19217 13999 10923 12472 13347 15938 17999 18577 19036 11192 14257 14326 10285 18809 16465 15310 15637 15128 19522 19761 19186 15085 18406 19245 18980 14984 11926 16894 11721 15971 11681 19197 13780 18567 12702 17557 999999
999999 999999 999999 999999 999999 999999 999999 999999 999999 999999 999999 999999 999999 999999 999999 999999 999999 999999 999999 999999 0 999999 999999 999999 999999 999999 999999 999999 999999 999999 999999 999999 999999 999999 999999 999999 999999 999999 999999 999999 999999 12152 17236 11992 11531 10473 12643 11144 13098 12352 11560 18614 13992 16615 11678 19030 12151 11094 10135 11555 19495 11641 18685 17665 13852 10597 19268 11587 14580 10617 15620 11937 10159 16060 11505 16672 13425 13629 10474 12346 12659 999999
999999 999999 999999 999999 999999 999999 999999 999999 999999 999999 999999 999999 999999 999999 999999 999999 999999 999999 999999 999999 999999 0 999999 999999 999999 999999 999999 999999 999999 999999 999999 999999 999999 999999 999999 999999 999999 999999 999999 999999 999999 11981 15228 18150 19789 15269 13951 13726 15289 10619 15804 14065 14831 10713 12436 10831 10392 16483 12673 11178 14345 19671 18862 14598 10105 11193 15727 11126 10437 11786 13085 12167 12431 16849 14262 19552 19955 10753 16843 19456 12984 999999
999999 999999 999999 999999 999999 999999 999999 999999 999999 999999 999999 999999 999999 999999 999999 999999 999999 999999 999999 999999 999999 999999 0 999999 999999 999999 999999 999999 999999 999999 999999 999999 999999 999999 999999 999999 999999 999999 999999 999999 999999 10434 18827 15093 10329 18790 18178 16169 16840 16563 15223 10298 10449 18212 17591 19687 10367 11222 17640 18408 16580 15290 15868 12497 16292 18340 17623 13460 13776 16437 19606 16933 12210 14376 16465 18473 11128 16863 13975 18132 15928 999999
999999 999999 999999 999999 999999 999999 999999 999999 999999 999999 999999 999999 999999 999999 999999 999999 999999 999999 999999 999999 999999 999999 999999 0 999999 999999 999999 999999 999999 999999 999999 999999 999999 999999 999999 999999 999999 999999 999999 999999 999999 17734 14917 19202 17316 19656 19284 10469 10225 11343 13952 16475 19472 14337 11751 17439 18899 10960 14409 18057 11970 12127 14964 10754 17550 17478 16214 17235 13570 11805 10928 16865 19071 15745 19397 11757 16122 10534 17460 16732 12083 999999
999999 999999 999999 999999 999999 999999 999999 999999 999999 999999 999999 999999 999999 999999 999999 999999 999999 999999 999999 999999 999999 999999 999999 999999 0 999999 999999 999999 999999 999999 999999 999999 999999 999999 999999 999999 999999 999999 999999 999999 999999 18511 11022 14046 18218 14831 15335 11910 11163 18833 15821 17348 16035 19204 16996 19410 17244 14103 14480 11087 16608 17446 14089 14638 15891 13019 11657 19300 12461 19397 12231 10691 13176 10241 10119 13362 18491 18852 12524 14776 10841 999999
999999 999999 999999 999999 999999 999999 999999 999999 999999 999999 999999 999999 999999 999999 999999 999999 999999 999999 999999 999999 999999 999999 999999 999999 999999 0 999999 999999 999999 999999 999999 999999 999999 999999 999999 999999 999999 999999 999999 999999 999999 13005 14642 15716 16545 12506 10054 17511 11148 13625 15569 12622 14500 16876 15184 11482 15489 15988 10534 13011 19311 12219 11938 10374 11202 11004 16989 12950 15458 18013 14608 17141 14495 15039 13393 14801 15632 19913 10046 19612 11640 999999
999999 999999 999999 999999 999999 999999 999999 999999 999999 999999 999999 999999 999999 999999 999999 999999 999999 999999 999999 999999 999999 999999 999999 999999 999999 999999 0 999999 999999 999999 999999 999999 999999 999999 999999 999999 999999 999999 999999 999999 999999 10105 15717 10295 12019 11229 11358 12379 11739 15436 13759 14612 19162 14617 13436 10528 15315 14878 17746 11412 18472 17385 14786 18929 13549 19532 17380 11213 14642 16439 14754 13579 10918 18938 14489 14089 19401 18576 15282 16248 15615 999999
999999 999999 999999 999999 999999 999999 999999 999999 999999 999999 999999 999999 999999 999999 999999 999999 999999 999999 999999 999999 999999 999999 999999 999999 999999 999999 999999 0 999999 999999 999999 999999 999999 999999 999999 999999 999999 999999 999999 999999 999999 14248 15961 15712 15256 10734 17856 12885 12560 17946 15260 11637 13380 10878 10794 15812 14106 12878 15818 19002 18343 11679 12002 15389 14189 17632 10385 19425 13840 18463 12928 10276 15136 16104 12485 10247 18431 19034 12015 16449 11632 999999
999999 999999 999999 999999 999999 999999 999999 999999 999999 999999 999999 999999 999999 999999 999999 999999 999999 999999 999999 999999 999999 999999 999999 999999 999999 999999 999999 999999 0 999999 999999 999999 999999 999999 999999 999999 999999 999999 999999 999999 999999 18039 13903 15880 17394 19468 11781 19052 16556 15337 18868 13654 15940 18603 15882 14089 19204 13338 11916 19064 11110 13124 12973 14339 14399 11139 16166 19372 19752 13754 12540 16897 17729 12024 18572 14227 19862 15208 16338 13122 13054 999999
999999 999999 999999 999999 999999 999999 999999 999999 999999 999999 999999 999999 999999 999999 999999 999999 999999 999999 999999 999999 999999 999999 999999 999999 999999 999999 999999 999999 999999 0 999999 999999 999999 999999 999999 999999 999999 999999 999999 999999 999999 11204 18545 19297 16452 12197 13648 17202 17589 17825 14501 18431 18588 16963 17579 14384 19358 11444 13506 17099 12746 14287 17762 15069 16106 12136 17168 16473 17343 13098 11413 13040 11541 19991 15763 10436 15113 17986 12293 13063 17784 999999
999999 999999 999999 999999 999999 999999 999999 999999 999999 999999 999999 999999 999999 999999 999999 999999 999999 999999 999999 999999 999999 999999 999999 999999 999999 999999 999999 999999 999999 999999 0 999999 999999 999999 999999 999999 999999 999999 999999 999999 999999 12469 19509 15674 19742 15660 10684 10098 13730 11285 15518 18740 13486 17815 12315 18392 17413 18024 12890 11354 18601 15306 13298 18351 18194 12067 10413 16190 18252 10048 14990 19951 14481 19165 13509 16892 11792 19535 11115 15440 12158 999999
999999 999999 999999 999999 999999 999999 999999 999999 999999 999999 999999 999999 999999 999999 999999 999999 999999 999999 999999 999999 999999 999999 999999 999999 999999 999999 999999 999999 999999 999999 999999 0 999999 999999 999999 999999 999999 999999 999999 999999 999999 19771 19238 12290 15389 18519 19577 11235 14432 13128 16905 10563 12870 17448 18139 13654 10447 16629 11592 16454 16505 14867 16136 18939 19452 10600 10632 17687 19696 17750 19898 15822 12781 10276 13712 13655 18092 13018 13037 14611 18476 999999
999999 999999 999999 999999 999999 999999 999999 999999 999999 999999 999999 999999 999999 999999 999999 999999 999999 999999 999999 999999 999999 999999 999999 999999 999999 999999 999999 999999 999999 999999 999999 999999 0 999999 999999 999999 999999 999999 999999 999999 999999 16310 15184 11775 13160 18052 16664 17046 18409 15679 11507 18128 18200 14017 10867 14624 10974 13057 18893 14213 19104 18493 14070 17294 12403 11355 19784 15747 14512 10586 17570 14967 16578 11383 15977 13913 11307 12983 18233 12845 15899 999999
999999 999999 999999 999999 999999 999999 999999 999999 999999 999999 999999 999999 999999 999999 999999 999999 999999 999999 999999 999999 999999 999999 999999 999999 999999 999999 999999 999999 999999 999999 999999 999999 999999 0 999999 999999 999999 999999 999999 999999 999999 13228 14993 12936 10955 10606 17820 17430 11591 16973 12032 14564 12755 10395 17759 13440 14756 15610 10968 11024 16147 15925 18077 14150 16719 10841 15520 16002 14268 18705 13317 13140 16084 19798 14206 14326 18294 17307 14925 15055 11146 999999
999999 999999 999999 999999 999999 999999 999999 999999 999999 999999 999999 999999 999999 999999 999999 999999 999999 999999 999999 999999 999999 999999 999999 999999 999999 999999 999999 999999 999999 999999 999999 999999 999999 999999 0 999999 999999 999999 999999 999999 999999 12703 11924 12350 16712 11356 13351 11663 10623 13209 16483 16530 13880 14219 12986 18011 19468 12757 11609 13326 10809 13448 10055 10248 12205 16016 18632 15675 18924 19378 13559 12062 10723 11019 11383 10402 16861 19821 10215 13896 17725 999999
999999 999999 999999 999999 999999 999999 999999 999999 999999 999999 999999 999999 999999 999999 999999 999999 999999 999999 999999 999999 999999 999999 999999 999999 999999 999999 999999 999999 999999 999999 999999 999999 999999 999999 999999 0 999999 999999 999999 999999 999999 17888 17610 11922 16689 17136 12375 18855 16344 16707 16591 13239 16431 10218 10378 15220 18292 10013 18435 11320 10330 12519 15268 18327 15235 11550 16295 15133 17162 17151 14688 17379 14688 12242 12163 19763 11531 19652 16923 18696 14621 999999
999999 999999 999999 999999 999999 999999 999999 999999 999999 999999 999999 999999 999999 999999 999999 999999 999999 999999 999999 999999 999999 999999 999999 999999 999999 999999 999999 999999 999999 999999 999999 999999 999999 999999 999999 999999 0 999999 999999 999999 999999 13537 17895 12030 15775 14221 13743 15448 14709 19285 14105 10025 18192 11620 15981 16335 12605 19336 17326 15936 17171 18176 17228 14163 16302 14688 17270 14933 10184 12946 12238 19378 18063 17707 11979 11477 10720 10816 19832 16700 15843 999999
999999 999999 999999 999999 999999 999999 999999 999999 999999 999999 999999 999999 999999 999999 999999 999999 999999 999999 999999 999999 999999 999999 999999 999999 999999 999999 999999 999999 999999 999999 999999 999999 999999 999999 999999 999999 999999 0 999999 999999 999999 11696 12355 14396 11610 14660 16656 18110 10560 12337 13709 15535 19353 12792 17183 14220 17480 18660 10068 12315 14003 11642 19032 11177 11554 12100 16703 15794 13557 17420 11503 17404 11925 15507 15192 13602 10747 17673 13537 16515 12750 999999
999999 999999 999999 999999 999999 999999 999999 999999 999999 999999 999999 999999 999999 999999 999999 999999 999999 999999 999999 999999 999999 999999 999999 999999 999999 999999 999999 999999 999999 999999 999999 999999 999999 999999 999999 999999 999999 999999 0 999999 999999 10090 17356 18784 13587 14651 12243 18366 16916 14617 12158 16259 10737 19604 16681 13054 17839 15085 15402 17679 12191 12348 12854 16450 16641 15628 13117 13190 18105 16254 17898 11463 18919 11918 10018 13463 10916 19064 13201 15230 17248 999999
999999 999999 999999 999999 999999 999999 999999 999999 999999 999999 999999 999999 999999 999999 999999 999999 999999 999999 999999 999999 999999 999999 999999 999999 999999 999999 999999 999999 999999 999999 999999 999999 999999 999999 999999 999999 999999 999999 999999 0 999999 14278 18667 15688 10582 14039 17754 10052 10002 17479 18740 17776 11315 13363 14419 16343 13315 12264 12591 10513 18072 13049 18176 19944 10609 18555 18394 13365 19983 16551 17990 12564 12510 17046 15983 12354 17016 14007 12941 16048 14971 999999
999999 999999 999999 999999 999999 999999 999999 999999 999999 999999 999999 999999 999999 999999 999999 999999 999999 999999 999999 999999 999999 999999 999999 999999 999999 999999 999999 999999 999999 999999 999999 999999 999999 999999 999999 999999 999999 999999 999999 999999 0 19453 13567 12712 13193 11232 15365 15082 13599 18838 15941 13309 16246 13322 13978 10050 19145 17033 11315 18305 16385 10158 12791 13084 19879 16843 11487 14416 13726 10201 13629 16734 13593 11358 11232 17484 11958 18289 18462 19342 13134 999999
999999 15514 16307 15297 13688 17345 18517 18123 14322 16657 11974 19314 17265 11620 12460 11616 12060 14418 13581 16961 12152 11981 10434 17734 18511 13005 10105 14248 18039 11204 12469 19771 16310 13228 12703 17888 13537 11696 10090 14278 19453 0 999999 999999 999999 999999 999999 999999 999999 999999 999999 999999 999999 999999 999999 999999 999999 999999 999999 999999 999999 999999 999999 999999 999999 999999 999999 999999 999999 999999 999999 999999 999999 999999 999999 999999 999999 999999 999999 999999 999999 13898
999999 10863 16319 17537 12395 12520 13182 11057 15936 15984 11594 15432 18154 14878 16277 14204 16767 11743 11836 12393 17236 15228 18827 14917 11022 14642 15717 15961 13903 18545 19509 19238 15184 14993 11924 17610 17895 12355 17356 18667 13567 999999 0 999999 999999 999999 999999 999999 999999 999999 999999 999999 999999 999999 999999 999999 999999 999999 999999 999999 999999 999999 999999 999999 999999 999999 999999 999999 999999 999999 999999 999999 999999 999999 999999 999999 999999 999999 999999 999999 999999 13067
999999 16652 19158 11299 16305 14548 19084 18875 10582 16373 13968 17129 18760 19526 13746 13865 16769 17731 10577 14921 11992 18150 15093 19202 14046 15716 10295 15712 15880 19297 15674 12290 11775 12936 12350 11922 12030 14396 18784 15688 12712 999999 999999 0 999999 999999 999999 999999 999999 999999 999999 999999 999999 999999 999999 999999 999999 999999 999999 999999 999999 999999 999999 999999 999999 999999 999999 999999 999999 999999 999999 999999 999999 999999 999999 999999 999999 999999 999999 999999 999999 14338
999999 19666 10997 17129 15762 10956 16131 13018 14426 13783 15998 13682 10628 18566 13415 16266 16420 12433 10862 12542 11531 19789 10329 17316 18218 16545 12019 15256 17394 16452 19742 15389 13160 10955 16712 16689 15775 11610 13587 10582 13193 999999 999999 999999 0 999999 999999 999999 999999 999999 999999 999999 999999 999999 999999 999999 999999 999999 999999 999999 999999 999999 999999 999999 999999 999999 999999 999999 999999 999999 999999 999999 999999 999999 999999 999999 999999 999999 999999 999999 999999 9002
999999 11973 12023 19813 10101 19971 13648 10093 13145 12634 16939 12784 14494 10789 17388 12382 18724 14462 18740 19217 10473 15269 18790 19656 14831 12506 11229 10734 19468 12197 15660 18519 18052 10606 11356 17136 14221 14660 14651 14039 11232 999999 999999 999999 999999 0 999999 999999 999999 999999 999999 999999 999999 999999 999999 999999 999999 999999 999999 999999 999999 999999 999999 999999 999999 999999 999999 999999 999999 999999 999999 999999 999999 999999 999999 999999 999999 999999 999999 999999 999999 11515
999999 18078 19268 15767 18704 19238 16441 10716 12302 14434 19557 13399 15633 12344 17096 14944 17126 12538 14008 13999 12643 13951 18178 19284 15335 10054 11358 17856 11781 13648 10684 19577 16664 17820 13351 12375 13743 16656 12243 17754 15365 999999 999999 999999 999999 999999 0 999999 999999 999999 999999 999999 999999 999999 999999 999999 999999 999999 999999 999999 999999 999999 999999 999999 999999 999999 999999 999999 999999 999999 999999 999999 999999 999999 999999 999999 999999 999999 999999 999999 999999 14742
999999 11965 13433 16386 13912 14563 15105 13250 19131 10726 18456 18904 10329 16539 15990 16167 13986 14249 13476 10923 11144 13726 16169 10469 11910 17511 12379 12885 19052 17202 10098 11235 17046 17430 11663 18855 15448 18110 18366 10052 15082 999999 999999 999999 999999 999999 999999 0 999999 999999 999999 999999 999999 999999 999999 999999 999999 999999 999999 999999 999999 999999 999999 999999 999999 999999 999999 999999 999999 999999 999999 999999 999999 999999 999999 999999 999999 999999 999999 999999 999999 9627
999999 11559 14951 11171 13455 13696 19256 19825 13644 17902 12631 16914 12817 14769 14791 16062 19946 19656 16316 12472 13098 15289 16840 10225 11163 11148 11739 12560 16556 17589 13730 14432 18409 11591 10623 16344 14709 10560 16916 10002 13599 999999 999999 999999 999999 999999 999999 999999 0 999999 999999 999999 999999 999999 999999 999999 999999 999999 999999 999999 999999 999999 999999 999999 999999 999999 999999 999999 999999 999999 999999 999999 999999 999999 999999 999999 999999 999999 999999 999999 999999 10152
999999 17615 17149 12583 14523 16647 14051 17461 13925 19183 11342 17460 14953 15884 17224 19363 16759 15091 18108 13347 12352 10619 16563 11343 18833 13625 15436 17946 15337 17825 11285 13128 15679 16973 13209 16707 19285 12337 14617 17479 18838 999999 999999 999999 999999 999999 999999 999999 999999 0 999999 999999 999999 999999 999999 999999 999999 999999 999999 999999 999999 999999 999999 999999 999999 999999 999999 999999 999999 999999 999999 999999 999999 999999 999999 999999 999999 999999 999999 999999 999999 10151
999999 15102 15617 13236 11619 10680 17676 10775 14253 15199 15401 19281 12629 13332 18960 11839 10046 13422 13662 15938 11560 15804 15223 13952 15821 15569 13759 15260 18868 14501 15518 16905 11507 12032 16483 16591 14105 13709 12158 18740 15941 999999 999999 999999 999999 999999 999999 999999 999999 999999 0 999999 999999 999999 999999 999999 999999 999999 999999 999999 999999 999999 999999 999999 999999 999999 999999 999999 999999 999999 999999 999999 999999 999999 999999 999999 999999 999999 999999 999999 999999 8203
999999 14697 14986 17371 18107 17812 14819 12558 10060 15119 19279 16830 12274 10869 17621 16958 16303 18618 15902 17999 18614 14065 10298 16475 17348 12622 14612 11637 13654 18431 18740 10563 18128 14564 16530 13239 10025 15535 16259 17776 13309 999999 999999 999999 999999 999999 999999 999999 999999 999999 999999 0 999999 999999 999999 999999 999999 999999 999999 999999 999999 999999 999999 999999 999999 999999 999999 999999 999999 999999 999999 999999 999999 999999 999999 999999 999999 999999 999999 999999 999999 6059
999999 15524 11021 17337 14365 10069 12533 19527 18268 18163 11642 16655 14871 15913 19150 11710 16412 16445 19087 18577 13992 14831 10449 19472 16035 14500 19162 13380 15940 18588 13486 12870 18200 12755 13880 16431 18192 19353 10737 11315 16246 999999 999999 999999 999999 999999 999999 999999 999999 999999 999999 999999 0 999999 999999 999999 999999 999999 999999 999999 999999 999999 999999 999999 999999 999999 999999 999999 999999 999999 999999 999999 999999 999999 999999 999999 999999 999999 999999 999999 999999 10854
999999 11743 17422 16041 16529 16136 19827 12913 11827 16222 11196 13549 10101 17776 18333 10129 11108 19882 19291 19036 16615 10713 18212 14337 19204 16876 14617 10878 18603 16963 17815 17448 14017 10395 14219 10218 11620 12792 19604 13363 13322 999999 999999 999999 999999 999999 999999 999999 999999 999999 999999 999999 999999 0 999999 999999 999999 999999 999999 999999 999999 999999 999999 999999 999999 999999 999999 999999 999999 999999 999999 999999 999999 999999 999999 999999 999999 999999 999999 999999 999999 8794
999999 18879 11248 11026 12780 14818 12749 16379 12533 10408 18097 15337 10294 15279 15815 13163 12825 10788 19928 11192 11678 12436 17591 11751 16996 15184 13436 10794 15882 17579 12315 18139 10867 17759 12986 10378 15981 17183 16681 14419 13978 999999 999999 999999 999999 999999 999999 999999 999999 999999 999999 999999 999999 999999 0 999999 999999 999999 999999 999999 999999 999999 999999 999999 999999 999999 999999 999999 999999 999999 999999 999999 999999 999999 999999 999999 999999 999999 999999 999999 999999 13648
999999 13063 14672 18821 14258 13292 17069 13201 12216 13863 15079 16773 18755 16777 19595 10014 15526 13200 12741 14257 19030 10831 19687 17439 19410 11482 10528 15812 14089 14384 18392 13654 14624 13440 18011 15220 16335 14220 13054 16343 10050 999999 999999 999999 999999 999999 999999 999999 999999 999999 999999 999999 999999 999999 999999 0 999999 999999 999999 999999 999999 999999 999999 999999 999999 999999 999999 999999 999999 999999 999999 999999 999999 999999 999999 999999 999999 999999 999999 999999 999999 8631
999999 18072 14611 14455 14116 15560 17543 17433 17519 16298 18496 13170 18736 17934 14143 19181 18651 15185 19435 14326 12151 10392 10367 18899 17244 15489 15315 14106 19204 19358 17413 10447 10974 14756 19468 18292 12605 17480 17839 13315 19145 999999 999999 999999 999999 999999 999999 999999 999999 999999 999999 999999 999999 999999 999999 999999 0 999999 999999 999999 999999 999999 999999 999999 999999 999999 999999 999999 999999 999999 999999 999999 999999 999999 999999 999999 999999 999999 999999 999999 999999 9183
999999 19104 17005 16433 15304 18719 17208 19439 10484 10769 14842 18455 17138 19367 13731 16561 15736 16578 10218 10285 11094 16483 11222 10960 14103 15988 14878 12878 13338 11444 18024 16629 13057 15610 12757 10013 19336 18660 15085 12264 17033 999999 999999 999999 999999 999999 999999 999999 999999 999999 999999 999999 999999 999999 999999 999999 999999 0 999999 999999 999999 999999 999999 999999 999999 999999 999999 999999 999999 999999 999999 999999 999999 999999 999999 999999 999999 999999 999999 999999 999999 5726
999999 17422 11861 18245 13841 19371 18775 16036 11415 18006 12985 17509 17365 14853 10805 10222 18403 19662 17101 18809 10135 12673 17640 14409 14480 10534 17746 15818 11916 13506 12890 11592 18893 10968 11609 18435 17326 10068 15402 12591 11315 999999 999999 999999 999999 999999 999999 999999 999999 999999 999999 999999 999999 999999 999999 999999 999999 999999 0 999999 999999 999999 999999 999999 999999 999999 999999 999999 999999 999999 999999 999999 999999 999999 999999 999999 999999 999999 999999 999999 999999 14126
999999 10860 15663 16457 19061 16963 14411 11967 17650 11090 10075 19783 11466 13983 12821 17699 13088 16042 16588 16465 11555 11178 18408 18057 11087 13011 11412 19002 19064 17099 11354 16454 14213 11024 13326 11320 15936 12315 17679 10513 18305 999999 999999 999999 999999 999999 999999 999999 999999 999999 999999 999999 999999 999999 999999 999999 999999 999999 999999 0 999999 999999 999999 999999 999999 999999 999999 999999 999999 999999 999999 999999 999999 999999 999999 999999 999999 999999 999999 999999 999999 10529
999999 13101 17534 12441 11870 15288 16242 15858 10565 12161 12577 15159 15963 13646 15264 12106 18374 15049 17874 15310 19495 14345 16580 11970 16608 19311 18472 18343 11110 12746 18601 16505 19104 16147 10809 10330 17171 14003 12191 18072 16385 999999 999999 999999 999999 999999 999999 999999 999999 999999 999999 999999 999999 999999 999999 999999 999999 999999 999999 999999 0 999999 999999 999999 999999 999999 999999 999999 999999 999999 999999 999999 999999 999999 999999 999999 999999 999999 999999 999999 999999 8754
999999 18916 15827 14800 19773 16450 14581 11618 12449 16150 10377 11879 18137 18440 17139 11731 14281 19062 15765 15637 11641 19671 15290 12127 17446 12219 17385 11679 13124 14287 15306 14867 18493 15925 13448 12519 18176 11642 12348 13049 10158 999999 999999 999999 999999 999999 999999 999999 999999 999999 999999 999999 999999 999999 999999 999999 999999 999999 999999 999999 999999 0 999999 999999 999999 999999 999999 999999 999999 999999 999999 999999 999999 999999 999999 999999 999999 999999 999999 999999 999999 11317
999999 19850 16346 15199 11658 14265 14525 18564 15490 16653 15020 12741 17711 17783 17012 13707 12083 10951 11961 15128 18685 18862 15868 14964 14089 11938 14786 12002 12973 17762 13298 16136 14070 18077 10055 15268 17228 19032 12854 18176 12791 999999 999999 999999 999999 999999 999999 999999 999999 999999 999999 999999 999999 999999 999999 999999 999999 999999 999999 999999 999999 999999 0 999999 999999 999999 999999 999999 999999 999999 999999 999999 999999 999999 999999 999999 999999 999999 999999 999999 999999 14119
999999 16218 12164 17388 10166 15586 11064 15089 19326 17164 18954 14403 17483 13555 14194 15176 18007 10797 18880 19522 17665 14598 12497 10754 14638 10374 18929 15389 14339 15069 18351 18939 17294 14150 10248 18327 14163 11177 16450 19944 13084 999999 999999 999999 999999 999999 999999 999999 999999 999999 999999 999999 999999 999999 999999 999999 999999 999999 999999 999999 999999 999999 999999 0 999999 999999 999999 999999 999999 999999 999999 999999 999999 999999 999999 999999 999999 999999 999999 999999 999999 7194
999999 18942 15013 15057 12147 16171 12600 14691 15633 12980 10038 14369 13906 10843 10280 19196 19893 17898 19541 19761 13852 10105 16292 17550 15891 11202 13549 14189 14399 16106 18194 19452 12403 16719 12205 15235 16302 11554 16641 10609 19879 999999 999999 999999 999999 999999 999999 999999 999999 999999 999999 999999 999999 999999 999999 999999 999999 999999 999999 999999 999999 999999 999999 999999 0 999999 999999 999999 999999 999999 999999 999999 999999 999999 999999 999999 999999 999999 999999 999999 999999 11513
999999 16376 10676 13924 19578 14605 18996 16697 16163 16893 11921 19480 11518 17558 12860 11398 10507 13862 10620 19186 10597 11193 18340 17478 13019 11004 19532 17632 11139 12136 12067 10600 11355 10841 16016 11550 14688 12100 15628 18555 16843 999999 999999 999999 999999 999999 999999 999999 999999 999999 999999 999999 999999 999999 999999 999999 999999 999999 999999 999999 999999 999999 999999 999999 999999 0 999999 999999 999999 999999 999999 999999 999999 999999 999999 999999 999999 999999 999999 999999 999999 9164
999999 11437 12460 14763 14213 13080 13780 19356 19096 10344 11723 18231 13155 17104 19992 16365 19616 17869 10923 15085 19268 15727 17623 16214 11657 16989 17380 10385 16166 17168 10413 10632 19784 15520 18632 16295 17270 16703 13117 18394 11487 999999 999999 999999 999999 999999 999999 999999 999999 999999 999999 999999 999999 999999 999999 999999 999999 999999 999999 999999 999999 999999 999999 999999 999999 999999 0 999999 999999 999999 999999 999999 999999 999999 999999 999999 999999 999999 999999 999999 999999 8356
999999 16189 12818 10937 18430 14726 18449 19288 11304 10876 10369 18600 18860 14922 10547 17415 10345 13897 14511 18406 11587 11126 13460 17235 19300 12950 11213 19425 19372 16473 16190 17687 15747 16002 15675 15133 14933 15794 13190 13365 14416 999999 999999 999999 999999 999999 999999 999999 999999 999999 999999 999999 999999 999999 999999 999999 999999 999999 999999 999999 999999 999999 999999 999999 999999 999999 999999 0 999999 999999 999999 999999 999999 999999 999999 999999 999999 999999 999999 999999 999999 14030
999999 18372 10351 12675 12052 14208 10504 16913 12808 12113 16943 16869 10622 13961 16447 13717 14123 14345 12039 19245 14580 10437 13776 13570 12461 15458 14642 13840 19752 17343 18252 19696 14512 14268 18924 17162 10184 13557 18105 19983 13726 999999 999999 999999 999999 999999 999999 999999 999999 999999 999999 999999 999999 999999 999999 999999 999999 999999 999999 999999 999999 999999 999999 999999 999999 999999 999999 999999 0 999999 999999 999999 999999 999999 999999 999999 999999 999999 999999 999999 999999 9020
999999 12034 11080 18635 15435 12651 16978 10256 16631 17496 14006 10228 10335 16962 16060 14446 12150 19244 18851 18980 10617 11786 16437 11805 19397 18013 16439 18463 13754 13098 10048 17750 10586 18705 19378 17151 12946 17420 16254 16551 10201 999999 999999 999999 999999 999999 999999 999999 999999 999999 999999 999999 999999 999999 999999 999999 999999 999999 999999 999999 999999 999999 999999 999999 999999 999999 999999 999999 999999 0 999999 999999 999999 999999 999999 999999 999999 999999 999999 999999 999999 8966
999999 11224 13001 15114 15825 15077 12905 11977 19484 18088 12611 14521 18240 14608 14288 16010 17872 16857 15923 14984 15620 13085 19606 10928 12231 14608 14754 12928 12540 11413 14990 19898 17570 13317 13559 14688 12238 11503 17898 17990 13629 999999 999999 999999 999999 999999 999999 999999 999999 999999 999999 999999 999999 999999 999999 999999 999999 999999 999999 999999 999999 999999 999999 999999 999999 999999 999999 999999 999999 999999 0 999999 999999 999999 999999 999999 999999 999999 999999 999999 999999 7812
999999 10814 12966 19283 10541 13269 10975 19857 12959 15487 17724 15914 14410 19156 14135 16503 14848 10344 18638 11926 11937 12167 16933 16865 10691 17141 13579 10276 16897 13040 19951 15822 14967 13140 12062 17379 19378 17404 11463 12564 16734 999999 999999 999999 999999 999999 999999 999999 999999 999999 999999 999999 999999 999999 999999 999999 999999 999999 999999 999999 999999 999999 999999 999999 999999 999999 999999 999999 999999 999999 999999 0 999999 999999 999999 999999 999999 999999 999999 999999 999999 5258
999999 15074 14478 19621 14020 12469 14492 10928 16186 12865 11482 17817 11697 17401 13665 18852 10037 17013 16796 16894 10159 12431 12210 19071 13176 14495 10918 15136 17729 11541 14481 12781 16578 16084 10723 14688 18063 11925 18919 12510 13593 999999 999999 999999 999999 999999 999999 999999 999999 999999 999999 999999 999999 999999 999999 999999 999999 999999 999999 999999 999999 999999 999999 999999 999999 999999 999999 999999 999999 999999 999999 999999 0 999999 999999 999999 999999 999999 999999 999999 999999 12520
999999 13129 14704 15726 10834 12851 10759 18667 16228 14889 17903 12413 12365 14322 10197 17210 14451 14702 15032 11721 16060 16849 14376 15745 10241 15039 18938 16104 12024 19991 19165 10276 11383 19798 11019 12242 17707 15507 11918 17046 11358 999999 999999 999999 999999 999999 999999 999999 999999 999999 999999 999999 999999 999999 999999 999999 999999 999999 999999 999999 999999 999999 999999 999999 999999 999999 999999 999999 999999 999999 999999 999999 999999 0 999999 999999 999999 999999 999999 999999 999999 13652
999999 12249 15715 17123 11110 18850 14781 16278 18879 12175 15699 15284 18356 11686 12500 10411 18050 11371 18124 15971 11505 14262 16465 19397 10119 13393 14489 12485 18572 15763 13509 13712 15977 14206 11383 12163 11979 15192 10018 15983 11232 999999 999999 999999 999999 999999 999999 999999 999999 999999 999999 999999 999999 999999 999999 999999 999999 999999 999999 999999 999999 999999 999999 999999 999999 999999 999999 999999 999999 999999 999999 999999 999999 999999 0 999999 999999 999999 999999 999999 999999 14783
999999 17370 19160 15329 12684 16112 14206 18873 18573 17769 12380 13682 10979 18298 10107 18087 10734 19418 13040 11681 16672 19552 18473 11757 13362 14801 14089 10247 14227 10436 16892 13655 13913 14326 10402 19763 11477 13602 13463 12354 17484 999999 999999 999999 999999 999999 999999 999999 999999 999999 999999 999999 999999 999999 999999 999999 999999 999999 999999 999999 999999 999999 999999 999999 999999 999999 999999 999999 999999 999999 999999 999999 999999 999999 999999 0 999999 999999 999999 999999 999999 6994
999999 13202 15785 16175 17624 12841 19428 10520 12418 19361 12617 11006 15733 17735 14002 14147 13900 19140 15554 19197 13425 19955 11128 16122 18491 15632 19401 18431 19862 15113 11792 18092 11307 18294 16861 11531 10720 10747 10916 17016 11958 999999 999999 999999 999999 999999 999999 999999 999999 999999 999999 999999 999999 999999 999999 999999 999999 999999 999999 999999 999999 999999 999999 999999 999999 999999 999999 999999 999999 999999 999999 999999 999999 999999 999999 999999 0 999999 999999 999999 999999 8136
999999 12034 10949 13346 13422 15830 13263 15958 16495 17636 12426 14687 12804 17604 18915 15953 16134 16001 13442 13780 13629 10753 16863 10534 18852 19913 18576 19034 15208 17986 19535 13018 12983 17307 19821 19652 10816 17673 19064 14007 18289 999999 999999 999999 999999 999999 999999 999999 999999 999999 999999 999999 999999 999999 999999 999999 999999 999999 999999 999999 999999 999999 999999 999999 999999 999999 999999 999999 999999 999999 999999 999999 999999 999999 999999 999999 999999 0 999999 999999 999999 11027
999999 18872 12507 17903 17789 15955 17556 14493 17967 10276 15798 16967 13993 17195 16527 19533 19567 11045 19987 18567 10474 16843 13975 17460 12524 10046 15282 12015 16338 12293 11115 13037 18233 14925 10215 16923 19832 13537 13201 12941 18462 999999 999999 999999 999999 999999 999999 999999 999999 999999 999999 999999 999999 999999 999999 999999 999999 999999 999999 999999 999999 999999 999999 999999 999999 999999 999999 999999 999999 999999 999999 999999 999999 999999 999999 999999 999999 999999 0 999999 999999 13093
999999 17098 13930 16282 10927 16100 11149 14176 19207 17771 10702 19693 11956 13215 19897 14181 17384 12620 19462 12702 12346 19456 18132 16732 14776 19612 16248 16449 13122 13063 15440 14611 12845 15055 13896 18696 16700 16515 15230 16048 19342 999999 999999 999999 999999 999999 999999 999999 999999 999999 999999 999999 999999 999999 999999 999999 999999 999999 999999 999999 999999 999999 999999 999999 999999 999999 999999 999999 999999 999999 999999 999999 999999 999999 999999 999999 999999 999999 999999 0 999999 10147
999999 19575 18418 16839 10332 16076 13583 17666 11915 13407 14526 17649 19179 15619 17313 14757 17677 13560 15719 17557 12659 12984 15928 12083 10841 11640 15615 11632 13054 17784 12158 18476 15899 11146 17725 14621 15843 12750 17248 14971 13134 999999 999999 999999 999999 999999 999999 999999 999999 999999 999999 999999 999999 999999 999999 999999 999999 999999 999999 999999 999999 999999 999999 999999 999999 999999 999999 999999 999999 999999 999999 999999 999999 999999 999999 999999 999999 999999 999999 999999 0 9387
1 999999 999999 999999 999999 999999 999999 999999 999999 999999 999999 999999 999999 999999 999999 999999 999999 999999 999999 999999 999999 999999 999999 999999 999999 999999 999999 999999 999999 999999 999999 999999 999999 999999 999999 999999 999999 999999 999999 999999 999999 999999 999999 999999 999999 999999 999999 999999 999999 999999 999999 999999 999999 999999 999999 999999 999999 999999 999999 999999 999999 999999 999999 999999 999999 999999 999999 999999 999999 999999 999999 999999 999999 999999 999999 999999 999999 999999 999999 999999 999999 0
EOF