NAME: GR_1x2x5_KH_2x5_Run_4
TYPE: TSP
COMMENT: BTSP instance |A|=10 GR nodes |B|=10 KH nodes depot=0.0 end=0.0.0
DIMENSION: 22
EDGE_WEIGHT_TYPE: EXPLICIT
EDGE_WEIGHT_FORMAT: FULL_MATRIX
NODE_COORD_TYPE: NO_COORDS
EDGE_WEIGHT_SECTION
0 14969 11816 12720 10623 12204 12164 6870 11178 14885 8832 999999 999999 999999 999999 999999 999999 999999 999999 999999 999999 999999
999999 0 999999 999999 999999 999999 999999 999999 999999 999999 999999 999999 999999 17391 14346 15807 999999 999999 14964 16108 999999 999999
999999 999999 0 999999 999999 999999 999999 999999 999999 999999 999999 999999 999999 15442 17803 10251 999999 999999 15631 14441 999999 999999
999999 999999 999999 0 999999 999999 999999 999999 999999 999999 999999 999999 999999 10052 13777 18324 999999 999999 19261 16687 999999 999999
999999 999999 999999 999999 0 999999 999999 999999 999999 999999 999999 999999 999999 17476 14020 13187 999999 999999 17315 19250 999999 999999
999999 999999 999999 999999 999999 0 999999 999999 999999 999999 999999 999999 999999 14715 10392 11799 999999 999999 16820 14752 999999 999999
999999 999999 999999 999999 999999 999999 0 999999 999999 999999 999999 17362 10104 999999 999999 999999 11482 11885 999999 999999 12928 999999
999999 999999 999999 999999 999999 999999 999999 0 999999 999999 999999 16283 18867 999999 999999 999999 15013 11890 999999 999999 11725 999999
999999 999999 999999 999999 999999 999999 999999 999999 0 999999 999999 11046 19679 999999 999999 999999 18676 19536 999999 999999 11276 999999
999999 999999 999999 999999 999999 999999 999999 999999 999999 0 999999 14602 16538 999999 999999 999999 16545 13631 999999 999999 12758 999999
999999 999999 999999 999999 999999 999999 999999 999999 999999 999999 0 19449 14687 999999 999999 999999 18989 13133 999999 999999 16506 999999
999999 17655 17474 10464 15040 12500 17362 16283 11046 14602 19449 0 999999 999999 999999 999999 999999 999999 999999 999999 999999 6515
999999 18831 19630 12065 14996 10450 10104 18867 19679 16538 14687 999999 0 999999 999999 999999 999999 999999 999999 999999 999999 11530
999999 17391 15442 10052 17476 14715 13277 14809 13740 11124 12579 999999 999999 0 999999 999999 999999 999999 999999 999999 999999 13175
999999 14346 17803 13777 14020 10392 16787 17792 11682 15639 13093 999999 999999 999999 0 999999 999999 999999 999999 999999 999999 6510
999999 15807 10251 18324 13187 11799 15857 10656 13127 13458 12746 999999 999999 999999 999999 0 999999 999999 999999 999999 999999 12467
999999 11918 13523 16489 11121 14689 11482 15013 18676 16545 18989 999999 999999 999999 999999 999999 0 999999 999999 999999 999999 5996
999999 14382 14788 19055 19773 15927 11885 11890 19536 13631 13133 999999 999999 999999 999999 999999 999999 0 999999 999999 999999 10458
999999 14964 15631 19261 17315 16820 19331 14677 18575 14394 13443 999999 999999 999999 999999 999999 999999 999999 0 999999 999999 6501
999999 16108 14441 16687 19250 14752 15758 16024 13339 19099 15403 999999 999999 999999 999999 999999 999999 999999 999999 0 999999 11813
999999 10901 11010 17360 11784 17625 12928 11725 11276 12758 16506 999999 999999 999999 999999 999999 999999 999999 999999 999999 0 13109
1 999999 999999 999999 999999 999999 999999 999999 999999 999999 999999 999999 999999 999999 999999 999999 999999 999999 999999 999999 999999 0
EOF