NAME: GR_1x10x16_KH_10x16_Run_5
TYPE: TSP
COMMENT: BTSP instance |A|=160 GR nodes |B|=160 KH nodes depot=0.0 end=0.0.0
DIMENSION: 322
EDGE_WEIGHT_TYPE: EXPLICIT
EDGE_WEIGHT_FORMAT: FULL_MATRIX
NODE_COORD_TYPE: NO_COORDS
EDGE_WEIGHT_SECTION
0 6961 14475 10077 9642 14984 6873 5176 10616 8202 7422 7570 8515 6593 5654 11237 11787 8283 9779 6093 12397 6622 12159 6458 9994 5432 10322 10019 6005 11823 12485 6677 7633 11107 9161 10716 11591 12677 7766 5781 6219 7206 13318 6312 12084 12231 8120 9332 14024 10177 10077 10199 10897 14614 14109 12343 10484 6520 12769 5379 8451 7979 10228 9652 8236 5321 9174 14747 10310 11634 6108 5246 8209 10536 5047 11992 8464 13595 14960 14677 9253 10595 13709 14808 10784 8867 11540 8515 6252 5367 14575 6129 14904 5147 10197 8692 12788 6816 13567 6866 11264 5168 9788 7538 12274 10638 7400 11279 12890 11002 11054 12402 8856 6487 6277 11856 10532 11355 12063 7364 13918 7951 10668 10457 9863 12297 6136 11972 7993 6602 11592 5154 10060 8160 12360 6697 13026 6769 6290 7425 10118 9321 11429 8913 13011 14704 10225 5506 11830 8423 13254 11407 10231 10389 6426 5389 13754 13570 8302 12659 5388 999999 999999 999999 999999 999999 999999 999999 999999 999999 999999 999999 999999 999999 999999 999999 999999 999999 999999 999999 999999 999999 999999 999999 999999 999999 999999 999999 999999 999999 999999 999999 999999 999999 999999 999999 999999 999999 999999 999999 999999 999999 999999 999999 999999 999999 999999 999999 999999 999999 999999 999999 999999 999999 999999 999999 999999 999999 999999 999999 999999 999999 999999 999999 999999 999999 999999 999999 999999 999999 999999 999999 999999 999999 999999 999999 999999 999999 999999 999999 999999 999999 999999 999999 999999 999999 999999 999999 999999 999999 999999 999999 999999 999999 999999 999999 999999 999999 999999 999999 999999 999999 999999 999999 999999 999999 999999 999999 999999 999999 999999 999999 999999 999999 999999 999999 999999 999999 999999 999999 999999 999999 999999 999999 999999 999999 999999 999999 999999 999999 999999 999999 999999 999999 999999 999999 999999 999999 999999 999999 999999 999999 999999 999999 999999 999999 999999 999999 999999 999999 999999 999999 999999 999999 999999 999999 999999 999999 999999 999999 999999 999999
999999 0 999999 999999 999999 999999 999999 999999 999999 999999 999999 999999 999999 999999 999999 999999 999999 999999 999999 999999 999999 999999 999999 999999 999999 999999 999999 999999 999999 999999 999999 999999 999999 999999 999999 999999 999999 999999 999999 999999 999999 999999 999999 999999 999999 999999 999999 999999 999999 999999 999999 999999 999999 999999 999999 999999 999999 999999 999999 999999 999999 999999 999999 999999 999999 999999 999999 999999 999999 999999 999999 999999 999999 999999 999999 999999 999999 999999 999999 999999 999999 999999 999999 999999 999999 999999 999999 999999 999999 999999 999999 999999 999999 999999 999999 999999 999999 999999 999999 999999 999999 999999 999999 999999 999999 999999 999999 999999 999999 999999 999999 999999 999999 999999 999999 999999 999999 999999 999999 999999 999999 999999 999999 999999 999999 999999 999999 999999 999999 999999 999999 999999 999999 999999 999999 999999 999999 999999 999999 999999 999999 999999 999999 999999 999999 999999 999999 999999 999999 999999 999999 999999 999999 999999 999999 999999 999999 999999 999999 999999 999999 14696 17209 13482 10225 13373 19632 11812 13229 13065 13359 13109 17864 13093 10801 12100 12414 16341 13320 10595 14987 17119 14670 15825 16124 14247 14638 14883 13766 14933 18431 10171 15095 17061 12154 16743 16379 12350 11906 14865 17071 10467 10260 17417 11824 18318 14413 19475 12411 15510 13074 19711 18689 17478 18152 12239 13497 18164 16932 15622 11966 15285 10640 11212 19711 11462 16546 13387 15257 17107 19440 15728 10875 18587 12955 19569 13608 12210 18233 18024 11690 11272 11386 15450 15769 10747 17227 17878 12579 15172 15660 16671 13076 12477 12438 15777 16999 10499 17667 19529 13966 12468 11108 18091 13731 15103 12814 14095 16365 16104 19188 17133 17742 12311 13636 12739 17779 17611 14719 16997 11523 14845 14947 18992 19070 16012 16184 18161 10318 19034 18133 15547 12825 15327 10601 10080 19453 12475 17450 13152 10934 15866 18559 16514 12689 12250 19713 12976 13758 14939 10363 12484 12843 14282 19934 17884 11175 18498 16631 17198 13925 999999
999999 999999 0 999999 999999 999999 999999 999999 999999 999999 999999 999999 999999 999999 999999 999999 999999 999999 999999 999999 999999 999999 999999 999999 999999 999999 999999 999999 999999 999999 999999 999999 999999 999999 999999 999999 999999 999999 999999 999999 999999 999999 999999 999999 999999 999999 999999 999999 999999 999999 999999 999999 999999 999999 999999 999999 999999 999999 999999 999999 999999 999999 999999 999999 999999 999999 999999 999999 999999 999999 999999 999999 999999 999999 999999 999999 999999 999999 999999 999999 999999 999999 999999 999999 999999 999999 999999 999999 999999 999999 999999 999999 999999 999999 999999 999999 999999 999999 999999 999999 999999 999999 999999 999999 999999 999999 999999 999999 999999 999999 999999 999999 999999 999999 999999 999999 999999 999999 999999 999999 999999 999999 999999 999999 999999 999999 999999 999999 999999 999999 999999 999999 999999 999999 999999 999999 999999 999999 999999 999999 999999 999999 999999 999999 999999 999999 999999 999999 999999 999999 999999 999999 999999 999999 999999 999999 999999 999999 999999 999999 999999 11383 12124 15249 11879 16310 19780 12515 14491 12267 10801 14784 17899 16582 11715 14597 15549 10963 13001 17547 14477 18574 15966 11512 10033 13251 17764 11602 16200 18835 16133 10496 12969 13122 14567 13445 15337 18773 14608 12041 16703 14592 13233 10147 19079 14380 18957 10715 18797 15368 12182 16412 16867 17182 15645 18363 12438 19662 18336 10664 13820 14835 13926 18757 18678 13095 17772 11598 18812 11734 17718 14819 14083 14721 13596 18256 14719 14158 19598 15069 10408 15242 15090 13578 11872 15395 19797 19381 17461 17789 18467 14711 10594 15522 15601 18523 10719 14591 18372 12012 15570 14667 13625 19440 11588 14541 15991 15617 12834 14583 18189 17001 15885 16460 16987 14106 19906 16093 12533 10638 19017 13456 17345 16392 14452 13131 15342 10943 14596 18484 18728 11283 18009 18108 11951 17008 15062 15242 18165 16645 13436 11223 13200 19166 14363 18588 10016 10821 18538 16016 19565 19295 15950 15423 14301 11246 14215 12825 15014 12159 10897 999999
999999 999999 999999 0 999999 999999 999999 999999 999999 999999 999999 999999 999999 999999 999999 999999 999999 999999 999999 999999 999999 999999 999999 999999 999999 999999 999999 999999 999999 999999 999999 999999 999999 999999 999999 999999 999999 999999 999999 999999 999999 999999 999999 999999 999999 999999 999999 999999 999999 999999 999999 999999 999999 999999 999999 999999 999999 999999 999999 999999 999999 999999 999999 999999 999999 999999 999999 999999 999999 999999 999999 999999 999999 999999 999999 999999 999999 999999 999999 999999 999999 999999 999999 999999 999999 999999 999999 999999 999999 999999 999999 999999 999999 999999 999999 999999 999999 999999 999999 999999 999999 999999 999999 999999 999999 999999 999999 999999 999999 999999 999999 999999 999999 999999 999999 999999 999999 999999 999999 999999 999999 999999 999999 999999 999999 999999 999999 999999 999999 999999 999999 999999 999999 999999 999999 999999 999999 999999 999999 999999 999999 999999 999999 999999 999999 999999 999999 999999 999999 999999 999999 999999 999999 999999 999999 999999 999999 999999 999999 999999 999999 10488 12049 12798 16884 11561 11241 10033 12872 12578 19864 14074 11241 19876 11469 11968 11208 17014 11659 16309 15473 11734 19631 19071 19136 14802 11147 16399 13848 10009 19772 14177 17502 18450 11391 17732 14472 12727 10610 15022 19195 14832 13277 18416 19313 14319 10023 17672 18950 17258 17933 16318 12221 10635 11808 12272 10072 18612 17356 16726 11488 16814 13133 14894 11239 16942 10191 19823 12050 12002 12903 15867 13279 15212 18649 13526 19138 19785 15087 16922 19341 16956 15739 16571 14273 18739 14957 12902 13774 17569 11479 11595 12387 17924 15538 13459 10264 18931 14705 13914 10726 10424 19155 19770 14512 12635 18163 15934 13186 16482 12961 10277 12182 13854 11348 12173 15593 16489 15956 15888 16390 14944 17175 18075 18078 15935 11543 17950 16446 19723 16400 12189 17170 19184 11827 14951 19751 15578 18742 19242 11548 17009 16759 18647 13560 14970 14740 18375 10889 19886 14159 12001 11837 12063 13863 15413 12718 15515 16303 16050 11422 999999
999999 999999 999999 999999 0 999999 999999 999999 999999 999999 999999 999999 999999 999999 999999 999999 999999 999999 999999 999999 999999 999999 999999 999999 999999 999999 999999 999999 999999 999999 999999 999999 999999 999999 999999 999999 999999 999999 999999 999999 999999 999999 999999 999999 999999 999999 999999 999999 999999 999999 999999 999999 999999 999999 999999 999999 999999 999999 999999 999999 999999 999999 999999 999999 999999 999999 999999 999999 999999 999999 999999 999999 999999 999999 999999 999999 999999 999999 999999 999999 999999 999999 999999 999999 999999 999999 999999 999999 999999 999999 999999 999999 999999 999999 999999 999999 999999 999999 999999 999999 999999 999999 999999 999999 999999 999999 999999 999999 999999 999999 999999 999999 999999 999999 999999 999999 999999 999999 999999 999999 999999 999999 999999 999999 999999 999999 999999 999999 999999 999999 999999 999999 999999 999999 999999 999999 999999 999999 999999 999999 999999 999999 999999 999999 999999 999999 999999 999999 999999 999999 999999 999999 999999 999999 999999 999999 999999 999999 999999 999999 999999 11011 16358 19758 14768 13838 14135 17891 16614 10969 19898 12378 14486 12245 19635 10587 19513 15493 13331 19716 18517 12738 10447 16333 12701 10612 11763 16443 17118 16939 19568 16960 18732 18792 12061 17767 15500 17045 10690 11514 16958 12365 11454 11530 13738 19611 15536 11387 15926 17921 15869 15284 10930 16293 16090 16585 19639 10653 17334 16690 12031 12604 14460 19886 15151 14673 13442 13989 15655 18178 17653 12011 16877 15175 18652 15273 12876 18832 13015 19418 17392 13633 11278 13673 12873 12713 12064 19662 18490 12575 12837 13000 14969 18497 17902 15467 14040 10219 13428 15673 10619 14639 10748 16738 19110 19305 15487 17089 15347 10374 10270 15012 19604 11114 17716 17513 17610 11539 12887 15414 13039 18386 10816 19957 12952 11746 10624 18860 16576 11126 15877 11771 10165 14912 11650 12777 15677 10344 11188 12278 14071 13482 16141 14590 14540 10821 11998 10523 14810 14015 10712 10589 18668 15510 18947 19178 17080 13052 14638 14979 19895 999999
999999 999999 999999 999999 999999 0 999999 999999 999999 999999 999999 999999 999999 999999 999999 999999 999999 999999 999999 999999 999999 999999 999999 999999 999999 999999 999999 999999 999999 999999 999999 999999 999999 999999 999999 999999 999999 999999 999999 999999 999999 999999 999999 999999 999999 999999 999999 999999 999999 999999 999999 999999 999999 999999 999999 999999 999999 999999 999999 999999 999999 999999 999999 999999 999999 999999 999999 999999 999999 999999 999999 999999 999999 999999 999999 999999 999999 999999 999999 999999 999999 999999 999999 999999 999999 999999 999999 999999 999999 999999 999999 999999 999999 999999 999999 999999 999999 999999 999999 999999 999999 999999 999999 999999 999999 999999 999999 999999 999999 999999 999999 999999 999999 999999 999999 999999 999999 999999 999999 999999 999999 999999 999999 999999 999999 999999 999999 999999 999999 999999 999999 999999 999999 999999 999999 999999 999999 999999 999999 999999 999999 999999 999999 999999 999999 999999 999999 999999 999999 999999 999999 999999 999999 999999 999999 999999 999999 999999 999999 999999 999999 18372 17813 10246 19023 11318 10897 12236 16907 11915 17790 11573 19033 11285 18200 14505 16459 11535 15848 16593 18004 16820 11131 19058 17065 15167 14064 17252 13384 11852 16442 13650 15832 17499 14333 16464 14763 10852 19685 12744 11240 17799 19893 17589 18150 11403 11808 13612 18494 14983 10594 11543 14603 12120 19085 12871 15038 12823 14167 14322 14465 11038 13295 14864 16699 13759 13282 16379 10913 10016 17150 14260 18977 10246 11007 14395 11649 14712 11418 14722 16205 12913 11538 13730 17874 13435 12121 13637 19417 14859 13554 19348 13565 11850 16858 14135 19551 13698 11459 16373 14918 13224 15137 14028 13187 15459 15110 13594 14054 16770 13066 10256 16008 18211 17810 14993 14860 13107 16227 16311 11995 12525 17204 17273 11097 14398 18421 13046 19986 19205 17869 15130 18017 10956 13539 13187 17168 16977 19293 15516 13799 17826 17660 19327 14422 18188 15595 16096 13731 19771 17270 19016 19636 10707 16403 19745 14793 10518 18565 19414 19459 999999
999999 999999 999999 999999 999999 999999 0 999999 999999 999999 999999 999999 999999 999999 999999 999999 999999 999999 999999 999999 999999 999999 999999 999999 999999 999999 999999 999999 999999 999999 999999 999999 999999 999999 999999 999999 999999 999999 999999 999999 999999 999999 999999 999999 999999 999999 999999 999999 999999 999999 999999 999999 999999 999999 999999 999999 999999 999999 999999 999999 999999 999999 999999 999999 999999 999999 999999 999999 999999 999999 999999 999999 999999 999999 999999 999999 999999 999999 999999 999999 999999 999999 999999 999999 999999 999999 999999 999999 999999 999999 999999 999999 999999 999999 999999 999999 999999 999999 999999 999999 999999 999999 999999 999999 999999 999999 999999 999999 999999 999999 999999 999999 999999 999999 999999 999999 999999 999999 999999 999999 999999 999999 999999 999999 999999 999999 999999 999999 999999 999999 999999 999999 999999 999999 999999 999999 999999 999999 999999 999999 999999 999999 999999 999999 999999 999999 999999 999999 999999 999999 999999 999999 999999 999999 999999 999999 999999 999999 999999 999999 999999 14971 15632 19216 12496 14626 18542 18936 16255 18654 16714 12065 17965 11888 19141 12553 11086 13124 16623 10573 12955 11594 14170 13268 13697 16973 16692 19436 17652 16382 18106 16654 12218 13025 16578 11190 18237 12936 15800 13754 18959 10007 15628 12201 13322 12149 16538 17504 10192 19780 13142 13315 13652 17559 13787 12090 13366 18351 16781 16430 14302 17583 18858 12455 10548 18094 19575 17487 12067 16966 16902 11393 15065 18005 19171 19360 15709 15754 15375 12672 16800 17823 10367 13528 14306 12661 17688 10259 16999 12010 14343 14841 19867 12304 15704 17027 18729 13030 19520 12028 14338 19927 13087 14313 17556 19053 12771 13818 15906 11640 14108 15163 10406 15012 18087 11845 16485 14328 19421 19912 14925 15249 15364 11396 13943 10270 16391 15219 11650 10185 14331 11223 17773 18809 14371 12084 13409 16253 14063 19955 15554 16580 10821 10811 19966 16113 12989 12806 18002 12475 10666 18489 19197 15710 18578 15354 13032 13444 19783 14880 16663 999999
999999 999999 999999 999999 999999 999999 999999 0 999999 999999 999999 999999 999999 999999 999999 999999 999999 999999 999999 999999 999999 999999 999999 999999 999999 999999 999999 999999 999999 999999 999999 999999 999999 999999 999999 999999 999999 999999 999999 999999 999999 999999 999999 999999 999999 999999 999999 999999 999999 999999 999999 999999 999999 999999 999999 999999 999999 999999 999999 999999 999999 999999 999999 999999 999999 999999 999999 999999 999999 999999 999999 999999 999999 999999 999999 999999 999999 999999 999999 999999 999999 999999 999999 999999 999999 999999 999999 999999 999999 999999 999999 999999 999999 999999 999999 999999 999999 999999 999999 999999 999999 999999 999999 999999 999999 999999 999999 999999 999999 999999 999999 999999 999999 999999 999999 999999 999999 999999 999999 999999 999999 999999 999999 999999 999999 999999 999999 999999 999999 999999 999999 999999 999999 999999 999999 999999 999999 999999 999999 999999 999999 999999 999999 999999 999999 999999 999999 999999 999999 999999 999999 999999 999999 999999 999999 999999 999999 999999 999999 999999 999999 14933 19347 18991 16988 12258 11885 15595 11235 10270 15176 12279 19304 10231 17704 13886 13167 19705 19988 13999 14181 16411 19939 16646 11692 13939 12937 17504 18097 18689 12970 11330 12697 18736 10311 11602 10291 17439 19469 14693 10264 11527 16337 19863 17898 18094 19585 10128 13427 11957 11935 12619 11551 10812 12346 10283 13676 11527 16387 12627 13626 10551 18229 19630 13457 13754 19723 13727 19077 19107 13604 16017 15741 10624 18113 19509 18238 18344 10815 17024 19768 16156 19013 11699 13022 15188 17370 19173 15689 10271 10852 14071 12683 14146 10103 13724 13715 15520 19993 19484 18513 16084 15136 11010 15591 15285 14271 16418 11933 10845 18957 18772 10467 16462 10875 19486 13800 14466 13046 16621 17187 19705 19364 14112 12958 15531 17383 11809 17759 10089 19122 12224 14546 19597 16088 14291 18300 16684 12844 18684 10676 13561 14252 19907 17319 19466 16476 18502 16637 16917 10871 14239 12830 19076 12468 12887 11743 18988 17384 19334 11440 999999
999999 999999 999999 999999 999999 999999 999999 999999 0 999999 999999 999999 999999 999999 999999 999999 999999 999999 999999 999999 999999 999999 999999 999999 999999 999999 999999 999999 999999 999999 999999 999999 999999 999999 999999 999999 999999 999999 999999 999999 999999 999999 999999 999999 999999 999999 999999 999999 999999 999999 999999 999999 999999 999999 999999 999999 999999 999999 999999 999999 999999 999999 999999 999999 999999 999999 999999 999999 999999 999999 999999 999999 999999 999999 999999 999999 999999 999999 999999 999999 999999 999999 999999 999999 999999 999999 999999 999999 999999 999999 999999 999999 999999 999999 999999 999999 999999 999999 999999 999999 999999 999999 999999 999999 999999 999999 999999 999999 999999 999999 999999 999999 999999 999999 999999 999999 999999 999999 999999 999999 999999 999999 999999 999999 999999 999999 999999 999999 999999 999999 999999 999999 999999 999999 999999 999999 999999 999999 999999 999999 999999 999999 999999 999999 999999 999999 999999 999999 999999 999999 999999 999999 999999 999999 999999 999999 999999 999999 999999 999999 999999 10387 16718 14945 16771 12904 11396 11931 18643 15315 10743 10455 16599 11756 12409 18447 18920 15838 12221 14181 17053 12863 17779 11211 13271 12450 12285 10415 11516 16386 19987 16066 14214 14499 19957 14434 12895 12773 17627 16220 13342 17768 14871 10034 19182 11590 13116 15679 12506 13675 10050 13513 15295 14772 12676 12997 19764 11368 10037 17543 16929 14486 19482 12384 10105 18520 16019 15833 19640 15192 14077 18847 16692 13356 17245 16385 13004 18145 11909 12616 19972 19991 13908 17960 14681 13205 17187 15522 12911 17104 12089 11113 15612 12136 17292 18659 14562 11268 13842 10260 17924 11127 11598 17113 11824 11232 13467 14520 12142 13696 13133 13634 12471 16654 19603 10649 18357 14247 13561 11147 18248 18561 13254 12210 12750 11608 11515 10787 16377 15757 19001 19351 11312 13193 16675 11932 13564 12054 15716 18566 17835 15530 18975 14302 10098 10605 10946 10133 14115 19045 14562 14203 14505 19759 17392 19217 11629 18702 13343 15933 12494 999999
999999 999999 999999 999999 999999 999999 999999 999999 999999 0 999999 999999 999999 999999 999999 999999 999999 999999 999999 999999 999999 999999 999999 999999 999999 999999 999999 999999 999999 999999 999999 999999 999999 999999 999999 999999 999999 999999 999999 999999 999999 999999 999999 999999 999999 999999 999999 999999 999999 999999 999999 999999 999999 999999 999999 999999 999999 999999 999999 999999 999999 999999 999999 999999 999999 999999 999999 999999 999999 999999 999999 999999 999999 999999 999999 999999 999999 999999 999999 999999 999999 999999 999999 999999 999999 999999 999999 999999 999999 999999 999999 999999 999999 999999 999999 999999 999999 999999 999999 999999 999999 999999 999999 999999 999999 999999 999999 999999 999999 999999 999999 999999 999999 999999 999999 999999 999999 999999 999999 999999 999999 999999 999999 999999 999999 999999 999999 999999 999999 999999 999999 999999 999999 999999 999999 999999 999999 999999 999999 999999 999999 999999 999999 999999 999999 999999 999999 999999 999999 999999 999999 999999 999999 999999 999999 999999 999999 999999 999999 999999 999999 14966 16748 17513 15862 16930 12694 18090 17819 19207 10239 18999 19006 16346 14378 12543 18286 11499 14409 16037 12243 14639 15882 13452 19772 18166 12899 13978 16037 13809 15166 11038 14919 13433 10339 14949 16304 13768 18114 17670 16482 16701 16798 13102 15077 10069 12339 16575 10500 16771 12675 12464 14482 17378 17695 16784 15390 13789 19218 18602 15652 10847 13473 16763 16487 17281 14419 17772 18450 12386 11777 13043 11744 14137 11841 18812 16510 17494 14169 14639 18079 19181 13569 13281 13953 15477 11732 16619 13949 18281 11800 14692 11445 19845 15067 12358 11106 10628 19850 10345 18878 17308 13445 14485 15251 13359 18778 14000 11658 14763 16081 16813 11109 17440 11880 16920 18491 19341 19242 13787 16773 16290 14161 12953 16582 10931 11169 13768 14155 11256 17091 19136 16208 16250 11498 18558 14641 11062 10533 14843 12230 11849 17570 15831 16594 14375 14992 18574 18621 18263 14685 17264 16073 16186 18523 16421 15233 11413 10345 16988 19806 999999
999999 999999 999999 999999 999999 999999 999999 999999 999999 999999 0 999999 999999 999999 999999 999999 999999 999999 999999 999999 999999 999999 999999 999999 999999 999999 999999 999999 999999 999999 999999 999999 999999 999999 999999 999999 999999 999999 999999 999999 999999 999999 999999 999999 999999 999999 999999 999999 999999 999999 999999 999999 999999 999999 999999 999999 999999 999999 999999 999999 999999 999999 999999 999999 999999 999999 999999 999999 999999 999999 999999 999999 999999 999999 999999 999999 999999 999999 999999 999999 999999 999999 999999 999999 999999 999999 999999 999999 999999 999999 999999 999999 999999 999999 999999 999999 999999 999999 999999 999999 999999 999999 999999 999999 999999 999999 999999 999999 999999 999999 999999 999999 999999 999999 999999 999999 999999 999999 999999 999999 999999 999999 999999 999999 999999 999999 999999 999999 999999 999999 999999 999999 999999 999999 999999 999999 999999 999999 999999 999999 999999 999999 999999 999999 999999 999999 999999 999999 999999 999999 999999 999999 999999 999999 999999 999999 999999 999999 999999 999999 999999 19131 17639 19670 13304 16968 11866 13572 18489 10100 18731 12045 11508 18369 10300 16877 19732 19004 11710 12148 19322 13665 16768 13550 18961 15459 12004 16694 15221 16092 12129 12859 18178 11374 17358 16887 10635 19446 17316 12213 16800 11414 15462 19959 14016 13291 18228 14719 12903 15850 17300 16832 11576 18043 18210 14289 16085 15230 18407 19164 15143 14524 16180 17441 15386 15739 11332 19912 13858 13943 19153 15937 12774 10386 14699 10965 12962 18522 10288 15498 14506 15212 17671 10344 10331 16822 13280 15399 14080 12279 14772 12314 19759 16523 14008 12399 12880 11404 14936 11853 16328 10688 12743 19903 17280 12269 16687 14722 16735 10156 17126 11682 14608 12781 15517 12307 12988 13233 16081 19975 19699 18312 15516 10777 10765 17744 19271 15478 16092 15061 12232 17900 11415 18048 14285 15911 14819 11996 18086 10386 15842 16506 11631 14181 17592 14096 16396 13935 13408 10982 19809 14825 14135 18306 16404 19970 15379 19220 17869 15363 13211 999999
999999 999999 999999 999999 999999 999999 999999 999999 999999 999999 999999 0 999999 999999 999999 999999 999999 999999 999999 999999 999999 999999 999999 999999 999999 999999 999999 999999 999999 999999 999999 999999 999999 999999 999999 999999 999999 999999 999999 999999 999999 999999 999999 999999 999999 999999 999999 999999 999999 999999 999999 999999 999999 999999 999999 999999 999999 999999 999999 999999 999999 999999 999999 999999 999999 999999 999999 999999 999999 999999 999999 999999 999999 999999 999999 999999 999999 999999 999999 999999 999999 999999 999999 999999 999999 999999 999999 999999 999999 999999 999999 999999 999999 999999 999999 999999 999999 999999 999999 999999 999999 999999 999999 999999 999999 999999 999999 999999 999999 999999 999999 999999 999999 999999 999999 999999 999999 999999 999999 999999 999999 999999 999999 999999 999999 999999 999999 999999 999999 999999 999999 999999 999999 999999 999999 999999 999999 999999 999999 999999 999999 999999 999999 999999 999999 999999 999999 999999 999999 999999 999999 999999 999999 999999 999999 999999 999999 999999 999999 999999 999999 16532 11826 16251 14786 15494 19545 13379 14826 19672 14157 18637 16525 11419 16340 14398 11935 13691 15923 14627 15105 16330 18268 19758 15412 18733 10380 17644 12179 11463 14201 12459 14748 13397 13060 16136 17562 12837 13155 10649 16220 10690 17645 18236 11538 16084 13676 16398 10782 18713 12894 17652 14869 13224 14038 12777 13068 17790 13381 19699 16571 18390 17737 13644 10761 17472 16355 11743 15217 12196 15988 16428 16732 10007 17056 13430 17935 19091 11082 14767 14854 15455 10669 13416 16958 16524 10290 15054 19646 17925 16733 15703 14109 12771 16925 19692 10046 10173 18153 17838 12092 15131 16426 19570 19436 16411 16748 14352 12435 12526 14070 10383 15518 12199 12828 19043 12434 14373 12200 12395 11151 11761 13657 13733 10310 12187 14751 11031 12945 13411 10084 15832 16436 16057 18489 18002 17556 15842 16573 16892 11999 17752 10046 12454 11197 12081 11819 16589 14400 18796 17433 10168 13278 12991 10841 11730 15722 16829 15000 14564 12342 999999
999999 999999 999999 999999 999999 999999 999999 999999 999999 999999 999999 999999 0 999999 999999 999999 999999 999999 999999 999999 999999 999999 999999 999999 999999 999999 999999 999999 999999 999999 999999 999999 999999 999999 999999 999999 999999 999999 999999 999999 999999 999999 999999 999999 999999 999999 999999 999999 999999 999999 999999 999999 999999 999999 999999 999999 999999 999999 999999 999999 999999 999999 999999 999999 999999 999999 999999 999999 999999 999999 999999 999999 999999 999999 999999 999999 999999 999999 999999 999999 999999 999999 999999 999999 999999 999999 999999 999999 999999 999999 999999 999999 999999 999999 999999 999999 999999 999999 999999 999999 999999 999999 999999 999999 999999 999999 999999 999999 999999 999999 999999 999999 999999 999999 999999 999999 999999 999999 999999 999999 999999 999999 999999 999999 999999 999999 999999 999999 999999 999999 999999 999999 999999 999999 999999 999999 999999 999999 999999 999999 999999 999999 999999 999999 999999 999999 999999 999999 999999 999999 999999 999999 999999 999999 999999 999999 999999 999999 999999 999999 999999 12549 15994 16713 10519 15338 19001 10030 18999 17026 14282 16475 11529 13850 12920 19118 11856 10737 16393 15518 12067 17758 12270 19061 15797 16580 19536 18908 13667 12854 16036 14627 10475 13019 11903 18729 16771 18213 13883 10754 14299 12889 16789 12327 10776 13420 17197 19751 13041 11447 11661 13959 16604 18297 12165 16175 15975 14341 15186 18374 14542 14948 13606 19913 18253 18641 16032 16160 16244 15112 19356 12641 16723 17413 16879 12890 19960 15374 12906 17526 10105 19125 12485 19307 18021 14286 19901 16486 10680 14454 17314 10876 11549 10388 16193 11954 11484 19528 10679 10680 18322 13453 12099 19603 19340 15005 17082 11256 17709 10998 10017 10242 19262 18384 13979 10459 14041 12326 15111 12016 11643 11566 17980 15741 16457 19949 18556 14256 12676 16902 17363 19941 17739 12433 15946 18578 13573 19855 11681 18127 16641 10897 19353 13008 16069 17866 17947 12538 17289 17780 16344 17977 10247 16451 14997 17553 12694 11821 11597 10937 18939 999999
999999 999999 999999 999999 999999 999999 999999 999999 999999 999999 999999 999999 999999 0 999999 999999 999999 999999 999999 999999 999999 999999 999999 999999 999999 999999 999999 999999 999999 999999 999999 999999 999999 999999 999999 999999 999999 999999 999999 999999 999999 999999 999999 999999 999999 999999 999999 999999 999999 999999 999999 999999 999999 999999 999999 999999 999999 999999 999999 999999 999999 999999 999999 999999 999999 999999 999999 999999 999999 999999 999999 999999 999999 999999 999999 999999 999999 999999 999999 999999 999999 999999 999999 999999 999999 999999 999999 999999 999999 999999 999999 999999 999999 999999 999999 999999 999999 999999 999999 999999 999999 999999 999999 999999 999999 999999 999999 999999 999999 999999 999999 999999 999999 999999 999999 999999 999999 999999 999999 999999 999999 999999 999999 999999 999999 999999 999999 999999 999999 999999 999999 999999 999999 999999 999999 999999 999999 999999 999999 999999 999999 999999 999999 999999 999999 999999 999999 999999 999999 999999 999999 999999 999999 999999 999999 999999 999999 999999 999999 999999 999999 10194 17671 19688 15277 11630 13928 17880 18335 17069 10699 12263 14302 10062 17419 19585 13565 16767 19512 13192 11862 17865 12010 18836 11655 14652 12426 13469 17636 19647 14382 11200 11350 13613 16209 11730 12667 13515 17422 14997 10246 18423 10257 12227 17366 10076 14102 12633 10672 10532 10165 15826 10360 18904 11492 12459 17413 12951 14579 10976 16678 17903 12431 10711 16027 13274 10544 15355 18727 13739 13215 10066 13946 12921 10304 19569 10237 19542 16226 13029 18536 16033 12609 18124 11770 16977 19250 17874 13462 12896 15196 14698 14105 10044 17768 11238 12787 11609 13314 11616 19568 18360 19013 12522 11831 16031 15394 13136 10976 15591 19895 18279 11283 12608 18507 11464 12823 11865 12297 12611 17483 10983 16721 10472 18910 10064 17718 19753 10742 11633 19357 10344 12219 14480 10069 13659 17542 10734 14412 16226 12960 13149 19795 13714 12605 11135 18276 19118 15306 12070 18934 10299 15984 19497 16967 18059 11697 15987 12153 17658 15576 999999
999999 999999 999999 999999 999999 999999 999999 999999 999999 999999 999999 999999 999999 999999 0 999999 999999 999999 999999 999999 999999 999999 999999 999999 999999 999999 999999 999999 999999 999999 999999 999999 999999 999999 999999 999999 999999 999999 999999 999999 999999 999999 999999 999999 999999 999999 999999 999999 999999 999999 999999 999999 999999 999999 999999 999999 999999 999999 999999 999999 999999 999999 999999 999999 999999 999999 999999 999999 999999 999999 999999 999999 999999 999999 999999 999999 999999 999999 999999 999999 999999 999999 999999 999999 999999 999999 999999 999999 999999 999999 999999 999999 999999 999999 999999 999999 999999 999999 999999 999999 999999 999999 999999 999999 999999 999999 999999 999999 999999 999999 999999 999999 999999 999999 999999 999999 999999 999999 999999 999999 999999 999999 999999 999999 999999 999999 999999 999999 999999 999999 999999 999999 999999 999999 999999 999999 999999 999999 999999 999999 999999 999999 999999 999999 999999 999999 999999 999999 999999 999999 999999 999999 999999 999999 999999 999999 999999 999999 999999 999999 999999 19601 11778 11829 14281 17114 11518 13488 14808 19693 15360 13291 16309 11485 10979 17049 18967 10478 11414 10185 19346 19799 14781 14891 15857 17803 12883 17223 18391 14877 11269 17916 11794 13885 11140 12330 13619 10688 18879 12748 15957 15630 17726 18053 18453 12840 16472 17926 14122 10583 11734 12486 18423 16079 15935 13858 13754 19534 19621 18582 16583 14200 13373 10834 18210 10544 19425 17430 14585 16209 17448 11342 19386 14272 17458 11758 18471 19574 10718 13225 13019 15716 10749 18885 11139 12815 10735 17547 15067 16511 10534 12869 11365 19531 15124 18436 17591 14088 15949 12104 16561 17356 11630 18740 19896 15240 14308 10923 16156 17875 19130 10116 10236 10881 13601 19102 10854 18477 17558 10550 15235 11625 18680 10305 13708 19341 15465 12302 13784 12229 14321 13147 13324 18017 16149 15120 10771 18499 11776 11868 10296 18459 15056 16603 11009 18781 13206 15780 16733 18555 13216 10005 19301 11037 11585 17811 19265 16277 10026 13844 14125 999999
999999 999999 999999 999999 999999 999999 999999 999999 999999 999999 999999 999999 999999 999999 999999 0 999999 999999 999999 999999 999999 999999 999999 999999 999999 999999 999999 999999 999999 999999 999999 999999 999999 999999 999999 999999 999999 999999 999999 999999 999999 999999 999999 999999 999999 999999 999999 999999 999999 999999 999999 999999 999999 999999 999999 999999 999999 999999 999999 999999 999999 999999 999999 999999 999999 999999 999999 999999 999999 999999 999999 999999 999999 999999 999999 999999 999999 999999 999999 999999 999999 999999 999999 999999 999999 999999 999999 999999 999999 999999 999999 999999 999999 999999 999999 999999 999999 999999 999999 999999 999999 999999 999999 999999 999999 999999 999999 999999 999999 999999 999999 999999 999999 999999 999999 999999 999999 999999 999999 999999 999999 999999 999999 999999 999999 999999 999999 999999 999999 999999 999999 999999 999999 999999 999999 999999 999999 999999 999999 999999 999999 999999 999999 999999 999999 999999 999999 999999 999999 999999 999999 999999 999999 999999 999999 999999 999999 999999 999999 999999 999999 11440 19897 16064 19240 13046 19926 13681 12959 14480 10234 11260 13391 14128 11876 18740 10628 17644 10677 12943 15793 16307 15734 19354 17038 17702 10181 10550 11993 10606 19261 10536 18382 17535 19229 11136 10523 12269 12217 15134 10673 15171 17439 18721 19249 18452 14152 10588 11461 10599 14910 19989 10965 19986 17648 15183 15687 13916 10918 12681 16500 17341 17925 12893 18715 18263 11064 15854 12367 10603 19623 17175 13090 14131 15335 16454 16767 12668 13218 18431 16786 15339 10289 11442 18047 11044 15212 19918 17628 10762 11120 17631 15814 13349 14124 14962 13582 11490 12031 12220 16374 16800 10899 10517 14721 13446 18318 17508 18273 16834 19679 11443 10984 14969 15527 16373 15746 12893 18807 12570 16676 19097 14026 12354 17427 14275 16455 18945 14535 18815 19071 13616 13069 17191 11212 13693 13020 12417 12640 17756 15609 12917 18229 18347 11534 11550 18832 12256 11769 13372 19163 10586 17916 10395 15890 11981 17261 12593 10854 17516 15292 999999
999999 999999 999999 999999 999999 999999 999999 999999 999999 999999 999999 999999 999999 999999 999999 999999 0 999999 999999 999999 999999 999999 999999 999999 999999 999999 999999 999999 999999 999999 999999 999999 999999 999999 999999 999999 999999 999999 999999 999999 999999 999999 999999 999999 999999 999999 999999 999999 999999 999999 999999 999999 999999 999999 999999 999999 999999 999999 999999 999999 999999 999999 999999 999999 999999 999999 999999 999999 999999 999999 999999 999999 999999 999999 999999 999999 999999 999999 999999 999999 999999 999999 999999 999999 999999 999999 999999 999999 999999 999999 999999 999999 999999 999999 999999 999999 999999 999999 999999 999999 999999 999999 999999 999999 999999 999999 999999 999999 999999 999999 999999 999999 999999 999999 999999 999999 999999 999999 999999 999999 999999 999999 999999 999999 999999 999999 999999 999999 999999 999999 999999 999999 999999 999999 999999 999999 999999 999999 999999 999999 999999 999999 999999 999999 999999 999999 999999 999999 999999 999999 999999 999999 999999 999999 999999 999999 999999 999999 999999 999999 999999 11003 16750 16227 14907 14603 17737 16165 11645 19611 10763 11243 15091 13177 16650 11066 17286 14320 14038 16791 14300 19031 19194 15758 12308 19657 16070 14350 14066 14686 15366 14030 14456 18295 11237 10532 13145 10471 15608 12030 12579 12332 17000 11606 16356 16684 14284 17619 13692 17470 13789 18085 11389 18101 16796 12345 18578 17573 16590 15653 16357 11978 12578 19752 12001 13631 13332 10480 15081 17059 11960 17599 15564 18933 18063 18620 11338 17158 14844 16318 13456 19331 15620 10839 11981 19538 11116 10909 11924 10857 18613 11790 12259 15789 12743 14124 17494 17861 11396 16887 16240 15741 14384 16031 12614 19154 11701 14601 14758 13601 12680 19790 17374 16372 18527 17068 13462 16067 16323 15189 14693 19739 19660 12055 14514 16453 10939 16342 16794 18936 15364 18373 14917 12570 15565 13863 12726 16853 14369 12110 16627 14548 19578 11993 18385 16165 11556 15200 18801 14133 15176 13169 16257 13307 17011 12397 19258 13012 17701 10764 16015 999999
999999 999999 999999 999999 999999 999999 999999 999999 999999 999999 999999 999999 999999 999999 999999 999999 999999 0 999999 999999 999999 999999 999999 999999 999999 999999 999999 999999 999999 999999 999999 999999 999999 999999 999999 999999 999999 999999 999999 999999 999999 999999 999999 999999 999999 999999 999999 999999 999999 999999 999999 999999 999999 999999 999999 999999 999999 999999 999999 999999 999999 999999 999999 999999 999999 999999 999999 999999 999999 999999 999999 999999 999999 999999 999999 999999 999999 999999 999999 999999 999999 999999 999999 999999 999999 999999 999999 999999 999999 999999 999999 999999 999999 999999 999999 999999 999999 999999 999999 999999 999999 999999 999999 999999 999999 999999 999999 999999 999999 999999 999999 999999 999999 999999 999999 999999 999999 999999 999999 999999 999999 999999 999999 999999 999999 999999 999999 999999 999999 999999 999999 999999 999999 999999 999999 999999 999999 999999 999999 999999 999999 999999 999999 999999 999999 999999 999999 999999 999999 999999 999999 999999 999999 999999 999999 999999 999999 999999 999999 999999 999999 17166 17880 11451 12396 19843 18155 17056 17259 19745 12918 19320 13687 17101 16397 17514 13771 10692 17066 19909 16942 14887 12141 16467 12497 16001 19693 17246 12318 14899 14736 10034 11301 16669 19192 13291 18535 18082 11755 12055 16019 18353 12554 18484 18083 16886 18903 10649 12214 18408 13061 12907 13817 16710 13519 16806 13385 16527 14943 17220 11732 16812 19141 12500 18232 19134 14423 12983 13847 13095 18294 12608 12447 18227 16362 16303 16262 17899 13317 11502 10246 12438 16272 18063 19470 10704 12827 17799 17996 18959 15894 18336 13998 18072 15843 16161 10294 14268 14011 19442 11160 11306 17308 14252 18022 12286 10821 13322 17590 19306 10326 12181 14823 16349 16194 17817 16046 10678 12351 16285 10526 16492 13723 12514 13356 11038 15413 13197 16306 11347 12193 17325 19597 17353 18783 12037 15409 10464 17701 18134 10115 17888 18181 12068 14847 13084 13697 12939 17838 16765 10391 12579 10376 10026 16864 17045 17033 17007 15895 17607 19452 999999
999999 999999 999999 999999 999999 999999 999999 999999 999999 999999 999999 999999 999999 999999 999999 999999 999999 999999 0 999999 999999 999999 999999 999999 999999 999999 999999 999999 999999 999999 999999 999999 999999 999999 999999 999999 999999 999999 999999 999999 999999 999999 999999 999999 999999 999999 999999 999999 999999 999999 999999 999999 999999 999999 999999 999999 999999 999999 999999 999999 999999 999999 999999 999999 999999 999999 999999 999999 999999 999999 999999 999999 999999 999999 999999 999999 999999 999999 999999 999999 999999 999999 999999 999999 999999 999999 999999 999999 999999 999999 999999 999999 999999 999999 999999 999999 999999 999999 999999 999999 999999 999999 999999 999999 999999 999999 999999 999999 999999 999999 999999 999999 999999 999999 999999 999999 999999 999999 999999 999999 999999 999999 999999 999999 999999 999999 999999 999999 999999 999999 999999 999999 999999 999999 999999 999999 999999 999999 999999 999999 999999 999999 999999 999999 999999 999999 999999 999999 999999 999999 999999 999999 999999 999999 999999 999999 999999 999999 999999 999999 999999 14339 19212 13986 19604 13224 19819 17672 12887 19752 13315 15773 18648 13966 10512 14492 19903 18055 15989 17481 15806 18468 14956 18338 10551 12045 19356 17832 18661 15477 11778 14131 18050 11313 19523 13328 13020 16770 19731 14231 15258 16197 15579 10645 13429 19098 10672 13022 18487 17396 14270 19201 12121 18145 11920 12550 10750 15364 15567 18670 18462 18055 16159 15047 11504 17902 11767 17021 15358 16923 14219 11681 16714 16869 12659 17456 13677 14350 12358 19326 19997 14654 13442 18985 10147 15054 12255 15258 15935 13127 16364 13303 14879 17587 11508 11829 17030 12492 14647 15563 11963 10225 17045 19653 15240 16202 19713 12056 17303 16092 13778 16889 17855 13648 16648 16188 18603 18157 10038 16750 14957 11384 11190 16796 18709 19225 16409 14419 14300 19363 15190 11476 15470 13178 16811 14157 14516 11790 19641 10057 14777 10660 11545 16409 15341 10522 13283 11956 15614 10242 19365 18641 11147 10883 15414 12160 10854 17421 16824 19316 13208 999999
999999 999999 999999 999999 999999 999999 999999 999999 999999 999999 999999 999999 999999 999999 999999 999999 999999 999999 999999 0 999999 999999 999999 999999 999999 999999 999999 999999 999999 999999 999999 999999 999999 999999 999999 999999 999999 999999 999999 999999 999999 999999 999999 999999 999999 999999 999999 999999 999999 999999 999999 999999 999999 999999 999999 999999 999999 999999 999999 999999 999999 999999 999999 999999 999999 999999 999999 999999 999999 999999 999999 999999 999999 999999 999999 999999 999999 999999 999999 999999 999999 999999 999999 999999 999999 999999 999999 999999 999999 999999 999999 999999 999999 999999 999999 999999 999999 999999 999999 999999 999999 999999 999999 999999 999999 999999 999999 999999 999999 999999 999999 999999 999999 999999 999999 999999 999999 999999 999999 999999 999999 999999 999999 999999 999999 999999 999999 999999 999999 999999 999999 999999 999999 999999 999999 999999 999999 999999 999999 999999 999999 999999 999999 999999 999999 999999 999999 999999 999999 999999 999999 999999 999999 999999 999999 999999 999999 999999 999999 999999 999999 18740 10344 18433 11481 11511 18317 12087 11975 18001 17377 14495 17852 18027 13039 13920 16301 11972 16374 10087 14989 14498 11849 15758 10305 12560 12012 18843 19530 13305 15012 18939 11670 16660 10606 12702 16924 14943 11728 15136 12415 14497 18993 18221 19097 16882 11628 13105 15493 18382 14051 17640 13391 19790 13768 18233 19961 10692 18771 17615 19218 11388 10225 10600 18577 16952 17815 15904 16979 12496 19925 10251 16280 15676 15160 15836 16142 13429 18797 19704 12349 10370 16274 17402 14679 12105 18014 17845 16651 18881 12723 13591 11761 10540 13339 12201 18315 11594 16239 11516 12925 12261 14680 12669 14306 10551 10097 14967 15735 10516 19072 12586 17201 18073 10366 19194 18961 10977 18092 11967 14504 17099 16004 17038 15992 15381 15249 19222 16554 12721 12123 12184 15222 10191 19148 18875 12344 14053 18530 15820 18363 13357 10745 18617 17894 15541 14490 13253 10182 14890 18592 16442 10350 14779 17156 14740 19090 15012 19471 13559 14841 999999
999999 999999 999999 999999 999999 999999 999999 999999 999999 999999 999999 999999 999999 999999 999999 999999 999999 999999 999999 999999 0 999999 999999 999999 999999 999999 999999 999999 999999 999999 999999 999999 999999 999999 999999 999999 999999 999999 999999 999999 999999 999999 999999 999999 999999 999999 999999 999999 999999 999999 999999 999999 999999 999999 999999 999999 999999 999999 999999 999999 999999 999999 999999 999999 999999 999999 999999 999999 999999 999999 999999 999999 999999 999999 999999 999999 999999 999999 999999 999999 999999 999999 999999 999999 999999 999999 999999 999999 999999 999999 999999 999999 999999 999999 999999 999999 999999 999999 999999 999999 999999 999999 999999 999999 999999 999999 999999 999999 999999 999999 999999 999999 999999 999999 999999 999999 999999 999999 999999 999999 999999 999999 999999 999999 999999 999999 999999 999999 999999 999999 999999 999999 999999 999999 999999 999999 999999 999999 999999 999999 999999 999999 999999 999999 999999 999999 999999 999999 999999 999999 999999 999999 999999 999999 999999 999999 999999 999999 999999 999999 999999 11050 14731 10026 14315 11376 11573 12673 17177 12176 12124 12453 17976 14698 19375 17528 16521 13385 10490 17815 10968 19423 10769 18488 12588 15587 12844 13328 17137 19266 11491 17137 11133 10422 18162 19585 16449 18294 10050 13129 12465 13312 16232 16916 16108 11832 16754 13638 13647 14690 11729 16967 11284 15493 14301 12603 10570 12636 10223 14555 10983 10989 10082 14523 15512 13102 10653 17454 18504 19012 16966 13681 14832 12381 14090 19775 17214 17821 10863 17608 18740 15068 10010 11388 14945 19970 16597 18379 12518 13473 15984 14515 16440 11217 14423 12200 19863 19147 12662 15310 10115 15195 13453 14608 14556 14875 17522 19909 10712 11154 14187 13681 13338 19644 13792 16242 13809 10391 13158 19067 12127 10447 17728 18416 18143 16624 17514 15853 10786 18462 14626 10218 14866 16936 14287 19023 13786 11556 14129 11748 15911 19757 12370 17587 15295 12311 11550 16715 16730 18993 11743 10997 13291 10463 11337 15201 10227 15005 18713 19895 17437 999999
999999 999999 999999 999999 999999 999999 999999 999999 999999 999999 999999 999999 999999 999999 999999 999999 999999 999999 999999 999999 999999 0 999999 999999 999999 999999 999999 999999 999999 999999 999999 999999 999999 999999 999999 999999 999999 999999 999999 999999 999999 999999 999999 999999 999999 999999 999999 999999 999999 999999 999999 999999 999999 999999 999999 999999 999999 999999 999999 999999 999999 999999 999999 999999 999999 999999 999999 999999 999999 999999 999999 999999 999999 999999 999999 999999 999999 999999 999999 999999 999999 999999 999999 999999 999999 999999 999999 999999 999999 999999 999999 999999 999999 999999 999999 999999 999999 999999 999999 999999 999999 999999 999999 999999 999999 999999 999999 999999 999999 999999 999999 999999 999999 999999 999999 999999 999999 999999 999999 999999 999999 999999 999999 999999 999999 999999 999999 999999 999999 999999 999999 999999 999999 999999 999999 999999 999999 999999 999999 999999 999999 999999 999999 999999 999999 999999 999999 999999 999999 999999 999999 999999 999999 999999 999999 999999 999999 999999 999999 999999 999999 12406 11513 15130 12552 16508 12783 10676 13461 16770 17290 18774 12091 13897 19388 11881 19445 12347 17687 16710 14456 11713 14937 18599 10081 12496 10566 13078 17676 11097 15403 17695 19389 15691 12275 12129 10730 19775 14625 15431 14615 14608 15651 17501 15016 14000 18192 12520 16886 18027 13017 14749 17210 16950 15462 14887 19350 10077 11251 18186 16067 13968 13754 19339 19319 11063 13691 11805 17460 17149 18260 19754 11470 19572 19584 17398 11686 16647 11883 14969 15352 11256 10223 19932 10539 18472 18843 10753 19963 15658 10309 17463 11551 10142 11963 16412 18996 18723 17509 10171 11704 14832 16467 12500 15897 13029 15456 15735 17498 18826 17612 11614 16725 13033 12909 10516 17576 13419 17551 14491 11569 13253 17006 11410 18501 17629 15908 16380 17738 17380 15459 11816 19675 17506 10621 12978 16145 15043 18276 15572 10060 16455 14548 16159 15658 18219 10051 14192 14426 12477 19354 14175 15728 18109 11231 12820 13179 17968 16885 12530 19261 999999
999999 999999 999999 999999 999999 999999 999999 999999 999999 999999 999999 999999 999999 999999 999999 999999 999999 999999 999999 999999 999999 999999 0 999999 999999 999999 999999 999999 999999 999999 999999 999999 999999 999999 999999 999999 999999 999999 999999 999999 999999 999999 999999 999999 999999 999999 999999 999999 999999 999999 999999 999999 999999 999999 999999 999999 999999 999999 999999 999999 999999 999999 999999 999999 999999 999999 999999 999999 999999 999999 999999 999999 999999 999999 999999 999999 999999 999999 999999 999999 999999 999999 999999 999999 999999 999999 999999 999999 999999 999999 999999 999999 999999 999999 999999 999999 999999 999999 999999 999999 999999 999999 999999 999999 999999 999999 999999 999999 999999 999999 999999 999999 999999 999999 999999 999999 999999 999999 999999 999999 999999 999999 999999 999999 999999 999999 999999 999999 999999 999999 999999 999999 999999 999999 999999 999999 999999 999999 999999 999999 999999 999999 999999 999999 999999 999999 999999 999999 999999 999999 999999 999999 999999 999999 999999 999999 999999 999999 999999 999999 999999 19708 12113 19662 14493 15700 19228 16742 12894 15078 16151 14609 15194 15407 19683 15423 16424 19788 16826 17612 18464 18154 12139 10191 15771 15480 12045 10720 17594 19416 10628 15802 12308 19255 19495 13805 13889 12745 10660 19710 17901 13785 19559 15207 16233 17240 11380 10185 10575 10712 19516 12803 16903 15691 16001 17268 14511 11995 13351 10260 15944 17846 15903 18344 12602 14925 10601 17627 11100 13122 18732 11599 15053 18044 18823 17131 10878 18843 17446 19571 15478 15142 15872 11242 14085 19325 11566 15904 16735 18386 16551 15195 18313 13690 15451 18423 18931 17122 16437 19249 11201 13047 12411 17395 10534 19163 10920 17020 13744 19355 16894 10868 14302 13574 13198 19978 17210 17106 19880 16251 18707 11275 17018 10479 18156 19588 16354 15203 10301 13480 18500 19451 11676 17409 10196 12880 14256 10851 17691 16827 12159 17082 16317 19035 10561 17931 16194 18617 17516 12142 12204 19363 10096 15372 14784 18637 17021 13872 12411 16242 15262 999999
999999 999999 999999 999999 999999 999999 999999 999999 999999 999999 999999 999999 999999 999999 999999 999999 999999 999999 999999 999999 999999 999999 999999 0 999999 999999 999999 999999 999999 999999 999999 999999 999999 999999 999999 999999 999999 999999 999999 999999 999999 999999 999999 999999 999999 999999 999999 999999 999999 999999 999999 999999 999999 999999 999999 999999 999999 999999 999999 999999 999999 999999 999999 999999 999999 999999 999999 999999 999999 999999 999999 999999 999999 999999 999999 999999 999999 999999 999999 999999 999999 999999 999999 999999 999999 999999 999999 999999 999999 999999 999999 999999 999999 999999 999999 999999 999999 999999 999999 999999 999999 999999 999999 999999 999999 999999 999999 999999 999999 999999 999999 999999 999999 999999 999999 999999 999999 999999 999999 999999 999999 999999 999999 999999 999999 999999 999999 999999 999999 999999 999999 999999 999999 999999 999999 999999 999999 999999 999999 999999 999999 999999 999999 999999 999999 999999 999999 999999 999999 999999 999999 999999 999999 999999 999999 999999 999999 999999 999999 999999 999999 14103 13797 19367 16356 16650 18220 17172 19354 10338 13313 12671 19533 11542 13982 17494 13047 16162 15999 15360 17232 13361 16978 11430 17945 13439 11807 18581 13524 19197 16767 19304 11700 11149 12979 19461 10272 13345 14386 19617 12573 10365 11714 17057 16769 18180 14509 12479 10326 17868 14312 14815 14526 14557 14504 14601 10684 12800 11416 17293 15312 12812 18167 10258 16942 11577 10865 15747 13819 17741 19352 19060 11784 10098 18825 13253 19270 10810 12278 10374 11776 17772 16044 19888 17239 13445 18382 18231 11074 12462 15552 18562 14900 12383 19197 15502 16816 17538 12579 14317 10618 17562 16307 18566 17367 11217 11367 11796 14846 16650 12374 12080 11035 13287 16663 19949 17785 19387 16306 16693 10345 15564 10492 13587 10105 13340 17233 15776 10598 14698 11327 18710 12002 12790 13283 18472 18258 14028 13366 13392 14487 15376 18680 17672 12935 19753 14714 10036 17565 17465 14862 14221 13577 13757 18287 19636 18621 12801 19511 12334 11861 999999
999999 999999 999999 999999 999999 999999 999999 999999 999999 999999 999999 999999 999999 999999 999999 999999 999999 999999 999999 999999 999999 999999 999999 999999 0 999999 999999 999999 999999 999999 999999 999999 999999 999999 999999 999999 999999 999999 999999 999999 999999 999999 999999 999999 999999 999999 999999 999999 999999 999999 999999 999999 999999 999999 999999 999999 999999 999999 999999 999999 999999 999999 999999 999999 999999 999999 999999 999999 999999 999999 999999 999999 999999 999999 999999 999999 999999 999999 999999 999999 999999 999999 999999 999999 999999 999999 999999 999999 999999 999999 999999 999999 999999 999999 999999 999999 999999 999999 999999 999999 999999 999999 999999 999999 999999 999999 999999 999999 999999 999999 999999 999999 999999 999999 999999 999999 999999 999999 999999 999999 999999 999999 999999 999999 999999 999999 999999 999999 999999 999999 999999 999999 999999 999999 999999 999999 999999 999999 999999 999999 999999 999999 999999 999999 999999 999999 999999 999999 999999 999999 999999 999999 999999 999999 999999 999999 999999 999999 999999 999999 999999 11043 16551 16281 14841 13845 14238 10181 10646 17729 19296 18924 19715 14433 17433 13048 17323 18790 15909 14178 18817 14282 14310 12525 17468 10230 15100 10295 18721 15333 10962 16022 15392 15471 12969 17877 19368 16962 15881 14896 17110 15464 18146 11787 17665 13245 19739 14960 17304 18839 19396 18857 15153 10301 14523 17156 18660 17472 15572 10822 12886 19890 17831 13295 11458 12252 15071 19512 13941 18246 14708 13644 12775 13827 17755 10677 15886 18348 16057 14245 19591 19844 10291 15073 19452 17394 12662 10908 14539 18438 10062 12835 15342 14115 13818 15612 11267 10072 15097 19765 18579 14351 13968 13003 13768 19885 15063 12487 12158 10284 12321 19278 11659 19970 12006 10743 10192 13541 12867 19984 12349 11742 13364 12593 19365 15980 12238 16050 13175 14525 13964 15457 16180 11345 10027 13929 11537 11131 15217 19443 10274 10119 16435 17080 16788 10952 17417 15170 14073 12336 19464 14102 16243 15271 19161 11317 18456 10071 10447 17152 14600 999999
999999 999999 999999 999999 999999 999999 999999 999999 999999 999999 999999 999999 999999 999999 999999 999999 999999 999999 999999 999999 999999 999999 999999 999999 999999 0 999999 999999 999999 999999 999999 999999 999999 999999 999999 999999 999999 999999 999999 999999 999999 999999 999999 999999 999999 999999 999999 999999 999999 999999 999999 999999 999999 999999 999999 999999 999999 999999 999999 999999 999999 999999 999999 999999 999999 999999 999999 999999 999999 999999 999999 999999 999999 999999 999999 999999 999999 999999 999999 999999 999999 999999 999999 999999 999999 999999 999999 999999 999999 999999 999999 999999 999999 999999 999999 999999 999999 999999 999999 999999 999999 999999 999999 999999 999999 999999 999999 999999 999999 999999 999999 999999 999999 999999 999999 999999 999999 999999 999999 999999 999999 999999 999999 999999 999999 999999 999999 999999 999999 999999 999999 999999 999999 999999 999999 999999 999999 999999 999999 999999 999999 999999 999999 999999 999999 999999 999999 999999 999999 999999 999999 999999 999999 999999 999999 999999 999999 999999 999999 999999 999999 15270 16474 19965 15894 16844 16764 17446 13124 13127 15845 15091 14822 12771 17395 11317 14938 17484 18902 11229 16600 11887 16778 11150 13224 17419 17618 12166 12471 12101 19644 11047 19134 12441 15063 17322 17771 13198 15406 13063 17709 14595 19754 18354 12541 11097 11514 14358 16746 15667 12893 11090 14199 16988 12387 17527 12357 12717 14381 19101 19826 16011 12668 19726 17221 18916 11200 18459 16665 18121 16132 15733 19346 19947 17506 15183 14429 11879 17709 10435 19358 18628 15629 15270 15554 10277 11695 16996 19737 18000 14124 13743 19571 18689 19202 13602 18502 12892 14887 18093 17775 12849 19103 12852 15965 14417 19043 18472 10359 11957 14939 16236 17350 19233 18929 10063 12541 19828 13577 17130 16857 14159 10283 14936 16229 17227 10917 18922 14071 13644 13329 10622 15958 16465 11437 14170 16289 14599 17898 14048 13987 11675 19424 19935 13830 17637 19526 11764 16989 13744 17923 18561 12537 10958 14440 10038 12833 19393 13549 16233 13953 999999
999999 999999 999999 999999 999999 999999 999999 999999 999999 999999 999999 999999 999999 999999 999999 999999 999999 999999 999999 999999 999999 999999 999999 999999 999999 999999 0 999999 999999 999999 999999 999999 999999 999999 999999 999999 999999 999999 999999 999999 999999 999999 999999 999999 999999 999999 999999 999999 999999 999999 999999 999999 999999 999999 999999 999999 999999 999999 999999 999999 999999 999999 999999 999999 999999 999999 999999 999999 999999 999999 999999 999999 999999 999999 999999 999999 999999 999999 999999 999999 999999 999999 999999 999999 999999 999999 999999 999999 999999 999999 999999 999999 999999 999999 999999 999999 999999 999999 999999 999999 999999 999999 999999 999999 999999 999999 999999 999999 999999 999999 999999 999999 999999 999999 999999 999999 999999 999999 999999 999999 999999 999999 999999 999999 999999 999999 999999 999999 999999 999999 999999 999999 999999 999999 999999 999999 999999 999999 999999 999999 999999 999999 999999 999999 999999 999999 999999 999999 999999 999999 999999 999999 999999 999999 999999 999999 999999 999999 999999 999999 999999 19960 10091 12470 14867 15124 19200 18139 16318 18548 11664 19674 16498 16762 14770 18278 10665 17829 19737 19125 12299 18422 16717 10914 15985 10728 18232 14520 13462 17318 13762 16668 17239 12552 18125 12535 19591 12142 12167 19486 19546 18722 14077 13703 10902 19853 10863 14044 16016 17021 12404 18879 16087 12865 15618 14803 19750 13629 15905 10490 12771 15214 18674 11256 17950 10408 17586 17762 13704 16475 18327 10134 19361 12651 13640 17362 14811 15436 11705 16607 11116 14566 10386 12608 17335 17412 18264 18018 19405 12537 12504 18555 11370 13229 16026 14575 12186 12330 11442 18482 12388 18072 16231 19756 14825 15238 18261 19588 14037 11936 19593 14938 19654 10310 12582 19152 16786 16715 19204 12266 10880 10448 14925 14900 13720 15381 18069 15954 12089 18901 15902 11986 12847 14256 15353 12973 16558 17336 15624 14797 10348 14301 14722 11503 18103 16470 15919 18901 16311 17820 19739 18032 10570 14175 12943 19130 19384 18135 12510 16990 13526 999999
999999 999999 999999 999999 999999 999999 999999 999999 999999 999999 999999 999999 999999 999999 999999 999999 999999 999999 999999 999999 999999 999999 999999 999999 999999 999999 999999 0 999999 999999 999999 999999 999999 999999 999999 999999 999999 999999 999999 999999 999999 999999 999999 999999 999999 999999 999999 999999 999999 999999 999999 999999 999999 999999 999999 999999 999999 999999 999999 999999 999999 999999 999999 999999 999999 999999 999999 999999 999999 999999 999999 999999 999999 999999 999999 999999 999999 999999 999999 999999 999999 999999 999999 999999 999999 999999 999999 999999 999999 999999 999999 999999 999999 999999 999999 999999 999999 999999 999999 999999 999999 999999 999999 999999 999999 999999 999999 999999 999999 999999 999999 999999 999999 999999 999999 999999 999999 999999 999999 999999 999999 999999 999999 999999 999999 999999 999999 999999 999999 999999 999999 999999 999999 999999 999999 999999 999999 999999 999999 999999 999999 999999 999999 999999 999999 999999 999999 999999 999999 999999 999999 999999 999999 999999 999999 999999 999999 999999 999999 999999 999999 12880 17217 11460 11847 15694 17308 10965 11512 15158 16244 10998 10420 10249 16277 18978 12516 10346 13039 16725 16326 10174 16915 10994 10344 15373 19921 10568 15926 11025 10968 11842 15778 16846 12282 16312 13609 12056 14281 11700 18724 19431 13278 12447 17638 13057 13419 10592 10445 11948 11023 16525 17526 14799 19399 10397 14951 19693 19661 16971 12668 16518 12247 14238 13431 13055 10556 12697 13626 15202 10611 16541 13800 12328 11791 16594 13903 11758 13956 11909 11066 12989 18492 14668 10853 11323 18451 14882 13140 11512 18008 11699 16323 16546 12826 14827 15010 19658 14907 14659 11442 17895 10645 12970 10254 13970 14971 17157 13076 13596 11936 18216 12371 14687 14677 15419 15565 11442 13935 17838 14772 12152 13157 12832 17522 17188 16703 18011 10618 10026 11252 15823 10523 15667 14993 15679 16233 14578 10643 11472 13575 17266 10391 14204 15466 15447 16931 14565 10991 18820 16363 16952 11072 13858 17847 16896 18448 13467 18900 19552 15289 999999
999999 999999 999999 999999 999999 999999 999999 999999 999999 999999 999999 999999 999999 999999 999999 999999 999999 999999 999999 999999 999999 999999 999999 999999 999999 999999 999999 999999 0 999999 999999 999999 999999 999999 999999 999999 999999 999999 999999 999999 999999 999999 999999 999999 999999 999999 999999 999999 999999 999999 999999 999999 999999 999999 999999 999999 999999 999999 999999 999999 999999 999999 999999 999999 999999 999999 999999 999999 999999 999999 999999 999999 999999 999999 999999 999999 999999 999999 999999 999999 999999 999999 999999 999999 999999 999999 999999 999999 999999 999999 999999 999999 999999 999999 999999 999999 999999 999999 999999 999999 999999 999999 999999 999999 999999 999999 999999 999999 999999 999999 999999 999999 999999 999999 999999 999999 999999 999999 999999 999999 999999 999999 999999 999999 999999 999999 999999 999999 999999 999999 999999 999999 999999 999999 999999 999999 999999 999999 999999 999999 999999 999999 999999 999999 999999 999999 999999 999999 999999 999999 999999 999999 999999 999999 999999 999999 999999 999999 999999 999999 999999 19826 17057 14706 15302 14804 14275 10591 16342 10546 15362 19478 17766 18925 18518 17368 14156 18122 12977 15648 13203 18169 10759 10744 18651 10117 18614 18562 17613 18067 17734 18769 15071 16933 19831 19586 15127 16054 10045 14606 19195 15341 10552 10132 16041 10685 11616 10025 19278 11580 15971 14642 14497 17302 16331 11202 14697 14397 11345 10811 12968 12460 12722 16478 18082 12714 17508 11158 18140 13732 10972 18186 13299 12790 18259 19416 19027 12785 18828 17349 11136 15517 14805 18290 17313 17284 13809 19779 12419 15567 14038 14090 16022 10952 12675 19564 14241 16376 13325 10221 13185 16326 11837 11968 16373 10924 14215 16150 19576 13237 19973 17574 19296 17743 19133 17494 11730 19550 13369 19990 19110 18034 13966 12419 12625 14086 10205 16144 19832 12473 19744 19286 19338 18770 16863 14697 10603 18295 15708 17420 12659 18590 16209 12664 14015 16478 18383 14865 16880 14829 14568 17802 10239 17765 16422 10716 14013 18184 17911 11440 15932 999999
999999 999999 999999 999999 999999 999999 999999 999999 999999 999999 999999 999999 999999 999999 999999 999999 999999 999999 999999 999999 999999 999999 999999 999999 999999 999999 999999 999999 999999 0 999999 999999 999999 999999 999999 999999 999999 999999 999999 999999 999999 999999 999999 999999 999999 999999 999999 999999 999999 999999 999999 999999 999999 999999 999999 999999 999999 999999 999999 999999 999999 999999 999999 999999 999999 999999 999999 999999 999999 999999 999999 999999 999999 999999 999999 999999 999999 999999 999999 999999 999999 999999 999999 999999 999999 999999 999999 999999 999999 999999 999999 999999 999999 999999 999999 999999 999999 999999 999999 999999 999999 999999 999999 999999 999999 999999 999999 999999 999999 999999 999999 999999 999999 999999 999999 999999 999999 999999 999999 999999 999999 999999 999999 999999 999999 999999 999999 999999 999999 999999 999999 999999 999999 999999 999999 999999 999999 999999 999999 999999 999999 999999 999999 999999 999999 999999 999999 999999 999999 999999 999999 999999 999999 999999 999999 999999 999999 999999 999999 999999 999999 10606 18331 14808 17566 15740 15809 14990 11851 12603 17282 15937 13085 14538 11678 19882 15270 15547 11393 12981 12481 18804 11232 10765 10298 16157 11905 11137 19596 11532 19821 16884 14699 10333 18896 18367 19859 16695 17415 17607 10035 19533 18545 18334 18151 18161 10561 19568 11704 16055 17608 11235 13829 19068 17288 12845 16966 10185 14259 19285 12442 18846 18476 14244 14514 17201 14088 11338 19706 13859 19839 12471 19898 19571 13119 17926 17876 13535 10277 18126 18972 19201 13613 14844 14077 12025 16612 17801 17523 14665 19553 19604 16874 18266 15976 18348 15547 10306 16190 10740 11913 14633 16366 12001 14707 17794 18119 18091 13527 17432 14106 13102 17155 10708 17314 13422 17495 17977 13874 19784 19156 12634 14632 11924 18269 15872 15657 19762 11822 15367 10410 14420 14413 11095 13425 17882 16663 16759 13181 14663 13254 11550 19413 16621 16342 12447 11236 13054 15001 18759 18160 14393 15826 14697 14893 14593 19494 11137 19801 14079 13757 999999
999999 999999 999999 999999 999999 999999 999999 999999 999999 999999 999999 999999 999999 999999 999999 999999 999999 999999 999999 999999 999999 999999 999999 999999 999999 999999 999999 999999 999999 999999 0 999999 999999 999999 999999 999999 999999 999999 999999 999999 999999 999999 999999 999999 999999 999999 999999 999999 999999 999999 999999 999999 999999 999999 999999 999999 999999 999999 999999 999999 999999 999999 999999 999999 999999 999999 999999 999999 999999 999999 999999 999999 999999 999999 999999 999999 999999 999999 999999 999999 999999 999999 999999 999999 999999 999999 999999 999999 999999 999999 999999 999999 999999 999999 999999 999999 999999 999999 999999 999999 999999 999999 999999 999999 999999 999999 999999 999999 999999 999999 999999 999999 999999 999999 999999 999999 999999 999999 999999 999999 999999 999999 999999 999999 999999 999999 999999 999999 999999 999999 999999 999999 999999 999999 999999 999999 999999 999999 999999 999999 999999 999999 999999 999999 999999 999999 999999 999999 999999 999999 999999 999999 999999 999999 999999 999999 999999 999999 999999 999999 999999 10225 14065 10069 14751 15225 11697 16285 16342 14231 18828 15026 13581 10033 13695 10233 11195 12082 14892 17725 15823 18745 19486 10730 18991 12603 10357 13059 15392 18297 11571 19601 10167 17153 12592 17001 11973 19756 16624 17627 11015 10428 17746 10800 13823 13964 18350 18747 17907 18604 12361 14625 19830 10359 11434 15105 10762 13689 17828 14570 12829 19617 11264 10333 15854 11610 19398 13134 11483 13627 16185 17950 13254 13838 16501 11055 13502 17138 19342 18004 15553 13778 14863 10521 16653 11102 11276 10812 11479 17594 10520 18774 15341 11741 12718 12146 17122 19769 10895 17446 11860 14700 11540 14341 15399 13982 18864 17978 13599 11033 14866 13443 16567 14654 16903 14359 13351 19762 10768 11014 13605 12682 15069 12555 10302 11731 14090 18115 13283 13605 14064 16332 10819 16336 15711 19989 19924 17041 17502 14499 15913 10470 12462 10538 17370 17990 15070 11255 15810 18850 11190 16214 17043 19250 10120 11260 10448 19795 18233 13974 18065 999999
999999 999999 999999 999999 999999 999999 999999 999999 999999 999999 999999 999999 999999 999999 999999 999999 999999 999999 999999 999999 999999 999999 999999 999999 999999 999999 999999 999999 999999 999999 999999 0 999999 999999 999999 999999 999999 999999 999999 999999 999999 999999 999999 999999 999999 999999 999999 999999 999999 999999 999999 999999 999999 999999 999999 999999 999999 999999 999999 999999 999999 999999 999999 999999 999999 999999 999999 999999 999999 999999 999999 999999 999999 999999 999999 999999 999999 999999 999999 999999 999999 999999 999999 999999 999999 999999 999999 999999 999999 999999 999999 999999 999999 999999 999999 999999 999999 999999 999999 999999 999999 999999 999999 999999 999999 999999 999999 999999 999999 999999 999999 999999 999999 999999 999999 999999 999999 999999 999999 999999 999999 999999 999999 999999 999999 999999 999999 999999 999999 999999 999999 999999 999999 999999 999999 999999 999999 999999 999999 999999 999999 999999 999999 999999 999999 999999 999999 999999 999999 999999 999999 999999 999999 999999 999999 999999 999999 999999 999999 999999 999999 15709 14768 13609 12074 19445 12831 14073 10986 17827 15685 12160 15297 14187 15258 12862 13971 15816 12269 19989 10055 11570 14735 13412 11942 10173 12312 15556 13295 11169 11925 12127 15281 13816 17921 19730 15570 19085 16667 17141 11989 17981 18105 18048 19902 14752 13244 14150 13070 19598 18010 18142 13874 12826 12440 18066 10669 15416 11069 10350 19033 18838 10707 18246 17584 16858 13524 19293 19744 12917 10081 13780 12536 15878 12928 17312 13958 11385 15707 12529 16165 17155 16025 16376 19601 15407 13988 14698 12875 12564 15397 17141 19217 12095 12354 13547 11602 10328 17387 11216 11417 13687 19866 17732 11130 17921 19073 16878 18953 19347 10649 14393 11895 13897 12962 19017 19177 10956 15220 18315 18191 10217 13119 17132 16063 10489 15038 18982 12772 12426 15898 18967 19296 14897 13846 14846 19491 17096 12410 16839 15885 19417 12096 17141 15543 15034 12716 18832 11842 17258 11440 19215 18980 16246 10642 15910 12047 17085 16491 13700 17955 999999
999999 999999 999999 999999 999999 999999 999999 999999 999999 999999 999999 999999 999999 999999 999999 999999 999999 999999 999999 999999 999999 999999 999999 999999 999999 999999 999999 999999 999999 999999 999999 999999 0 999999 999999 999999 999999 999999 999999 999999 999999 999999 999999 999999 999999 999999 999999 999999 999999 999999 999999 999999 999999 999999 999999 999999 999999 999999 999999 999999 999999 999999 999999 999999 999999 999999 999999 999999 999999 999999 999999 999999 999999 999999 999999 999999 999999 999999 999999 999999 999999 999999 999999 999999 999999 999999 999999 999999 999999 999999 999999 999999 999999 999999 999999 999999 999999 999999 999999 999999 999999 999999 999999 999999 999999 999999 999999 999999 999999 999999 999999 999999 999999 999999 999999 999999 999999 999999 999999 999999 999999 999999 999999 999999 999999 999999 999999 999999 999999 999999 999999 999999 999999 999999 999999 999999 999999 999999 999999 999999 999999 999999 999999 999999 999999 999999 999999 999999 999999 999999 999999 999999 999999 999999 999999 999999 999999 999999 999999 999999 999999 16855 10105 11157 16999 13664 18653 16562 17785 17086 11692 10233 17062 19016 19645 15444 10479 19649 19505 14588 19914 16027 19388 17341 10765 15304 18523 19740 14476 17479 17197 16217 16824 13876 17720 19269 10438 15167 17544 17845 19837 10651 16506 12082 12680 18632 16547 14754 16297 16832 16371 16176 10492 14484 16367 14534 11871 16466 16098 19191 13878 12912 18493 15708 14375 13925 11264 19553 16273 19188 14958 12902 15155 14610 16693 14121 19455 14664 19464 11010 19808 10275 14330 17538 10443 19073 12802 14482 13394 16298 15511 10014 17876 17503 10492 14716 19307 16612 19692 15671 16867 18754 19948 18658 12180 15079 12851 13417 18961 10149 15393 16229 10041 15183 12057 17966 15332 15554 18424 13890 13384 11039 19247 16770 17384 12973 19719 18611 18621 16342 12198 11851 14056 18914 10028 11031 14695 13762 18035 13004 17692 15450 10557 19145 14420 19618 16517 12282 13206 17462 18612 11336 16753 16031 13767 14418 16625 11525 11007 15433 12032 999999
999999 999999 999999 999999 999999 999999 999999 999999 999999 999999 999999 999999 999999 999999 999999 999999 999999 999999 999999 999999 999999 999999 999999 999999 999999 999999 999999 999999 999999 999999 999999 999999 999999 0 999999 999999 999999 999999 999999 999999 999999 999999 999999 999999 999999 999999 999999 999999 999999 999999 999999 999999 999999 999999 999999 999999 999999 999999 999999 999999 999999 999999 999999 999999 999999 999999 999999 999999 999999 999999 999999 999999 999999 999999 999999 999999 999999 999999 999999 999999 999999 999999 999999 999999 999999 999999 999999 999999 999999 999999 999999 999999 999999 999999 999999 999999 999999 999999 999999 999999 999999 999999 999999 999999 999999 999999 999999 999999 999999 999999 999999 999999 999999 999999 999999 999999 999999 999999 999999 999999 999999 999999 999999 999999 999999 999999 999999 999999 999999 999999 999999 999999 999999 999999 999999 999999 999999 999999 999999 999999 999999 999999 999999 999999 999999 999999 999999 999999 999999 999999 999999 999999 999999 999999 999999 999999 999999 999999 999999 999999 999999 13919 16399 18994 16790 19502 19835 17477 18311 10320 13450 14176 12405 13429 17981 18035 14556 11295 16078 14769 12653 13640 15007 19389 19269 13780 16815 16027 15708 16725 16600 19524 11430 15461 19316 11816 16029 19855 19761 14440 10931 10146 19342 19494 18421 14425 11843 19664 16022 16322 13272 13983 19543 19805 14077 12242 19295 15295 19970 19841 16649 11918 18950 19702 10945 13275 10489 16703 10326 11222 18283 11675 19812 12131 13946 14619 11738 16619 15772 13050 16712 15401 13584 14487 14157 12567 18211 19186 15390 11011 12186 10641 16098 12752 17487 14194 18093 17904 10453 15024 17390 10255 18806 10985 15021 16932 15341 16417 11371 19990 19129 16566 19004 10897 17025 17010 11765 16078 10083 12386 18289 15397 13692 12091 19766 12904 14033 10362 12159 12465 13435 19290 14081 15305 11090 16104 10280 16211 18463 15174 11656 11740 17384 14446 13092 13176 14718 10043 10709 17014 11645 11642 16775 16865 15060 11437 11723 18300 10048 16795 14341 999999
999999 999999 999999 999999 999999 999999 999999 999999 999999 999999 999999 999999 999999 999999 999999 999999 999999 999999 999999 999999 999999 999999 999999 999999 999999 999999 999999 999999 999999 999999 999999 999999 999999 999999 0 999999 999999 999999 999999 999999 999999 999999 999999 999999 999999 999999 999999 999999 999999 999999 999999 999999 999999 999999 999999 999999 999999 999999 999999 999999 999999 999999 999999 999999 999999 999999 999999 999999 999999 999999 999999 999999 999999 999999 999999 999999 999999 999999 999999 999999 999999 999999 999999 999999 999999 999999 999999 999999 999999 999999 999999 999999 999999 999999 999999 999999 999999 999999 999999 999999 999999 999999 999999 999999 999999 999999 999999 999999 999999 999999 999999 999999 999999 999999 999999 999999 999999 999999 999999 999999 999999 999999 999999 999999 999999 999999 999999 999999 999999 999999 999999 999999 999999 999999 999999 999999 999999 999999 999999 999999 999999 999999 999999 999999 999999 999999 999999 999999 999999 999999 999999 999999 999999 999999 999999 999999 999999 999999 999999 999999 999999 16333 12799 12197 12961 17333 11463 19377 13378 18460 10991 12291 19650 15252 19521 17177 14243 16757 19745 19789 16265 10216 18012 10947 19915 16758 13016 11790 13024 11277 19781 14927 18745 15752 11884 10874 15384 18485 13657 16885 13322 16732 19121 19042 16973 16286 13506 13093 19951 19268 12047 13307 10557 15807 16508 14004 15649 16935 16934 18963 10118 11068 14481 13462 13275 19803 19137 12975 15075 14785 15022 14817 14619 19774 16050 11083 16422 14448 18774 19236 14253 10609 15396 14690 10651 15639 13586 11225 14561 13759 12958 18652 15474 15771 13172 18951 16576 14199 10120 13018 18723 19524 15236 19348 14054 11820 15149 13151 15314 10263 18627 12735 12058 16338 18883 13596 19235 17346 17503 17227 16772 11508 13179 19308 18015 11098 16255 15881 18740 10022 13837 19267 13501 15473 16088 11414 18179 15166 19436 13460 19473 19658 13421 17593 17909 19630 10435 18647 10553 12701 15014 13910 14751 11299 18022 17884 15870 17238 19974 15035 14941 999999
999999 999999 999999 999999 999999 999999 999999 999999 999999 999999 999999 999999 999999 999999 999999 999999 999999 999999 999999 999999 999999 999999 999999 999999 999999 999999 999999 999999 999999 999999 999999 999999 999999 999999 999999 0 999999 999999 999999 999999 999999 999999 999999 999999 999999 999999 999999 999999 999999 999999 999999 999999 999999 999999 999999 999999 999999 999999 999999 999999 999999 999999 999999 999999 999999 999999 999999 999999 999999 999999 999999 999999 999999 999999 999999 999999 999999 999999 999999 999999 999999 999999 999999 999999 999999 999999 999999 999999 999999 999999 999999 999999 999999 999999 999999 999999 999999 999999 999999 999999 999999 999999 999999 999999 999999 999999 999999 999999 999999 999999 999999 999999 999999 999999 999999 999999 999999 999999 999999 999999 999999 999999 999999 999999 999999 999999 999999 999999 999999 999999 999999 999999 999999 999999 999999 999999 999999 999999 999999 999999 999999 999999 999999 999999 999999 999999 999999 999999 999999 999999 999999 999999 999999 999999 999999 999999 999999 999999 999999 999999 999999 14842 10449 14607 12447 13379 17702 15162 12221 17618 15884 16365 19859 13434 12508 15636 11927 11067 13595 10127 10433 13018 18714 11579 12255 10296 16762 16971 17728 16705 11887 16174 13339 14427 15030 18988 12655 15562 19252 16125 17082 19424 19419 12686 17170 17032 12085 18782 11308 10345 10226 16028 12978 12783 10742 18034 18967 16135 11280 14443 11533 14781 18863 10367 19316 15653 12282 13098 15952 18835 11808 15471 12989 14245 14371 16880 19187 11179 10470 15203 14330 12706 12841 14157 12092 11409 11999 12547 10938 10135 13980 11305 17968 12007 16237 18449 17508 14640 16434 14974 12632 14784 16158 13253 13477 13483 19202 12811 17735 18783 12138 10955 18326 13215 18454 15657 15782 15856 13681 15226 18376 11438 16623 19022 16376 14964 14628 18031 13235 13978 19502 11965 13956 17824 15489 11195 16308 17343 12639 19860 16453 13074 13970 13115 15964 16348 13845 11791 15059 14784 19046 12550 19253 11134 13255 19314 18905 15887 19535 12970 14786 999999
999999 999999 999999 999999 999999 999999 999999 999999 999999 999999 999999 999999 999999 999999 999999 999999 999999 999999 999999 999999 999999 999999 999999 999999 999999 999999 999999 999999 999999 999999 999999 999999 999999 999999 999999 999999 0 999999 999999 999999 999999 999999 999999 999999 999999 999999 999999 999999 999999 999999 999999 999999 999999 999999 999999 999999 999999 999999 999999 999999 999999 999999 999999 999999 999999 999999 999999 999999 999999 999999 999999 999999 999999 999999 999999 999999 999999 999999 999999 999999 999999 999999 999999 999999 999999 999999 999999 999999 999999 999999 999999 999999 999999 999999 999999 999999 999999 999999 999999 999999 999999 999999 999999 999999 999999 999999 999999 999999 999999 999999 999999 999999 999999 999999 999999 999999 999999 999999 999999 999999 999999 999999 999999 999999 999999 999999 999999 999999 999999 999999 999999 999999 999999 999999 999999 999999 999999 999999 999999 999999 999999 999999 999999 999999 999999 999999 999999 999999 999999 999999 999999 999999 999999 999999 999999 999999 999999 999999 999999 999999 999999 14665 19853 11090 18129 19347 17870 19854 15793 17030 11916 11640 18307 15387 15830 12328 15700 19994 12297 14632 15917 13599 13364 15879 19432 15726 13084 11394 14041 17428 11568 15068 12833 10887 12930 18235 18601 19553 11244 13787 10788 17763 18780 14628 12206 19757 10870 10417 16006 16695 13256 17483 13203 15215 16228 10339 19945 15364 13570 18510 15045 10869 17993 17339 15812 19953 12929 12527 17731 19594 17325 14913 10069 15472 12089 18638 11790 11247 18198 19052 13875 14143 13354 19606 14218 18563 18420 10304 19027 12561 13972 14345 18717 15739 14004 17644 14743 15398 13378 14493 11589 13845 19828 13071 14617 18770 17824 10374 18737 11129 11490 10730 11442 14859 17037 10954 11638 18509 13588 13321 14402 14409 14327 10702 11127 13420 11637 14970 15566 13918 17494 17537 10146 16290 17861 12566 13261 19647 10451 14094 19308 18996 13465 14987 16522 19559 14441 13962 15722 13428 15936 14099 16725 19968 15947 14061 13243 11949 14143 13108 13348 999999
999999 999999 999999 999999 999999 999999 999999 999999 999999 999999 999999 999999 999999 999999 999999 999999 999999 999999 999999 999999 999999 999999 999999 999999 999999 999999 999999 999999 999999 999999 999999 999999 999999 999999 999999 999999 999999 0 999999 999999 999999 999999 999999 999999 999999 999999 999999 999999 999999 999999 999999 999999 999999 999999 999999 999999 999999 999999 999999 999999 999999 999999 999999 999999 999999 999999 999999 999999 999999 999999 999999 999999 999999 999999 999999 999999 999999 999999 999999 999999 999999 999999 999999 999999 999999 999999 999999 999999 999999 999999 999999 999999 999999 999999 999999 999999 999999 999999 999999 999999 999999 999999 999999 999999 999999 999999 999999 999999 999999 999999 999999 999999 999999 999999 999999 999999 999999 999999 999999 999999 999999 999999 999999 999999 999999 999999 999999 999999 999999 999999 999999 999999 999999 999999 999999 999999 999999 999999 999999 999999 999999 999999 999999 999999 999999 999999 999999 999999 999999 999999 999999 999999 999999 999999 999999 999999 999999 999999 999999 999999 999999 11118 10185 13984 13362 18321 19798 16341 12023 19305 17474 12405 12089 18980 15599 19534 17482 13203 11495 12817 14071 13826 11491 15816 16155 11647 19771 14080 11394 15520 13518 12510 18856 11198 19209 12055 16023 17237 13642 12812 14951 13595 18343 12689 12517 15256 18258 19997 16927 11019 17879 11010 11570 11534 15924 15812 17261 19619 12697 11823 10479 16204 17917 19706 10971 18687 11777 15276 18158 14960 16376 10689 14780 14965 15386 10167 14112 18769 19453 19952 12864 15142 17733 17151 10992 17849 17647 10491 15714 15874 10231 11936 12812 13099 11763 15504 12028 19208 17899 11412 14292 18606 17049 18432 11000 11136 19102 10449 12070 10434 18304 11102 14444 10376 13329 16433 16202 19903 10255 10106 13637 16559 14169 19985 15919 13124 19367 12373 15827 19958 16863 19168 15601 13458 12778 10584 19716 17957 17326 19408 10908 10305 12901 13964 11154 17686 11114 12957 13383 13906 19029 17124 13444 14698 17453 10723 16674 15350 15057 16964 18806 999999
999999 999999 999999 999999 999999 999999 999999 999999 999999 999999 999999 999999 999999 999999 999999 999999 999999 999999 999999 999999 999999 999999 999999 999999 999999 999999 999999 999999 999999 999999 999999 999999 999999 999999 999999 999999 999999 999999 0 999999 999999 999999 999999 999999 999999 999999 999999 999999 999999 999999 999999 999999 999999 999999 999999 999999 999999 999999 999999 999999 999999 999999 999999 999999 999999 999999 999999 999999 999999 999999 999999 999999 999999 999999 999999 999999 999999 999999 999999 999999 999999 999999 999999 999999 999999 999999 999999 999999 999999 999999 999999 999999 999999 999999 999999 999999 999999 999999 999999 999999 999999 999999 999999 999999 999999 999999 999999 999999 999999 999999 999999 999999 999999 999999 999999 999999 999999 999999 999999 999999 999999 999999 999999 999999 999999 999999 999999 999999 999999 999999 999999 999999 999999 999999 999999 999999 999999 999999 999999 999999 999999 999999 999999 999999 999999 999999 999999 999999 999999 999999 999999 999999 999999 999999 999999 999999 999999 999999 999999 999999 999999 11830 14659 12593 15382 17089 15429 19381 16655 17916 16435 12730 17391 16300 19413 19389 15024 17276 13784 17786 18781 18533 16318 10577 16257 17411 17619 18427 19932 19976 15594 16380 17300 11738 16250 14052 12800 14675 16415 19528 17115 10912 12309 11406 18129 13623 18045 14835 18594 16878 18627 15623 12569 17220 14763 16031 10420 18590 14065 12269 10154 13049 14857 14519 16361 10009 10698 16099 18426 15828 11013 17066 17760 16944 10628 16083 17137 18074 10130 11355 16386 16006 19222 13710 18748 10601 19212 11154 15170 11442 12425 12182 14134 11368 19072 12483 11431 13428 17292 17573 13585 14359 17074 18738 16376 14043 19537 13076 16365 16921 15467 11094 13801 13591 12476 15633 11440 16879 10294 14180 16266 13528 11824 14033 12209 19202 14212 19289 12737 18356 15114 14558 10540 18443 15549 12773 11200 11304 10135 12740 17712 17680 15387 15534 15049 15655 12351 19855 15678 10302 19764 12872 17200 13651 17571 17053 16333 13771 18257 15629 17008 999999
999999 999999 999999 999999 999999 999999 999999 999999 999999 999999 999999 999999 999999 999999 999999 999999 999999 999999 999999 999999 999999 999999 999999 999999 999999 999999 999999 999999 999999 999999 999999 999999 999999 999999 999999 999999 999999 999999 999999 0 999999 999999 999999 999999 999999 999999 999999 999999 999999 999999 999999 999999 999999 999999 999999 999999 999999 999999 999999 999999 999999 999999 999999 999999 999999 999999 999999 999999 999999 999999 999999 999999 999999 999999 999999 999999 999999 999999 999999 999999 999999 999999 999999 999999 999999 999999 999999 999999 999999 999999 999999 999999 999999 999999 999999 999999 999999 999999 999999 999999 999999 999999 999999 999999 999999 999999 999999 999999 999999 999999 999999 999999 999999 999999 999999 999999 999999 999999 999999 999999 999999 999999 999999 999999 999999 999999 999999 999999 999999 999999 999999 999999 999999 999999 999999 999999 999999 999999 999999 999999 999999 999999 999999 999999 999999 999999 999999 999999 999999 999999 999999 999999 999999 999999 999999 999999 999999 999999 999999 999999 999999 14724 13544 17400 15623 19772 15740 12091 12299 10499 15117 14788 19758 17220 15005 12270 18359 17237 11979 14770 10040 10656 18528 18998 19986 13933 17441 16161 10079 13905 14956 13216 10668 17599 12901 17221 13688 11222 12009 12697 17628 15646 13013 12172 19404 16047 16593 16939 10198 19104 16830 12588 15118 14527 14417 13237 13637 19950 10789 11377 19974 15756 13710 17773 15615 17623 16183 18006 13022 14996 12238 10075 17043 13325 18999 16674 16139 12326 19911 10599 18475 16940 12887 12238 16404 12935 16796 19004 15702 14425 13606 15655 19290 18106 10082 15896 13275 14537 16014 16881 15063 16285 17881 12473 19873 16617 19548 13091 18385 19209 16275 18126 16938 16105 16918 13731 15136 18605 11350 17177 16944 18798 17034 12570 16117 14272 16667 13000 16346 13265 15438 14113 16679 15996 10142 10236 16175 16065 13276 17216 11818 13499 11317 17901 14010 15946 16042 15462 12144 10946 12140 16889 15871 19006 12393 11072 18040 10700 10525 17220 12857 999999
999999 999999 999999 999999 999999 999999 999999 999999 999999 999999 999999 999999 999999 999999 999999 999999 999999 999999 999999 999999 999999 999999 999999 999999 999999 999999 999999 999999 999999 999999 999999 999999 999999 999999 999999 999999 999999 999999 999999 999999 0 999999 999999 999999 999999 999999 999999 999999 999999 999999 999999 999999 999999 999999 999999 999999 999999 999999 999999 999999 999999 999999 999999 999999 999999 999999 999999 999999 999999 999999 999999 999999 999999 999999 999999 999999 999999 999999 999999 999999 999999 999999 999999 999999 999999 999999 999999 999999 999999 999999 999999 999999 999999 999999 999999 999999 999999 999999 999999 999999 999999 999999 999999 999999 999999 999999 999999 999999 999999 999999 999999 999999 999999 999999 999999 999999 999999 999999 999999 999999 999999 999999 999999 999999 999999 999999 999999 999999 999999 999999 999999 999999 999999 999999 999999 999999 999999 999999 999999 999999 999999 999999 999999 999999 999999 999999 999999 999999 999999 999999 999999 999999 999999 999999 999999 999999 999999 999999 999999 999999 999999 14262 19713 18352 12158 17427 14843 11394 16569 16025 14102 19391 12448 14075 11871 19158 17345 17845 11753 10291 17365 11510 15078 16583 14140 13602 16566 18982 11355 13163 18889 18855 18623 13412 12851 14738 12583 16638 18993 15671 17953 16638 10167 13583 11978 17382 13447 11683 18309 11175 15280 14700 19690 11148 19159 14417 19226 12478 17725 14786 16850 12915 12491 10656 17579 12692 13820 17423 13853 14277 18235 12934 19528 13116 19167 17445 18680 18319 19553 18516 16455 15790 11766 17012 12063 17433 18244 11567 10478 15532 16838 10883 19734 13696 19733 10251 11718 14804 16378 11408 19429 12558 14110 13349 12872 16032 13498 11085 19548 17087 14363 12337 18766 14585 10840 17801 11729 19858 19114 16779 15963 16542 11351 15510 13332 18737 18859 19868 13139 15589 12931 11775 11680 15242 14899 19493 15452 15885 10704 17938 17320 15565 19326 15497 17775 12838 16889 14008 12512 14188 17314 12008 10092 15768 17977 13151 12280 17848 13491 10695 13066 999999
999999 999999 999999 999999 999999 999999 999999 999999 999999 999999 999999 999999 999999 999999 999999 999999 999999 999999 999999 999999 999999 999999 999999 999999 999999 999999 999999 999999 999999 999999 999999 999999 999999 999999 999999 999999 999999 999999 999999 999999 999999 0 999999 999999 999999 999999 999999 999999 999999 999999 999999 999999 999999 999999 999999 999999 999999 999999 999999 999999 999999 999999 999999 999999 999999 999999 999999 999999 999999 999999 999999 999999 999999 999999 999999 999999 999999 999999 999999 999999 999999 999999 999999 999999 999999 999999 999999 999999 999999 999999 999999 999999 999999 999999 999999 999999 999999 999999 999999 999999 999999 999999 999999 999999 999999 999999 999999 999999 999999 999999 999999 999999 999999 999999 999999 999999 999999 999999 999999 999999 999999 999999 999999 999999 999999 999999 999999 999999 999999 999999 999999 999999 999999 999999 999999 999999 999999 999999 999999 999999 999999 999999 999999 999999 999999 999999 999999 999999 999999 999999 999999 999999 999999 999999 999999 999999 999999 999999 999999 999999 999999 15374 10127 19429 15746 17860 16038 12897 10697 14224 17576 11768 18489 13915 10145 10740 19319 10014 18014 12894 10359 13725 10296 14652 15422 18845 17190 13213 12904 14448 16633 14996 14819 10026 17252 11195 17467 17911 19221 12317 16098 16432 12351 12612 14938 16929 15242 19097 17845 18607 11669 15997 11336 19862 12858 14232 10330 11134 16528 16976 15746 16659 12214 10642 15923 15357 10506 10598 14782 19021 14011 18993 18633 13497 16095 12830 10379 14449 17032 16130 17526 14076 18348 16909 15947 14973 10920 12038 17856 10280 18515 19346 19720 14281 16283 17405 17204 13032 16708 14147 19384 15058 11155 15027 10596 18931 11130 16292 16336 16757 13202 10526 14804 16288 19525 10183 10742 10306 12861 15187 13259 11471 17138 19590 14373 12522 13596 18141 17789 14169 13536 16295 16790 10259 10861 18146 18926 19718 17446 16685 12263 18561 17421 11128 17237 14102 18884 14541 13543 19077 18857 11648 10807 18161 16508 16229 14973 10881 11327 16081 17784 999999
999999 999999 999999 999999 999999 999999 999999 999999 999999 999999 999999 999999 999999 999999 999999 999999 999999 999999 999999 999999 999999 999999 999999 999999 999999 999999 999999 999999 999999 999999 999999 999999 999999 999999 999999 999999 999999 999999 999999 999999 999999 999999 0 999999 999999 999999 999999 999999 999999 999999 999999 999999 999999 999999 999999 999999 999999 999999 999999 999999 999999 999999 999999 999999 999999 999999 999999 999999 999999 999999 999999 999999 999999 999999 999999 999999 999999 999999 999999 999999 999999 999999 999999 999999 999999 999999 999999 999999 999999 999999 999999 999999 999999 999999 999999 999999 999999 999999 999999 999999 999999 999999 999999 999999 999999 999999 999999 999999 999999 999999 999999 999999 999999 999999 999999 999999 999999 999999 999999 999999 999999 999999 999999 999999 999999 999999 999999 999999 999999 999999 999999 999999 999999 999999 999999 999999 999999 999999 999999 999999 999999 999999 999999 999999 999999 999999 999999 999999 999999 999999 999999 999999 999999 999999 999999 999999 999999 999999 999999 999999 999999 12075 18115 14172 10239 19831 15761 18217 14182 13635 19568 12164 13814 13185 16517 16902 19480 14890 14704 15941 18088 14155 13876 13229 14239 11271 12599 19489 13384 16284 16903 10579 16532 11902 14539 10496 15290 13707 16990 11574 12499 17899 13263 14684 19805 17420 19218 11297 19071 10539 13105 15455 10624 13276 15457 19509 16051 11035 11221 12877 18850 17252 13489 15691 16438 17752 14210 16005 13987 18964 14972 14142 13809 18857 19709 16366 13770 14490 11282 13169 16705 19746 12784 17644 13271 11503 15065 14515 18154 14344 18252 14110 19296 10523 13008 12179 15322 11597 13280 11486 17982 10410 10605 16081 16201 11530 11871 17789 11364 12077 15414 14726 13154 19371 11678 11282 13817 18611 10622 11050 14936 18149 10590 15658 19620 17189 14837 16575 14469 19983 15229 18289 17475 18210 19556 16144 19966 18783 18733 17516 13939 19511 10451 13378 14902 16881 15468 12054 18943 10733 18092 18531 17104 16318 10002 17707 11677 18758 16563 12119 12525 999999
999999 999999 999999 999999 999999 999999 999999 999999 999999 999999 999999 999999 999999 999999 999999 999999 999999 999999 999999 999999 999999 999999 999999 999999 999999 999999 999999 999999 999999 999999 999999 999999 999999 999999 999999 999999 999999 999999 999999 999999 999999 999999 999999 0 999999 999999 999999 999999 999999 999999 999999 999999 999999 999999 999999 999999 999999 999999 999999 999999 999999 999999 999999 999999 999999 999999 999999 999999 999999 999999 999999 999999 999999 999999 999999 999999 999999 999999 999999 999999 999999 999999 999999 999999 999999 999999 999999 999999 999999 999999 999999 999999 999999 999999 999999 999999 999999 999999 999999 999999 999999 999999 999999 999999 999999 999999 999999 999999 999999 999999 999999 999999 999999 999999 999999 999999 999999 999999 999999 999999 999999 999999 999999 999999 999999 999999 999999 999999 999999 999999 999999 999999 999999 999999 999999 999999 999999 999999 999999 999999 999999 999999 999999 999999 999999 999999 999999 999999 999999 999999 999999 999999 999999 999999 999999 999999 999999 999999 999999 999999 999999 17247 17847 15065 10677 15105 15552 18720 14690 12922 17389 14685 12828 19638 16903 15023 16524 14533 17933 10852 11595 12006 16260 13649 10744 16902 11015 13604 19188 10901 13278 19832 17669 12282 17698 18549 10356 11739 14826 15795 17599 13998 15691 14317 19555 16675 16645 11367 18246 15505 13012 16504 18591 15682 15438 15443 19585 11259 13631 11545 16602 12129 14839 16070 16993 10910 17044 15862 11132 18823 10029 12294 18159 18634 17229 16950 13900 18087 11829 17813 11451 15890 15138 15230 17785 17651 17372 18137 19697 14884 11140 12502 13019 16117 14101 12692 19492 18423 18282 18792 14620 17810 14859 16780 15893 11947 19542 13025 14003 11620 14033 10121 17721 19231 15553 16176 13869 17016 18891 17994 14959 10878 13025 17572 17908 14992 13693 15191 17780 19324 10949 18583 17516 12551 19644 11942 14287 12693 17230 10728 15765 19586 17174 16117 12053 17064 13188 12258 14921 17369 15788 14994 13710 11082 16488 11262 19491 12368 18242 17863 17287 999999
999999 999999 999999 999999 999999 999999 999999 999999 999999 999999 999999 999999 999999 999999 999999 999999 999999 999999 999999 999999 999999 999999 999999 999999 999999 999999 999999 999999 999999 999999 999999 999999 999999 999999 999999 999999 999999 999999 999999 999999 999999 999999 999999 999999 0 999999 999999 999999 999999 999999 999999 999999 999999 999999 999999 999999 999999 999999 999999 999999 999999 999999 999999 999999 999999 999999 999999 999999 999999 999999 999999 999999 999999 999999 999999 999999 999999 999999 999999 999999 999999 999999 999999 999999 999999 999999 999999 999999 999999 999999 999999 999999 999999 999999 999999 999999 999999 999999 999999 999999 999999 999999 999999 999999 999999 999999 999999 999999 999999 999999 999999 999999 999999 999999 999999 999999 999999 999999 999999 999999 999999 999999 999999 999999 999999 999999 999999 999999 999999 999999 999999 999999 999999 999999 999999 999999 999999 999999 999999 999999 999999 999999 999999 999999 999999 999999 999999 999999 999999 999999 999999 999999 999999 999999 999999 999999 999999 999999 999999 999999 999999 10744 11787 17978 13063 15082 14349 17883 17253 10826 13539 16411 10211 11921 19740 19666 15103 11716 19104 11721 19110 15982 14851 13598 10641 15156 16676 19044 16837 17696 13775 11968 17833 11932 15331 16921 13925 12294 19006 17472 17003 17344 10909 10524 16210 18050 10779 10353 13291 18800 19473 10501 17790 12074 18981 10781 19802 18416 11469 12460 16250 13069 18860 14147 15312 12982 11719 16663 11557 10903 10150 11234 11938 13880 16093 14153 18230 16052 13145 18145 10290 15468 15344 13900 17188 10560 13978 19500 17256 15525 18290 11223 18520 10800 19495 18760 19157 10426 17747 10088 14283 19938 18356 18579 16702 15771 17628 17473 15743 11601 18421 17382 14356 19955 17454 17953 15350 10305 12484 13003 14363 11514 14861 13596 13406 15228 16790 16408 19431 10902 19667 14837 13434 14784 15562 18910 13359 15198 18663 10995 16820 14548 17552 13476 10666 19810 11335 16080 14617 18366 17918 14190 16253 16807 12767 13197 18722 12111 14559 15527 18819 999999
999999 999999 999999 999999 999999 999999 999999 999999 999999 999999 999999 999999 999999 999999 999999 999999 999999 999999 999999 999999 999999 999999 999999 999999 999999 999999 999999 999999 999999 999999 999999 999999 999999 999999 999999 999999 999999 999999 999999 999999 999999 999999 999999 999999 999999 0 999999 999999 999999 999999 999999 999999 999999 999999 999999 999999 999999 999999 999999 999999 999999 999999 999999 999999 999999 999999 999999 999999 999999 999999 999999 999999 999999 999999 999999 999999 999999 999999 999999 999999 999999 999999 999999 999999 999999 999999 999999 999999 999999 999999 999999 999999 999999 999999 999999 999999 999999 999999 999999 999999 999999 999999 999999 999999 999999 999999 999999 999999 999999 999999 999999 999999 999999 999999 999999 999999 999999 999999 999999 999999 999999 999999 999999 999999 999999 999999 999999 999999 999999 999999 999999 999999 999999 999999 999999 999999 999999 999999 999999 999999 999999 999999 999999 999999 999999 999999 999999 999999 999999 999999 999999 999999 999999 999999 999999 999999 999999 999999 999999 999999 999999 11959 15752 12407 10216 17613 13208 11401 12881 15305 14877 19745 16919 17096 11430 10229 19730 19983 17289 10533 12977 18950 16239 12999 11238 14732 17057 14145 17458 17733 14713 19303 12284 13493 11328 10866 12864 16657 16631 11819 15325 16368 15816 19421 18286 15612 18304 10244 17551 12919 16909 19891 17485 12655 13525 16098 11397 19168 16542 10730 18839 17794 19606 19484 17753 10214 16021 14651 12850 13343 13069 15218 13119 15607 16500 18912 13790 10788 16780 17523 16484 15510 10155 15686 15288 14472 19199 13254 17287 15996 10948 10092 10326 15822 18346 15271 16818 17569 12150 11109 16337 11312 10598 18371 18260 17047 19426 18795 11882 16169 19995 19808 13147 18530 19280 16250 15195 14904 15033 16193 10288 19428 17195 15831 19673 14804 12880 17055 15295 12109 11615 11457 13425 16405 16426 17681 11858 12565 12344 19255 18828 16257 18228 16064 17270 11036 16493 15412 17573 11619 11426 18478 10526 12278 19748 18787 10790 19495 16448 16346 18641 999999
999999 999999 999999 999999 999999 999999 999999 999999 999999 999999 999999 999999 999999 999999 999999 999999 999999 999999 999999 999999 999999 999999 999999 999999 999999 999999 999999 999999 999999 999999 999999 999999 999999 999999 999999 999999 999999 999999 999999 999999 999999 999999 999999 999999 999999 999999 0 999999 999999 999999 999999 999999 999999 999999 999999 999999 999999 999999 999999 999999 999999 999999 999999 999999 999999 999999 999999 999999 999999 999999 999999 999999 999999 999999 999999 999999 999999 999999 999999 999999 999999 999999 999999 999999 999999 999999 999999 999999 999999 999999 999999 999999 999999 999999 999999 999999 999999 999999 999999 999999 999999 999999 999999 999999 999999 999999 999999 999999 999999 999999 999999 999999 999999 999999 999999 999999 999999 999999 999999 999999 999999 999999 999999 999999 999999 999999 999999 999999 999999 999999 999999 999999 999999 999999 999999 999999 999999 999999 999999 999999 999999 999999 999999 999999 999999 999999 999999 999999 999999 999999 999999 999999 999999 999999 999999 999999 999999 999999 999999 999999 999999 14070 17838 19951 10995 12597 10297 13154 18808 18059 11342 19115 15197 16401 15476 19115 14515 10008 15554 15714 17253 16283 14095 16932 19670 16837 18819 11771 16207 12287 16563 14161 17686 15558 19607 17013 15702 13980 16824 17240 13316 12265 17113 11508 17955 19791 19752 12816 17959 18335 11267 12819 12487 14270 16259 10723 13595 13773 12025 11650 17611 14798 19737 13864 10171 12010 18662 10163 11636 18567 12636 18652 19812 18741 19038 18022 13465 11170 18508 18668 18246 10045 13671 13809 13543 11195 18884 17284 14115 16017 19647 10782 16234 19089 18728 14275 18656 17529 15039 12922 18731 16465 19321 11773 13423 10577 15005 19986 12147 19301 17585 15764 17770 11536 16793 10437 15757 11579 19188 12105 19960 14867 10748 11070 11296 12472 11260 13203 14426 15325 15433 11223 17816 15638 13082 17119 17682 14954 16556 16811 12575 10194 10861 10092 18850 19501 16730 19309 12785 17207 12952 12285 15988 18481 15816 11401 16980 11248 15706 17336 14869 999999
999999 999999 999999 999999 999999 999999 999999 999999 999999 999999 999999 999999 999999 999999 999999 999999 999999 999999 999999 999999 999999 999999 999999 999999 999999 999999 999999 999999 999999 999999 999999 999999 999999 999999 999999 999999 999999 999999 999999 999999 999999 999999 999999 999999 999999 999999 999999 0 999999 999999 999999 999999 999999 999999 999999 999999 999999 999999 999999 999999 999999 999999 999999 999999 999999 999999 999999 999999 999999 999999 999999 999999 999999 999999 999999 999999 999999 999999 999999 999999 999999 999999 999999 999999 999999 999999 999999 999999 999999 999999 999999 999999 999999 999999 999999 999999 999999 999999 999999 999999 999999 999999 999999 999999 999999 999999 999999 999999 999999 999999 999999 999999 999999 999999 999999 999999 999999 999999 999999 999999 999999 999999 999999 999999 999999 999999 999999 999999 999999 999999 999999 999999 999999 999999 999999 999999 999999 999999 999999 999999 999999 999999 999999 999999 999999 999999 999999 999999 999999 999999 999999 999999 999999 999999 999999 999999 999999 999999 999999 999999 999999 15154 11989 15162 19702 14038 17953 17431 16914 16700 12250 12564 12383 19025 18378 14976 16071 10422 13207 15358 13058 11564 10752 14269 12480 16534 19936 14093 15331 16943 15518 10727 13321 10597 17599 18592 13609 12397 16120 12856 10359 14806 19900 16008 12686 16072 13346 17343 13551 17160 18202 12015 19947 15382 17050 19709 16417 19332 17601 10316 14011 17997 12346 13481 16230 19412 15464 19679 16813 12609 19017 12801 17288 11965 18975 18757 12781 12970 18390 18308 16365 17320 12677 16355 11980 13695 13615 19925 13622 16993 16645 12238 19237 12212 11801 11562 10730 15122 13515 10561 12425 10691 16350 10636 11713 12717 13285 15736 13167 14802 14903 14303 17460 17812 12067 17402 17538 17428 16333 16935 14813 19746 13275 10237 12515 10909 17167 14204 19893 15878 18125 17747 19816 17565 18030 10795 18329 16008 13359 15291 11268 15194 17430 10135 14122 19599 19330 11300 17301 11817 16088 17995 19210 13000 13879 13546 13210 16427 16708 19951 17832 999999
999999 999999 999999 999999 999999 999999 999999 999999 999999 999999 999999 999999 999999 999999 999999 999999 999999 999999 999999 999999 999999 999999 999999 999999 999999 999999 999999 999999 999999 999999 999999 999999 999999 999999 999999 999999 999999 999999 999999 999999 999999 999999 999999 999999 999999 999999 999999 999999 0 999999 999999 999999 999999 999999 999999 999999 999999 999999 999999 999999 999999 999999 999999 999999 999999 999999 999999 999999 999999 999999 999999 999999 999999 999999 999999 999999 999999 999999 999999 999999 999999 999999 999999 999999 999999 999999 999999 999999 999999 999999 999999 999999 999999 999999 999999 999999 999999 999999 999999 999999 999999 999999 999999 999999 999999 999999 999999 999999 999999 999999 999999 999999 999999 999999 999999 999999 999999 999999 999999 999999 999999 999999 999999 999999 999999 999999 999999 999999 999999 999999 999999 999999 999999 999999 999999 999999 999999 999999 999999 999999 999999 999999 999999 999999 999999 999999 999999 999999 999999 999999 999999 999999 999999 999999 999999 999999 999999 999999 999999 999999 999999 14525 10385 16902 11613 17783 13775 18124 12199 19590 13744 14346 18765 17783 15945 19948 17453 17376 15541 15507 13866 19836 16833 17559 13625 11045 10605 17124 12874 18057 14167 12593 18318 11244 17583 15643 11249 15743 12195 19156 13138 13374 10848 19596 13429 13969 18434 10966 16546 13545 10188 15530 19283 10264 14736 13367 17498 11111 16556 11980 13680 13396 19511 12314 12449 18733 13916 11807 10590 15541 10017 16975 12840 19455 13489 13895 14645 11995 18746 19836 10919 16655 19642 19694 17799 11135 16598 16617 12729 19570 12399 19380 13498 16569 15072 16239 17632 11369 19325 15880 14134 15296 10005 10987 18621 17088 13368 13395 12249 15240 17765 19966 16532 18880 10630 17978 14725 10861 19237 18327 19918 17007 17705 19057 15736 16115 15240 18429 15201 19810 19927 19185 15618 15448 15318 16818 17650 17043 17465 19459 10559 15019 18161 10661 11582 14133 17138 14928 11264 16831 14217 14621 19150 14183 12711 19669 12258 10872 16382 15241 14772 999999
999999 999999 999999 999999 999999 999999 999999 999999 999999 999999 999999 999999 999999 999999 999999 999999 999999 999999 999999 999999 999999 999999 999999 999999 999999 999999 999999 999999 999999 999999 999999 999999 999999 999999 999999 999999 999999 999999 999999 999999 999999 999999 999999 999999 999999 999999 999999 999999 999999 0 999999 999999 999999 999999 999999 999999 999999 999999 999999 999999 999999 999999 999999 999999 999999 999999 999999 999999 999999 999999 999999 999999 999999 999999 999999 999999 999999 999999 999999 999999 999999 999999 999999 999999 999999 999999 999999 999999 999999 999999 999999 999999 999999 999999 999999 999999 999999 999999 999999 999999 999999 999999 999999 999999 999999 999999 999999 999999 999999 999999 999999 999999 999999 999999 999999 999999 999999 999999 999999 999999 999999 999999 999999 999999 999999 999999 999999 999999 999999 999999 999999 999999 999999 999999 999999 999999 999999 999999 999999 999999 999999 999999 999999 999999 999999 999999 999999 999999 999999 999999 999999 999999 999999 999999 999999 999999 999999 999999 999999 999999 999999 15637 17103 19611 17852 15112 16202 13717 13046 15269 18870 12628 15088 15172 15942 14556 13766 10078 11828 15571 13942 18246 13265 10940 11252 11476 17923 17518 15877 13287 10470 11327 13852 14989 12570 19360 11971 18320 16886 16757 19792 13424 11140 16543 17728 14609 18110 16714 11071 11590 15500 13184 18034 19749 16436 11903 17342 14618 15087 18425 16863 14418 18737 12012 10000 18706 11020 14864 12514 19712 17459 19983 11421 14011 19347 13792 13543 16581 15109 12198 18710 16488 14252 12380 18886 17589 12371 14268 12506 13486 15598 11256 12708 13908 15276 12438 15564 19276 15759 12952 14902 12432 14036 10935 18185 11605 10304 16695 16085 13556 14625 12691 14324 15342 17657 19334 17197 12692 17017 10039 11597 10772 12561 10485 10822 15127 19785 15412 12836 15968 17392 14694 12677 11521 15146 13162 13457 15227 15711 14617 14834 13400 11129 15750 19256 16749 10649 10028 14939 12136 12433 16437 11445 19318 19244 12837 17136 17242 15837 11213 19295 999999
999999 999999 999999 999999 999999 999999 999999 999999 999999 999999 999999 999999 999999 999999 999999 999999 999999 999999 999999 999999 999999 999999 999999 999999 999999 999999 999999 999999 999999 999999 999999 999999 999999 999999 999999 999999 999999 999999 999999 999999 999999 999999 999999 999999 999999 999999 999999 999999 999999 999999 0 999999 999999 999999 999999 999999 999999 999999 999999 999999 999999 999999 999999 999999 999999 999999 999999 999999 999999 999999 999999 999999 999999 999999 999999 999999 999999 999999 999999 999999 999999 999999 999999 999999 999999 999999 999999 999999 999999 999999 999999 999999 999999 999999 999999 999999 999999 999999 999999 999999 999999 999999 999999 999999 999999 999999 999999 999999 999999 999999 999999 999999 999999 999999 999999 999999 999999 999999 999999 999999 999999 999999 999999 999999 999999 999999 999999 999999 999999 999999 999999 999999 999999 999999 999999 999999 999999 999999 999999 999999 999999 999999 999999 999999 999999 999999 999999 999999 999999 999999 999999 999999 999999 999999 999999 999999 999999 999999 999999 999999 999999 13018 18639 16186 14706 15209 18298 12558 15195 12316 12842 12723 12374 11663 14586 19191 13134 18539 12990 12060 16464 18969 10399 10027 17958 15668 19090 19663 16387 19414 10408 18931 14776 17874 10984 13182 10861 11258 19279 14965 16849 15599 18233 17196 10510 16555 13857 19935 13862 12481 15386 13579 12354 14368 13349 10628 10853 13544 16437 17712 18682 16131 10506 16409 10474 10412 13673 18380 17936 10920 15242 19150 13531 14989 11399 11339 18123 12208 10979 19796 18478 17186 17509 18776 10284 14243 17668 15500 18295 12472 18502 10565 10842 11641 12644 19101 14873 12249 13457 18056 13421 15343 17863 11561 10262 13601 16963 19790 12130 11978 18313 17159 13475 15524 13705 19206 12137 13564 14072 12369 11862 11784 11350 12802 10751 15827 19369 13169 12897 16237 10630 14973 14568 12996 18540 10649 14566 19998 11157 16551 16802 16778 13165 17273 14140 11118 11260 12311 13725 18680 15378 17578 17977 17560 18403 11525 14571 17266 19153 15896 12827 999999
999999 999999 999999 999999 999999 999999 999999 999999 999999 999999 999999 999999 999999 999999 999999 999999 999999 999999 999999 999999 999999 999999 999999 999999 999999 999999 999999 999999 999999 999999 999999 999999 999999 999999 999999 999999 999999 999999 999999 999999 999999 999999 999999 999999 999999 999999 999999 999999 999999 999999 999999 0 999999 999999 999999 999999 999999 999999 999999 999999 999999 999999 999999 999999 999999 999999 999999 999999 999999 999999 999999 999999 999999 999999 999999 999999 999999 999999 999999 999999 999999 999999 999999 999999 999999 999999 999999 999999 999999 999999 999999 999999 999999 999999 999999 999999 999999 999999 999999 999999 999999 999999 999999 999999 999999 999999 999999 999999 999999 999999 999999 999999 999999 999999 999999 999999 999999 999999 999999 999999 999999 999999 999999 999999 999999 999999 999999 999999 999999 999999 999999 999999 999999 999999 999999 999999 999999 999999 999999 999999 999999 999999 999999 999999 999999 999999 999999 999999 999999 999999 999999 999999 999999 999999 999999 999999 999999 999999 999999 999999 999999 12527 12797 16609 17185 13957 16082 10754 13622 14716 10395 10447 17678 19014 15345 10125 14827 16327 17018 14670 12074 11954 18447 14660 19175 16129 17444 11777 12454 19674 13053 17219 15679 19097 13946 11200 12273 10841 12699 14674 10926 15847 11768 10994 12667 15643 11143 10761 14126 16094 15043 10598 12113 12301 19559 14880 15399 19184 15059 19234 14717 14870 14910 19858 17372 11124 10492 11010 16449 10202 10401 17943 15870 18089 19722 10539 10381 18327 11230 11853 16927 11223 15297 13262 17616 12301 10644 13371 19142 14835 13996 19825 17584 10637 15169 14656 18394 15034 10823 14697 12294 11554 19682 19809 10242 14488 16548 11833 10296 18973 18940 18042 17072 12103 15155 13912 11697 15395 16197 16208 15135 17063 17884 10384 17449 18485 12661 19650 15058 15179 17558 12746 15148 14239 13179 19202 18877 10058 17977 10975 10320 19312 15699 15986 12851 10342 13793 16287 16648 16181 17414 16172 17094 14135 13952 15770 17513 17575 13496 17180 13698 999999
999999 999999 999999 999999 999999 999999 999999 999999 999999 999999 999999 999999 999999 999999 999999 999999 999999 999999 999999 999999 999999 999999 999999 999999 999999 999999 999999 999999 999999 999999 999999 999999 999999 999999 999999 999999 999999 999999 999999 999999 999999 999999 999999 999999 999999 999999 999999 999999 999999 999999 999999 999999 0 999999 999999 999999 999999 999999 999999 999999 999999 999999 999999 999999 999999 999999 999999 999999 999999 999999 999999 999999 999999 999999 999999 999999 999999 999999 999999 999999 999999 999999 999999 999999 999999 999999 999999 999999 999999 999999 999999 999999 999999 999999 999999 999999 999999 999999 999999 999999 999999 999999 999999 999999 999999 999999 999999 999999 999999 999999 999999 999999 999999 999999 999999 999999 999999 999999 999999 999999 999999 999999 999999 999999 999999 999999 999999 999999 999999 999999 999999 999999 999999 999999 999999 999999 999999 999999 999999 999999 999999 999999 999999 999999 999999 999999 999999 999999 999999 999999 999999 999999 999999 999999 999999 999999 999999 999999 999999 999999 999999 11183 18388 13948 13234 19309 12329 14918 10444 16735 15530 19075 18911 11898 18272 16655 12838 11799 15029 15990 11647 17100 13248 10936 14350 19767 16083 19375 18695 12489 13970 14328 18125 13238 18663 18307 10207 19540 10248 18133 14043 15129 11326 19244 12377 16202 15851 18193 12245 18505 13526 16129 16683 10409 12664 17616 11099 15678 13382 10005 17898 12600 18910 16050 17962 18857 15706 11737 15685 12488 15079 18852 15848 13084 11828 13144 18413 14080 10768 13221 14805 14764 15208 13235 16677 11195 14672 11654 12822 10568 17233 10341 19792 17474 18618 12468 16708 15790 18852 12270 17426 13741 13628 18719 11547 14316 11311 16702 17313 17468 10860 19333 15985 10228 10679 11462 11120 14667 16547 11713 17486 10212 11152 10895 15324 15783 14801 13717 15720 14073 10561 13038 19277 14710 10046 18091 14455 16415 14160 13538 14581 10078 10376 15635 18926 14539 15323 15134 10688 17447 15177 18417 14216 15648 14037 13556 15968 10599 19530 17312 18842 999999
999999 999999 999999 999999 999999 999999 999999 999999 999999 999999 999999 999999 999999 999999 999999 999999 999999 999999 999999 999999 999999 999999 999999 999999 999999 999999 999999 999999 999999 999999 999999 999999 999999 999999 999999 999999 999999 999999 999999 999999 999999 999999 999999 999999 999999 999999 999999 999999 999999 999999 999999 999999 999999 0 999999 999999 999999 999999 999999 999999 999999 999999 999999 999999 999999 999999 999999 999999 999999 999999 999999 999999 999999 999999 999999 999999 999999 999999 999999 999999 999999 999999 999999 999999 999999 999999 999999 999999 999999 999999 999999 999999 999999 999999 999999 999999 999999 999999 999999 999999 999999 999999 999999 999999 999999 999999 999999 999999 999999 999999 999999 999999 999999 999999 999999 999999 999999 999999 999999 999999 999999 999999 999999 999999 999999 999999 999999 999999 999999 999999 999999 999999 999999 999999 999999 999999 999999 999999 999999 999999 999999 999999 999999 999999 999999 999999 999999 999999 999999 999999 999999 999999 999999 999999 999999 999999 999999 999999 999999 999999 999999 16844 15809 13415 17371 11648 10559 19498 10165 18787 17799 17126 16457 19360 13468 12051 10349 11369 15723 15807 17005 17870 15391 19739 16270 14123 13880 18551 14170 19121 19274 10798 11869 15623 13069 18443 10296 19095 14504 19257 18833 13023 12517 13565 10020 16787 16693 13603 18436 14558 17380 10370 19448 18009 11510 12042 18098 11093 14787 12987 13708 11629 14039 10684 18166 13492 19836 18940 16599 18859 13497 14239 11845 11728 13555 19046 13568 14163 14679 13351 10008 15550 11881 10378 15312 15963 12581 11351 10433 19699 10307 19620 19263 16813 17861 14988 10075 16462 13468 17300 18137 10423 18826 16626 17737 14807 19337 11656 11816 18686 18516 15098 16904 17435 15729 19086 12266 18285 12139 18954 19324 18619 10028 17591 19103 12656 14591 19818 11204 15173 18632 15960 17490 14076 16259 10225 12046 12272 16285 10498 15555 18845 19545 19459 19551 16731 19601 19247 16788 16744 13218 15090 10257 18144 14933 12827 17827 17296 14715 17123 15748 999999
999999 999999 999999 999999 999999 999999 999999 999999 999999 999999 999999 999999 999999 999999 999999 999999 999999 999999 999999 999999 999999 999999 999999 999999 999999 999999 999999 999999 999999 999999 999999 999999 999999 999999 999999 999999 999999 999999 999999 999999 999999 999999 999999 999999 999999 999999 999999 999999 999999 999999 999999 999999 999999 999999 0 999999 999999 999999 999999 999999 999999 999999 999999 999999 999999 999999 999999 999999 999999 999999 999999 999999 999999 999999 999999 999999 999999 999999 999999 999999 999999 999999 999999 999999 999999 999999 999999 999999 999999 999999 999999 999999 999999 999999 999999 999999 999999 999999 999999 999999 999999 999999 999999 999999 999999 999999 999999 999999 999999 999999 999999 999999 999999 999999 999999 999999 999999 999999 999999 999999 999999 999999 999999 999999 999999 999999 999999 999999 999999 999999 999999 999999 999999 999999 999999 999999 999999 999999 999999 999999 999999 999999 999999 999999 999999 999999 999999 999999 999999 999999 999999 999999 999999 999999 999999 999999 999999 999999 999999 999999 999999 19914 10316 13534 12385 18683 15691 13977 14009 19155 13074 16295 18813 17174 12085 15682 18006 12370 20000 10474 10185 16745 13432 12675 18619 19807 10103 11154 12117 18364 19733 10887 12602 11598 12323 16461 18409 16015 19841 10016 15164 16794 10919 19143 11774 19516 17077 13710 13544 12195 11441 18241 18298 14308 10945 14412 13335 18964 15815 15066 16049 10048 10183 16443 12031 13571 12469 11539 10310 18262 14850 11084 11635 13617 17024 19502 19243 14290 12106 19383 13310 13258 19148 12650 12463 18079 10209 19027 18676 13110 17342 19575 12839 19887 13656 12496 14300 18579 11816 18937 17573 14020 11643 14473 18204 10838 11912 15841 19212 14320 15555 17048 17544 13357 11177 10538 10280 19694 10127 11863 16342 19868 11740 11238 11755 15018 14984 15740 10492 16146 16425 19640 17287 17035 16188 14478 15465 13520 18475 19472 17913 15107 12025 15339 11609 19251 12878 17780 15689 14061 19097 12789 17422 16459 18094 19806 15183 12303 12583 18432 10341 999999
999999 999999 999999 999999 999999 999999 999999 999999 999999 999999 999999 999999 999999 999999 999999 999999 999999 999999 999999 999999 999999 999999 999999 999999 999999 999999 999999 999999 999999 999999 999999 999999 999999 999999 999999 999999 999999 999999 999999 999999 999999 999999 999999 999999 999999 999999 999999 999999 999999 999999 999999 999999 999999 999999 999999 0 999999 999999 999999 999999 999999 999999 999999 999999 999999 999999 999999 999999 999999 999999 999999 999999 999999 999999 999999 999999 999999 999999 999999 999999 999999 999999 999999 999999 999999 999999 999999 999999 999999 999999 999999 999999 999999 999999 999999 999999 999999 999999 999999 999999 999999 999999 999999 999999 999999 999999 999999 999999 999999 999999 999999 999999 999999 999999 999999 999999 999999 999999 999999 999999 999999 999999 999999 999999 999999 999999 999999 999999 999999 999999 999999 999999 999999 999999 999999 999999 999999 999999 999999 999999 999999 999999 999999 999999 999999 999999 999999 999999 999999 999999 999999 999999 999999 999999 999999 999999 999999 999999 999999 999999 999999 19426 15853 19602 14872 12845 15176 10257 12347 17936 17153 10725 11066 17276 19885 19722 13765 16258 17294 15691 16725 19692 16235 15271 17541 16017 11503 10930 18441 15198 14425 17278 11828 15319 19806 15042 10871 15615 10924 19758 18763 18379 11914 19279 11724 10973 14741 12992 16673 17034 14787 19022 16428 10526 12486 11527 16663 17817 13479 10574 11574 16751 18784 18341 13988 17662 13622 15508 18497 12676 18992 17728 17606 15176 11531 17983 18875 16401 17452 14370 12100 17565 10124 17507 17910 18275 17492 19431 16917 14705 15372 13454 18200 19766 11738 10456 16620 17335 18827 16881 15014 10108 18418 18433 11897 17503 17159 10597 18219 13169 17586 14591 12994 16229 17446 19007 12966 12245 15097 16699 12823 13031 19438 14531 16703 13144 16741 17951 13572 15633 13766 17859 16807 11531 12094 15726 13527 18071 17374 16820 17526 13754 14699 16529 11272 19721 16246 13263 15821 11949 13090 17623 17124 17520 14527 11587 17035 15336 14609 15549 18728 999999
999999 999999 999999 999999 999999 999999 999999 999999 999999 999999 999999 999999 999999 999999 999999 999999 999999 999999 999999 999999 999999 999999 999999 999999 999999 999999 999999 999999 999999 999999 999999 999999 999999 999999 999999 999999 999999 999999 999999 999999 999999 999999 999999 999999 999999 999999 999999 999999 999999 999999 999999 999999 999999 999999 999999 999999 0 999999 999999 999999 999999 999999 999999 999999 999999 999999 999999 999999 999999 999999 999999 999999 999999 999999 999999 999999 999999 999999 999999 999999 999999 999999 999999 999999 999999 999999 999999 999999 999999 999999 999999 999999 999999 999999 999999 999999 999999 999999 999999 999999 999999 999999 999999 999999 999999 999999 999999 999999 999999 999999 999999 999999 999999 999999 999999 999999 999999 999999 999999 999999 999999 999999 999999 999999 999999 999999 999999 999999 999999 999999 999999 999999 999999 999999 999999 999999 999999 999999 999999 999999 999999 999999 999999 999999 999999 999999 999999 999999 999999 999999 999999 999999 999999 999999 999999 999999 999999 999999 999999 999999 999999 12682 17699 15825 12999 19681 18433 11441 11791 14497 10824 13500 19561 15808 12908 19613 17530 15881 18422 10146 12340 17917 18908 18376 10573 19735 13487 13529 15903 19195 17952 15086 13150 11236 18265 14323 14741 13793 19848 10720 14360 12804 14532 18107 12715 18184 14577 19935 12719 18269 16066 16742 14637 15873 15477 13993 12458 11770 10861 15322 15893 16920 13399 15182 17190 18202 18261 11205 12116 14367 18824 19451 10012 11406 16536 18681 15679 16325 12849 14173 18975 10897 17998 12726 10652 19752 10617 17708 14662 12769 16613 12542 17892 10040 15246 12984 16320 13626 17705 17590 12315 18580 17727 19017 15598 13792 13348 15172 12607 19456 15073 10297 16301 12657 14742 14485 14188 19738 14214 14332 14184 14368 16241 19614 17406 12046 17249 12803 11752 13607 19262 12165 11805 15504 13276 12582 10210 18441 16405 15698 13899 14268 15946 17605 12718 12495 18397 15261 14424 18034 16430 11471 15411 19379 11243 14114 18343 10867 12674 18487 13496 999999
999999 999999 999999 999999 999999 999999 999999 999999 999999 999999 999999 999999 999999 999999 999999 999999 999999 999999 999999 999999 999999 999999 999999 999999 999999 999999 999999 999999 999999 999999 999999 999999 999999 999999 999999 999999 999999 999999 999999 999999 999999 999999 999999 999999 999999 999999 999999 999999 999999 999999 999999 999999 999999 999999 999999 999999 999999 0 999999 999999 999999 999999 999999 999999 999999 999999 999999 999999 999999 999999 999999 999999 999999 999999 999999 999999 999999 999999 999999 999999 999999 999999 999999 999999 999999 999999 999999 999999 999999 999999 999999 999999 999999 999999 999999 999999 999999 999999 999999 999999 999999 999999 999999 999999 999999 999999 999999 999999 999999 999999 999999 999999 999999 999999 999999 999999 999999 999999 999999 999999 999999 999999 999999 999999 999999 999999 999999 999999 999999 999999 999999 999999 999999 999999 999999 999999 999999 999999 999999 999999 999999 999999 999999 999999 999999 999999 999999 999999 999999 999999 999999 999999 999999 999999 999999 999999 999999 999999 999999 999999 999999 19861 12445 16410 18779 14094 11634 11612 12133 17562 11499 17565 10311 12891 13209 16225 18024 12142 14463 13733 14937 19077 15371 16691 13473 10686 15764 12803 18003 17478 17230 15179 17189 17686 18207 14602 18196 13770 15589 16049 19819 10593 10446 19031 15483 14626 12762 10177 13603 11786 11868 16500 14423 14428 10483 15582 12875 19589 12867 10369 14758 19342 10968 10625 16723 15596 18411 16204 13355 12429 18251 11313 12328 16915 16939 17021 17887 12223 15203 15671 11112 10835 14574 17077 14127 12124 10109 12614 18300 12054 19652 15128 15203 13051 15274 19775 17628 19930 12527 16391 13841 14659 11023 13180 10678 13378 14634 10775 14811 10374 19089 18612 13125 19760 17343 15679 10340 15597 18972 16070 17558 19659 15324 14696 11439 13309 12673 14902 10040 10137 16427 13977 13321 14956 16418 18382 13089 16944 10005 16413 14233 14511 19546 19144 11851 14336 13554 18851 12396 15914 14649 15093 10627 14905 10271 11925 17914 19250 15673 12085 14171 999999
999999 999999 999999 999999 999999 999999 999999 999999 999999 999999 999999 999999 999999 999999 999999 999999 999999 999999 999999 999999 999999 999999 999999 999999 999999 999999 999999 999999 999999 999999 999999 999999 999999 999999 999999 999999 999999 999999 999999 999999 999999 999999 999999 999999 999999 999999 999999 999999 999999 999999 999999 999999 999999 999999 999999 999999 999999 999999 0 999999 999999 999999 999999 999999 999999 999999 999999 999999 999999 999999 999999 999999 999999 999999 999999 999999 999999 999999 999999 999999 999999 999999 999999 999999 999999 999999 999999 999999 999999 999999 999999 999999 999999 999999 999999 999999 999999 999999 999999 999999 999999 999999 999999 999999 999999 999999 999999 999999 999999 999999 999999 999999 999999 999999 999999 999999 999999 999999 999999 999999 999999 999999 999999 999999 999999 999999 999999 999999 999999 999999 999999 999999 999999 999999 999999 999999 999999 999999 999999 999999 999999 999999 999999 999999 999999 999999 999999 999999 999999 999999 999999 999999 999999 999999 999999 999999 999999 999999 999999 999999 999999 19156 19274 17319 16108 19730 18297 12951 11177 17184 14625 12666 17664 18385 17224 18868 16048 19487 10683 19628 19269 12757 13262 18122 15071 17214 10465 14018 13474 15694 18209 15740 13823 16179 16660 14273 10149 13230 18014 18666 18077 10544 18125 16041 13535 16303 17234 15063 16748 13407 19938 15615 14949 10203 13969 15460 18314 16794 18943 14451 17788 10905 13135 15982 11571 12807 12264 15932 16792 14949 12154 14238 15668 13483 11624 19807 11752 15840 15440 15375 12789 11120 12200 16653 12298 11945 12973 15812 10499 16894 18133 16581 11497 13584 12786 18120 15339 17186 16064 13985 17836 15029 10655 10378 19592 19437 16284 12487 13841 14729 10782 17096 16731 18396 16714 10717 14485 11741 13393 10912 17224 13765 12702 10284 11326 15931 16107 17243 15879 12933 10300 14385 14660 16230 10517 14684 11797 14485 10051 12582 10955 10780 14105 17367 13535 17907 19714 11912 11425 10301 18998 11195 16604 19609 18123 17500 16910 15852 10461 15266 14768 999999
999999 999999 999999 999999 999999 999999 999999 999999 999999 999999 999999 999999 999999 999999 999999 999999 999999 999999 999999 999999 999999 999999 999999 999999 999999 999999 999999 999999 999999 999999 999999 999999 999999 999999 999999 999999 999999 999999 999999 999999 999999 999999 999999 999999 999999 999999 999999 999999 999999 999999 999999 999999 999999 999999 999999 999999 999999 999999 999999 0 999999 999999 999999 999999 999999 999999 999999 999999 999999 999999 999999 999999 999999 999999 999999 999999 999999 999999 999999 999999 999999 999999 999999 999999 999999 999999 999999 999999 999999 999999 999999 999999 999999 999999 999999 999999 999999 999999 999999 999999 999999 999999 999999 999999 999999 999999 999999 999999 999999 999999 999999 999999 999999 999999 999999 999999 999999 999999 999999 999999 999999 999999 999999 999999 999999 999999 999999 999999 999999 999999 999999 999999 999999 999999 999999 999999 999999 999999 999999 999999 999999 999999 999999 999999 999999 999999 999999 999999 999999 999999 999999 999999 999999 999999 999999 999999 999999 999999 999999 999999 999999 13137 12769 19594 13418 13366 12215 14202 19697 19385 12661 16291 16759 12909 19230 10936 17653 10284 15707 18577 12294 18232 13656 18870 14192 19673 12296 15009 18427 17289 17786 16923 12669 18861 17187 13304 13886 19840 12776 16803 19953 15352 14368 16187 18846 14037 17011 12850 18609 13703 18861 18106 17704 14184 14886 13764 14367 16231 12878 11024 14314 17065 16951 17961 19939 19603 13514 15028 11728 17806 18554 11772 12741 10818 10812 12257 15118 16024 17633 13191 16447 12969 11752 10061 17279 11286 18942 15925 17489 20000 14889 14601 16337 15436 14841 11496 15433 13830 11107 12307 19065 19367 14916 12002 11712 12762 18275 18540 12476 10304 16127 17770 16103 11384 19132 15171 19970 15455 13889 15679 19874 17246 16451 10359 13645 18342 11004 16504 10305 11923 18647 11681 12555 10974 11949 18912 17038 14841 19862 16742 10403 11230 16811 11712 15825 11197 16194 15569 14700 17953 16544 15915 14456 16293 19835 11504 19421 18124 15103 13677 11573 999999
999999 999999 999999 999999 999999 999999 999999 999999 999999 999999 999999 999999 999999 999999 999999 999999 999999 999999 999999 999999 999999 999999 999999 999999 999999 999999 999999 999999 999999 999999 999999 999999 999999 999999 999999 999999 999999 999999 999999 999999 999999 999999 999999 999999 999999 999999 999999 999999 999999 999999 999999 999999 999999 999999 999999 999999 999999 999999 999999 999999 0 999999 999999 999999 999999 999999 999999 999999 999999 999999 999999 999999 999999 999999 999999 999999 999999 999999 999999 999999 999999 999999 999999 999999 999999 999999 999999 999999 999999 999999 999999 999999 999999 999999 999999 999999 999999 999999 999999 999999 999999 999999 999999 999999 999999 999999 999999 999999 999999 999999 999999 999999 999999 999999 999999 999999 999999 999999 999999 999999 999999 999999 999999 999999 999999 999999 999999 999999 999999 999999 999999 999999 999999 999999 999999 999999 999999 999999 999999 999999 999999 999999 999999 999999 999999 999999 999999 999999 999999 999999 999999 999999 999999 999999 999999 999999 999999 999999 999999 999999 999999 11757 14292 16812 18798 19934 14928 12285 10999 19194 14142 14088 10671 15860 14826 18897 15927 12035 15700 17535 15923 11906 15782 19322 18256 19201 15311 11278 10208 12890 11364 19397 18893 18193 11876 10062 19715 15646 19676 16786 17245 11294 17481 15265 11723 18354 16797 11891 15664 19539 11232 16740 16108 11428 15624 12803 14969 12256 16769 19657 10221 13737 18413 16304 12422 11511 14642 11864 14353 15209 12045 11969 12507 10338 18776 18847 17688 15207 11494 13640 11095 10386 12118 14813 13705 17137 19782 15094 11523 11333 17511 19783 15588 16038 17182 10392 14095 17603 19313 12887 19002 16398 12694 15665 10229 16993 12700 11975 12806 12736 17828 14840 19192 12626 15374 16301 18343 19871 15887 19695 12934 10051 18006 13828 10753 18718 16712 11101 16852 16666 18280 10408 19051 16753 13536 13130 15969 16051 14973 16695 16187 12792 18237 11098 17473 15601 16974 11628 17684 10617 19417 13339 15623 18155 17554 19240 15875 10676 18157 10493 16520 999999
999999 999999 999999 999999 999999 999999 999999 999999 999999 999999 999999 999999 999999 999999 999999 999999 999999 999999 999999 999999 999999 999999 999999 999999 999999 999999 999999 999999 999999 999999 999999 999999 999999 999999 999999 999999 999999 999999 999999 999999 999999 999999 999999 999999 999999 999999 999999 999999 999999 999999 999999 999999 999999 999999 999999 999999 999999 999999 999999 999999 999999 0 999999 999999 999999 999999 999999 999999 999999 999999 999999 999999 999999 999999 999999 999999 999999 999999 999999 999999 999999 999999 999999 999999 999999 999999 999999 999999 999999 999999 999999 999999 999999 999999 999999 999999 999999 999999 999999 999999 999999 999999 999999 999999 999999 999999 999999 999999 999999 999999 999999 999999 999999 999999 999999 999999 999999 999999 999999 999999 999999 999999 999999 999999 999999 999999 999999 999999 999999 999999 999999 999999 999999 999999 999999 999999 999999 999999 999999 999999 999999 999999 999999 999999 999999 999999 999999 999999 999999 999999 999999 999999 999999 999999 999999 999999 999999 999999 999999 999999 999999 18767 12835 15921 12634 12562 17970 19924 14056 12630 16778 15287 11396 17771 10193 16232 18068 12682 12065 11314 10258 18942 11617 15844 19469 10016 19925 16020 13570 17366 10518 16123 15936 18660 11685 13137 14455 11111 15952 15403 14732 15821 15439 17579 15691 16065 14136 13794 19632 16811 18668 12543 15620 14290 15871 15296 18267 14062 18241 15202 10746 15065 13131 17548 13973 12996 16432 17103 10488 17983 10827 13421 19852 12144 15327 18576 13048 15552 19315 15300 16871 14853 17735 13148 11995 10966 17703 19359 16896 17774 14663 11809 19405 15013 15414 17946 16682 13899 11824 11641 14227 10140 13092 18506 13061 10073 18466 10755 11277 17400 18720 17716 15094 19074 12073 14188 11158 13997 14248 11120 14196 18218 10272 11046 18031 12981 16716 14709 12436 17198 10336 19898 14743 14153 15312 16339 17291 17359 19655 10438 17484 14841 17554 17437 15809 10388 10473 12473 10522 10093 13540 16779 17689 18429 19894 14547 15131 14600 13853 10711 13682 999999
999999 999999 999999 999999 999999 999999 999999 999999 999999 999999 999999 999999 999999 999999 999999 999999 999999 999999 999999 999999 999999 999999 999999 999999 999999 999999 999999 999999 999999 999999 999999 999999 999999 999999 999999 999999 999999 999999 999999 999999 999999 999999 999999 999999 999999 999999 999999 999999 999999 999999 999999 999999 999999 999999 999999 999999 999999 999999 999999 999999 999999 999999 0 999999 999999 999999 999999 999999 999999 999999 999999 999999 999999 999999 999999 999999 999999 999999 999999 999999 999999 999999 999999 999999 999999 999999 999999 999999 999999 999999 999999 999999 999999 999999 999999 999999 999999 999999 999999 999999 999999 999999 999999 999999 999999 999999 999999 999999 999999 999999 999999 999999 999999 999999 999999 999999 999999 999999 999999 999999 999999 999999 999999 999999 999999 999999 999999 999999 999999 999999 999999 999999 999999 999999 999999 999999 999999 999999 999999 999999 999999 999999 999999 999999 999999 999999 999999 999999 999999 999999 999999 999999 999999 999999 999999 999999 999999 999999 999999 999999 999999 13285 14547 10455 15376 10523 15617 19381 11414 17373 19733 17035 17547 18289 18203 10714 11888 15558 19850 10737 10641 19650 14095 13385 17413 18708 13558 16155 13009 16997 10252 10538 11739 16185 15241 11785 12271 18361 17196 14544 10502 12847 11811 17060 10158 19871 19525 18565 18115 12188 16859 18248 10315 18432 16968 17616 11866 16215 12997 19100 11406 18748 17732 15603 17803 17214 11920 18310 16455 13530 19894 12692 19394 15516 14842 12803 14622 15230 19401 14884 17990 15200 14907 10173 16551 12838 17252 18128 12460 11187 18481 15958 11358 11063 11474 14878 18346 10806 17597 12807 19760 14047 16857 13902 14397 16820 10677 12296 14547 16587 17422 11026 15371 16826 11095 11395 16032 16075 14278 10298 10203 15525 10608 10123 15596 13145 16485 14623 17344 14644 19241 16598 15730 19735 11321 19912 14270 15609 10146 19880 10362 14743 16968 13280 16468 10733 13769 10008 11862 19639 13958 18588 17990 13202 13635 13304 18105 15025 14947 10903 18966 999999
999999 999999 999999 999999 999999 999999 999999 999999 999999 999999 999999 999999 999999 999999 999999 999999 999999 999999 999999 999999 999999 999999 999999 999999 999999 999999 999999 999999 999999 999999 999999 999999 999999 999999 999999 999999 999999 999999 999999 999999 999999 999999 999999 999999 999999 999999 999999 999999 999999 999999 999999 999999 999999 999999 999999 999999 999999 999999 999999 999999 999999 999999 999999 0 999999 999999 999999 999999 999999 999999 999999 999999 999999 999999 999999 999999 999999 999999 999999 999999 999999 999999 999999 999999 999999 999999 999999 999999 999999 999999 999999 999999 999999 999999 999999 999999 999999 999999 999999 999999 999999 999999 999999 999999 999999 999999 999999 999999 999999 999999 999999 999999 999999 999999 999999 999999 999999 999999 999999 999999 999999 999999 999999 999999 999999 999999 999999 999999 999999 999999 999999 999999 999999 999999 999999 999999 999999 999999 999999 999999 999999 999999 999999 999999 999999 999999 999999 999999 999999 999999 999999 999999 999999 999999 999999 999999 999999 999999 999999 999999 999999 11368 10172 12185 19957 10467 17295 11501 14824 16171 18952 18969 10627 10195 16159 12044 14547 11337 14859 17938 17816 18499 10252 16246 15511 14669 11255 11956 11688 19485 14682 19719 14304 12033 18699 16249 13674 13937 14389 13846 14517 14216 18237 18585 13611 12826 18449 14169 10957 19224 12883 15558 19736 16741 17952 16089 18459 17411 17707 11187 11040 15661 17001 12770 19900 14976 12535 18314 15436 13859 12573 13164 12521 18178 17364 12898 19648 17898 13680 13844 18539 19817 17459 17326 16744 11037 14064 15690 13012 19829 10112 13940 17988 12955 13689 18206 10075 12558 15058 17439 18589 18016 11764 15449 12730 10981 15697 16483 14295 19345 12309 12425 13826 10592 16218 12772 11199 13991 14620 15105 11076 17506 18136 17787 15986 14678 11575 18551 18422 10384 18870 14244 19265 13866 13970 15698 16638 17801 19690 10247 10674 10437 10707 15422 19946 14195 16053 19796 12483 18303 12059 15576 16682 15088 14194 11960 18218 14035 16065 14132 16007 999999
999999 999999 999999 999999 999999 999999 999999 999999 999999 999999 999999 999999 999999 999999 999999 999999 999999 999999 999999 999999 999999 999999 999999 999999 999999 999999 999999 999999 999999 999999 999999 999999 999999 999999 999999 999999 999999 999999 999999 999999 999999 999999 999999 999999 999999 999999 999999 999999 999999 999999 999999 999999 999999 999999 999999 999999 999999 999999 999999 999999 999999 999999 999999 999999 0 999999 999999 999999 999999 999999 999999 999999 999999 999999 999999 999999 999999 999999 999999 999999 999999 999999 999999 999999 999999 999999 999999 999999 999999 999999 999999 999999 999999 999999 999999 999999 999999 999999 999999 999999 999999 999999 999999 999999 999999 999999 999999 999999 999999 999999 999999 999999 999999 999999 999999 999999 999999 999999 999999 999999 999999 999999 999999 999999 999999 999999 999999 999999 999999 999999 999999 999999 999999 999999 999999 999999 999999 999999 999999 999999 999999 999999 999999 999999 999999 999999 999999 999999 999999 999999 999999 999999 999999 999999 999999 999999 999999 999999 999999 999999 999999 17875 13549 15635 14247 16638 19828 19942 18541 18435 11916 15234 12003 14974 11452 10546 11634 11574 15056 11936 15093 19570 13633 10343 10066 15108 19972 18496 17673 12542 19149 19644 16353 18180 17917 16420 19249 10775 14896 13971 18300 18649 11473 16290 11893 17838 14239 19665 18817 19144 14763 16491 11582 14971 10890 12699 18256 12968 10820 11623 16711 10485 11557 17960 11891 15317 10033 19376 17672 11583 11927 17200 12705 13864 12875 10385 15026 19605 13727 13679 13120 11611 10923 18385 17385 11549 10664 15224 18672 18107 18867 12814 19422 10530 13664 17682 12273 14236 15992 16901 19850 14356 13994 10523 16091 18605 10962 16656 19488 19051 15486 17963 13806 19352 18404 19198 10350 18101 17419 10581 19952 18722 11487 18988 13100 19338 10398 16307 16963 10822 15159 15686 14765 17117 11855 17927 17639 14298 18703 17308 16587 10371 19763 18486 15242 14483 18410 13531 17504 13624 15440 15595 14798 10861 16131 16259 15480 11503 17544 10263 18331 999999
999999 999999 999999 999999 999999 999999 999999 999999 999999 999999 999999 999999 999999 999999 999999 999999 999999 999999 999999 999999 999999 999999 999999 999999 999999 999999 999999 999999 999999 999999 999999 999999 999999 999999 999999 999999 999999 999999 999999 999999 999999 999999 999999 999999 999999 999999 999999 999999 999999 999999 999999 999999 999999 999999 999999 999999 999999 999999 999999 999999 999999 999999 999999 999999 999999 0 999999 999999 999999 999999 999999 999999 999999 999999 999999 999999 999999 999999 999999 999999 999999 999999 999999 999999 999999 999999 999999 999999 999999 999999 999999 999999 999999 999999 999999 999999 999999 999999 999999 999999 999999 999999 999999 999999 999999 999999 999999 999999 999999 999999 999999 999999 999999 999999 999999 999999 999999 999999 999999 999999 999999 999999 999999 999999 999999 999999 999999 999999 999999 999999 999999 999999 999999 999999 999999 999999 999999 999999 999999 999999 999999 999999 999999 999999 999999 999999 999999 999999 999999 999999 999999 999999 999999 999999 999999 999999 999999 999999 999999 999999 999999 12520 11997 19782 12307 14229 19381 17974 16838 14018 12689 10021 15452 15844 14326 15798 16137 18780 15194 10323 19338 10724 12865 14524 17101 11926 10010 14655 10056 11194 18541 18327 19397 10712 11855 14802 13808 16157 18481 11267 10795 16190 11822 12871 18407 10423 12497 15805 17935 10302 13698 19045 10939 14880 14994 11225 11060 17495 11600 14401 17657 12611 11150 13380 11272 10072 12307 14139 17362 17451 14589 14424 17408 15100 12735 13501 17262 13224 14602 17067 18798 11182 13716 11340 17318 19725 13387 15848 10217 11828 14269 10375 19178 15624 12865 16862 15028 16513 16719 14929 15303 16741 17628 15645 18272 15168 18141 12258 10988 11588 15167 17454 15099 10820 11440 10518 10537 11678 17666 16782 13853 17674 14345 17529 14175 11431 14236 14603 17297 16511 13656 16072 12162 12261 12502 16692 19967 11335 10931 15475 13347 13935 16363 17458 15757 18368 19950 10680 14374 12584 11324 15026 11114 16714 15461 10132 17667 11221 19357 13962 11345 999999
999999 999999 999999 999999 999999 999999 999999 999999 999999 999999 999999 999999 999999 999999 999999 999999 999999 999999 999999 999999 999999 999999 999999 999999 999999 999999 999999 999999 999999 999999 999999 999999 999999 999999 999999 999999 999999 999999 999999 999999 999999 999999 999999 999999 999999 999999 999999 999999 999999 999999 999999 999999 999999 999999 999999 999999 999999 999999 999999 999999 999999 999999 999999 999999 999999 999999 0 999999 999999 999999 999999 999999 999999 999999 999999 999999 999999 999999 999999 999999 999999 999999 999999 999999 999999 999999 999999 999999 999999 999999 999999 999999 999999 999999 999999 999999 999999 999999 999999 999999 999999 999999 999999 999999 999999 999999 999999 999999 999999 999999 999999 999999 999999 999999 999999 999999 999999 999999 999999 999999 999999 999999 999999 999999 999999 999999 999999 999999 999999 999999 999999 999999 999999 999999 999999 999999 999999 999999 999999 999999 999999 999999 999999 999999 999999 999999 999999 999999 999999 999999 999999 999999 999999 999999 999999 999999 999999 999999 999999 999999 999999 14961 19695 11533 17294 15393 17641 18248 17807 13426 10352 14739 12905 14033 18155 14024 10800 13833 11040 13527 15925 10385 19462 14123 19564 13640 17066 16761 10155 15200 14870 18662 10517 11658 11911 17638 10625 17850 19768 19738 11109 18584 19880 17830 13315 13726 10417 16102 10769 15702 15147 12881 18925 17643 11870 19929 13214 19825 13383 11392 14385 12467 16579 15956 11361 11115 10608 10056 19908 13590 19693 16070 15616 17004 16801 10843 10907 16502 17380 10589 12105 13037 15638 12157 18592 12881 15268 12065 12295 15729 17031 18366 10150 19971 19821 11043 11994 12859 12342 15691 11552 16774 16402 12116 18958 14942 18695 19765 19442 14220 17472 10301 17907 18555 12821 11420 17540 12105 11486 14557 19126 19742 17752 16047 12107 11829 16645 12240 17227 10559 11770 19276 17389 19992 19673 17537 11100 19456 13031 18194 15179 18569 13540 13420 16300 12016 11438 13169 11396 12191 18549 12642 15676 10715 11827 12258 18550 14610 16993 12443 14480 999999
999999 999999 999999 999999 999999 999999 999999 999999 999999 999999 999999 999999 999999 999999 999999 999999 999999 999999 999999 999999 999999 999999 999999 999999 999999 999999 999999 999999 999999 999999 999999 999999 999999 999999 999999 999999 999999 999999 999999 999999 999999 999999 999999 999999 999999 999999 999999 999999 999999 999999 999999 999999 999999 999999 999999 999999 999999 999999 999999 999999 999999 999999 999999 999999 999999 999999 999999 0 999999 999999 999999 999999 999999 999999 999999 999999 999999 999999 999999 999999 999999 999999 999999 999999 999999 999999 999999 999999 999999 999999 999999 999999 999999 999999 999999 999999 999999 999999 999999 999999 999999 999999 999999 999999 999999 999999 999999 999999 999999 999999 999999 999999 999999 999999 999999 999999 999999 999999 999999 999999 999999 999999 999999 999999 999999 999999 999999 999999 999999 999999 999999 999999 999999 999999 999999 999999 999999 999999 999999 999999 999999 999999 999999 999999 999999 999999 999999 999999 999999 999999 999999 999999 999999 999999 999999 999999 999999 999999 999999 999999 999999 12399 16451 11440 13885 19649 19378 13168 14101 15532 17351 10177 15892 14174 14680 17578 10845 15242 14099 11932 19555 11911 12446 11527 10116 18090 12108 17527 11995 15118 16619 14881 15776 10733 19964 18650 12249 18425 16950 14901 11068 17714 14369 14400 11591 16814 11267 17778 15408 16584 16245 16310 10143 17335 15129 12575 11929 11039 19941 12824 16956 14592 13244 18199 16203 10462 17446 14161 14189 10716 10266 19466 18311 16298 15014 17299 14968 16112 17096 16502 14168 18647 10216 13455 19581 16318 17580 14445 11498 19130 10875 15535 11334 14630 16252 15627 14792 14668 19774 11783 14317 13863 19808 13612 11766 14608 18178 14733 18764 19183 13825 10457 10273 19473 17570 16060 10076 15752 16964 19680 19175 12885 18259 15758 15424 11486 13900 13444 15739 14001 15767 18916 19777 12281 12163 19531 14355 10262 12060 17219 12440 12787 11341 15424 11509 15620 18249 18616 16465 15171 19140 18475 14620 16465 16616 15896 16597 10196 14401 10909 16995 999999
999999 999999 999999 999999 999999 999999 999999 999999 999999 999999 999999 999999 999999 999999 999999 999999 999999 999999 999999 999999 999999 999999 999999 999999 999999 999999 999999 999999 999999 999999 999999 999999 999999 999999 999999 999999 999999 999999 999999 999999 999999 999999 999999 999999 999999 999999 999999 999999 999999 999999 999999 999999 999999 999999 999999 999999 999999 999999 999999 999999 999999 999999 999999 999999 999999 999999 999999 999999 0 999999 999999 999999 999999 999999 999999 999999 999999 999999 999999 999999 999999 999999 999999 999999 999999 999999 999999 999999 999999 999999 999999 999999 999999 999999 999999 999999 999999 999999 999999 999999 999999 999999 999999 999999 999999 999999 999999 999999 999999 999999 999999 999999 999999 999999 999999 999999 999999 999999 999999 999999 999999 999999 999999 999999 999999 999999 999999 999999 999999 999999 999999 999999 999999 999999 999999 999999 999999 999999 999999 999999 999999 999999 999999 999999 999999 999999 999999 999999 999999 999999 999999 999999 999999 999999 999999 999999 999999 999999 999999 999999 999999 16313 12513 17989 11594 14664 19793 16248 16275 17763 14008 11656 18262 13819 10695 15291 15171 11721 17327 12003 16771 10328 19639 17921 17358 11818 19522 10573 13429 17576 14548 16341 18462 10233 15582 17193 16298 13583 16193 17084 18214 13851 19711 19331 17627 10309 15619 11774 11847 13117 16433 13742 18711 14917 10201 16319 12999 19658 15606 13259 16245 14710 16892 15214 18059 17662 10499 15757 14894 17178 11839 13234 12577 15171 19279 13803 10501 15189 13449 10080 14028 18713 16472 13583 15363 14756 13239 19786 16695 17257 15750 14511 17453 17038 12971 15274 11915 12129 13845 12696 14209 18794 12510 18260 13203 16848 16726 17858 10175 18336 15980 18837 11063 15263 12750 13179 18100 19211 14412 15968 15779 12009 10157 11113 18078 18695 16910 11503 13487 11104 13437 10662 11061 10737 10707 14837 11678 18845 18654 13080 10193 16161 15894 13037 13036 16165 16983 19892 10801 15376 13869 18315 11122 13294 12577 13708 13374 13431 16541 12676 14896 999999
999999 999999 999999 999999 999999 999999 999999 999999 999999 999999 999999 999999 999999 999999 999999 999999 999999 999999 999999 999999 999999 999999 999999 999999 999999 999999 999999 999999 999999 999999 999999 999999 999999 999999 999999 999999 999999 999999 999999 999999 999999 999999 999999 999999 999999 999999 999999 999999 999999 999999 999999 999999 999999 999999 999999 999999 999999 999999 999999 999999 999999 999999 999999 999999 999999 999999 999999 999999 999999 0 999999 999999 999999 999999 999999 999999 999999 999999 999999 999999 999999 999999 999999 999999 999999 999999 999999 999999 999999 999999 999999 999999 999999 999999 999999 999999 999999 999999 999999 999999 999999 999999 999999 999999 999999 999999 999999 999999 999999 999999 999999 999999 999999 999999 999999 999999 999999 999999 999999 999999 999999 999999 999999 999999 999999 999999 999999 999999 999999 999999 999999 999999 999999 999999 999999 999999 999999 999999 999999 999999 999999 999999 999999 999999 999999 999999 999999 999999 999999 999999 999999 999999 999999 999999 999999 999999 999999 999999 999999 999999 999999 11765 11799 14474 13698 17034 10866 13656 14694 17944 13889 12501 19891 10632 15912 18396 11621 17585 19909 10659 14704 18870 14325 14875 19771 13295 14760 10353 17069 17419 16595 12820 16268 17385 12207 16605 12255 16282 18987 14698 11016 10452 16595 14031 12144 18362 12021 19343 12018 14422 10439 11244 18549 11036 10100 10702 19990 14481 17250 16906 16499 15816 13792 18445 19448 15353 18209 14872 14799 13914 16938 19687 15032 17402 19004 15109 10776 14477 15839 10976 13274 14984 11098 15822 18532 19793 18594 14410 14276 13477 11648 14049 16048 13750 12648 11464 11537 10509 18753 11787 19192 13282 19826 18552 13078 18775 11114 18609 13852 11473 17036 18444 11670 10167 19322 19974 12244 15234 10092 14635 10318 13766 14606 16474 15084 19171 12311 19671 16604 17922 19096 12997 13862 19550 13444 17131 19868 14109 15619 18648 11438 14167 17671 17982 13911 19296 18927 14168 17700 19622 15718 11958 17284 11278 18677 18413 13955 10622 15327 11009 18916 999999
999999 999999 999999 999999 999999 999999 999999 999999 999999 999999 999999 999999 999999 999999 999999 999999 999999 999999 999999 999999 999999 999999 999999 999999 999999 999999 999999 999999 999999 999999 999999 999999 999999 999999 999999 999999 999999 999999 999999 999999 999999 999999 999999 999999 999999 999999 999999 999999 999999 999999 999999 999999 999999 999999 999999 999999 999999 999999 999999 999999 999999 999999 999999 999999 999999 999999 999999 999999 999999 999999 0 999999 999999 999999 999999 999999 999999 999999 999999 999999 999999 999999 999999 999999 999999 999999 999999 999999 999999 999999 999999 999999 999999 999999 999999 999999 999999 999999 999999 999999 999999 999999 999999 999999 999999 999999 999999 999999 999999 999999 999999 999999 999999 999999 999999 999999 999999 999999 999999 999999 999999 999999 999999 999999 999999 999999 999999 999999 999999 999999 999999 999999 999999 999999 999999 999999 999999 999999 999999 999999 999999 999999 999999 999999 999999 999999 999999 999999 999999 999999 999999 999999 999999 999999 999999 999999 999999 999999 999999 999999 999999 16890 13942 18497 19320 10145 18998 14321 18788 10658 19968 10184 11978 17435 18081 17677 12524 15706 13514 14815 17593 11156 13820 13821 18549 14647 16109 19646 13243 18074 17089 15681 18828 17574 14368 15984 15860 12906 11493 12071 18676 10573 11511 13932 10824 19265 19872 17891 13651 17928 14800 17535 13447 18007 18725 15979 16098 15398 19951 12886 17318 19532 15470 18514 17119 14385 10931 10844 19375 18465 11703 19274 17048 11690 14850 18456 13002 15304 12345 15365 10738 10346 10266 11980 14310 15490 19616 10541 13228 13558 14489 15256 19775 15697 17050 17776 14675 15905 11117 11238 17828 18024 18620 19892 16689 17541 15298 11074 15611 10182 16896 12736 14121 11782 13532 16781 15488 14290 17338 17889 11897 19821 11275 17011 11177 13858 19145 15260 10015 18758 17924 19876 16703 10724 14780 16750 10371 18734 13790 11031 13944 11667 14711 12896 16969 10622 18840 17465 15424 17330 18288 18584 18848 14210 10961 18293 14302 10644 16043 10456 17761 999999
999999 999999 999999 999999 999999 999999 999999 999999 999999 999999 999999 999999 999999 999999 999999 999999 999999 999999 999999 999999 999999 999999 999999 999999 999999 999999 999999 999999 999999 999999 999999 999999 999999 999999 999999 999999 999999 999999 999999 999999 999999 999999 999999 999999 999999 999999 999999 999999 999999 999999 999999 999999 999999 999999 999999 999999 999999 999999 999999 999999 999999 999999 999999 999999 999999 999999 999999 999999 999999 999999 999999 0 999999 999999 999999 999999 999999 999999 999999 999999 999999 999999 999999 999999 999999 999999 999999 999999 999999 999999 999999 999999 999999 999999 999999 999999 999999 999999 999999 999999 999999 999999 999999 999999 999999 999999 999999 999999 999999 999999 999999 999999 999999 999999 999999 999999 999999 999999 999999 999999 999999 999999 999999 999999 999999 999999 999999 999999 999999 999999 999999 999999 999999 999999 999999 999999 999999 999999 999999 999999 999999 999999 999999 999999 999999 999999 999999 999999 999999 999999 999999 999999 999999 999999 999999 999999 999999 999999 999999 999999 999999 16455 17737 14386 10728 17987 13141 19425 19819 12253 16410 11482 13997 19919 15241 19302 14710 11009 14881 15428 19752 12097 14689 18736 18711 11768 17725 10172 12084 15674 18861 16864 12905 13303 19377 14861 14087 15607 12252 14926 12650 18078 14736 10496 10432 18594 18473 16126 11022 18804 10278 12496 14849 17266 18089 17455 10325 14393 11987 13479 14906 14379 14670 13047 18031 10103 11106 13664 14054 15388 16706 11795 19587 10042 19061 15338 19394 16662 15047 16924 18457 17481 12848 14489 11610 10486 14548 12347 13138 12465 19675 15398 17380 14394 18817 14298 17369 17129 18398 13222 17457 12920 15003 11068 10751 14248 15347 15731 14831 18598 12561 12477 11370 11564 12125 17894 12012 11188 12042 12451 17075 19944 13612 13075 14664 11962 10637 15900 13242 12581 10857 13676 10992 12865 16398 15643 17371 19091 19386 12222 13246 17189 14397 11130 18852 11790 13157 16035 15983 15704 11813 16692 10266 15609 15948 11546 12079 16492 17456 17542 15902 999999
999999 999999 999999 999999 999999 999999 999999 999999 999999 999999 999999 999999 999999 999999 999999 999999 999999 999999 999999 999999 999999 999999 999999 999999 999999 999999 999999 999999 999999 999999 999999 999999 999999 999999 999999 999999 999999 999999 999999 999999 999999 999999 999999 999999 999999 999999 999999 999999 999999 999999 999999 999999 999999 999999 999999 999999 999999 999999 999999 999999 999999 999999 999999 999999 999999 999999 999999 999999 999999 999999 999999 999999 0 999999 999999 999999 999999 999999 999999 999999 999999 999999 999999 999999 999999 999999 999999 999999 999999 999999 999999 999999 999999 999999 999999 999999 999999 999999 999999 999999 999999 999999 999999 999999 999999 999999 999999 999999 999999 999999 999999 999999 999999 999999 999999 999999 999999 999999 999999 999999 999999 999999 999999 999999 999999 999999 999999 999999 999999 999999 999999 999999 999999 999999 999999 999999 999999 999999 999999 999999 999999 999999 999999 999999 999999 999999 999999 999999 999999 999999 999999 999999 999999 999999 999999 999999 999999 999999 999999 999999 999999 15201 10412 10290 10478 15763 10636 16526 17663 10092 13152 17488 18225 16502 19523 11895 12462 17366 17497 12092 16331 10247 12698 18698 16448 18284 11937 18605 16395 11166 10000 16763 15055 15540 11655 12290 14191 12938 13533 19456 17312 11394 16627 10382 12512 16285 14530 16619 13043 17247 13287 12668 15566 17592 11606 14269 10316 14886 18600 12015 12559 14507 18694 19747 18272 16965 12356 16169 16655 17982 14537 10940 14681 19780 14756 17103 16482 19829 17047 12610 19269 13589 12939 16868 17856 10331 14120 14477 17544 12870 14914 18178 15805 17058 16688 14158 12603 13148 14644 12060 18138 19430 17775 13079 10749 11320 12999 14458 10629 15271 17773 18220 17451 11812 14634 18043 15603 15624 10533 17686 14284 17894 14327 12523 13273 12376 16943 13044 10174 19559 16170 17440 19748 10513 11293 15350 15519 15645 12144 18270 11210 19087 13921 17330 13747 15532 16241 17982 13654 13781 13884 18125 15696 17013 10095 18541 13986 13189 17638 11352 12532 999999
999999 999999 999999 999999 999999 999999 999999 999999 999999 999999 999999 999999 999999 999999 999999 999999 999999 999999 999999 999999 999999 999999 999999 999999 999999 999999 999999 999999 999999 999999 999999 999999 999999 999999 999999 999999 999999 999999 999999 999999 999999 999999 999999 999999 999999 999999 999999 999999 999999 999999 999999 999999 999999 999999 999999 999999 999999 999999 999999 999999 999999 999999 999999 999999 999999 999999 999999 999999 999999 999999 999999 999999 999999 0 999999 999999 999999 999999 999999 999999 999999 999999 999999 999999 999999 999999 999999 999999 999999 999999 999999 999999 999999 999999 999999 999999 999999 999999 999999 999999 999999 999999 999999 999999 999999 999999 999999 999999 999999 999999 999999 999999 999999 999999 999999 999999 999999 999999 999999 999999 999999 999999 999999 999999 999999 999999 999999 999999 999999 999999 999999 999999 999999 999999 999999 999999 999999 999999 999999 999999 999999 999999 999999 999999 999999 999999 999999 999999 999999 999999 999999 999999 999999 999999 999999 999999 999999 999999 999999 999999 999999 10887 10331 15084 15431 18311 12591 16566 14734 13068 16370 17551 16977 14827 16779 16331 19377 15081 18313 11254 15781 11137 11719 10624 14293 10944 10723 12841 18550 17526 13619 16280 11762 17482 18928 13082 17558 17052 10598 11398 11184 17423 11935 11376 17512 18697 14575 19125 11823 18860 14110 18975 12888 19514 19131 17078 18966 10047 19524 11709 15882 14690 16983 14722 14485 11928 10942 10564 13406 15399 17673 18280 15635 19517 14519 11188 15420 18391 13120 13003 18796 19639 19201 15790 15640 19202 12464 19469 10988 14269 10697 13926 18126 14925 16672 14964 12821 13545 11411 11843 14961 16901 10864 17674 16616 16744 16365 19200 13937 12203 16195 12777 11206 14901 10835 14353 10654 17860 19627 16929 10126 18446 15991 18910 11730 17942 14334 12119 18817 15374 13644 17838 10266 19699 16882 17951 13286 16010 13305 13237 15807 16460 14293 16207 12257 11696 11669 18190 17116 17601 18405 19281 12132 19190 19811 17989 15588 13843 10623 19149 16020 999999
999999 999999 999999 999999 999999 999999 999999 999999 999999 999999 999999 999999 999999 999999 999999 999999 999999 999999 999999 999999 999999 999999 999999 999999 999999 999999 999999 999999 999999 999999 999999 999999 999999 999999 999999 999999 999999 999999 999999 999999 999999 999999 999999 999999 999999 999999 999999 999999 999999 999999 999999 999999 999999 999999 999999 999999 999999 999999 999999 999999 999999 999999 999999 999999 999999 999999 999999 999999 999999 999999 999999 999999 999999 999999 0 999999 999999 999999 999999 999999 999999 999999 999999 999999 999999 999999 999999 999999 999999 999999 999999 999999 999999 999999 999999 999999 999999 999999 999999 999999 999999 999999 999999 999999 999999 999999 999999 999999 999999 999999 999999 999999 999999 999999 999999 999999 999999 999999 999999 999999 999999 999999 999999 999999 999999 999999 999999 999999 999999 999999 999999 999999 999999 999999 999999 999999 999999 999999 999999 999999 999999 999999 999999 999999 999999 999999 999999 999999 999999 999999 999999 999999 999999 999999 999999 999999 999999 999999 999999 999999 999999 17404 15161 16609 13394 15904 12122 13063 18639 13536 18421 19620 19477 19962 12294 17573 13169 11802 17192 14554 19875 18407 15290 14784 12679 19152 19825 16106 16243 11773 16942 12731 13600 16077 17426 14606 19765 15767 12960 18639 16370 12495 17786 17748 17509 11596 12765 11189 17346 12335 15753 18852 11803 14469 18078 13221 18920 16063 11955 17489 13816 19205 14858 12574 11414 19905 18257 13319 15344 13017 12017 18608 10470 19404 15159 18565 18166 11834 14999 15055 10117 13831 12484 11616 18724 15540 12987 18271 18077 16521 12168 15875 16758 17007 10535 14113 13976 13913 19878 14619 16630 17004 19743 19762 16428 19234 10005 19674 18356 17723 11117 17369 13668 11763 10850 11618 10616 13516 17261 16888 10591 14831 12882 10678 19054 16269 17939 14256 18697 11463 16732 10902 18853 14835 17826 19114 16498 19727 19904 12194 10403 15277 10598 16488 13032 16152 15446 16120 10454 15180 17137 11066 11448 13425 12296 11162 15978 12234 17413 18035 10556 999999
999999 999999 999999 999999 999999 999999 999999 999999 999999 999999 999999 999999 999999 999999 999999 999999 999999 999999 999999 999999 999999 999999 999999 999999 999999 999999 999999 999999 999999 999999 999999 999999 999999 999999 999999 999999 999999 999999 999999 999999 999999 999999 999999 999999 999999 999999 999999 999999 999999 999999 999999 999999 999999 999999 999999 999999 999999 999999 999999 999999 999999 999999 999999 999999 999999 999999 999999 999999 999999 999999 999999 999999 999999 999999 999999 0 999999 999999 999999 999999 999999 999999 999999 999999 999999 999999 999999 999999 999999 999999 999999 999999 999999 999999 999999 999999 999999 999999 999999 999999 999999 999999 999999 999999 999999 999999 999999 999999 999999 999999 999999 999999 999999 999999 999999 999999 999999 999999 999999 999999 999999 999999 999999 999999 999999 999999 999999 999999 999999 999999 999999 999999 999999 999999 999999 999999 999999 999999 999999 999999 999999 999999 999999 999999 999999 999999 999999 999999 999999 999999 999999 999999 999999 999999 999999 999999 999999 999999 999999 999999 999999 15411 16334 11172 15664 17724 15286 17982 17732 18181 18074 16354 11617 18023 17024 16459 12754 11543 18998 16142 13267 15634 12299 12888 10042 16782 15339 19999 11897 10493 13115 19941 15081 14768 14684 14127 12889 12242 11871 15929 16958 15649 19345 19567 18741 13800 14895 10737 10777 12054 13661 14661 10860 15950 18349 18260 12390 12912 14945 14052 13372 11257 13428 15571 14665 12839 13920 16859 12562 19538 18745 19357 16214 17515 10516 17364 12333 17587 14901 20000 13310 15328 19663 18235 14950 10280 10457 18876 12283 15525 16208 15221 10923 16600 16127 12999 14206 13500 17367 18305 14733 18550 14790 12375 16354 11962 18205 18598 10713 10448 14398 17389 15360 17662 16064 14245 13283 11619 12758 19298 17850 16699 11795 16952 11720 17101 19673 10935 18519 14260 18876 16225 14806 12512 10037 10596 16635 12973 17236 13411 18001 14322 10318 11100 12739 16686 13865 10335 14519 15325 12230 11768 19058 16291 18867 13901 15289 18132 13706 15945 11704 999999
999999 999999 999999 999999 999999 999999 999999 999999 999999 999999 999999 999999 999999 999999 999999 999999 999999 999999 999999 999999 999999 999999 999999 999999 999999 999999 999999 999999 999999 999999 999999 999999 999999 999999 999999 999999 999999 999999 999999 999999 999999 999999 999999 999999 999999 999999 999999 999999 999999 999999 999999 999999 999999 999999 999999 999999 999999 999999 999999 999999 999999 999999 999999 999999 999999 999999 999999 999999 999999 999999 999999 999999 999999 999999 999999 999999 0 999999 999999 999999 999999 999999 999999 999999 999999 999999 999999 999999 999999 999999 999999 999999 999999 999999 999999 999999 999999 999999 999999 999999 999999 999999 999999 999999 999999 999999 999999 999999 999999 999999 999999 999999 999999 999999 999999 999999 999999 999999 999999 999999 999999 999999 999999 999999 999999 999999 999999 999999 999999 999999 999999 999999 999999 999999 999999 999999 999999 999999 999999 999999 999999 999999 999999 999999 999999 999999 999999 999999 999999 999999 999999 999999 999999 999999 999999 999999 999999 999999 999999 999999 999999 16712 17597 10387 14932 17298 18980 16144 14047 11799 17751 14818 15398 11903 13750 18482 10654 11547 12261 13987 12745 14068 12257 18068 17444 19842 10569 18365 14435 18893 17790 14430 18116 12194 17380 13091 15931 10092 16768 19441 16623 15692 16602 11970 13074 19951 14326 17814 15563 13022 12723 10928 13011 15069 18787 14734 11124 17187 19264 13527 17734 12062 11525 19353 16990 12573 12559 13651 14106 16585 17801 13440 16561 16253 10212 11159 16874 19874 12237 15783 11255 10981 17336 16957 18805 10837 13380 13599 17311 12494 12061 16367 11033 16494 18371 16618 14639 14365 12730 12173 11173 17780 16455 12051 15185 18903 12137 17711 15163 17919 14092 17540 11893 12479 14424 16669 19875 12104 13149 15686 15227 19870 12367 19408 10550 19943 10410 13329 14753 17456 16488 18321 13455 11016 15613 13259 16238 15683 16745 13992 19097 16853 17595 14650 15744 17988 16685 16719 11296 10754 17786 12357 15064 15246 19600 19962 16937 19547 10616 11904 18804 999999
999999 999999 999999 999999 999999 999999 999999 999999 999999 999999 999999 999999 999999 999999 999999 999999 999999 999999 999999 999999 999999 999999 999999 999999 999999 999999 999999 999999 999999 999999 999999 999999 999999 999999 999999 999999 999999 999999 999999 999999 999999 999999 999999 999999 999999 999999 999999 999999 999999 999999 999999 999999 999999 999999 999999 999999 999999 999999 999999 999999 999999 999999 999999 999999 999999 999999 999999 999999 999999 999999 999999 999999 999999 999999 999999 999999 999999 0 999999 999999 999999 999999 999999 999999 999999 999999 999999 999999 999999 999999 999999 999999 999999 999999 999999 999999 999999 999999 999999 999999 999999 999999 999999 999999 999999 999999 999999 999999 999999 999999 999999 999999 999999 999999 999999 999999 999999 999999 999999 999999 999999 999999 999999 999999 999999 999999 999999 999999 999999 999999 999999 999999 999999 999999 999999 999999 999999 999999 999999 999999 999999 999999 999999 999999 999999 999999 999999 999999 999999 999999 999999 999999 999999 999999 999999 999999 999999 999999 999999 999999 999999 12883 11150 14909 13130 14456 15701 19933 17658 18583 18297 13340 16381 18340 15546 14246 15661 14866 12996 14909 17457 12623 19729 16096 19519 14756 10822 11627 12321 11201 19720 17185 11371 13784 12747 11327 10347 17405 13855 18935 14490 11157 17798 11024 18366 18160 19497 18262 12889 10127 16214 12470 10634 17030 13934 19367 16253 11178 12254 19612 14020 16585 11310 17678 16805 14363 10465 16526 15958 17228 13174 19897 14333 11715 17260 13802 14661 12701 18312 11204 12328 19656 10958 17981 14985 11082 16339 11931 13680 11237 15932 10610 13054 17205 18986 10451 13102 16582 15267 11274 18754 17371 10381 16593 19052 12871 12797 18609 19629 18956 15236 12567 14538 19669 11726 13176 15520 12651 10489 18771 15621 18146 18178 10812 15480 14953 11142 12377 18263 19978 18243 12403 13657 13395 15832 17161 13757 18737 18651 13074 14953 13273 13581 12086 15492 19271 19017 13008 18808 17033 19091 14661 14486 19753 14335 16796 14594 19376 14919 16946 13870 999999
999999 999999 999999 999999 999999 999999 999999 999999 999999 999999 999999 999999 999999 999999 999999 999999 999999 999999 999999 999999 999999 999999 999999 999999 999999 999999 999999 999999 999999 999999 999999 999999 999999 999999 999999 999999 999999 999999 999999 999999 999999 999999 999999 999999 999999 999999 999999 999999 999999 999999 999999 999999 999999 999999 999999 999999 999999 999999 999999 999999 999999 999999 999999 999999 999999 999999 999999 999999 999999 999999 999999 999999 999999 999999 999999 999999 999999 999999 0 999999 999999 999999 999999 999999 999999 999999 999999 999999 999999 999999 999999 999999 999999 999999 999999 999999 999999 999999 999999 999999 999999 999999 999999 999999 999999 999999 999999 999999 999999 999999 999999 999999 999999 999999 999999 999999 999999 999999 999999 999999 999999 999999 999999 999999 999999 999999 999999 999999 999999 999999 999999 999999 999999 999999 999999 999999 999999 999999 999999 999999 999999 999999 999999 999999 999999 999999 999999 999999 999999 999999 999999 999999 999999 999999 999999 999999 999999 999999 999999 999999 999999 19850 15527 17913 12266 14539 14264 18199 17109 13037 11091 15666 15000 14043 12864 10321 10754 14633 15795 14727 11335 11125 12755 11034 14682 15031 13155 18732 10356 17295 14228 16534 11384 17675 11427 15064 11670 11284 17329 17236 11216 18192 17714 12007 17529 18611 13438 13939 17890 18321 19903 14128 19114 16425 15835 12335 12668 18417 13662 18410 10649 13898 13264 17073 18556 17688 16287 15718 12842 12237 10443 15010 13086 14532 19028 16384 11895 19169 19945 19499 14953 16802 19185 11760 16047 12092 13010 17178 15810 10226 14648 17466 19964 11885 15033 15366 14582 14609 10998 10610 16142 12051 10983 16453 12960 13709 19970 18839 10422 18371 13418 18450 18450 16707 17205 18348 17411 15151 18880 13937 13761 17638 16670 18534 16470 12494 12352 17428 15943 15865 11643 17465 12781 12818 19343 13489 14921 15898 14724 19996 12350 10310 12773 17090 14883 10660 13073 19580 10495 19443 19212 14168 18538 10360 17543 15966 14448 13733 15944 19878 12584 999999
999999 999999 999999 999999 999999 999999 999999 999999 999999 999999 999999 999999 999999 999999 999999 999999 999999 999999 999999 999999 999999 999999 999999 999999 999999 999999 999999 999999 999999 999999 999999 999999 999999 999999 999999 999999 999999 999999 999999 999999 999999 999999 999999 999999 999999 999999 999999 999999 999999 999999 999999 999999 999999 999999 999999 999999 999999 999999 999999 999999 999999 999999 999999 999999 999999 999999 999999 999999 999999 999999 999999 999999 999999 999999 999999 999999 999999 999999 999999 0 999999 999999 999999 999999 999999 999999 999999 999999 999999 999999 999999 999999 999999 999999 999999 999999 999999 999999 999999 999999 999999 999999 999999 999999 999999 999999 999999 999999 999999 999999 999999 999999 999999 999999 999999 999999 999999 999999 999999 999999 999999 999999 999999 999999 999999 999999 999999 999999 999999 999999 999999 999999 999999 999999 999999 999999 999999 999999 999999 999999 999999 999999 999999 999999 999999 999999 999999 999999 999999 999999 999999 999999 999999 999999 999999 999999 999999 999999 999999 999999 999999 12432 11633 15241 19611 15927 10349 11420 17392 10995 16410 12580 17485 10550 19589 18218 12114 14009 12519 18952 13310 10544 11364 10842 17062 17140 13685 10455 18945 15738 14070 15769 19461 13242 16892 10704 14432 14396 14015 12418 11436 16638 13638 18821 10267 16563 16112 10470 11960 19477 18458 10345 13106 15448 11979 11812 10053 12450 10292 10103 12178 18294 15178 17739 17874 11888 14950 12863 16303 17552 15619 13938 11538 10904 14531 10739 15534 10580 17270 10702 14369 15357 11860 13536 13876 17636 15258 15061 19288 19114 13759 14869 11473 13891 16008 18370 12446 13768 18069 16985 14632 10033 16056 11444 10306 18808 16691 13939 17556 11324 11180 19158 13715 11562 18643 14817 11075 12199 17984 14860 14367 13610 15506 19446 17829 16895 18790 17526 12948 11927 15489 16438 11907 14277 14568 16709 18838 15389 10873 14624 12085 12501 17038 15503 17269 17138 17015 18410 18124 19476 11396 11903 12103 19402 12684 16157 11926 19816 15980 14018 14430 999999
999999 999999 999999 999999 999999 999999 999999 999999 999999 999999 999999 999999 999999 999999 999999 999999 999999 999999 999999 999999 999999 999999 999999 999999 999999 999999 999999 999999 999999 999999 999999 999999 999999 999999 999999 999999 999999 999999 999999 999999 999999 999999 999999 999999 999999 999999 999999 999999 999999 999999 999999 999999 999999 999999 999999 999999 999999 999999 999999 999999 999999 999999 999999 999999 999999 999999 999999 999999 999999 999999 999999 999999 999999 999999 999999 999999 999999 999999 999999 999999 0 999999 999999 999999 999999 999999 999999 999999 999999 999999 999999 999999 999999 999999 999999 999999 999999 999999 999999 999999 999999 999999 999999 999999 999999 999999 999999 999999 999999 999999 999999 999999 999999 999999 999999 999999 999999 999999 999999 999999 999999 999999 999999 999999 999999 999999 999999 999999 999999 999999 999999 999999 999999 999999 999999 999999 999999 999999 999999 999999 999999 999999 999999 999999 999999 999999 999999 999999 999999 999999 999999 999999 999999 999999 999999 999999 999999 999999 999999 999999 999999 10880 15457 16874 12895 11925 13973 11919 17308 16969 16469 14216 14882 10975 10443 13077 18372 14713 18247 11141 19740 13780 15923 13969 15918 13172 11201 13891 12430 10446 12021 16483 11786 10314 16190 14831 14601 11282 10760 13516 11356 16045 11601 11750 12106 10588 16212 16208 18819 19487 17541 12238 16121 18647 19117 14071 12357 13248 18756 19163 12286 18311 10840 13478 16952 11025 16913 15179 17960 10455 10754 11975 12463 12401 14937 11505 16906 17444 12122 18355 10061 19596 12920 18237 12904 11489 18269 13194 13956 19481 13739 12759 17793 13034 14066 13370 11190 11350 17581 11821 18267 15923 11018 10379 17266 12358 18618 12819 11304 15769 14206 11228 10204 10890 15981 12397 15762 10414 19767 11787 16652 13217 18466 12187 12765 13982 15121 15677 14916 14130 12427 10434 15115 17264 10132 15313 19861 11839 14497 17997 11506 13175 19423 10381 17235 18840 16484 19327 10599 15300 12431 17423 14477 12067 17768 10140 18365 18688 12951 11401 17589 999999
999999 999999 999999 999999 999999 999999 999999 999999 999999 999999 999999 999999 999999 999999 999999 999999 999999 999999 999999 999999 999999 999999 999999 999999 999999 999999 999999 999999 999999 999999 999999 999999 999999 999999 999999 999999 999999 999999 999999 999999 999999 999999 999999 999999 999999 999999 999999 999999 999999 999999 999999 999999 999999 999999 999999 999999 999999 999999 999999 999999 999999 999999 999999 999999 999999 999999 999999 999999 999999 999999 999999 999999 999999 999999 999999 999999 999999 999999 999999 999999 999999 0 999999 999999 999999 999999 999999 999999 999999 999999 999999 999999 999999 999999 999999 999999 999999 999999 999999 999999 999999 999999 999999 999999 999999 999999 999999 999999 999999 999999 999999 999999 999999 999999 999999 999999 999999 999999 999999 999999 999999 999999 999999 999999 999999 999999 999999 999999 999999 999999 999999 999999 999999 999999 999999 999999 999999 999999 999999 999999 999999 999999 999999 999999 999999 999999 999999 999999 999999 999999 999999 999999 999999 999999 999999 999999 999999 999999 999999 999999 999999 13220 17585 13286 19205 14188 12271 11445 14699 12015 19880 11065 19413 16388 10146 10702 12215 17042 16866 11131 12847 17790 15745 13800 10871 12922 15304 11828 17500 11421 14409 16472 11560 17650 16501 17266 15591 18036 18670 12832 18749 12317 11822 15089 16151 11162 17793 16694 15372 14333 12618 10720 10366 18539 12101 12225 19291 14352 14092 11512 11004 11217 17522 10375 12543 11763 18485 19913 11902 12470 16021 11708 15616 11797 10074 18004 16218 19923 10846 15684 18493 14806 10627 16264 12599 14560 18416 10524 17972 14391 19009 17452 18548 16734 10844 17128 11599 19040 10029 16471 10662 15115 10578 15748 14201 13982 13881 11118 19773 13412 17010 12070 18890 17824 11580 17966 11453 18614 12102 12700 11888 10586 11953 17422 16574 18493 19076 18807 12256 16380 19474 19858 14978 12648 15536 17606 19988 14596 12976 15075 11269 16365 13156 12862 19252 19778 13228 12023 15690 18276 12505 15344 18173 12624 17380 19387 15041 11705 17791 15592 19276 999999
999999 999999 999999 999999 999999 999999 999999 999999 999999 999999 999999 999999 999999 999999 999999 999999 999999 999999 999999 999999 999999 999999 999999 999999 999999 999999 999999 999999 999999 999999 999999 999999 999999 999999 999999 999999 999999 999999 999999 999999 999999 999999 999999 999999 999999 999999 999999 999999 999999 999999 999999 999999 999999 999999 999999 999999 999999 999999 999999 999999 999999 999999 999999 999999 999999 999999 999999 999999 999999 999999 999999 999999 999999 999999 999999 999999 999999 999999 999999 999999 999999 999999 0 999999 999999 999999 999999 999999 999999 999999 999999 999999 999999 999999 999999 999999 999999 999999 999999 999999 999999 999999 999999 999999 999999 999999 999999 999999 999999 999999 999999 999999 999999 999999 999999 999999 999999 999999 999999 999999 999999 999999 999999 999999 999999 999999 999999 999999 999999 999999 999999 999999 999999 999999 999999 999999 999999 999999 999999 999999 999999 999999 999999 999999 999999 999999 999999 999999 999999 999999 999999 999999 999999 999999 999999 999999 999999 999999 999999 999999 999999 13505 18593 15636 14154 16610 12461 11915 18036 18579 18016 11892 11077 13721 12839 14464 16633 14541 13634 19299 11017 14549 16615 15430 17672 14597 10123 10628 19776 19198 10854 13391 15759 13302 11640 17239 15754 14383 14822 14109 19946 19980 19251 18601 13162 14263 13595 16009 13815 13394 16559 12565 13867 19431 13855 12277 11297 12744 13328 16696 12847 17572 11191 11169 19069 11646 12614 14166 18576 12060 17104 19807 10293 15905 12919 14052 16627 13950 12150 18252 15745 11711 15906 14710 16639 14305 11718 10118 16799 15695 13411 14428 19704 18775 15538 18115 12001 18727 17320 13837 15733 15851 17037 11818 13860 13503 13454 18489 12897 12974 12221 19176 13866 14541 19649 18514 17920 14479 12244 11744 14924 13440 19334 13212 18354 18816 18332 13359 14943 17145 14520 15177 14176 14425 16713 17717 16989 13666 16590 18481 19383 10376 13819 12240 12797 15966 16721 12688 17166 19824 14164 16281 14124 11486 15476 15634 16569 10325 13071 14572 17260 999999
999999 999999 999999 999999 999999 999999 999999 999999 999999 999999 999999 999999 999999 999999 999999 999999 999999 999999 999999 999999 999999 999999 999999 999999 999999 999999 999999 999999 999999 999999 999999 999999 999999 999999 999999 999999 999999 999999 999999 999999 999999 999999 999999 999999 999999 999999 999999 999999 999999 999999 999999 999999 999999 999999 999999 999999 999999 999999 999999 999999 999999 999999 999999 999999 999999 999999 999999 999999 999999 999999 999999 999999 999999 999999 999999 999999 999999 999999 999999 999999 999999 999999 999999 0 999999 999999 999999 999999 999999 999999 999999 999999 999999 999999 999999 999999 999999 999999 999999 999999 999999 999999 999999 999999 999999 999999 999999 999999 999999 999999 999999 999999 999999 999999 999999 999999 999999 999999 999999 999999 999999 999999 999999 999999 999999 999999 999999 999999 999999 999999 999999 999999 999999 999999 999999 999999 999999 999999 999999 999999 999999 999999 999999 999999 999999 999999 999999 999999 999999 999999 999999 999999 999999 999999 999999 999999 999999 999999 999999 999999 999999 11190 15209 12787 11659 12954 12381 15738 10482 18619 11305 17769 10706 18188 11993 14400 12123 14112 18529 12363 17246 17728 13510 17729 18724 16877 10291 11955 13110 14605 14681 16265 11081 19843 19353 13167 17919 11170 11468 13886 16016 14713 19680 10593 14305 13706 14227 17312 12294 10369 10948 18382 16968 17272 18555 13159 16969 15583 12189 14943 10264 16661 19568 10846 19066 17243 12114 15460 18508 13493 11593 18648 14678 19102 10159 10575 11937 12504 16979 17761 11625 14298 14450 15644 10731 16715 14791 19654 13107 18219 10135 18642 19412 13956 14827 10075 18628 11594 18758 10779 17992 19702 12012 11654 16460 14285 17345 19151 10118 12323 10019 17702 17836 14898 12048 17392 12208 11393 12222 19892 10542 15905 19565 19177 12574 17858 19775 15683 15101 15561 19096 18155 16163 18977 11386 16003 16555 13669 15558 14354 16980 11291 19726 17255 12903 14972 17626 11048 18380 12025 18433 12244 18924 13387 11350 11699 18293 19744 17596 18434 15224 999999
999999 999999 999999 999999 999999 999999 999999 999999 999999 999999 999999 999999 999999 999999 999999 999999 999999 999999 999999 999999 999999 999999 999999 999999 999999 999999 999999 999999 999999 999999 999999 999999 999999 999999 999999 999999 999999 999999 999999 999999 999999 999999 999999 999999 999999 999999 999999 999999 999999 999999 999999 999999 999999 999999 999999 999999 999999 999999 999999 999999 999999 999999 999999 999999 999999 999999 999999 999999 999999 999999 999999 999999 999999 999999 999999 999999 999999 999999 999999 999999 999999 999999 999999 999999 0 999999 999999 999999 999999 999999 999999 999999 999999 999999 999999 999999 999999 999999 999999 999999 999999 999999 999999 999999 999999 999999 999999 999999 999999 999999 999999 999999 999999 999999 999999 999999 999999 999999 999999 999999 999999 999999 999999 999999 999999 999999 999999 999999 999999 999999 999999 999999 999999 999999 999999 999999 999999 999999 999999 999999 999999 999999 999999 999999 999999 999999 999999 999999 999999 999999 999999 999999 999999 999999 999999 999999 999999 999999 999999 999999 999999 10710 13302 10389 19933 14700 11760 18305 14100 16642 14028 19098 12822 14338 13163 18254 16014 15486 17037 17130 12498 17985 10200 15400 18256 19660 12317 15382 13941 19644 16205 16060 15567 19100 12996 11187 12409 13326 10623 10656 10324 12944 12905 14570 17676 15603 18704 11054 15994 14119 19014 10438 18036 18328 10571 10476 17728 19105 13775 17170 19990 10658 13990 18694 15650 18136 18964 18182 11342 18237 14511 13046 16630 13059 11436 14848 19859 14149 17065 19361 11366 15942 10590 18622 11973 16505 10353 16851 15648 14918 14663 17524 10924 18675 13884 11158 19531 10850 17646 14386 17348 15929 14006 11702 13324 14059 19002 16290 19551 14745 15125 15365 15768 17491 15835 13468 19759 14899 10694 11278 18476 18871 10137 10579 12182 14200 12520 15986 14410 19104 10875 18098 19514 12886 15374 18722 14160 11887 15973 13191 12060 13994 15333 16875 10541 13040 18924 14773 15112 17764 13833 12984 12062 11331 10247 10110 19855 13743 18360 13588 11025 999999
999999 999999 999999 999999 999999 999999 999999 999999 999999 999999 999999 999999 999999 999999 999999 999999 999999 999999 999999 999999 999999 999999 999999 999999 999999 999999 999999 999999 999999 999999 999999 999999 999999 999999 999999 999999 999999 999999 999999 999999 999999 999999 999999 999999 999999 999999 999999 999999 999999 999999 999999 999999 999999 999999 999999 999999 999999 999999 999999 999999 999999 999999 999999 999999 999999 999999 999999 999999 999999 999999 999999 999999 999999 999999 999999 999999 999999 999999 999999 999999 999999 999999 999999 999999 999999 0 999999 999999 999999 999999 999999 999999 999999 999999 999999 999999 999999 999999 999999 999999 999999 999999 999999 999999 999999 999999 999999 999999 999999 999999 999999 999999 999999 999999 999999 999999 999999 999999 999999 999999 999999 999999 999999 999999 999999 999999 999999 999999 999999 999999 999999 999999 999999 999999 999999 999999 999999 999999 999999 999999 999999 999999 999999 999999 999999 999999 999999 999999 999999 999999 999999 999999 999999 999999 999999 999999 999999 999999 999999 999999 999999 14331 13989 16141 10601 12603 12998 15815 10395 14427 16969 19527 12181 12963 15211 18031 11144 14863 19832 15963 12497 13042 19561 15995 10499 15517 15933 10079 19565 17543 11140 19521 19415 16421 13593 14364 19759 10945 10161 17767 10020 17172 15364 19173 10827 13311 10259 14352 17244 16115 18706 17684 17855 13266 19765 17874 11557 10307 16741 12231 17265 12840 16517 16565 13317 14381 16086 14068 14748 17352 15511 13285 17467 16185 17189 17502 13394 17123 17970 18480 10273 15883 11994 17673 15303 18287 13095 12600 13709 17941 13025 10437 16091 19715 11935 16176 14008 17375 18162 19127 18007 13905 12772 10197 17150 19252 12147 15443 15015 11718 17935 18105 19320 17643 12344 19482 14868 14439 17358 16870 16288 15053 18435 19213 18202 15274 11761 17040 13408 14440 14640 16606 10912 12671 10381 12201 17722 18183 19975 13599 13584 19636 11879 16081 14943 17113 14463 12964 13324 11361 13505 16526 18554 15416 18355 13883 16500 12400 18149 17250 17111 999999
999999 999999 999999 999999 999999 999999 999999 999999 999999 999999 999999 999999 999999 999999 999999 999999 999999 999999 999999 999999 999999 999999 999999 999999 999999 999999 999999 999999 999999 999999 999999 999999 999999 999999 999999 999999 999999 999999 999999 999999 999999 999999 999999 999999 999999 999999 999999 999999 999999 999999 999999 999999 999999 999999 999999 999999 999999 999999 999999 999999 999999 999999 999999 999999 999999 999999 999999 999999 999999 999999 999999 999999 999999 999999 999999 999999 999999 999999 999999 999999 999999 999999 999999 999999 999999 999999 0 999999 999999 999999 999999 999999 999999 999999 999999 999999 999999 999999 999999 999999 999999 999999 999999 999999 999999 999999 999999 999999 999999 999999 999999 999999 999999 999999 999999 999999 999999 999999 999999 999999 999999 999999 999999 999999 999999 999999 999999 999999 999999 999999 999999 999999 999999 999999 999999 999999 999999 999999 999999 999999 999999 999999 999999 999999 999999 999999 999999 999999 999999 999999 999999 999999 999999 999999 999999 999999 999999 999999 999999 999999 999999 12263 18783 19942 15686 15548 10134 17091 16487 11285 14877 11495 17646 13827 16377 18881 14445 12709 17621 18219 15924 10802 19407 12863 11595 16162 16095 18683 14812 12849 11668 12637 14759 19037 16676 16559 15692 13565 18694 17653 12557 12734 13159 10558 13293 13029 11407 15320 17601 18820 17345 14474 16777 12468 12108 13184 18215 18943 15212 16969 11073 15973 18523 19997 12960 18057 10920 17949 18612 18572 12801 10383 19700 13399 15301 16693 16974 12600 11045 16076 14052 18741 10329 14366 14192 19850 13815 15138 12814 19598 19794 14113 14515 11101 13456 13898 19944 10612 17517 19687 15442 14880 16946 13845 19324 14420 15326 13149 14765 14725 12648 10532 14210 15910 13359 11699 12166 12964 14500 18086 11211 15186 19176 14420 19439 15568 14628 11413 19588 14422 15188 12792 12808 19456 18961 13064 16703 13856 19298 13104 18654 13813 15906 12871 15087 12130 19025 10519 12987 19324 18530 16076 12433 18079 15699 13884 11068 19693 18643 15364 19586 999999
999999 999999 999999 999999 999999 999999 999999 999999 999999 999999 999999 999999 999999 999999 999999 999999 999999 999999 999999 999999 999999 999999 999999 999999 999999 999999 999999 999999 999999 999999 999999 999999 999999 999999 999999 999999 999999 999999 999999 999999 999999 999999 999999 999999 999999 999999 999999 999999 999999 999999 999999 999999 999999 999999 999999 999999 999999 999999 999999 999999 999999 999999 999999 999999 999999 999999 999999 999999 999999 999999 999999 999999 999999 999999 999999 999999 999999 999999 999999 999999 999999 999999 999999 999999 999999 999999 999999 0 999999 999999 999999 999999 999999 999999 999999 999999 999999 999999 999999 999999 999999 999999 999999 999999 999999 999999 999999 999999 999999 999999 999999 999999 999999 999999 999999 999999 999999 999999 999999 999999 999999 999999 999999 999999 999999 999999 999999 999999 999999 999999 999999 999999 999999 999999 999999 999999 999999 999999 999999 999999 999999 999999 999999 999999 999999 999999 999999 999999 999999 999999 999999 999999 999999 999999 999999 999999 999999 999999 999999 999999 999999 12705 19045 17347 18571 15395 16855 14886 17127 13810 10456 13566 18901 19395 17884 15496 15686 15346 19570 14937 16634 10962 18248 11211 14753 11883 10501 16403 12261 16914 19642 12555 16922 10158 12732 15894 15016 14488 11304 17735 10347 10779 11667 11913 19103 17500 10275 13979 18280 17107 14854 18603 17358 15946 16062 19910 16811 13784 14585 11445 14673 12694 16585 14539 14486 16357 15636 13205 12828 12112 13934 13714 19825 13798 18324 17973 16375 14809 10981 10096 12797 15429 16659 17467 10791 10913 12730 14360 11947 16558 12997 19668 16842 14443 16097 19211 12293 14584 14135 16569 12427 14075 10648 18347 11966 16642 13583 16927 10988 17815 10821 18234 19135 11654 16288 10202 14898 19867 15085 16546 19016 15122 14731 16511 19353 16009 19975 10202 11711 12027 15716 15213 19343 17000 15593 19551 10187 19895 14836 11955 13873 19225 10746 17794 10768 18076 15511 15059 11625 16679 10560 14701 13456 18597 15577 10111 11872 10845 16921 19010 13899 999999
999999 999999 999999 999999 999999 999999 999999 999999 999999 999999 999999 999999 999999 999999 999999 999999 999999 999999 999999 999999 999999 999999 999999 999999 999999 999999 999999 999999 999999 999999 999999 999999 999999 999999 999999 999999 999999 999999 999999 999999 999999 999999 999999 999999 999999 999999 999999 999999 999999 999999 999999 999999 999999 999999 999999 999999 999999 999999 999999 999999 999999 999999 999999 999999 999999 999999 999999 999999 999999 999999 999999 999999 999999 999999 999999 999999 999999 999999 999999 999999 999999 999999 999999 999999 999999 999999 999999 999999 0 999999 999999 999999 999999 999999 999999 999999 999999 999999 999999 999999 999999 999999 999999 999999 999999 999999 999999 999999 999999 999999 999999 999999 999999 999999 999999 999999 999999 999999 999999 999999 999999 999999 999999 999999 999999 999999 999999 999999 999999 999999 999999 999999 999999 999999 999999 999999 999999 999999 999999 999999 999999 999999 999999 999999 999999 999999 999999 999999 999999 999999 999999 999999 999999 999999 999999 999999 999999 999999 999999 999999 999999 19142 11985 11765 18701 10258 16981 15676 11827 11138 15760 12883 19860 11518 18438 11300 13951 12040 12890 17817 17373 16585 17152 12308 11449 17025 14678 10565 19386 15446 18581 18398 11273 11048 15784 15770 18223 16789 10687 10903 11249 12434 17909 18857 11662 19045 19845 12604 14039 11023 17221 14987 17476 15176 17273 19902 15171 16493 17015 15526 13466 16274 11260 10406 11072 19769 15023 17714 18238 13106 13564 10168 16341 10292 18016 16888 12262 14694 17175 17893 13927 11837 11485 18297 13356 12919 13941 13594 14016 19755 17807 15304 12153 10975 12814 10807 15789 10869 16135 14868 10440 11938 12616 12577 14783 13665 19071 13981 13391 14009 13216 17686 11024 15320 19005 10621 18577 18518 17108 19880 15978 10535 12754 16124 17049 18026 10330 13198 13300 19798 16416 12843 14918 18932 15240 12803 15390 15938 14156 19985 15344 14460 14134 17451 16821 14791 11580 17749 12853 13626 15508 18686 11958 12120 17594 14576 19516 18848 11530 16942 17392 999999
999999 999999 999999 999999 999999 999999 999999 999999 999999 999999 999999 999999 999999 999999 999999 999999 999999 999999 999999 999999 999999 999999 999999 999999 999999 999999 999999 999999 999999 999999 999999 999999 999999 999999 999999 999999 999999 999999 999999 999999 999999 999999 999999 999999 999999 999999 999999 999999 999999 999999 999999 999999 999999 999999 999999 999999 999999 999999 999999 999999 999999 999999 999999 999999 999999 999999 999999 999999 999999 999999 999999 999999 999999 999999 999999 999999 999999 999999 999999 999999 999999 999999 999999 999999 999999 999999 999999 999999 999999 0 999999 999999 999999 999999 999999 999999 999999 999999 999999 999999 999999 999999 999999 999999 999999 999999 999999 999999 999999 999999 999999 999999 999999 999999 999999 999999 999999 999999 999999 999999 999999 999999 999999 999999 999999 999999 999999 999999 999999 999999 999999 999999 999999 999999 999999 999999 999999 999999 999999 999999 999999 999999 999999 999999 999999 999999 999999 999999 999999 999999 999999 999999 999999 999999 999999 999999 999999 999999 999999 999999 999999 11377 15768 16575 10540 12755 19009 13305 11269 17192 18514 11030 16804 10176 18542 17874 11953 16436 14014 15910 11555 11216 17460 11374 16875 17078 16379 18764 10577 10619 10477 13466 17150 12477 10395 17542 10825 15162 12775 18738 16537 12764 11107 15049 17223 12882 13007 10837 17184 17617 15202 12274 10234 16141 16497 19152 18259 11900 14492 19963 18230 13080 12927 14214 11108 15446 15734 11630 11615 19985 10626 14129 16939 10568 18884 19866 19975 10294 14099 16319 10094 15521 11690 17111 16540 16394 17734 16125 14584 10453 10863 15006 11125 11801 10652 12030 19657 15041 17897 14454 10520 14947 13558 16176 17296 12706 16930 18121 14534 16930 10603 18692 15170 12068 19919 16378 14140 17686 15517 12628 17432 17172 10771 12964 14979 10329 13257 14107 18675 19608 17710 13538 15109 15258 13645 13442 17073 15328 15654 10706 17712 19795 18273 19919 11182 19332 11530 19714 15555 14358 13083 19143 19317 16335 17915 11855 17551 16413 16189 17286 10255 999999
999999 999999 999999 999999 999999 999999 999999 999999 999999 999999 999999 999999 999999 999999 999999 999999 999999 999999 999999 999999 999999 999999 999999 999999 999999 999999 999999 999999 999999 999999 999999 999999 999999 999999 999999 999999 999999 999999 999999 999999 999999 999999 999999 999999 999999 999999 999999 999999 999999 999999 999999 999999 999999 999999 999999 999999 999999 999999 999999 999999 999999 999999 999999 999999 999999 999999 999999 999999 999999 999999 999999 999999 999999 999999 999999 999999 999999 999999 999999 999999 999999 999999 999999 999999 999999 999999 999999 999999 999999 999999 0 999999 999999 999999 999999 999999 999999 999999 999999 999999 999999 999999 999999 999999 999999 999999 999999 999999 999999 999999 999999 999999 999999 999999 999999 999999 999999 999999 999999 999999 999999 999999 999999 999999 999999 999999 999999 999999 999999 999999 999999 999999 999999 999999 999999 999999 999999 999999 999999 999999 999999 999999 999999 999999 999999 999999 999999 999999 999999 999999 999999 999999 999999 999999 999999 999999 999999 999999 999999 999999 999999 15056 14184 10440 16000 11540 14822 17955 11729 15961 16574 15448 19779 17585 16460 18161 12853 13854 11869 13917 18515 13708 11300 11825 15808 12619 12898 18688 17927 14684 10404 13879 13629 19367 13027 15368 15599 11558 19202 17021 18891 11447 18890 13280 10432 11828 10306 18296 10916 16689 13843 13091 15608 17116 17598 18080 19108 11826 13179 15600 15078 11278 14774 15584 12532 12118 17444 10065 18596 10783 15756 18806 17509 11178 15197 16611 18029 12509 14486 19983 18115 14399 12958 15915 10139 12251 19291 11296 10180 17197 14631 19546 17684 15296 17343 18696 18112 18825 10447 17574 13976 15132 10592 11050 12251 17700 17903 15874 19052 15058 12140 10896 17767 17946 10242 15927 19836 16934 10143 11270 15838 19993 15285 16583 11219 10014 12292 11132 13761 14913 11078 16295 17782 10804 14149 16623 12017 10079 18332 10696 13380 12646 17563 14899 13480 15387 11502 15052 19592 17335 15478 12968 10802 12461 11020 19233 15516 11420 18432 15819 10999 999999
999999 999999 999999 999999 999999 999999 999999 999999 999999 999999 999999 999999 999999 999999 999999 999999 999999 999999 999999 999999 999999 999999 999999 999999 999999 999999 999999 999999 999999 999999 999999 999999 999999 999999 999999 999999 999999 999999 999999 999999 999999 999999 999999 999999 999999 999999 999999 999999 999999 999999 999999 999999 999999 999999 999999 999999 999999 999999 999999 999999 999999 999999 999999 999999 999999 999999 999999 999999 999999 999999 999999 999999 999999 999999 999999 999999 999999 999999 999999 999999 999999 999999 999999 999999 999999 999999 999999 999999 999999 999999 999999 0 999999 999999 999999 999999 999999 999999 999999 999999 999999 999999 999999 999999 999999 999999 999999 999999 999999 999999 999999 999999 999999 999999 999999 999999 999999 999999 999999 999999 999999 999999 999999 999999 999999 999999 999999 999999 999999 999999 999999 999999 999999 999999 999999 999999 999999 999999 999999 999999 999999 999999 999999 999999 999999 999999 999999 999999 999999 999999 999999 999999 999999 999999 999999 999999 999999 999999 999999 999999 999999 15783 17153 19710 10554 16961 12519 13204 19727 12147 10411 15715 11088 11215 18185 17857 14901 12200 14311 15727 17591 18557 11542 13409 10725 14185 13617 16397 12463 19500 10620 14121 18807 14421 14446 19453 14778 14230 16635 10984 10140 14805 13290 17046 17982 14768 11625 16431 15223 12183 13994 17030 17697 12510 12739 15917 19912 14477 13161 11184 13649 19089 12260 14708 19720 13638 15048 10963 14002 16186 10643 14953 19518 14372 17307 15637 19720 10762 15567 15026 15834 12673 19320 19114 19531 15187 17604 19487 16914 10851 13657 18824 12908 13118 13733 17191 11819 12745 18152 10714 19471 16363 11690 15934 16946 19295 12640 11792 19807 14512 11715 18529 19585 15704 17028 19479 19003 18208 13656 19679 11358 15849 12876 19504 18565 16539 13149 16894 18929 15940 14624 15695 16734 13768 19788 16234 15845 11453 14550 12970 15815 13136 18698 11844 15916 11678 11818 15310 16646 12785 18751 11822 13054 19883 13784 19651 16290 11025 16983 19695 12145 999999
999999 999999 999999 999999 999999 999999 999999 999999 999999 999999 999999 999999 999999 999999 999999 999999 999999 999999 999999 999999 999999 999999 999999 999999 999999 999999 999999 999999 999999 999999 999999 999999 999999 999999 999999 999999 999999 999999 999999 999999 999999 999999 999999 999999 999999 999999 999999 999999 999999 999999 999999 999999 999999 999999 999999 999999 999999 999999 999999 999999 999999 999999 999999 999999 999999 999999 999999 999999 999999 999999 999999 999999 999999 999999 999999 999999 999999 999999 999999 999999 999999 999999 999999 999999 999999 999999 999999 999999 999999 999999 999999 999999 0 999999 999999 999999 999999 999999 999999 999999 999999 999999 999999 999999 999999 999999 999999 999999 999999 999999 999999 999999 999999 999999 999999 999999 999999 999999 999999 999999 999999 999999 999999 999999 999999 999999 999999 999999 999999 999999 999999 999999 999999 999999 999999 999999 999999 999999 999999 999999 999999 999999 999999 999999 999999 999999 999999 999999 999999 999999 999999 999999 999999 999999 999999 999999 999999 999999 999999 999999 999999 14056 13774 11838 15889 14146 19250 18520 18063 17696 19845 10931 14492 18753 11667 17228 19143 12490 17498 10607 15563 15800 11057 15533 10759 12165 15889 19340 18996 12029 10351 16799 18402 10036 13997 16529 11825 17100 17301 19653 19409 15257 12837 11336 15649 19892 18122 17056 11409 16155 15782 18599 11369 11692 19834 15691 12197 10875 12692 12593 10259 15241 14218 19896 13986 19998 11092 19876 15068 17814 15343 12513 17894 14230 15378 13290 13759 18152 12944 19953 17435 12020 11507 13339 11048 13019 11693 11454 14884 16802 11286 14375 11771 14487 18332 18648 18566 12519 11855 17864 13551 15837 16025 18651 12896 12291 11577 17561 13355 13121 10348 15372 10698 18936 14407 11901 18790 14470 19389 11948 12518 16590 15027 18537 18170 15424 16228 13595 13914 18836 16880 14241 19681 13053 15238 15849 16446 14890 17037 11251 17630 18005 11700 19247 16436 11162 10714 10559 17716 16912 11889 16204 10802 19871 12433 17827 12822 10160 11483 18773 19766 999999
999999 999999 999999 999999 999999 999999 999999 999999 999999 999999 999999 999999 999999 999999 999999 999999 999999 999999 999999 999999 999999 999999 999999 999999 999999 999999 999999 999999 999999 999999 999999 999999 999999 999999 999999 999999 999999 999999 999999 999999 999999 999999 999999 999999 999999 999999 999999 999999 999999 999999 999999 999999 999999 999999 999999 999999 999999 999999 999999 999999 999999 999999 999999 999999 999999 999999 999999 999999 999999 999999 999999 999999 999999 999999 999999 999999 999999 999999 999999 999999 999999 999999 999999 999999 999999 999999 999999 999999 999999 999999 999999 999999 999999 0 999999 999999 999999 999999 999999 999999 999999 999999 999999 999999 999999 999999 999999 999999 999999 999999 999999 999999 999999 999999 999999 999999 999999 999999 999999 999999 999999 999999 999999 999999 999999 999999 999999 999999 999999 999999 999999 999999 999999 999999 999999 999999 999999 999999 999999 999999 999999 999999 999999 999999 999999 999999 999999 999999 999999 999999 999999 999999 999999 999999 999999 999999 999999 999999 999999 999999 999999 16429 14182 14700 11775 14039 10697 13008 17885 12686 14368 17031 10118 12944 17349 14823 12646 15476 10644 16594 13410 18168 14207 15892 17395 11344 14414 13767 12165 12515 15417 16165 11356 17915 19080 18441 15291 14863 12670 16129 12437 10643 11409 19656 15683 18042 11654 13562 18155 17853 11936 10481 17878 14676 10755 14759 16756 14619 10748 19130 16560 15026 17980 10328 18628 16289 19493 15954 19884 15110 14148 19590 11147 12688 12022 19167 10308 15361 10281 16436 12538 19760 18495 12725 17363 11889 18620 13246 11619 16757 12677 15534 17021 14288 17812 10467 11118 17997 17088 17879 17948 12405 18816 19877 14403 11056 11660 12708 12809 13381 12285 11745 15016 16507 12323 17036 13904 12375 17139 19065 16209 14481 18288 13066 13095 18894 19314 14107 17909 18521 11794 10132 11567 13026 11668 19295 12804 15532 12397 14927 17677 17618 17718 12522 17528 11219 15875 17882 10741 19143 13837 18765 10418 12394 11724 14214 18950 16880 18348 13872 18069 999999
999999 999999 999999 999999 999999 999999 999999 999999 999999 999999 999999 999999 999999 999999 999999 999999 999999 999999 999999 999999 999999 999999 999999 999999 999999 999999 999999 999999 999999 999999 999999 999999 999999 999999 999999 999999 999999 999999 999999 999999 999999 999999 999999 999999 999999 999999 999999 999999 999999 999999 999999 999999 999999 999999 999999 999999 999999 999999 999999 999999 999999 999999 999999 999999 999999 999999 999999 999999 999999 999999 999999 999999 999999 999999 999999 999999 999999 999999 999999 999999 999999 999999 999999 999999 999999 999999 999999 999999 999999 999999 999999 999999 999999 999999 0 999999 999999 999999 999999 999999 999999 999999 999999 999999 999999 999999 999999 999999 999999 999999 999999 999999 999999 999999 999999 999999 999999 999999 999999 999999 999999 999999 999999 999999 999999 999999 999999 999999 999999 999999 999999 999999 999999 999999 999999 999999 999999 999999 999999 999999 999999 999999 999999 999999 999999 999999 999999 999999 999999 999999 999999 999999 999999 999999 999999 999999 999999 999999 999999 999999 999999 18671 13518 15391 19904 16667 14583 17292 17248 18139 18105 12078 13389 10510 13728 11019 14742 13342 19808 17040 19444 11366 12944 11499 11724 11046 19883 17917 16225 19946 12272 14342 11587 13916 10997 10915 14906 13487 13603 17276 18780 11178 18575 18442 11281 13863 13500 16372 19576 14317 10227 13393 13043 10064 12158 10109 19728 18076 11443 14288 12233 15010 13618 14405 16323 10116 17356 16384 19786 18258 13022 14859 11779 18736 14714 10683 17464 15564 16490 19074 16157 19953 19228 13538 15464 19428 19293 15710 16397 14760 12398 14617 15498 19042 19547 16588 16352 13140 11982 18004 16168 13811 15227 17433 11309 10405 15573 13036 13559 12782 13282 17660 12413 18676 15796 16057 13841 14156 16267 19440 10317 13663 18897 10060 16614 11556 13640 13877 18544 11889 15814 14670 15779 14864 14972 14836 12994 14017 15661 19093 16058 11602 16368 10464 19258 15101 15737 17086 12764 14718 17348 10499 10851 14523 15085 17321 18660 13115 18235 18381 12495 999999
999999 999999 999999 999999 999999 999999 999999 999999 999999 999999 999999 999999 999999 999999 999999 999999 999999 999999 999999 999999 999999 999999 999999 999999 999999 999999 999999 999999 999999 999999 999999 999999 999999 999999 999999 999999 999999 999999 999999 999999 999999 999999 999999 999999 999999 999999 999999 999999 999999 999999 999999 999999 999999 999999 999999 999999 999999 999999 999999 999999 999999 999999 999999 999999 999999 999999 999999 999999 999999 999999 999999 999999 999999 999999 999999 999999 999999 999999 999999 999999 999999 999999 999999 999999 999999 999999 999999 999999 999999 999999 999999 999999 999999 999999 999999 0 999999 999999 999999 999999 999999 999999 999999 999999 999999 999999 999999 999999 999999 999999 999999 999999 999999 999999 999999 999999 999999 999999 999999 999999 999999 999999 999999 999999 999999 999999 999999 999999 999999 999999 999999 999999 999999 999999 999999 999999 999999 999999 999999 999999 999999 999999 999999 999999 999999 999999 999999 999999 999999 999999 999999 999999 999999 999999 999999 999999 999999 999999 999999 999999 999999 10174 18898 16897 17077 15313 19167 13188 17346 14229 11549 19373 15618 14213 15768 10364 13910 10215 19143 11469 15084 16815 15020 12825 12657 18513 15628 15540 13430 19691 19917 14632 14642 15602 15224 12334 10092 13342 10176 12730 11182 14434 14430 11081 16735 13914 16247 15203 18095 12068 16482 11502 18126 12761 12425 18272 17951 12354 15842 18759 15070 18363 10381 15286 17293 14111 13259 10725 12523 18026 11067 10573 11289 10308 19227 18419 12086 14195 10436 18015 16786 15106 17988 16785 17062 13092 18836 13351 14725 16323 17065 19524 10112 18349 14772 17062 14103 10286 15708 16418 11799 15971 12501 17332 19837 19000 11552 17902 13560 16298 19860 16385 16278 19629 11569 18376 18969 18494 11237 19523 13731 16829 17835 18284 18290 18789 18294 15704 14890 11636 19385 13581 15954 19756 17890 14832 19745 14811 12287 18735 10730 17313 14972 17419 13201 11041 11111 18821 11822 13835 13536 18434 12916 12257 14546 17640 15507 14417 17002 15790 10310 999999
999999 999999 999999 999999 999999 999999 999999 999999 999999 999999 999999 999999 999999 999999 999999 999999 999999 999999 999999 999999 999999 999999 999999 999999 999999 999999 999999 999999 999999 999999 999999 999999 999999 999999 999999 999999 999999 999999 999999 999999 999999 999999 999999 999999 999999 999999 999999 999999 999999 999999 999999 999999 999999 999999 999999 999999 999999 999999 999999 999999 999999 999999 999999 999999 999999 999999 999999 999999 999999 999999 999999 999999 999999 999999 999999 999999 999999 999999 999999 999999 999999 999999 999999 999999 999999 999999 999999 999999 999999 999999 999999 999999 999999 999999 999999 999999 0 999999 999999 999999 999999 999999 999999 999999 999999 999999 999999 999999 999999 999999 999999 999999 999999 999999 999999 999999 999999 999999 999999 999999 999999 999999 999999 999999 999999 999999 999999 999999 999999 999999 999999 999999 999999 999999 999999 999999 999999 999999 999999 999999 999999 999999 999999 999999 999999 999999 999999 999999 999999 999999 999999 999999 999999 999999 999999 999999 999999 999999 999999 999999 999999 19906 18037 14619 17893 19362 17782 17122 12041 12178 11190 11847 18022 18881 12303 13349 19697 13575 17190 16140 19198 13433 19798 10010 13990 16746 16845 10455 15360 16116 12217 14226 13136 19956 12081 13803 10297 16100 10359 14235 10774 10729 12147 17480 11954 16435 15735 17703 11148 18309 19587 12716 12551 17992 18309 11277 12896 18305 13452 17009 18357 14503 11791 13826 14400 13473 19403 14670 18763 18834 12464 13938 19962 18217 15680 16123 10336 10593 18781 17308 10657 19745 15418 15672 19262 13922 10276 16190 17863 18483 16750 13664 12536 10953 12460 14755 14979 12678 13101 12898 10437 13553 11625 16347 14239 14085 16583 12238 16418 13158 10107 12576 15882 11652 16287 10889 18451 12972 11016 18200 14225 16854 18402 10648 18509 17936 14737 13771 14977 18931 14703 15706 14554 18078 15234 15527 10812 17330 14367 16642 17391 15728 12059 12055 18848 18110 19220 17770 12026 17055 11683 17918 17467 15200 16437 11680 17281 18968 11192 19011 19976 999999
999999 999999 999999 999999 999999 999999 999999 999999 999999 999999 999999 999999 999999 999999 999999 999999 999999 999999 999999 999999 999999 999999 999999 999999 999999 999999 999999 999999 999999 999999 999999 999999 999999 999999 999999 999999 999999 999999 999999 999999 999999 999999 999999 999999 999999 999999 999999 999999 999999 999999 999999 999999 999999 999999 999999 999999 999999 999999 999999 999999 999999 999999 999999 999999 999999 999999 999999 999999 999999 999999 999999 999999 999999 999999 999999 999999 999999 999999 999999 999999 999999 999999 999999 999999 999999 999999 999999 999999 999999 999999 999999 999999 999999 999999 999999 999999 999999 0 999999 999999 999999 999999 999999 999999 999999 999999 999999 999999 999999 999999 999999 999999 999999 999999 999999 999999 999999 999999 999999 999999 999999 999999 999999 999999 999999 999999 999999 999999 999999 999999 999999 999999 999999 999999 999999 999999 999999 999999 999999 999999 999999 999999 999999 999999 999999 999999 999999 999999 999999 999999 999999 999999 999999 999999 999999 999999 999999 999999 999999 999999 999999 11326 16366 19399 13760 19142 10332 12607 11505 18972 15305 12978 15086 11763 19308 11476 16155 12895 11926 11844 10747 17081 15120 10418 18325 13460 18568 14782 11743 18658 11407 15192 14974 10162 19438 10816 18723 12951 16858 10603 11878 17889 16930 13432 12984 10942 17752 11918 16959 15887 19934 10435 16321 12622 13914 12300 19480 14432 10502 17291 16871 11427 17978 15785 13737 11849 15735 11949 10491 19416 11576 18311 12643 11102 11404 15438 16006 10290 16629 13735 17571 19519 14648 14322 10340 15746 13383 14289 13211 10918 10879 11428 16790 11130 17363 10387 19253 10486 18107 13492 19622 19216 10360 15792 16319 11098 15721 12256 15153 18976 17893 15967 16433 15555 13155 19499 18378 11279 15904 18739 15763 11846 16568 17383 15229 10337 15489 12385 16589 19659 15019 13914 17494 10158 16765 13971 12817 15903 19808 18318 13103 19154 13724 19020 11995 10629 13362 18022 19315 10417 17122 16879 14626 14492 10300 14118 17084 15249 15616 10874 13177 999999
999999 999999 999999 999999 999999 999999 999999 999999 999999 999999 999999 999999 999999 999999 999999 999999 999999 999999 999999 999999 999999 999999 999999 999999 999999 999999 999999 999999 999999 999999 999999 999999 999999 999999 999999 999999 999999 999999 999999 999999 999999 999999 999999 999999 999999 999999 999999 999999 999999 999999 999999 999999 999999 999999 999999 999999 999999 999999 999999 999999 999999 999999 999999 999999 999999 999999 999999 999999 999999 999999 999999 999999 999999 999999 999999 999999 999999 999999 999999 999999 999999 999999 999999 999999 999999 999999 999999 999999 999999 999999 999999 999999 999999 999999 999999 999999 999999 999999 0 999999 999999 999999 999999 999999 999999 999999 999999 999999 999999 999999 999999 999999 999999 999999 999999 999999 999999 999999 999999 999999 999999 999999 999999 999999 999999 999999 999999 999999 999999 999999 999999 999999 999999 999999 999999 999999 999999 999999 999999 999999 999999 999999 999999 999999 999999 999999 999999 999999 999999 999999 999999 999999 999999 999999 999999 999999 999999 999999 999999 999999 999999 11676 11995 14675 12974 14222 19777 17035 19235 11722 12357 11563 10794 16269 11926 15022 10453 10777 18916 15693 10385 17598 10900 15845 12917 16443 14668 11942 19066 17008 18271 16160 18383 14713 14869 13443 13070 14025 11142 14151 18537 17861 15518 13300 17584 15510 18099 16253 14290 15076 17734 15523 14708 19621 17621 12276 10125 19829 19471 12406 16808 11962 13318 17941 10272 15076 16504 18406 10577 11348 19369 18267 12140 14410 15277 12739 13589 19290 12093 18210 15188 14496 12061 10018 15458 17775 14295 18133 14993 11610 17352 15347 17678 12815 12377 12772 17871 10666 16105 16376 19934 13573 15745 15272 16372 16766 15734 15104 17712 18666 10277 15372 18442 14400 14743 10468 14441 10716 10665 17993 15246 10831 13146 17600 13478 13728 17714 14226 17045 16751 11026 18774 13395 17517 16886 13380 13709 19879 10205 14664 17055 12666 19859 15050 17351 18154 12405 11357 12620 13765 19912 16561 19074 11773 15613 14921 19167 14060 16385 15069 16841 999999
999999 999999 999999 999999 999999 999999 999999 999999 999999 999999 999999 999999 999999 999999 999999 999999 999999 999999 999999 999999 999999 999999 999999 999999 999999 999999 999999 999999 999999 999999 999999 999999 999999 999999 999999 999999 999999 999999 999999 999999 999999 999999 999999 999999 999999 999999 999999 999999 999999 999999 999999 999999 999999 999999 999999 999999 999999 999999 999999 999999 999999 999999 999999 999999 999999 999999 999999 999999 999999 999999 999999 999999 999999 999999 999999 999999 999999 999999 999999 999999 999999 999999 999999 999999 999999 999999 999999 999999 999999 999999 999999 999999 999999 999999 999999 999999 999999 999999 999999 0 999999 999999 999999 999999 999999 999999 999999 999999 999999 999999 999999 999999 999999 999999 999999 999999 999999 999999 999999 999999 999999 999999 999999 999999 999999 999999 999999 999999 999999 999999 999999 999999 999999 999999 999999 999999 999999 999999 999999 999999 999999 999999 999999 999999 999999 999999 999999 999999 999999 999999 999999 999999 999999 999999 999999 999999 999999 999999 999999 999999 999999 19682 14888 16646 12211 17959 11512 15984 16896 15857 15492 12999 13361 16714 16167 11330 14540 14478 17275 10803 13294 19398 13106 12173 11191 14381 17097 17590 11297 16135 16184 11354 14330 15979 14958 13194 13269 12367 10361 16771 18363 12452 18480 15341 13124 13875 11030 13696 18795 17984 17848 17793 16463 13857 10199 10843 19961 10644 18981 13801 18080 17369 16877 19824 13761 14660 16350 11247 18315 17875 15913 16223 11307 11270 16734 17883 14926 11452 17420 19305 15446 15755 11845 16522 12021 18726 16588 15001 14216 10576 13634 11231 19885 15535 10894 10820 17825 12598 10385 11535 19386 10879 19544 11892 15268 18135 15489 10831 16570 15304 16530 16695 17087 17792 18476 16984 13274 13100 15628 12398 13159 10469 18719 14302 13734 16882 11096 16226 13308 12953 17323 13121 18897 19521 11265 15434 14211 16062 16633 12420 15010 14712 19017 15548 11164 18136 16681 10275 11499 10700 17200 15727 18567 15343 15623 14362 14095 12279 14884 18684 12707 999999
999999 999999 999999 999999 999999 999999 999999 999999 999999 999999 999999 999999 999999 999999 999999 999999 999999 999999 999999 999999 999999 999999 999999 999999 999999 999999 999999 999999 999999 999999 999999 999999 999999 999999 999999 999999 999999 999999 999999 999999 999999 999999 999999 999999 999999 999999 999999 999999 999999 999999 999999 999999 999999 999999 999999 999999 999999 999999 999999 999999 999999 999999 999999 999999 999999 999999 999999 999999 999999 999999 999999 999999 999999 999999 999999 999999 999999 999999 999999 999999 999999 999999 999999 999999 999999 999999 999999 999999 999999 999999 999999 999999 999999 999999 999999 999999 999999 999999 999999 999999 0 999999 999999 999999 999999 999999 999999 999999 999999 999999 999999 999999 999999 999999 999999 999999 999999 999999 999999 999999 999999 999999 999999 999999 999999 999999 999999 999999 999999 999999 999999 999999 999999 999999 999999 999999 999999 999999 999999 999999 999999 999999 999999 999999 999999 999999 999999 999999 999999 999999 999999 999999 999999 999999 999999 999999 999999 999999 999999 999999 999999 17522 18487 15335 12039 19842 13494 19496 18833 17182 17293 15814 15570 17983 13114 11632 14515 13148 17025 17689 16869 13399 16134 12586 12475 15864 15275 16362 15861 16987 15562 11801 17981 17184 13186 10273 13715 17438 10028 17037 11252 13126 13058 17970 18841 15402 19725 13132 14464 15051 19833 17009 16982 12857 12861 16786 14779 12848 14199 13190 15940 10796 12693 19715 16910 16534 18953 10884 13724 12974 17704 19730 16883 13457 18436 11672 10285 10605 16822 13225 12774 14845 11398 10337 10783 15413 17524 13646 17647 14710 18726 18857 13345 18167 11664 10563 11049 12130 15789 16266 19700 19241 10385 15803 10456 18240 11012 13752 17184 15949 15589 15743 12603 13208 13767 17429 16764 10194 10625 16604 15681 10831 10873 12101 19511 15159 18213 17464 19827 12687 15246 10664 19196 10668 13300 13803 17791 12029 12645 13275 18233 18289 12544 12463 18596 13209 19862 15132 15685 16768 10601 14428 11211 17991 13434 15821 10254 13869 16410 17729 10719 999999
999999 999999 999999 999999 999999 999999 999999 999999 999999 999999 999999 999999 999999 999999 999999 999999 999999 999999 999999 999999 999999 999999 999999 999999 999999 999999 999999 999999 999999 999999 999999 999999 999999 999999 999999 999999 999999 999999 999999 999999 999999 999999 999999 999999 999999 999999 999999 999999 999999 999999 999999 999999 999999 999999 999999 999999 999999 999999 999999 999999 999999 999999 999999 999999 999999 999999 999999 999999 999999 999999 999999 999999 999999 999999 999999 999999 999999 999999 999999 999999 999999 999999 999999 999999 999999 999999 999999 999999 999999 999999 999999 999999 999999 999999 999999 999999 999999 999999 999999 999999 999999 0 999999 999999 999999 999999 999999 999999 999999 999999 999999 999999 999999 999999 999999 999999 999999 999999 999999 999999 999999 999999 999999 999999 999999 999999 999999 999999 999999 999999 999999 999999 999999 999999 999999 999999 999999 999999 999999 999999 999999 999999 999999 999999 999999 999999 999999 999999 999999 999999 999999 999999 999999 999999 999999 999999 999999 999999 999999 999999 999999 15488 15024 11565 16524 11967 18997 19885 10197 12958 12332 11377 15543 10660 13370 16425 17394 17623 11977 17162 12520 10996 12809 10461 18595 14308 19610 14378 16787 18698 15019 12028 15678 11719 14816 19792 17227 17174 16728 13197 18518 19178 16356 18350 10662 14158 13749 16438 17304 18589 19877 16368 14222 12571 16983 18277 19309 15712 15210 11661 15090 19697 13910 17241 18293 15249 17831 14307 17835 17715 16652 12362 14566 12963 15119 13943 15349 14361 16065 14785 16876 18698 14184 19900 15607 19051 14239 11304 13523 14316 13678 14004 14135 19083 11494 14574 11266 16658 10432 12188 12216 17858 16411 17221 13860 18742 17495 11066 10847 18294 15475 13447 19948 14528 11315 18020 10653 10394 18168 17359 18088 17648 15365 10236 11014 15430 17366 18253 17827 13538 14999 18749 18378 17549 13773 19125 10415 13458 15767 17534 17207 12678 16839 12769 13402 18662 19171 18774 19794 13712 17736 11271 11388 13701 14570 16241 13832 17061 11011 19407 16965 999999
999999 999999 999999 999999 999999 999999 999999 999999 999999 999999 999999 999999 999999 999999 999999 999999 999999 999999 999999 999999 999999 999999 999999 999999 999999 999999 999999 999999 999999 999999 999999 999999 999999 999999 999999 999999 999999 999999 999999 999999 999999 999999 999999 999999 999999 999999 999999 999999 999999 999999 999999 999999 999999 999999 999999 999999 999999 999999 999999 999999 999999 999999 999999 999999 999999 999999 999999 999999 999999 999999 999999 999999 999999 999999 999999 999999 999999 999999 999999 999999 999999 999999 999999 999999 999999 999999 999999 999999 999999 999999 999999 999999 999999 999999 999999 999999 999999 999999 999999 999999 999999 999999 0 999999 999999 999999 999999 999999 999999 999999 999999 999999 999999 999999 999999 999999 999999 999999 999999 999999 999999 999999 999999 999999 999999 999999 999999 999999 999999 999999 999999 999999 999999 999999 999999 999999 999999 999999 999999 999999 999999 999999 999999 999999 999999 999999 999999 999999 999999 999999 999999 999999 999999 999999 999999 999999 999999 999999 999999 999999 999999 10302 17878 12267 19690 19955 12163 18896 10231 11908 18665 15727 10210 19422 18514 17479 17775 19354 19754 12697 10167 12822 17012 10890 13761 11553 16137 19668 17434 18846 18734 14118 11162 18209 10947 10062 15144 16978 15968 19770 18595 11993 11543 15280 17656 10219 14787 18703 14225 16564 18272 14802 10717 11900 19877 16190 19303 13247 17759 19836 18027 14317 13079 19126 19453 16496 16398 15290 16433 15234 10905 16498 12504 11855 11922 10248 11408 19877 19693 19790 13816 15829 17647 12775 19585 17339 16544 17079 19872 18008 14145 17336 14153 17345 13275 11848 14201 13278 16997 11751 14346 10145 18926 13757 12051 11164 12642 17368 11025 17773 10090 16900 17647 18933 11642 10320 18870 18486 16805 10389 12595 11021 10172 14137 15330 10334 12808 10167 18599 10995 13904 17212 18483 16698 19970 11888 13671 19837 15871 19605 12726 19337 11666 14862 13489 17203 10207 11989 16139 19362 18782 15046 14259 13510 17371 17628 18990 18661 11885 14303 11889 999999
999999 999999 999999 999999 999999 999999 999999 999999 999999 999999 999999 999999 999999 999999 999999 999999 999999 999999 999999 999999 999999 999999 999999 999999 999999 999999 999999 999999 999999 999999 999999 999999 999999 999999 999999 999999 999999 999999 999999 999999 999999 999999 999999 999999 999999 999999 999999 999999 999999 999999 999999 999999 999999 999999 999999 999999 999999 999999 999999 999999 999999 999999 999999 999999 999999 999999 999999 999999 999999 999999 999999 999999 999999 999999 999999 999999 999999 999999 999999 999999 999999 999999 999999 999999 999999 999999 999999 999999 999999 999999 999999 999999 999999 999999 999999 999999 999999 999999 999999 999999 999999 999999 999999 0 999999 999999 999999 999999 999999 999999 999999 999999 999999 999999 999999 999999 999999 999999 999999 999999 999999 999999 999999 999999 999999 999999 999999 999999 999999 999999 999999 999999 999999 999999 999999 999999 999999 999999 999999 999999 999999 999999 999999 999999 999999 999999 999999 999999 999999 999999 999999 999999 999999 999999 999999 999999 999999 999999 999999 999999 999999 16009 10964 10334 19336 15259 17583 15711 18389 11322 17451 10919 12828 16536 10380 10810 13998 10136 11606 14491 13863 10451 13963 11676 12653 13315 13583 15517 10522 17543 13536 12543 16368 15811 11129 12587 10662 12993 18316 18382 17605 18435 15526 13295 11583 16865 18946 17741 10363 18966 14699 19106 10440 11656 14111 17430 19459 14631 12205 19449 15839 10164 19013 19275 13204 16131 10339 18657 11365 18072 13322 14573 18341 18956 15339 16432 15720 14060 10137 18189 15688 16826 11461 14425 11260 15195 18925 11924 18229 12570 18356 13092 10705 10071 16257 14389 18212 10491 16599 18722 12874 16896 15604 18460 11104 14104 10748 18466 15326 17022 18011 10165 13208 11411 16994 17605 19676 19849 14927 14565 11917 16350 15519 14472 12505 12594 14346 12071 17405 15390 15122 13860 15707 16766 18783 16672 19626 19136 13432 11804 11527 10269 10035 16087 18638 14324 11827 12408 14874 19926 14824 13659 13185 19458 19414 17746 11783 18916 14123 14342 17168 999999
999999 999999 999999 999999 999999 999999 999999 999999 999999 999999 999999 999999 999999 999999 999999 999999 999999 999999 999999 999999 999999 999999 999999 999999 999999 999999 999999 999999 999999 999999 999999 999999 999999 999999 999999 999999 999999 999999 999999 999999 999999 999999 999999 999999 999999 999999 999999 999999 999999 999999 999999 999999 999999 999999 999999 999999 999999 999999 999999 999999 999999 999999 999999 999999 999999 999999 999999 999999 999999 999999 999999 999999 999999 999999 999999 999999 999999 999999 999999 999999 999999 999999 999999 999999 999999 999999 999999 999999 999999 999999 999999 999999 999999 999999 999999 999999 999999 999999 999999 999999 999999 999999 999999 999999 0 999999 999999 999999 999999 999999 999999 999999 999999 999999 999999 999999 999999 999999 999999 999999 999999 999999 999999 999999 999999 999999 999999 999999 999999 999999 999999 999999 999999 999999 999999 999999 999999 999999 999999 999999 999999 999999 999999 999999 999999 999999 999999 999999 999999 999999 999999 999999 999999 999999 999999 999999 999999 999999 999999 999999 999999 17540 17241 16869 13334 15311 10374 17053 18046 11406 16879 11307 19587 16439 14136 19968 14013 16815 16341 17868 15060 17811 10078 14684 10966 18327 14274 11001 14365 17821 18275 10269 14721 12401 15719 11682 10419 16543 13522 19130 11659 10903 18067 17127 16665 19932 18930 15988 11635 17258 11356 19657 13034 10218 14102 15097 17114 19857 11264 14147 16599 17245 12254 15771 17545 19830 13904 10735 12984 13235 10586 10507 10910 16355 14930 18030 17196 13533 17583 15774 18446 19927 12351 14898 11271 14422 11363 10760 10507 13465 10765 12254 12215 10332 19398 14832 12299 18804 17870 14482 16783 12760 11845 12739 16402 15236 16833 11437 18797 16552 18023 11917 12769 12098 18660 14613 17771 15115 15992 11674 16976 17966 11157 16868 10689 12070 13345 13267 19769 15700 17177 10994 17587 12878 14214 10047 16273 13365 17234 13098 17623 14093 18176 16204 19820 12089 12345 19176 15314 16972 17197 12617 10908 13114 13526 12915 10253 16332 14530 16564 15525 999999
999999 999999 999999 999999 999999 999999 999999 999999 999999 999999 999999 999999 999999 999999 999999 999999 999999 999999 999999 999999 999999 999999 999999 999999 999999 999999 999999 999999 999999 999999 999999 999999 999999 999999 999999 999999 999999 999999 999999 999999 999999 999999 999999 999999 999999 999999 999999 999999 999999 999999 999999 999999 999999 999999 999999 999999 999999 999999 999999 999999 999999 999999 999999 999999 999999 999999 999999 999999 999999 999999 999999 999999 999999 999999 999999 999999 999999 999999 999999 999999 999999 999999 999999 999999 999999 999999 999999 999999 999999 999999 999999 999999 999999 999999 999999 999999 999999 999999 999999 999999 999999 999999 999999 999999 999999 0 999999 999999 999999 999999 999999 999999 999999 999999 999999 999999 999999 999999 999999 999999 999999 999999 999999 999999 999999 999999 999999 999999 999999 999999 999999 999999 999999 999999 999999 999999 999999 999999 999999 999999 999999 999999 999999 999999 999999 999999 999999 999999 999999 999999 999999 999999 999999 999999 999999 999999 999999 999999 999999 999999 999999 17728 15254 16245 10626 10684 11988 19152 14337 13135 16375 12994 16841 16828 19914 12383 16049 17045 15403 17855 10015 18713 16859 15978 13684 19317 15187 17690 17662 12001 18812 18481 17749 14996 12978 19838 15441 16951 10063 18092 14658 18351 12597 12198 19928 12624 15470 11697 15858 10304 16024 11736 13360 19782 19816 19664 11219 17814 12948 16004 17229 16638 10260 18245 11471 14553 15922 17719 11388 19269 15367 18981 17261 15450 14069 11674 11026 11584 18433 15473 16692 15006 19070 12612 14631 15937 18814 14009 12324 18666 17391 14762 14180 12714 16457 19546 17975 19627 17506 18408 12589 16956 11776 14486 13273 13224 10469 15661 18399 18997 19107 15165 19628 16346 10355 17897 10405 19759 15347 18322 17087 18507 19185 13530 16162 17487 16591 12569 13457 10061 14712 10545 17092 18331 16717 10652 10943 14300 18190 19758 13763 17223 12417 13318 13923 14871 16454 11688 19144 16570 11202 18027 10334 13016 12052 16219 12303 17905 11915 13599 19708 999999
999999 999999 999999 999999 999999 999999 999999 999999 999999 999999 999999 999999 999999 999999 999999 999999 999999 999999 999999 999999 999999 999999 999999 999999 999999 999999 999999 999999 999999 999999 999999 999999 999999 999999 999999 999999 999999 999999 999999 999999 999999 999999 999999 999999 999999 999999 999999 999999 999999 999999 999999 999999 999999 999999 999999 999999 999999 999999 999999 999999 999999 999999 999999 999999 999999 999999 999999 999999 999999 999999 999999 999999 999999 999999 999999 999999 999999 999999 999999 999999 999999 999999 999999 999999 999999 999999 999999 999999 999999 999999 999999 999999 999999 999999 999999 999999 999999 999999 999999 999999 999999 999999 999999 999999 999999 999999 0 999999 999999 999999 999999 999999 999999 999999 999999 999999 999999 999999 999999 999999 999999 999999 999999 999999 999999 999999 999999 999999 999999 999999 999999 999999 999999 999999 999999 999999 999999 999999 999999 999999 999999 999999 999999 999999 999999 999999 999999 999999 999999 999999 999999 999999 999999 999999 999999 999999 999999 999999 999999 999999 999999 13445 10696 17509 15219 19227 18133 19505 13332 14662 18766 15310 18889 15742 17270 18711 14846 18361 15333 11327 18335 16726 16059 13107 18571 13333 12258 18159 10129 17862 15924 10116 16799 19139 19426 16742 17109 15170 11258 13538 19685 12418 18138 18942 10707 10169 15019 11973 14466 14636 13603 10121 19926 19433 13633 15181 14784 14234 15096 11715 16077 13633 10929 12445 15261 14497 12562 14760 17873 12871 16806 17536 13955 18906 15092 15083 12857 16514 17981 15869 14543 16804 14791 18381 12946 13237 17202 19686 18553 14425 18347 16408 12611 15465 13422 13179 18708 17411 15759 18990 11006 11847 16929 19217 17851 15937 10575 19440 10852 16919 16176 10415 14953 13298 17301 13149 14948 16580 12697 11774 15628 18550 13344 12562 15118 19715 15213 18582 10337 14374 18510 15097 11581 16096 14610 10743 18482 10763 12471 17222 12333 17970 14253 18845 11434 18324 12924 12458 13755 18116 14721 13222 11238 15510 15549 16807 18544 19906 10304 18325 15598 999999
999999 999999 999999 999999 999999 999999 999999 999999 999999 999999 999999 999999 999999 999999 999999 999999 999999 999999 999999 999999 999999 999999 999999 999999 999999 999999 999999 999999 999999 999999 999999 999999 999999 999999 999999 999999 999999 999999 999999 999999 999999 999999 999999 999999 999999 999999 999999 999999 999999 999999 999999 999999 999999 999999 999999 999999 999999 999999 999999 999999 999999 999999 999999 999999 999999 999999 999999 999999 999999 999999 999999 999999 999999 999999 999999 999999 999999 999999 999999 999999 999999 999999 999999 999999 999999 999999 999999 999999 999999 999999 999999 999999 999999 999999 999999 999999 999999 999999 999999 999999 999999 999999 999999 999999 999999 999999 999999 0 999999 999999 999999 999999 999999 999999 999999 999999 999999 999999 999999 999999 999999 999999 999999 999999 999999 999999 999999 999999 999999 999999 999999 999999 999999 999999 999999 999999 999999 999999 999999 999999 999999 999999 999999 999999 999999 999999 999999 999999 999999 999999 999999 999999 999999 999999 999999 999999 999999 999999 999999 999999 999999 15970 14561 15981 14623 11242 19613 15825 18051 15016 11552 16079 19298 18495 13864 14702 11406 18314 16590 15849 19867 15602 11414 12668 18809 10732 13470 15075 11793 18855 13767 10785 13032 12185 17753 17710 19698 11664 14040 19272 11757 11995 12588 16398 10166 12340 12603 19673 15903 13922 15124 10094 11962 19706 10578 10541 17460 13310 12593 16154 12333 10802 13524 14173 18166 13602 11082 13033 14500 13908 15337 10989 16556 13004 11927 16303 10343 15629 13413 16521 11740 16654 17433 18418 12980 11791 12822 19761 12608 13060 17080 11688 19731 19723 13796 15334 18501 12337 14260 18545 12329 17660 12186 11654 16683 11571 12898 18935 17051 18590 19450 17329 19982 11041 16865 12743 17155 12156 15753 19987 12442 13617 17799 16593 11916 16970 17451 11787 15194 11414 19857 16619 19047 12548 18234 17003 11651 17532 15601 17176 17883 10658 18098 11434 10032 18469 17116 16318 13150 10177 18131 12420 18128 16819 15608 16390 12307 15428 12497 18942 19520 999999
999999 999999 999999 999999 999999 999999 999999 999999 999999 999999 999999 999999 999999 999999 999999 999999 999999 999999 999999 999999 999999 999999 999999 999999 999999 999999 999999 999999 999999 999999 999999 999999 999999 999999 999999 999999 999999 999999 999999 999999 999999 999999 999999 999999 999999 999999 999999 999999 999999 999999 999999 999999 999999 999999 999999 999999 999999 999999 999999 999999 999999 999999 999999 999999 999999 999999 999999 999999 999999 999999 999999 999999 999999 999999 999999 999999 999999 999999 999999 999999 999999 999999 999999 999999 999999 999999 999999 999999 999999 999999 999999 999999 999999 999999 999999 999999 999999 999999 999999 999999 999999 999999 999999 999999 999999 999999 999999 999999 0 999999 999999 999999 999999 999999 999999 999999 999999 999999 999999 999999 999999 999999 999999 999999 999999 999999 999999 999999 999999 999999 999999 999999 999999 999999 999999 999999 999999 999999 999999 999999 999999 999999 999999 999999 999999 999999 999999 999999 999999 999999 999999 999999 999999 999999 999999 999999 999999 999999 999999 999999 999999 14458 15920 19316 18919 19529 18360 14089 11660 18836 11015 19892 14643 13841 18473 14978 17306 19188 15423 13795 14952 14906 17972 17166 10651 15739 13536 17589 15877 10515 14237 12301 11740 19006 17390 13912 11860 13689 18593 19670 15184 13929 12638 19372 12812 13973 15964 10187 11069 13946 16853 19677 18339 16599 13937 19966 10034 10459 14931 12988 10312 19083 19813 19528 16277 15991 17789 12692 11698 15157 16656 19007 12158 11009 12047 14571 17821 17479 12395 14041 14443 15706 12616 16309 16151 11273 12374 10045 11643 17557 15869 13569 19949 19428 18008 10619 12734 11564 18112 10878 19034 17140 18385 19479 14120 18459 14426 16479 19688 10826 11715 17848 13069 17757 10150 13276 13125 16289 11434 19720 11016 10438 15734 12231 11130 14111 17623 14533 11739 16455 19919 11153 11694 12177 13686 14962 13561 12568 18326 19398 17514 19430 10209 13407 13091 13527 11483 16802 10267 13088 12861 13885 11364 15183 19162 19163 13649 12316 10413 17585 12474 999999
999999 999999 999999 999999 999999 999999 999999 999999 999999 999999 999999 999999 999999 999999 999999 999999 999999 999999 999999 999999 999999 999999 999999 999999 999999 999999 999999 999999 999999 999999 999999 999999 999999 999999 999999 999999 999999 999999 999999 999999 999999 999999 999999 999999 999999 999999 999999 999999 999999 999999 999999 999999 999999 999999 999999 999999 999999 999999 999999 999999 999999 999999 999999 999999 999999 999999 999999 999999 999999 999999 999999 999999 999999 999999 999999 999999 999999 999999 999999 999999 999999 999999 999999 999999 999999 999999 999999 999999 999999 999999 999999 999999 999999 999999 999999 999999 999999 999999 999999 999999 999999 999999 999999 999999 999999 999999 999999 999999 999999 0 999999 999999 999999 999999 999999 999999 999999 999999 999999 999999 999999 999999 999999 999999 999999 999999 999999 999999 999999 999999 999999 999999 999999 999999 999999 999999 999999 999999 999999 999999 999999 999999 999999 999999 999999 999999 999999 999999 999999 999999 999999 999999 999999 999999 999999 999999 999999 999999 999999 999999 999999 14668 17350 14977 13294 16916 10760 17596 13432 17843 12269 17707 13805 11409 12344 13278 12881 14519 13818 12461 13224 15027 19604 12333 16664 13662 15083 15451 17824 10364 14490 19522 17142 19467 13463 17161 18780 19183 12425 15196 15059 10340 11772 16407 14630 15533 14008 12525 15117 13850 13875 16926 12365 11683 13016 13215 14786 11892 13435 13722 10451 10048 16528 17112 16746 15641 17709 19036 17326 10425 17604 15222 15183 19531 11666 10580 17825 10571 14164 15637 10401 15981 10904 18621 16271 19667 18111 12831 12169 12626 12828 15915 10383 14649 15119 10710 13096 14673 14090 15715 10628 10395 12186 16782 17143 17792 10055 17553 15682 19842 11345 13894 10287 18848 15728 17293 12702 10615 15024 13020 11090 12756 17224 11189 12217 13875 10846 11398 11181 18491 19049 19059 17544 19123 18026 11624 15305 14403 19972 16139 12975 17190 17973 17492 14739 14097 18993 16758 19805 18581 18951 10140 16338 11782 14311 10891 19170 15649 13097 10043 12637 999999
999999 999999 999999 999999 999999 999999 999999 999999 999999 999999 999999 999999 999999 999999 999999 999999 999999 999999 999999 999999 999999 999999 999999 999999 999999 999999 999999 999999 999999 999999 999999 999999 999999 999999 999999 999999 999999 999999 999999 999999 999999 999999 999999 999999 999999 999999 999999 999999 999999 999999 999999 999999 999999 999999 999999 999999 999999 999999 999999 999999 999999 999999 999999 999999 999999 999999 999999 999999 999999 999999 999999 999999 999999 999999 999999 999999 999999 999999 999999 999999 999999 999999 999999 999999 999999 999999 999999 999999 999999 999999 999999 999999 999999 999999 999999 999999 999999 999999 999999 999999 999999 999999 999999 999999 999999 999999 999999 999999 999999 999999 0 999999 999999 999999 999999 999999 999999 999999 999999 999999 999999 999999 999999 999999 999999 999999 999999 999999 999999 999999 999999 999999 999999 999999 999999 999999 999999 999999 999999 999999 999999 999999 999999 999999 999999 999999 999999 999999 999999 999999 999999 999999 999999 999999 999999 999999 999999 999999 999999 999999 999999 15677 13851 16332 19513 16265 17656 11605 17335 18306 14598 11298 19646 11058 19127 16132 16627 15729 18070 12103 18338 14486 13321 16701 11257 17779 11800 12869 14608 16654 13276 11557 16024 10121 16868 15259 19275 19159 11621 18399 16023 14237 18743 15202 16112 12837 16375 16794 18353 12307 16778 19198 17387 16004 17837 14971 16042 13461 12237 15328 19522 19008 13016 19414 13924 19272 12143 19201 14404 11124 12376 18856 13123 17293 16711 10489 19081 19729 11195 13247 18457 18110 10207 15404 18784 16444 17481 13437 10348 14552 11496 12013 10671 16585 12681 10797 15274 13564 10426 14975 11353 18969 10008 12644 13851 17867 11057 18773 13372 12907 11762 16640 19742 11038 17152 16625 19462 19435 15905 16085 17894 12453 13192 15886 13451 18999 10776 19269 11197 13523 13522 14906 19356 10538 17590 16455 10354 19139 18518 12175 15159 15998 18464 15998 17661 16095 15141 15452 14803 15050 13318 18126 13585 17423 10889 13823 11502 12010 17627 13068 16225 999999
999999 999999 999999 999999 999999 999999 999999 999999 999999 999999 999999 999999 999999 999999 999999 999999 999999 999999 999999 999999 999999 999999 999999 999999 999999 999999 999999 999999 999999 999999 999999 999999 999999 999999 999999 999999 999999 999999 999999 999999 999999 999999 999999 999999 999999 999999 999999 999999 999999 999999 999999 999999 999999 999999 999999 999999 999999 999999 999999 999999 999999 999999 999999 999999 999999 999999 999999 999999 999999 999999 999999 999999 999999 999999 999999 999999 999999 999999 999999 999999 999999 999999 999999 999999 999999 999999 999999 999999 999999 999999 999999 999999 999999 999999 999999 999999 999999 999999 999999 999999 999999 999999 999999 999999 999999 999999 999999 999999 999999 999999 999999 0 999999 999999 999999 999999 999999 999999 999999 999999 999999 999999 999999 999999 999999 999999 999999 999999 999999 999999 999999 999999 999999 999999 999999 999999 999999 999999 999999 999999 999999 999999 999999 999999 999999 999999 999999 999999 999999 999999 999999 999999 999999 999999 999999 999999 999999 999999 999999 999999 999999 19123 10727 16917 18570 14771 19306 15268 19975 18078 13741 16756 12260 19312 13156 19301 15231 12996 11134 15701 11902 11439 17307 19783 18584 10362 13623 15388 16402 15967 12217 18025 11182 19220 16072 10495 11017 19215 19879 14123 13566 15883 15535 10117 12245 14953 19500 11262 10219 15698 15286 17191 16581 14512 15623 19345 15428 15350 19112 19970 10391 14008 19488 12152 16704 12771 17734 19861 13561 12896 13656 16825 17165 13921 15655 13879 13979 11956 19413 10834 12523 17046 17981 14708 16247 16585 16691 14261 10970 10158 14083 18740 16879 13467 14357 13103 18947 19468 14956 14087 19114 11556 13335 16520 19489 16736 17898 19352 15347 19510 11635 10367 12637 11495 14378 10336 12428 18552 11814 14990 19636 18342 17369 15943 14948 12784 18292 18637 16290 18105 15000 15230 11264 17248 13869 16613 17872 15331 13667 13632 14426 18118 11178 12229 12553 11981 16495 12691 15828 10380 18843 16804 15827 10428 12295 15677 11982 15660 12261 16249 17835 999999
999999 999999 999999 999999 999999 999999 999999 999999 999999 999999 999999 999999 999999 999999 999999 999999 999999 999999 999999 999999 999999 999999 999999 999999 999999 999999 999999 999999 999999 999999 999999 999999 999999 999999 999999 999999 999999 999999 999999 999999 999999 999999 999999 999999 999999 999999 999999 999999 999999 999999 999999 999999 999999 999999 999999 999999 999999 999999 999999 999999 999999 999999 999999 999999 999999 999999 999999 999999 999999 999999 999999 999999 999999 999999 999999 999999 999999 999999 999999 999999 999999 999999 999999 999999 999999 999999 999999 999999 999999 999999 999999 999999 999999 999999 999999 999999 999999 999999 999999 999999 999999 999999 999999 999999 999999 999999 999999 999999 999999 999999 999999 999999 0 999999 999999 999999 999999 999999 999999 999999 999999 999999 999999 999999 999999 999999 999999 999999 999999 999999 999999 999999 999999 999999 999999 999999 999999 999999 999999 999999 999999 999999 999999 999999 999999 999999 999999 999999 999999 999999 999999 999999 999999 999999 999999 999999 999999 999999 999999 999999 999999 15084 11087 15714 16991 11840 12881 15598 17085 17459 17410 17199 13426 12094 11681 14139 17673 14773 18522 15673 16494 18669 14386 10794 17641 15750 13914 15672 19620 13006 15675 13924 19499 11345 16594 18847 14774 11651 10463 12097 12927 18766 11278 14200 15274 13106 16886 18897 16736 15157 10962 17516 13880 17636 16258 16656 17957 11148 16577 11518 13846 13742 13543 14837 19688 13041 19815 15049 10372 12714 10648 10318 13018 15123 11348 12186 11395 11492 19114 16656 19339 10018 15946 16374 18006 14183 17980 12488 16410 16909 14785 12056 17044 15846 12778 14278 18003 12435 16633 10234 18442 12585 17337 15098 17568 19279 16836 14436 11104 17263 14118 12117 18430 18996 14355 13349 16560 16378 10379 10277 12562 16853 19948 14176 16083 16594 16841 15169 15446 13264 13098 14101 10404 12797 16695 19528 19155 12877 11732 10526 16547 17595 15265 14276 14139 13581 13763 17478 14894 18967 18766 15071 15909 18165 11166 15978 11201 16377 19998 17242 15597 999999
999999 999999 999999 999999 999999 999999 999999 999999 999999 999999 999999 999999 999999 999999 999999 999999 999999 999999 999999 999999 999999 999999 999999 999999 999999 999999 999999 999999 999999 999999 999999 999999 999999 999999 999999 999999 999999 999999 999999 999999 999999 999999 999999 999999 999999 999999 999999 999999 999999 999999 999999 999999 999999 999999 999999 999999 999999 999999 999999 999999 999999 999999 999999 999999 999999 999999 999999 999999 999999 999999 999999 999999 999999 999999 999999 999999 999999 999999 999999 999999 999999 999999 999999 999999 999999 999999 999999 999999 999999 999999 999999 999999 999999 999999 999999 999999 999999 999999 999999 999999 999999 999999 999999 999999 999999 999999 999999 999999 999999 999999 999999 999999 999999 0 999999 999999 999999 999999 999999 999999 999999 999999 999999 999999 999999 999999 999999 999999 999999 999999 999999 999999 999999 999999 999999 999999 999999 999999 999999 999999 999999 999999 999999 999999 999999 999999 999999 999999 999999 999999 999999 999999 999999 999999 999999 999999 999999 999999 999999 999999 999999 17776 16150 12715 19994 16296 16186 19476 17959 12108 19649 19186 11256 16836 12098 19555 15615 16178 12886 18594 16228 14807 18357 15865 11831 10045 14948 10247 17488 15685 15309 16548 10665 16763 11622 11310 15220 16226 10506 11865 13492 13073 18196 14219 15965 19418 13610 18337 17819 11405 12514 18258 12436 17792 13090 13494 19633 11283 10280 10922 10451 14174 17792 17414 18195 15818 10783 18031 16166 19590 10111 10621 11045 16327 15546 17020 18531 19592 17714 17064 15094 11095 10251 17999 13735 19329 17140 19184 16717 19469 14491 16560 13107 19293 17808 11012 18511 15383 13581 10593 10174 11783 11963 10351 17238 14592 17687 16447 16546 15325 13092 16023 14582 11838 15791 18647 11691 19242 18529 19841 18654 13894 13007 10613 15062 11975 12613 18784 17316 11715 18259 13303 17487 11232 15188 13121 13623 12011 16294 11768 10990 10058 11939 18763 14514 18782 13475 13052 16437 11527 16657 17238 17895 16245 10458 10202 12959 16782 16522 10455 10296 999999
999999 999999 999999 999999 999999 999999 999999 999999 999999 999999 999999 999999 999999 999999 999999 999999 999999 999999 999999 999999 999999 999999 999999 999999 999999 999999 999999 999999 999999 999999 999999 999999 999999 999999 999999 999999 999999 999999 999999 999999 999999 999999 999999 999999 999999 999999 999999 999999 999999 999999 999999 999999 999999 999999 999999 999999 999999 999999 999999 999999 999999 999999 999999 999999 999999 999999 999999 999999 999999 999999 999999 999999 999999 999999 999999 999999 999999 999999 999999 999999 999999 999999 999999 999999 999999 999999 999999 999999 999999 999999 999999 999999 999999 999999 999999 999999 999999 999999 999999 999999 999999 999999 999999 999999 999999 999999 999999 999999 999999 999999 999999 999999 999999 999999 0 999999 999999 999999 999999 999999 999999 999999 999999 999999 999999 999999 999999 999999 999999 999999 999999 999999 999999 999999 999999 999999 999999 999999 999999 999999 999999 999999 999999 999999 999999 999999 999999 999999 999999 999999 999999 999999 999999 999999 999999 999999 999999 999999 999999 999999 999999 13608 17362 12237 19445 16933 16461 17047 15926 11661 10125 18253 13283 10329 15351 19032 17424 18559 19163 11656 14746 19926 19243 19059 15084 10203 12569 15361 19482 17075 15044 18858 11061 10706 12614 18681 19347 19355 19515 17979 17333 10503 10137 11343 12694 19930 12521 17339 18916 10672 14124 10365 10736 12034 14442 11512 13323 18837 18030 12136 15712 14379 17997 15600 12506 13881 17671 10479 14765 14041 17430 13895 15134 12118 17139 17005 16705 17904 16215 16842 19563 19173 17537 12302 17066 14475 14755 14787 15130 19563 18882 12602 15551 14222 14879 17463 18124 13725 19733 15046 17123 19578 12614 13622 17063 11099 10889 16871 10798 16773 10749 10940 16181 19833 11747 16991 10868 16967 12118 12840 18220 10471 12871 10416 15951 16647 10877 17867 15503 19548 12610 16788 15116 12461 19869 19515 16293 10520 15113 15819 13219 14109 15898 19117 15698 14050 13345 11712 19009 16278 11330 18282 11357 11054 16634 16149 15284 11878 11882 19100 15356 999999
999999 999999 999999 999999 999999 999999 999999 999999 999999 999999 999999 999999 999999 999999 999999 999999 999999 999999 999999 999999 999999 999999 999999 999999 999999 999999 999999 999999 999999 999999 999999 999999 999999 999999 999999 999999 999999 999999 999999 999999 999999 999999 999999 999999 999999 999999 999999 999999 999999 999999 999999 999999 999999 999999 999999 999999 999999 999999 999999 999999 999999 999999 999999 999999 999999 999999 999999 999999 999999 999999 999999 999999 999999 999999 999999 999999 999999 999999 999999 999999 999999 999999 999999 999999 999999 999999 999999 999999 999999 999999 999999 999999 999999 999999 999999 999999 999999 999999 999999 999999 999999 999999 999999 999999 999999 999999 999999 999999 999999 999999 999999 999999 999999 999999 999999 0 999999 999999 999999 999999 999999 999999 999999 999999 999999 999999 999999 999999 999999 999999 999999 999999 999999 999999 999999 999999 999999 999999 999999 999999 999999 999999 999999 999999 999999 999999 999999 999999 999999 999999 999999 999999 999999 999999 999999 999999 999999 999999 999999 999999 999999 14570 13241 17128 17326 10330 15738 17787 17763 17144 14596 18974 15023 11396 12337 11470 12337 12241 17600 18835 12544 13448 14954 14082 17116 19194 15787 17050 15288 12726 15365 17123 15943 11127 18475 18727 11285 14914 10641 17756 10861 11494 18702 19361 11425 15652 14909 10467 11343 16317 15896 10195 13800 14419 16337 15426 16387 19398 15926 15808 18145 14603 14136 18607 10528 16058 10458 14131 18643 18964 11566 16086 19785 15382 13211 11519 17571 14876 16315 18848 14789 10482 17684 12329 14431 10033 10153 17213 11256 15481 13742 13716 18064 14286 19107 14399 14529 11245 10172 12054 12249 14314 17345 19094 17152 16804 19378 18203 10070 13964 11448 17625 16232 18752 11312 15976 10276 17021 10130 11155 15660 18404 13904 10215 16580 15422 12902 14968 13089 12598 17881 13117 10152 17358 15540 13221 17399 10052 15063 10921 16594 17769 15345 11770 15182 13436 17777 12498 10078 11764 16431 19540 13039 13989 19387 15254 12375 13732 10534 16884 11942 999999
999999 999999 999999 999999 999999 999999 999999 999999 999999 999999 999999 999999 999999 999999 999999 999999 999999 999999 999999 999999 999999 999999 999999 999999 999999 999999 999999 999999 999999 999999 999999 999999 999999 999999 999999 999999 999999 999999 999999 999999 999999 999999 999999 999999 999999 999999 999999 999999 999999 999999 999999 999999 999999 999999 999999 999999 999999 999999 999999 999999 999999 999999 999999 999999 999999 999999 999999 999999 999999 999999 999999 999999 999999 999999 999999 999999 999999 999999 999999 999999 999999 999999 999999 999999 999999 999999 999999 999999 999999 999999 999999 999999 999999 999999 999999 999999 999999 999999 999999 999999 999999 999999 999999 999999 999999 999999 999999 999999 999999 999999 999999 999999 999999 999999 999999 999999 0 999999 999999 999999 999999 999999 999999 999999 999999 999999 999999 999999 999999 999999 999999 999999 999999 999999 999999 999999 999999 999999 999999 999999 999999 999999 999999 999999 999999 999999 999999 999999 999999 999999 999999 999999 999999 999999 999999 999999 999999 999999 999999 999999 999999 15055 16511 10033 15950 10461 17328 10580 16231 10882 12380 15915 19756 12284 15703 14590 13010 18369 13204 15235 10848 17779 18529 14920 11577 15923 15262 16857 12060 15647 11544 16312 17091 11673 15924 15545 13690 17335 13618 18473 16204 12336 14404 13094 14323 15546 14369 18920 14043 13834 15341 14111 11574 12316 19425 10655 13141 12675 18315 17413 10619 18333 19822 19212 14212 19654 14786 17288 13733 16639 10266 17796 19786 14790 15836 11831 12855 13178 14455 12280 14097 12487 19831 11735 14703 17422 11039 16132 14494 13982 10723 15209 11412 15223 14224 17697 10842 10804 17661 18768 15346 19477 10260 18101 18443 19731 13831 11087 17851 11070 10103 16022 18202 14288 18701 19263 10424 19109 14519 16460 16780 10950 18649 16529 11214 17007 19552 10881 16505 12528 15678 10422 19880 19061 11717 14611 11752 16473 10165 12215 14070 11515 12734 16416 18138 19473 19021 16315 13247 17460 15513 15094 17613 17645 15821 16919 13670 16828 11453 14459 16162 999999
999999 999999 999999 999999 999999 999999 999999 999999 999999 999999 999999 999999 999999 999999 999999 999999 999999 999999 999999 999999 999999 999999 999999 999999 999999 999999 999999 999999 999999 999999 999999 999999 999999 999999 999999 999999 999999 999999 999999 999999 999999 999999 999999 999999 999999 999999 999999 999999 999999 999999 999999 999999 999999 999999 999999 999999 999999 999999 999999 999999 999999 999999 999999 999999 999999 999999 999999 999999 999999 999999 999999 999999 999999 999999 999999 999999 999999 999999 999999 999999 999999 999999 999999 999999 999999 999999 999999 999999 999999 999999 999999 999999 999999 999999 999999 999999 999999 999999 999999 999999 999999 999999 999999 999999 999999 999999 999999 999999 999999 999999 999999 999999 999999 999999 999999 999999 999999 0 999999 999999 999999 999999 999999 999999 999999 999999 999999 999999 999999 999999 999999 999999 999999 999999 999999 999999 999999 999999 999999 999999 999999 999999 999999 999999 999999 999999 999999 999999 999999 999999 999999 999999 999999 999999 999999 999999 999999 999999 999999 999999 999999 16125 11525 10074 18904 11353 12680 17733 10216 18611 16901 19854 13086 19554 14721 18897 17970 16459 18211 11208 14832 12738 10646 12951 12533 10604 12720 10627 18793 10810 18197 15264 12437 18734 18962 19014 19848 14124 15318 10936 15932 10414 15328 10091 12399 18670 10125 18619 13654 18373 11857 13869 15812 10202 11124 19389 18461 14304 17803 14756 16017 16927 13373 12982 16198 12799 17589 17101 16625 16996 18844 10566 15819 16847 12935 12046 15307 14324 19377 18064 13404 12867 11489 13686 11731 13835 10790 10822 14828 19483 19593 16553 14739 13008 10748 19869 17563 16698 11364 19301 12767 14599 17218 12850 15224 17866 16039 12982 18995 11545 10549 12354 18383 17296 13414 16846 14356 16564 17725 14080 16076 17104 12449 12012 10647 15497 17286 18993 15603 14188 14970 12265 19314 13718 18154 13574 17520 14329 10503 15977 17545 15830 12568 19776 12709 11061 15193 12893 12508 15531 17833 13106 12314 15554 12278 11032 11457 15406 11025 19813 10616 999999
999999 999999 999999 999999 999999 999999 999999 999999 999999 999999 999999 999999 999999 999999 999999 999999 999999 999999 999999 999999 999999 999999 999999 999999 999999 999999 999999 999999 999999 999999 999999 999999 999999 999999 999999 999999 999999 999999 999999 999999 999999 999999 999999 999999 999999 999999 999999 999999 999999 999999 999999 999999 999999 999999 999999 999999 999999 999999 999999 999999 999999 999999 999999 999999 999999 999999 999999 999999 999999 999999 999999 999999 999999 999999 999999 999999 999999 999999 999999 999999 999999 999999 999999 999999 999999 999999 999999 999999 999999 999999 999999 999999 999999 999999 999999 999999 999999 999999 999999 999999 999999 999999 999999 999999 999999 999999 999999 999999 999999 999999 999999 999999 999999 999999 999999 999999 999999 999999 0 999999 999999 999999 999999 999999 999999 999999 999999 999999 999999 999999 999999 999999 999999 999999 999999 999999 999999 999999 999999 999999 999999 999999 999999 999999 999999 999999 999999 999999 999999 999999 999999 999999 999999 999999 999999 999999 999999 999999 999999 999999 999999 17124 19544 18630 10354 16428 12781 15241 19597 11588 16362 14685 16673 13983 15875 10319 13764 18228 11955 12053 17537 13658 17413 17372 17366 12193 10858 17490 10917 11508 15541 12235 11607 19483 17515 11527 15605 11199 11563 11904 19019 19982 12507 11529 10333 10284 17662 16474 18046 17916 13731 16896 15345 17884 11763 19617 13387 14156 18280 11246 10459 10931 15387 15681 19492 17941 10388 13009 15552 11716 10633 19723 19142 17412 13323 18072 13272 11406 12248 14723 18025 18452 10022 14298 16677 11138 13416 15884 19211 13991 10686 13339 12767 12219 16787 13210 14884 17779 19021 11140 15475 16782 13273 15963 17750 16587 13740 19904 14754 11077 14777 18577 15355 19933 17609 10379 17153 12103 11081 14295 15336 11748 13365 11917 10025 12941 11441 12897 18945 14294 12076 14078 11849 12435 12093 10225 17012 16866 10050 11104 16498 12571 15103 12265 17658 10658 19045 18113 16793 10696 16686 19253 18236 12892 12174 12289 13742 11034 12314 15304 14168 999999
999999 999999 999999 999999 999999 999999 999999 999999 999999 999999 999999 999999 999999 999999 999999 999999 999999 999999 999999 999999 999999 999999 999999 999999 999999 999999 999999 999999 999999 999999 999999 999999 999999 999999 999999 999999 999999 999999 999999 999999 999999 999999 999999 999999 999999 999999 999999 999999 999999 999999 999999 999999 999999 999999 999999 999999 999999 999999 999999 999999 999999 999999 999999 999999 999999 999999 999999 999999 999999 999999 999999 999999 999999 999999 999999 999999 999999 999999 999999 999999 999999 999999 999999 999999 999999 999999 999999 999999 999999 999999 999999 999999 999999 999999 999999 999999 999999 999999 999999 999999 999999 999999 999999 999999 999999 999999 999999 999999 999999 999999 999999 999999 999999 999999 999999 999999 999999 999999 999999 0 999999 999999 999999 999999 999999 999999 999999 999999 999999 999999 999999 999999 999999 999999 999999 999999 999999 999999 999999 999999 999999 999999 999999 999999 999999 999999 999999 999999 999999 999999 999999 999999 999999 999999 999999 999999 999999 999999 999999 999999 999999 18745 13501 14812 16424 18297 10870 14459 13856 18361 11810 17473 14772 13949 16618 10137 12433 18190 13394 15268 13527 16719 15612 10827 17659 11202 19610 15941 15396 16267 13319 11088 14071 14948 10567 13826 17436 18516 17014 10213 10959 10718 17730 15317 19026 11753 15756 14578 11138 15576 17844 13030 11263 15792 15583 15446 12238 11066 11592 15188 12131 19159 16746 16739 17427 13092 15074 12213 12459 10089 15002 14732 14202 11938 17073 12463 13805 11916 12547 18035 12586 10890 14149 15765 18085 10288 13578 12059 17170 15471 15474 15109 10935 14245 17332 14849 12288 16368 15725 14408 15443 19806 19494 13060 16734 18418 18619 12086 18058 18885 16756 17363 12912 18605 18048 10380 19631 10542 14559 19868 13090 12477 16491 12893 11701 17316 19696 19829 13085 17951 18058 17743 11883 14692 19820 11412 17643 16896 10411 11721 10849 12713 12937 17444 12118 13804 16944 17832 16588 17025 18698 18211 18707 12180 16715 15093 14509 14007 10931 17329 14687 999999
999999 999999 999999 999999 999999 999999 999999 999999 999999 999999 999999 999999 999999 999999 999999 999999 999999 999999 999999 999999 999999 999999 999999 999999 999999 999999 999999 999999 999999 999999 999999 999999 999999 999999 999999 999999 999999 999999 999999 999999 999999 999999 999999 999999 999999 999999 999999 999999 999999 999999 999999 999999 999999 999999 999999 999999 999999 999999 999999 999999 999999 999999 999999 999999 999999 999999 999999 999999 999999 999999 999999 999999 999999 999999 999999 999999 999999 999999 999999 999999 999999 999999 999999 999999 999999 999999 999999 999999 999999 999999 999999 999999 999999 999999 999999 999999 999999 999999 999999 999999 999999 999999 999999 999999 999999 999999 999999 999999 999999 999999 999999 999999 999999 999999 999999 999999 999999 999999 999999 999999 0 999999 999999 999999 999999 999999 999999 999999 999999 999999 999999 999999 999999 999999 999999 999999 999999 999999 999999 999999 999999 999999 999999 999999 999999 999999 999999 999999 999999 999999 999999 999999 999999 999999 999999 999999 999999 999999 999999 999999 999999 16591 11535 11870 13346 15945 14011 12621 12911 18702 17939 14090 12384 18990 15321 19945 14374 15073 12765 15410 15762 11521 11900 10540 16006 19931 12106 16349 18606 15030 12210 18126 11526 18546 11008 10895 14867 19283 12030 19208 14042 15404 12171 15247 15301 15404 18280 16517 12467 15166 11964 12989 19060 13254 12157 11268 13312 14331 18394 15462 17578 18012 16381 17831 13195 10564 11951 12891 15570 11574 14096 11248 11660 13753 15034 16429 11792 19650 19663 16781 16098 10426 15065 13458 16291 17386 14757 13312 10070 14377 18724 10768 14543 13223 10637 11333 13336 16433 11042 19088 18772 10593 18899 13662 18890 10908 11386 18353 10296 13260 16851 10416 17650 18841 18017 12151 13376 19447 16990 14568 19043 14446 18807 14546 19931 19249 19795 11085 10088 19158 17474 12767 14247 15390 10199 14464 13739 15479 17094 14093 17906 12159 16752 13081 11413 13721 11832 12060 11710 16043 11498 10997 18962 18104 14700 19607 19785 18394 12744 15391 13316 999999
999999 999999 999999 999999 999999 999999 999999 999999 999999 999999 999999 999999 999999 999999 999999 999999 999999 999999 999999 999999 999999 999999 999999 999999 999999 999999 999999 999999 999999 999999 999999 999999 999999 999999 999999 999999 999999 999999 999999 999999 999999 999999 999999 999999 999999 999999 999999 999999 999999 999999 999999 999999 999999 999999 999999 999999 999999 999999 999999 999999 999999 999999 999999 999999 999999 999999 999999 999999 999999 999999 999999 999999 999999 999999 999999 999999 999999 999999 999999 999999 999999 999999 999999 999999 999999 999999 999999 999999 999999 999999 999999 999999 999999 999999 999999 999999 999999 999999 999999 999999 999999 999999 999999 999999 999999 999999 999999 999999 999999 999999 999999 999999 999999 999999 999999 999999 999999 999999 999999 999999 999999 0 999999 999999 999999 999999 999999 999999 999999 999999 999999 999999 999999 999999 999999 999999 999999 999999 999999 999999 999999 999999 999999 999999 999999 999999 999999 999999 999999 999999 999999 999999 999999 999999 999999 999999 999999 999999 999999 999999 999999 11070 15898 14298 16837 13616 19205 18176 10685 14282 14517 12829 16108 15523 12536 10245 15354 16171 18007 11093 12149 15310 11197 17712 19200 10125 13090 12798 12392 18757 16420 18851 14682 16255 11955 12015 10164 17582 13264 13060 16967 10934 17652 19129 14131 12998 16681 12946 16800 11048 15069 15538 19627 11534 17612 19150 12567 16056 16653 14013 16871 19493 13725 13839 16539 12545 19633 19219 15192 18531 19679 10771 17555 15652 19797 11526 11285 18858 12754 16072 16771 11293 11204 13623 14010 10593 13336 16611 17028 12067 17425 16943 18839 18635 12891 15720 12503 11949 16804 18660 11342 14042 17027 11328 16867 11602 17999 13598 18843 10384 11663 14044 13081 17411 16843 19498 11855 15995 14370 11029 19660 19557 12677 11283 10191 10299 11006 12752 10436 12367 19830 19901 18121 10604 10178 19311 19776 18216 17307 14986 14553 11286 14883 15647 13641 16625 16877 13469 11246 15205 11227 10483 19740 18679 18922 19026 10977 16536 16589 16951 15874 999999
999999 999999 999999 999999 999999 999999 999999 999999 999999 999999 999999 999999 999999 999999 999999 999999 999999 999999 999999 999999 999999 999999 999999 999999 999999 999999 999999 999999 999999 999999 999999 999999 999999 999999 999999 999999 999999 999999 999999 999999 999999 999999 999999 999999 999999 999999 999999 999999 999999 999999 999999 999999 999999 999999 999999 999999 999999 999999 999999 999999 999999 999999 999999 999999 999999 999999 999999 999999 999999 999999 999999 999999 999999 999999 999999 999999 999999 999999 999999 999999 999999 999999 999999 999999 999999 999999 999999 999999 999999 999999 999999 999999 999999 999999 999999 999999 999999 999999 999999 999999 999999 999999 999999 999999 999999 999999 999999 999999 999999 999999 999999 999999 999999 999999 999999 999999 999999 999999 999999 999999 999999 999999 0 999999 999999 999999 999999 999999 999999 999999 999999 999999 999999 999999 999999 999999 999999 999999 999999 999999 999999 999999 999999 999999 999999 999999 999999 999999 999999 999999 999999 999999 999999 999999 999999 999999 999999 999999 999999 999999 999999 12140 16592 15702 12443 13937 17969 16481 10965 19754 10417 19779 14763 11401 15572 11107 19941 15332 19608 18782 11956 11441 12863 10652 16102 11169 14424 14213 14653 14241 10237 19851 13238 10331 15316 11227 13987 16137 10626 18965 13693 10197 11434 15084 12317 18463 17225 12624 19413 11190 12517 19734 17889 16400 18260 12951 13447 17022 17910 14230 14435 16501 10411 14976 18923 18672 15568 10580 18676 10000 13913 15117 15867 10664 14889 19469 12770 11657 18540 11967 10851 13146 17108 16402 14479 11926 18576 11671 11296 11960 18492 17960 17224 19321 12914 13291 15379 10764 19357 10747 15449 16362 16138 13754 13038 18914 12683 15888 16483 12924 12160 11096 14299 19611 11737 17793 19318 16377 17283 12650 12013 13840 17493 10713 14939 18798 15634 11255 19680 13821 14408 13985 11246 14420 17470 17254 17242 16169 12274 12524 14114 13932 10525 15116 17172 15679 14965 19204 14211 13319 15334 17972 17071 11036 12736 19630 11763 19564 17465 11112 12027 999999
999999 999999 999999 999999 999999 999999 999999 999999 999999 999999 999999 999999 999999 999999 999999 999999 999999 999999 999999 999999 999999 999999 999999 999999 999999 999999 999999 999999 999999 999999 999999 999999 999999 999999 999999 999999 999999 999999 999999 999999 999999 999999 999999 999999 999999 999999 999999 999999 999999 999999 999999 999999 999999 999999 999999 999999 999999 999999 999999 999999 999999 999999 999999 999999 999999 999999 999999 999999 999999 999999 999999 999999 999999 999999 999999 999999 999999 999999 999999 999999 999999 999999 999999 999999 999999 999999 999999 999999 999999 999999 999999 999999 999999 999999 999999 999999 999999 999999 999999 999999 999999 999999 999999 999999 999999 999999 999999 999999 999999 999999 999999 999999 999999 999999 999999 999999 999999 999999 999999 999999 999999 999999 999999 0 999999 999999 999999 999999 999999 999999 999999 999999 999999 999999 999999 999999 999999 999999 999999 999999 999999 999999 999999 999999 999999 999999 999999 999999 999999 999999 999999 999999 999999 999999 999999 999999 999999 999999 999999 999999 999999 18071 14227 16595 16346 16422 13714 16592 13121 19898 19631 14169 12111 15289 14194 11032 18865 16601 10195 18467 16422 14051 18402 14231 11235 18097 10042 13380 11790 19722 17789 19003 14617 12579 10767 19031 12110 16992 14726 10936 14087 12796 19557 16468 18366 11200 16941 18957 16974 14779 17543 17111 18662 15778 14266 13279 10100 19801 13454 18605 16516 16506 14286 17493 15440 19647 19500 17256 14811 18320 18524 13787 11709 10089 11093 10070 12691 19526 11724 14006 17587 10113 19752 19740 18669 13122 15341 19456 17707 15233 13383 12031 19599 11872 12558 13754 14326 12963 14666 16497 12888 15320 17929 14542 15495 10633 11314 19630 12285 11771 13052 18452 10834 18108 13882 15191 16333 13021 19637 18088 12134 13804 16338 18550 14575 14546 17799 14779 17675 10285 16072 12048 16512 13833 14936 19128 14521 11719 17979 15701 11566 10300 19589 11780 11646 19373 19148 13905 11122 13982 18265 17745 15589 17417 16236 16683 10342 12376 19737 17670 17442 999999
999999 999999 999999 999999 999999 999999 999999 999999 999999 999999 999999 999999 999999 999999 999999 999999 999999 999999 999999 999999 999999 999999 999999 999999 999999 999999 999999 999999 999999 999999 999999 999999 999999 999999 999999 999999 999999 999999 999999 999999 999999 999999 999999 999999 999999 999999 999999 999999 999999 999999 999999 999999 999999 999999 999999 999999 999999 999999 999999 999999 999999 999999 999999 999999 999999 999999 999999 999999 999999 999999 999999 999999 999999 999999 999999 999999 999999 999999 999999 999999 999999 999999 999999 999999 999999 999999 999999 999999 999999 999999 999999 999999 999999 999999 999999 999999 999999 999999 999999 999999 999999 999999 999999 999999 999999 999999 999999 999999 999999 999999 999999 999999 999999 999999 999999 999999 999999 999999 999999 999999 999999 999999 999999 999999 0 999999 999999 999999 999999 999999 999999 999999 999999 999999 999999 999999 999999 999999 999999 999999 999999 999999 999999 999999 999999 999999 999999 999999 999999 999999 999999 999999 999999 999999 999999 999999 999999 999999 999999 999999 999999 10278 10272 11911 18597 16762 16874 19300 18756 17077 18199 13663 19375 18625 10147 13688 18030 12784 18367 18714 11035 17594 11108 18563 13485 11846 10878 11141 18058 15081 18970 16520 14069 19362 17930 17435 11865 16217 17595 11577 19405 18075 13945 18311 16668 11979 10842 14914 19427 16886 14826 15274 14035 15730 12341 17316 14167 10292 17402 19566 14439 12005 10290 18277 18579 10340 19606 15176 19544 13241 15398 13371 13394 16911 13165 12940 12175 16858 11371 13818 19947 13308 10565 13907 11938 17785 14563 11316 13174 11938 17603 11898 10711 17132 10157 11905 12635 15227 18913 10431 18388 12736 11827 14371 13516 15122 13777 11582 14347 15048 16793 16738 12023 16969 15066 13698 11739 16498 10665 14340 17988 12290 18823 15872 19677 16198 12584 19346 18689 10584 10843 11520 16464 11129 14826 11095 12151 12013 17814 12359 16960 14335 16511 14098 13722 18425 10951 15801 15453 10598 13839 15397 11805 16171 19350 10274 18528 14146 16790 13233 15445 999999
999999 999999 999999 999999 999999 999999 999999 999999 999999 999999 999999 999999 999999 999999 999999 999999 999999 999999 999999 999999 999999 999999 999999 999999 999999 999999 999999 999999 999999 999999 999999 999999 999999 999999 999999 999999 999999 999999 999999 999999 999999 999999 999999 999999 999999 999999 999999 999999 999999 999999 999999 999999 999999 999999 999999 999999 999999 999999 999999 999999 999999 999999 999999 999999 999999 999999 999999 999999 999999 999999 999999 999999 999999 999999 999999 999999 999999 999999 999999 999999 999999 999999 999999 999999 999999 999999 999999 999999 999999 999999 999999 999999 999999 999999 999999 999999 999999 999999 999999 999999 999999 999999 999999 999999 999999 999999 999999 999999 999999 999999 999999 999999 999999 999999 999999 999999 999999 999999 999999 999999 999999 999999 999999 999999 999999 0 999999 999999 999999 999999 999999 999999 999999 999999 999999 999999 999999 999999 999999 999999 999999 999999 999999 999999 999999 999999 999999 999999 999999 999999 999999 999999 999999 999999 999999 999999 999999 999999 999999 999999 999999 15940 14919 16796 10470 10012 13923 13706 13634 14330 16186 13362 12756 17099 15524 10624 16363 16563 11874 19941 15119 10074 19436 16219 19024 10373 12235 17732 10802 15174 13798 13751 17604 16708 11481 14324 10468 14845 16534 14970 17543 11733 19829 12200 15724 19380 19608 13350 17102 14480 12205 15918 16176 13658 12563 11739 15757 11126 11528 11741 14656 11120 10721 15659 12114 16937 13565 17280 12343 17216 12853 19829 15355 11462 16678 19554 15012 12528 10291 17205 17127 12969 11712 19616 16994 15163 15805 10765 10044 17539 18431 15010 17043 19059 10118 15772 15940 18201 15011 16691 15076 15518 18391 14956 12257 19092 15655 19223 14894 13439 12902 19750 13669 16970 19177 19473 15905 15097 17020 17438 15417 12495 11756 17977 13197 11599 10115 18904 15390 17155 10365 16166 11092 10487 17433 13185 18608 11004 12675 11320 19436 18991 10345 13472 13215 11649 14615 12984 12783 19972 13147 16930 10178 19647 12353 18345 17998 14194 13848 12453 14141 999999
999999 999999 999999 999999 999999 999999 999999 999999 999999 999999 999999 999999 999999 999999 999999 999999 999999 999999 999999 999999 999999 999999 999999 999999 999999 999999 999999 999999 999999 999999 999999 999999 999999 999999 999999 999999 999999 999999 999999 999999 999999 999999 999999 999999 999999 999999 999999 999999 999999 999999 999999 999999 999999 999999 999999 999999 999999 999999 999999 999999 999999 999999 999999 999999 999999 999999 999999 999999 999999 999999 999999 999999 999999 999999 999999 999999 999999 999999 999999 999999 999999 999999 999999 999999 999999 999999 999999 999999 999999 999999 999999 999999 999999 999999 999999 999999 999999 999999 999999 999999 999999 999999 999999 999999 999999 999999 999999 999999 999999 999999 999999 999999 999999 999999 999999 999999 999999 999999 999999 999999 999999 999999 999999 999999 999999 999999 0 999999 999999 999999 999999 999999 999999 999999 999999 999999 999999 999999 999999 999999 999999 999999 999999 999999 999999 999999 999999 999999 999999 999999 999999 999999 999999 999999 999999 999999 999999 999999 999999 999999 999999 12714 15905 13129 13366 10475 10982 10211 19152 13400 17928 10326 10197 11494 12801 11765 12184 15778 15484 17385 11994 12203 10620 12448 13870 19765 17064 13406 19638 15375 13392 15144 13939 19744 17697 11934 11677 19307 11057 17684 13709 10799 14693 14979 10245 11525 18130 11636 11834 15143 14935 11920 17015 13962 17097 17075 16857 20000 14464 18814 17298 13129 17316 16354 19275 17527 19515 13719 19914 14417 16379 10153 11652 11197 14109 12780 19987 13531 17753 12856 10814 10936 18298 18471 18610 10685 13710 18142 13473 14918 18802 19131 17374 13379 11157 19370 10274 11298 12127 18410 17748 17317 11280 12911 13054 13408 17367 10999 12703 11887 15781 13078 18681 10169 10262 12670 13638 18907 17609 19506 12682 14553 16423 18281 18023 14131 16107 19668 19409 15785 17837 16872 14659 11344 19148 10293 15092 13572 13287 14722 13481 14709 18091 14913 10511 18910 11044 13832 19957 13248 18089 19136 15832 15296 12855 16375 17098 17318 12702 17332 17635 999999
999999 999999 999999 999999 999999 999999 999999 999999 999999 999999 999999 999999 999999 999999 999999 999999 999999 999999 999999 999999 999999 999999 999999 999999 999999 999999 999999 999999 999999 999999 999999 999999 999999 999999 999999 999999 999999 999999 999999 999999 999999 999999 999999 999999 999999 999999 999999 999999 999999 999999 999999 999999 999999 999999 999999 999999 999999 999999 999999 999999 999999 999999 999999 999999 999999 999999 999999 999999 999999 999999 999999 999999 999999 999999 999999 999999 999999 999999 999999 999999 999999 999999 999999 999999 999999 999999 999999 999999 999999 999999 999999 999999 999999 999999 999999 999999 999999 999999 999999 999999 999999 999999 999999 999999 999999 999999 999999 999999 999999 999999 999999 999999 999999 999999 999999 999999 999999 999999 999999 999999 999999 999999 999999 999999 999999 999999 999999 0 999999 999999 999999 999999 999999 999999 999999 999999 999999 999999 999999 999999 999999 999999 999999 999999 999999 999999 999999 999999 999999 999999 999999 999999 999999 999999 999999 999999 999999 999999 999999 999999 999999 17224 19613 11606 13182 11265 10013 12681 16407 11340 19182 18101 12944 12818 17388 16173 11958 12413 18566 16631 14480 19284 19100 17621 10185 17709 18807 19968 10669 19719 15725 15104 15866 15598 14004 12604 14978 13712 10163 16596 15213 18693 15714 18857 16209 13073 16902 15339 19079 18232 17355 17148 16393 19575 17325 12321 14820 19315 18327 16964 19614 12089 16147 17623 14974 17512 19265 14720 10692 19216 11670 16458 19080 12595 11874 10218 14416 12298 16967 14959 14800 18649 13705 11071 16018 16556 15663 18329 14760 13715 16684 18693 11142 12105 14313 14505 15776 16001 12712 17917 16742 19323 14254 18774 18546 12571 18258 11352 11403 17045 15151 17418 10590 17516 15103 14802 19536 12261 17506 13580 19068 10635 12298 10795 19080 13089 12155 10465 14110 13793 16611 18802 18445 10771 10407 19878 14915 15339 17547 12162 12645 18766 16440 13099 18650 17297 14463 17196 15132 19318 10904 17633 14523 10556 19057 11137 18691 14174 16302 19913 12599 999999
999999 999999 999999 999999 999999 999999 999999 999999 999999 999999 999999 999999 999999 999999 999999 999999 999999 999999 999999 999999 999999 999999 999999 999999 999999 999999 999999 999999 999999 999999 999999 999999 999999 999999 999999 999999 999999 999999 999999 999999 999999 999999 999999 999999 999999 999999 999999 999999 999999 999999 999999 999999 999999 999999 999999 999999 999999 999999 999999 999999 999999 999999 999999 999999 999999 999999 999999 999999 999999 999999 999999 999999 999999 999999 999999 999999 999999 999999 999999 999999 999999 999999 999999 999999 999999 999999 999999 999999 999999 999999 999999 999999 999999 999999 999999 999999 999999 999999 999999 999999 999999 999999 999999 999999 999999 999999 999999 999999 999999 999999 999999 999999 999999 999999 999999 999999 999999 999999 999999 999999 999999 999999 999999 999999 999999 999999 999999 999999 0 999999 999999 999999 999999 999999 999999 999999 999999 999999 999999 999999 999999 999999 999999 999999 999999 999999 999999 999999 999999 999999 999999 999999 999999 999999 999999 999999 999999 999999 999999 999999 999999 12076 16567 17934 12749 10045 16892 11461 13567 14827 16890 18803 11675 12894 10798 12020 14840 12673 11981 19345 18573 18730 19637 16333 14652 10433 19239 15410 20000 11507 10552 14795 12082 13609 13268 10698 19460 19089 19815 13486 13547 17467 16289 16793 12438 12573 13340 17160 19650 13726 14318 13957 16399 17476 18556 10705 17603 15720 18115 16990 13808 11404 15259 15049 17269 17159 12327 10587 17027 14715 16716 18137 10569 11985 11232 14910 19658 18597 14084 11983 11765 14249 19315 18094 11898 11936 19880 17270 16818 11005 14491 11122 18464 14168 13483 11936 17790 13406 14462 16556 15894 14306 15227 11287 15520 18369 17487 14772 14742 18505 19216 14066 13825 14787 12569 17076 11490 17338 16173 18903 12508 12582 12931 18746 10404 14836 12328 18157 19513 12365 14290 12476 19193 12892 15208 12007 10732 14434 13950 16917 15206 13743 15368 14202 10408 14810 19843 19291 19938 16512 13272 18909 11932 15752 12911 11860 14386 16553 14006 16272 19468 999999
999999 999999 999999 999999 999999 999999 999999 999999 999999 999999 999999 999999 999999 999999 999999 999999 999999 999999 999999 999999 999999 999999 999999 999999 999999 999999 999999 999999 999999 999999 999999 999999 999999 999999 999999 999999 999999 999999 999999 999999 999999 999999 999999 999999 999999 999999 999999 999999 999999 999999 999999 999999 999999 999999 999999 999999 999999 999999 999999 999999 999999 999999 999999 999999 999999 999999 999999 999999 999999 999999 999999 999999 999999 999999 999999 999999 999999 999999 999999 999999 999999 999999 999999 999999 999999 999999 999999 999999 999999 999999 999999 999999 999999 999999 999999 999999 999999 999999 999999 999999 999999 999999 999999 999999 999999 999999 999999 999999 999999 999999 999999 999999 999999 999999 999999 999999 999999 999999 999999 999999 999999 999999 999999 999999 999999 999999 999999 999999 999999 0 999999 999999 999999 999999 999999 999999 999999 999999 999999 999999 999999 999999 999999 999999 999999 999999 999999 999999 999999 999999 999999 999999 999999 999999 999999 999999 999999 999999 999999 999999 999999 19503 14597 15500 13919 13019 18710 18603 15801 16482 16289 19713 13286 13180 16006 19608 11179 15750 18275 16865 11416 11787 16694 15971 14715 18553 14060 16076 18279 18166 18364 16269 10644 16024 16635 14325 18500 19144 12447 14615 11320 16158 18368 13508 14729 14933 17584 15769 12060 16811 16706 14470 16542 18428 15447 13827 16676 14147 15887 10663 14950 15919 15989 19460 19725 13009 17886 14125 17002 17575 14217 11040 13973 14163 11012 13496 12821 12020 12502 11461 18914 19297 10340 16467 19737 13304 18472 13518 14381 12009 12412 10462 19620 19165 11942 10041 10080 13438 12832 16951 10384 16581 14021 16934 19810 14398 12701 14515 18347 12154 13319 14313 17759 16586 18411 17919 10697 14767 11893 13147 14729 18436 17139 18405 13119 11823 15014 14330 15821 16736 16657 15615 19445 15053 14630 10625 19629 16409 10041 14162 18581 18401 16873 10990 13301 12821 16272 16905 13895 19574 15096 13997 12530 13810 18130 19221 10003 16694 10373 15412 11025 999999
999999 999999 999999 999999 999999 999999 999999 999999 999999 999999 999999 999999 999999 999999 999999 999999 999999 999999 999999 999999 999999 999999 999999 999999 999999 999999 999999 999999 999999 999999 999999 999999 999999 999999 999999 999999 999999 999999 999999 999999 999999 999999 999999 999999 999999 999999 999999 999999 999999 999999 999999 999999 999999 999999 999999 999999 999999 999999 999999 999999 999999 999999 999999 999999 999999 999999 999999 999999 999999 999999 999999 999999 999999 999999 999999 999999 999999 999999 999999 999999 999999 999999 999999 999999 999999 999999 999999 999999 999999 999999 999999 999999 999999 999999 999999 999999 999999 999999 999999 999999 999999 999999 999999 999999 999999 999999 999999 999999 999999 999999 999999 999999 999999 999999 999999 999999 999999 999999 999999 999999 999999 999999 999999 999999 999999 999999 999999 999999 999999 999999 0 999999 999999 999999 999999 999999 999999 999999 999999 999999 999999 999999 999999 999999 999999 999999 999999 999999 999999 999999 999999 999999 999999 999999 999999 999999 999999 999999 999999 999999 999999 19130 18002 16604 14053 13120 15859 13030 18884 11112 16623 16177 11362 18870 16651 18104 16441 13092 11342 18881 19010 17338 11555 14811 10137 15546 15958 13703 19717 13383 16285 11738 14890 10240 15105 19334 17553 16900 11978 10311 10633 17731 13535 15727 14468 18528 11266 16789 10885 16494 12977 16764 19544 19536 13622 14523 19426 13407 11753 14480 16332 19189 11291 16648 14295 11715 10135 14156 16812 17102 11464 13945 11010 10602 14084 14480 12329 16322 18364 10253 17293 13667 10415 13722 15853 13301 19493 10679 12366 18557 19647 17254 13358 17505 14450 19073 15457 12143 14274 18986 19477 16992 11219 11816 14132 17383 13439 13263 17934 17810 14988 17065 14690 16128 17409 19827 14104 13667 11831 14661 16903 12889 14498 14276 16664 15678 10934 14931 12582 11459 13433 16016 11237 13898 11073 19861 15045 12440 15246 11873 18966 16396 18934 18697 14012 11161 18461 14683 15374 13991 19200 17682 11503 19373 13349 17449 15693 14782 10754 15685 13575 999999
999999 999999 999999 999999 999999 999999 999999 999999 999999 999999 999999 999999 999999 999999 999999 999999 999999 999999 999999 999999 999999 999999 999999 999999 999999 999999 999999 999999 999999 999999 999999 999999 999999 999999 999999 999999 999999 999999 999999 999999 999999 999999 999999 999999 999999 999999 999999 999999 999999 999999 999999 999999 999999 999999 999999 999999 999999 999999 999999 999999 999999 999999 999999 999999 999999 999999 999999 999999 999999 999999 999999 999999 999999 999999 999999 999999 999999 999999 999999 999999 999999 999999 999999 999999 999999 999999 999999 999999 999999 999999 999999 999999 999999 999999 999999 999999 999999 999999 999999 999999 999999 999999 999999 999999 999999 999999 999999 999999 999999 999999 999999 999999 999999 999999 999999 999999 999999 999999 999999 999999 999999 999999 999999 999999 999999 999999 999999 999999 999999 999999 999999 0 999999 999999 999999 999999 999999 999999 999999 999999 999999 999999 999999 999999 999999 999999 999999 999999 999999 999999 999999 999999 999999 999999 999999 999999 999999 999999 999999 999999 999999 13666 11162 14336 10481 17144 12374 14762 13316 19361 10821 14404 16081 15444 17583 15848 19983 14508 17792 12337 11572 13040 19611 15516 17740 15404 18582 15182 15265 18110 12397 14974 18201 18451 18879 11575 19833 11868 18191 17654 13527 17377 11226 14666 15319 14545 14017 13405 13263 13714 13139 15365 17086 16258 13727 18745 16297 19137 11820 12358 16205 13765 13549 19494 10735 19854 19905 15059 12796 12014 13296 18373 13351 12151 15412 12212 19725 18175 15119 19240 17177 13822 18780 17938 14223 13490 11529 19056 11012 13106 19243 11031 15541 11961 16523 10903 19748 16803 10890 14034 13082 11470 19168 10158 15030 15190 16358 12957 17166 18452 13868 11941 19821 18365 15747 19484 12651 15065 11938 10163 11961 13472 19146 15940 19874 12673 10490 16476 12631 11070 11696 17666 16049 13332 14786 17529 15848 17183 17632 11781 12672 15764 10653 19478 18579 15452 16299 18363 13051 19447 16367 17730 11728 11944 15744 15362 16396 19493 10869 16244 14876 999999
999999 999999 999999 999999 999999 999999 999999 999999 999999 999999 999999 999999 999999 999999 999999 999999 999999 999999 999999 999999 999999 999999 999999 999999 999999 999999 999999 999999 999999 999999 999999 999999 999999 999999 999999 999999 999999 999999 999999 999999 999999 999999 999999 999999 999999 999999 999999 999999 999999 999999 999999 999999 999999 999999 999999 999999 999999 999999 999999 999999 999999 999999 999999 999999 999999 999999 999999 999999 999999 999999 999999 999999 999999 999999 999999 999999 999999 999999 999999 999999 999999 999999 999999 999999 999999 999999 999999 999999 999999 999999 999999 999999 999999 999999 999999 999999 999999 999999 999999 999999 999999 999999 999999 999999 999999 999999 999999 999999 999999 999999 999999 999999 999999 999999 999999 999999 999999 999999 999999 999999 999999 999999 999999 999999 999999 999999 999999 999999 999999 999999 999999 999999 0 999999 999999 999999 999999 999999 999999 999999 999999 999999 999999 999999 999999 999999 999999 999999 999999 999999 999999 999999 999999 999999 999999 999999 999999 999999 999999 999999 999999 14373 11510 17607 11053 13636 15694 12155 10253 19057 18817 14505 15325 14293 11762 18800 10213 18094 17936 14838 11208 14177 10308 10547 16281 14879 10365 17881 16239 14083 16680 11717 10397 17678 18897 18246 14847 16038 19564 11750 10105 16845 15713 17107 13219 17772 16240 14928 16787 13499 16231 14961 19766 15776 15177 13868 19537 12453 18279 13984 10691 11748 10361 11027 15069 12718 10846 16645 12139 15230 19478 19409 13087 12069 16731 14508 16274 10454 10210 17163 13193 12192 17540 19280 11167 18015 13690 17157 10105 18213 16503 19838 13274 16035 19315 14385 19833 19110 17026 10500 15311 13452 10749 18370 14045 16313 17879 19161 19602 12230 16544 10654 11313 10948 14608 17976 14025 18476 13735 10040 13140 16816 19526 10031 13998 10427 12694 12003 18788 11687 18808 14854 12503 18123 13288 16705 14345 13550 17130 12689 17631 14342 12601 10568 19629 16942 19992 13026 17445 15789 17494 16983 10473 18132 11143 14144 19317 16316 17093 18754 16093 999999
999999 999999 999999 999999 999999 999999 999999 999999 999999 999999 999999 999999 999999 999999 999999 999999 999999 999999 999999 999999 999999 999999 999999 999999 999999 999999 999999 999999 999999 999999 999999 999999 999999 999999 999999 999999 999999 999999 999999 999999 999999 999999 999999 999999 999999 999999 999999 999999 999999 999999 999999 999999 999999 999999 999999 999999 999999 999999 999999 999999 999999 999999 999999 999999 999999 999999 999999 999999 999999 999999 999999 999999 999999 999999 999999 999999 999999 999999 999999 999999 999999 999999 999999 999999 999999 999999 999999 999999 999999 999999 999999 999999 999999 999999 999999 999999 999999 999999 999999 999999 999999 999999 999999 999999 999999 999999 999999 999999 999999 999999 999999 999999 999999 999999 999999 999999 999999 999999 999999 999999 999999 999999 999999 999999 999999 999999 999999 999999 999999 999999 999999 999999 999999 0 999999 999999 999999 999999 999999 999999 999999 999999 999999 999999 999999 999999 999999 999999 999999 999999 999999 999999 999999 999999 999999 999999 999999 999999 999999 999999 999999 12128 13885 19727 18038 14978 14556 13721 13086 14680 14617 12345 12700 14208 11507 12372 11604 10096 17432 13239 14094 15208 10774 12638 19210 17069 19139 13472 10568 19918 15290 11059 18545 19448 18789 13114 18394 16083 14673 17903 14688 15577 18940 18406 16712 11923 17880 11727 11293 10495 12327 13391 10382 10121 13620 15846 13583 11034 14610 10263 14290 16409 16311 18458 17078 13550 15687 13116 11691 19537 17078 16914 18023 17504 14123 16945 19239 18397 16513 18758 16864 16730 18861 16155 18321 18058 12315 10326 16785 16617 15756 14518 14867 11695 10211 18438 14081 10257 19560 11656 17394 12830 15445 16277 15891 16201 16318 18676 18164 12089 17670 14675 14263 11521 19874 10795 18151 14916 13187 11292 12573 15798 15162 19142 15732 17076 15763 18205 16002 10683 15708 12772 16902 18555 17361 16402 13121 12545 13765 17984 17975 17676 12547 18748 13107 14388 17071 18569 19427 18811 16612 16791 17208 16677 13254 19923 11513 11566 16395 18420 16788 999999
999999 999999 999999 999999 999999 999999 999999 999999 999999 999999 999999 999999 999999 999999 999999 999999 999999 999999 999999 999999 999999 999999 999999 999999 999999 999999 999999 999999 999999 999999 999999 999999 999999 999999 999999 999999 999999 999999 999999 999999 999999 999999 999999 999999 999999 999999 999999 999999 999999 999999 999999 999999 999999 999999 999999 999999 999999 999999 999999 999999 999999 999999 999999 999999 999999 999999 999999 999999 999999 999999 999999 999999 999999 999999 999999 999999 999999 999999 999999 999999 999999 999999 999999 999999 999999 999999 999999 999999 999999 999999 999999 999999 999999 999999 999999 999999 999999 999999 999999 999999 999999 999999 999999 999999 999999 999999 999999 999999 999999 999999 999999 999999 999999 999999 999999 999999 999999 999999 999999 999999 999999 999999 999999 999999 999999 999999 999999 999999 999999 999999 999999 999999 999999 999999 0 999999 999999 999999 999999 999999 999999 999999 999999 999999 999999 999999 999999 999999 999999 999999 999999 999999 999999 999999 999999 999999 999999 999999 999999 999999 999999 14961 10906 10844 17000 10901 11121 14716 17008 15745 18425 11771 14137 10181 13129 17288 10831 12841 11134 18309 13612 14850 16414 13777 10078 19506 18947 18189 16872 15582 17828 18857 15355 18566 13116 15712 18697 16317 10812 12503 19463 17649 18994 14000 17277 12097 10050 16089 16222 11812 18853 12448 19734 11252 18005 10884 14443 14230 10668 17326 17657 10059 18770 11678 16964 17156 16479 12140 12060 14293 18487 18079 19937 19001 15759 18789 13667 15884 11039 16602 19147 19076 18200 14357 15244 11708 17013 16722 19296 14700 18568 14427 13698 12798 11248 17754 10492 11016 17537 11488 13225 16025 15444 16683 16468 15983 18717 12981 12426 10286 19704 18377 19641 15897 19760 13796 10501 11806 17638 15203 15605 15555 16810 16861 15722 16420 13154 12723 11760 11611 13312 19044 15713 14063 18093 11048 12209 19817 10146 12883 19918 12606 15769 12544 19048 11836 17534 19917 14804 16297 13886 10479 18069 16621 13677 14294 18091 16848 15958 16819 13255 999999
999999 999999 999999 999999 999999 999999 999999 999999 999999 999999 999999 999999 999999 999999 999999 999999 999999 999999 999999 999999 999999 999999 999999 999999 999999 999999 999999 999999 999999 999999 999999 999999 999999 999999 999999 999999 999999 999999 999999 999999 999999 999999 999999 999999 999999 999999 999999 999999 999999 999999 999999 999999 999999 999999 999999 999999 999999 999999 999999 999999 999999 999999 999999 999999 999999 999999 999999 999999 999999 999999 999999 999999 999999 999999 999999 999999 999999 999999 999999 999999 999999 999999 999999 999999 999999 999999 999999 999999 999999 999999 999999 999999 999999 999999 999999 999999 999999 999999 999999 999999 999999 999999 999999 999999 999999 999999 999999 999999 999999 999999 999999 999999 999999 999999 999999 999999 999999 999999 999999 999999 999999 999999 999999 999999 999999 999999 999999 999999 999999 999999 999999 999999 999999 999999 999999 0 999999 999999 999999 999999 999999 999999 999999 999999 999999 999999 999999 999999 999999 999999 999999 999999 999999 999999 999999 999999 999999 999999 999999 999999 999999 18314 16538 17090 15058 12977 18808 11004 17591 10701 18210 17866 10863 19846 17996 14613 10599 19268 13364 12208 15605 13793 12203 17371 10115 12249 16352 18441 19038 16654 15605 14680 10779 19163 11753 19584 14706 16539 12074 18851 13945 15385 11069 18033 16541 15955 14299 18991 16374 19059 10057 14778 15394 14973 19128 15013 12474 16292 18574 12909 17698 19091 10706 15324 19567 19369 18724 18466 18459 13895 18136 12152 16941 18853 17609 12764 14077 16681 16253 10364 19252 19515 15849 10566 16349 15196 12158 15479 11525 13517 14535 14323 18968 16489 10885 14423 17625 14414 18040 13520 11808 19148 16708 11307 19213 13859 10388 15323 11082 19946 10172 14004 12063 15658 17775 14047 17362 10250 12529 11885 14079 15022 16402 10906 18898 14954 12854 14241 18538 12504 16427 19032 13943 14803 16409 10642 18215 10625 12068 13991 12245 17990 19796 18878 12804 15125 10807 17923 18394 16752 15282 15569 10211 11727 16114 13927 17428 19511 11363 12833 10628 999999
999999 999999 999999 999999 999999 999999 999999 999999 999999 999999 999999 999999 999999 999999 999999 999999 999999 999999 999999 999999 999999 999999 999999 999999 999999 999999 999999 999999 999999 999999 999999 999999 999999 999999 999999 999999 999999 999999 999999 999999 999999 999999 999999 999999 999999 999999 999999 999999 999999 999999 999999 999999 999999 999999 999999 999999 999999 999999 999999 999999 999999 999999 999999 999999 999999 999999 999999 999999 999999 999999 999999 999999 999999 999999 999999 999999 999999 999999 999999 999999 999999 999999 999999 999999 999999 999999 999999 999999 999999 999999 999999 999999 999999 999999 999999 999999 999999 999999 999999 999999 999999 999999 999999 999999 999999 999999 999999 999999 999999 999999 999999 999999 999999 999999 999999 999999 999999 999999 999999 999999 999999 999999 999999 999999 999999 999999 999999 999999 999999 999999 999999 999999 999999 999999 999999 999999 0 999999 999999 999999 999999 999999 999999 999999 999999 999999 999999 999999 999999 999999 999999 999999 999999 999999 999999 999999 999999 999999 999999 999999 999999 16715 17787 19546 10994 14662 16803 10736 13190 15811 15888 12717 17758 14710 19075 13364 12449 17338 18264 17885 13277 15233 18951 11754 17887 13297 12987 17793 10336 14281 16307 10201 17871 15238 17677 13523 15807 12167 13984 15741 18093 17718 17089 14866 10164 14505 14727 13411 14780 10389 13527 18064 11017 17693 11056 19357 17255 18087 17096 15787 11823 19321 18610 11562 10049 14743 11136 13359 10006 18263 15964 15928 13830 19545 14980 14339 19007 15028 18845 13018 15421 13547 19005 19746 11558 19350 14818 13128 15858 13793 12752 12434 19751 19024 14203 10505 17553 18521 18674 13821 13484 10692 17620 18983 10459 16177 16355 14632 13661 11944 16321 16814 14655 17665 19850 12897 11626 19187 18173 12904 19270 14899 10359 10167 18462 11214 11987 16622 10270 13138 10243 13612 11548 18551 11512 10775 15041 15642 10788 14228 18755 14784 17005 19965 10681 17466 12306 17172 13483 14187 16802 18691 17027 11767 16014 18178 10193 13979 16131 16709 16102 999999
999999 999999 999999 999999 999999 999999 999999 999999 999999 999999 999999 999999 999999 999999 999999 999999 999999 999999 999999 999999 999999 999999 999999 999999 999999 999999 999999 999999 999999 999999 999999 999999 999999 999999 999999 999999 999999 999999 999999 999999 999999 999999 999999 999999 999999 999999 999999 999999 999999 999999 999999 999999 999999 999999 999999 999999 999999 999999 999999 999999 999999 999999 999999 999999 999999 999999 999999 999999 999999 999999 999999 999999 999999 999999 999999 999999 999999 999999 999999 999999 999999 999999 999999 999999 999999 999999 999999 999999 999999 999999 999999 999999 999999 999999 999999 999999 999999 999999 999999 999999 999999 999999 999999 999999 999999 999999 999999 999999 999999 999999 999999 999999 999999 999999 999999 999999 999999 999999 999999 999999 999999 999999 999999 999999 999999 999999 999999 999999 999999 999999 999999 999999 999999 999999 999999 999999 999999 0 999999 999999 999999 999999 999999 999999 999999 999999 999999 999999 999999 999999 999999 999999 999999 999999 999999 999999 999999 999999 999999 999999 999999 13556 13622 13929 11020 13076 16009 15133 14819 10902 18994 19696 12011 10531 13319 18934 18125 16904 19250 15757 15262 13112 14758 15655 14582 17378 11209 12923 11220 16738 12210 13760 11969 12439 12485 15337 15255 14023 18714 10508 17772 14683 12262 14829 16591 16691 19886 17696 17338 11899 14855 11047 14817 14984 19751 17832 18864 12714 10497 11820 13688 18860 16080 18315 17233 12554 14793 12051 19878 19658 13855 18891 13299 16142 19964 11563 11989 11111 14804 18230 19906 17382 11590 14180 16368 11362 16329 18049 17321 17889 11037 14291 11567 14809 10813 18930 12078 10292 17254 16761 18159 16146 10569 10578 12696 11604 14016 16054 11305 10690 14068 15960 16393 18179 11415 14922 10196 19855 13543 10128 17639 16722 15614 18218 10177 10653 12553 10707 14442 10976 10111 15372 17047 17291 13433 15092 17168 18513 18332 15237 10502 18167 18015 11750 13593 11014 17933 10005 15054 19733 10010 12693 11399 11584 12504 16866 16762 19400 18102 17094 15618 999999
999999 999999 999999 999999 999999 999999 999999 999999 999999 999999 999999 999999 999999 999999 999999 999999 999999 999999 999999 999999 999999 999999 999999 999999 999999 999999 999999 999999 999999 999999 999999 999999 999999 999999 999999 999999 999999 999999 999999 999999 999999 999999 999999 999999 999999 999999 999999 999999 999999 999999 999999 999999 999999 999999 999999 999999 999999 999999 999999 999999 999999 999999 999999 999999 999999 999999 999999 999999 999999 999999 999999 999999 999999 999999 999999 999999 999999 999999 999999 999999 999999 999999 999999 999999 999999 999999 999999 999999 999999 999999 999999 999999 999999 999999 999999 999999 999999 999999 999999 999999 999999 999999 999999 999999 999999 999999 999999 999999 999999 999999 999999 999999 999999 999999 999999 999999 999999 999999 999999 999999 999999 999999 999999 999999 999999 999999 999999 999999 999999 999999 999999 999999 999999 999999 999999 999999 999999 999999 0 999999 999999 999999 999999 999999 999999 999999 999999 999999 999999 999999 999999 999999 999999 999999 999999 999999 999999 999999 999999 999999 999999 19660 16820 15525 12283 11582 17118 16108 14974 11054 18910 14429 11591 15833 19528 15556 10775 15703 10965 13819 15501 16577 16015 18427 14531 15262 17952 13095 10414 17916 16505 12376 10464 10766 16508 10807 17237 14542 15495 15126 14801 15713 11240 19158 18980 11247 11200 18662 18123 12877 17290 18321 16280 18840 16193 12270 15869 12859 11780 16302 14058 19175 10594 17336 13720 19634 17828 16143 12304 14413 11374 15472 18529 13190 17649 11670 19760 19268 15029 16813 19284 13317 10124 10831 18347 14303 12414 11874 13204 14175 13030 18211 13568 15471 16667 13069 18104 18032 18108 13878 11685 11794 16417 19237 12624 14515 10027 19854 12831 12817 10838 10490 10043 14570 11985 12325 17222 11395 14634 17782 16806 14047 19066 15820 15737 11221 13334 15768 11264 18272 11618 19583 10750 18222 18278 14752 19143 11649 19659 13467 12889 12634 16991 18593 18362 19268 17438 19587 18280 18183 11643 18245 19740 17003 14336 17865 18642 17595 13523 12978 11264 999999
999999 999999 999999 999999 999999 999999 999999 999999 999999 999999 999999 999999 999999 999999 999999 999999 999999 999999 999999 999999 999999 999999 999999 999999 999999 999999 999999 999999 999999 999999 999999 999999 999999 999999 999999 999999 999999 999999 999999 999999 999999 999999 999999 999999 999999 999999 999999 999999 999999 999999 999999 999999 999999 999999 999999 999999 999999 999999 999999 999999 999999 999999 999999 999999 999999 999999 999999 999999 999999 999999 999999 999999 999999 999999 999999 999999 999999 999999 999999 999999 999999 999999 999999 999999 999999 999999 999999 999999 999999 999999 999999 999999 999999 999999 999999 999999 999999 999999 999999 999999 999999 999999 999999 999999 999999 999999 999999 999999 999999 999999 999999 999999 999999 999999 999999 999999 999999 999999 999999 999999 999999 999999 999999 999999 999999 999999 999999 999999 999999 999999 999999 999999 999999 999999 999999 999999 999999 999999 999999 0 999999 999999 999999 999999 999999 999999 999999 999999 999999 999999 999999 999999 999999 999999 999999 999999 999999 999999 999999 999999 999999 18991 10091 13500 11278 18623 15945 15626 12416 14122 16698 19823 10108 19671 15048 17059 18589 11846 16442 10187 10010 18553 17915 14240 18293 19358 19719 14529 19882 10052 13332 13592 14021 16160 14924 14050 17909 15877 18971 18806 11269 12275 17465 15937 17364 19333 12500 17786 17419 16092 12949 17560 14546 16319 18695 13308 18651 13871 11947 16625 16985 16933 13427 13093 12809 19191 12247 14965 13298 18380 15662 12596 19602 12124 17292 14359 14614 12011 17101 10258 16853 12197 15253 13024 15992 18268 16198 16260 19454 16265 14877 13329 10514 11792 17414 11349 12944 15810 12026 16317 16391 18211 19598 13627 13380 10633 19956 12180 12293 11632 13593 18039 18778 17999 11767 19871 14375 14363 14764 13286 12468 17613 14641 13042 15197 18875 10462 16922 14833 13536 11666 15147 13435 14083 16289 19291 11533 16199 11654 11362 11125 18096 18093 15063 13261 16131 17103 15083 17924 11264 18286 11628 14840 14280 10038 19544 12972 14026 17473 11733 11184 999999
999999 999999 999999 999999 999999 999999 999999 999999 999999 999999 999999 999999 999999 999999 999999 999999 999999 999999 999999 999999 999999 999999 999999 999999 999999 999999 999999 999999 999999 999999 999999 999999 999999 999999 999999 999999 999999 999999 999999 999999 999999 999999 999999 999999 999999 999999 999999 999999 999999 999999 999999 999999 999999 999999 999999 999999 999999 999999 999999 999999 999999 999999 999999 999999 999999 999999 999999 999999 999999 999999 999999 999999 999999 999999 999999 999999 999999 999999 999999 999999 999999 999999 999999 999999 999999 999999 999999 999999 999999 999999 999999 999999 999999 999999 999999 999999 999999 999999 999999 999999 999999 999999 999999 999999 999999 999999 999999 999999 999999 999999 999999 999999 999999 999999 999999 999999 999999 999999 999999 999999 999999 999999 999999 999999 999999 999999 999999 999999 999999 999999 999999 999999 999999 999999 999999 999999 999999 999999 999999 999999 0 999999 999999 999999 999999 999999 999999 999999 999999 999999 999999 999999 999999 999999 999999 999999 999999 999999 999999 999999 999999 15224 11711 12529 12052 10944 19299 12448 13869 14638 10547 17680 14448 18413 17297 11403 10690 14786 13161 12589 10517 15854 10172 11159 19023 15360 13815 14146 17579 12223 13095 15283 19585 14784 17839 15566 16750 11596 13970 13809 18489 16829 16280 10884 16316 19634 16158 11913 11312 15370 16519 14250 10705 12480 18267 15925 10417 17312 19396 13377 12507 12197 19386 11532 19625 10484 10700 15961 18841 17856 15640 16665 19139 10613 16569 19887 18560 15422 17055 15306 18860 14001 16301 10835 10026 10962 19841 14421 12411 14761 14276 16360 13730 17788 11223 16794 17284 10502 18386 19093 15667 13553 18412 17296 16785 15294 18065 13054 18992 14443 13069 17147 15648 10683 18235 12408 10939 15811 18110 15203 10166 11634 11740 15070 19846 14151 18295 12650 14841 16152 19602 18198 12456 10625 12864 11435 19627 12355 15248 19818 16111 12163 10735 12643 11573 19988 15925 11989 18936 13727 13893 19505 17865 11140 10274 15980 18801 15639 14282 18761 11934 999999
999999 999999 999999 999999 999999 999999 999999 999999 999999 999999 999999 999999 999999 999999 999999 999999 999999 999999 999999 999999 999999 999999 999999 999999 999999 999999 999999 999999 999999 999999 999999 999999 999999 999999 999999 999999 999999 999999 999999 999999 999999 999999 999999 999999 999999 999999 999999 999999 999999 999999 999999 999999 999999 999999 999999 999999 999999 999999 999999 999999 999999 999999 999999 999999 999999 999999 999999 999999 999999 999999 999999 999999 999999 999999 999999 999999 999999 999999 999999 999999 999999 999999 999999 999999 999999 999999 999999 999999 999999 999999 999999 999999 999999 999999 999999 999999 999999 999999 999999 999999 999999 999999 999999 999999 999999 999999 999999 999999 999999 999999 999999 999999 999999 999999 999999 999999 999999 999999 999999 999999 999999 999999 999999 999999 999999 999999 999999 999999 999999 999999 999999 999999 999999 999999 999999 999999 999999 999999 999999 999999 999999 0 999999 999999 999999 999999 999999 999999 999999 999999 999999 999999 999999 999999 999999 999999 999999 999999 999999 999999 999999 15090 15075 19053 19766 18124 12216 19712 10064 10457 12974 13359 17639 13348 16055 17237 12546 16594 13187 13096 17873 15963 17002 13944 13093 18629 18729 17600 15048 17123 10350 19570 18035 11401 19577 16917 10848 13314 13412 13134 11403 15712 14367 12552 11090 19349 11038 18149 10862 16704 17219 12403 18303 13749 11363 16581 15943 19922 13749 18493 12877 12882 18816 12962 14469 11826 10403 12789 11175 17155 10640 17548 18163 16382 11026 19781 13532 14262 14404 16921 16517 19058 19264 12567 11121 17233 12664 17582 13226 17818 15566 19063 15127 14274 14528 10554 19931 10496 15448 14033 18005 10193 19339 18089 10037 11401 14199 11667 19139 12012 12750 17826 17021 15383 13976 16778 16154 12195 13456 17204 18028 16737 16912 17207 13074 11897 10862 10787 17440 17179 14383 16561 10879 11862 10246 15471 12808 11195 18495 12930 11945 13057 16687 11381 17492 19521 19086 10185 19457 13370 17548 18575 15090 12614 18085 16511 18583 10673 15845 13588 13650 999999
999999 999999 999999 999999 999999 999999 999999 999999 999999 999999 999999 999999 999999 999999 999999 999999 999999 999999 999999 999999 999999 999999 999999 999999 999999 999999 999999 999999 999999 999999 999999 999999 999999 999999 999999 999999 999999 999999 999999 999999 999999 999999 999999 999999 999999 999999 999999 999999 999999 999999 999999 999999 999999 999999 999999 999999 999999 999999 999999 999999 999999 999999 999999 999999 999999 999999 999999 999999 999999 999999 999999 999999 999999 999999 999999 999999 999999 999999 999999 999999 999999 999999 999999 999999 999999 999999 999999 999999 999999 999999 999999 999999 999999 999999 999999 999999 999999 999999 999999 999999 999999 999999 999999 999999 999999 999999 999999 999999 999999 999999 999999 999999 999999 999999 999999 999999 999999 999999 999999 999999 999999 999999 999999 999999 999999 999999 999999 999999 999999 999999 999999 999999 999999 999999 999999 999999 999999 999999 999999 999999 999999 999999 0 999999 999999 999999 999999 999999 999999 999999 999999 999999 999999 999999 999999 999999 999999 999999 999999 999999 999999 12428 15789 11204 19711 19720 19173 12076 10554 15953 11356 18562 17213 10491 19370 17152 13026 19006 13061 17614 17336 14313 14474 16802 10104 18254 16885 10839 13279 11812 13268 12995 14446 10525 14466 13965 10806 13470 13199 17443 12560 15577 13060 18237 11158 11917 18342 13187 17612 13424 14435 11457 10736 19340 17739 10976 12338 17246 19303 16927 16148 16451 10642 12508 14525 19453 18357 10454 13479 19245 15380 16484 14967 13548 16299 13963 18106 13046 16618 15826 14015 10128 18182 16299 18440 13619 16954 10586 13783 16736 13198 17607 15377 15915 12289 18425 18126 14865 15861 13855 15034 19188 16003 12348 10600 19689 11803 14176 13311 10720 11039 12206 14222 14617 16778 11525 12970 16168 13530 10632 17127 17084 13195 19018 11704 10265 17522 15452 14579 11033 10907 11637 19857 15637 14143 19701 19378 12025 13706 17901 13764 13217 11754 19933 11225 11924 15933 13998 16318 13117 18925 17216 18144 12895 13999 19310 16285 10661 12325 14159 18192 999999
999999 999999 999999 999999 999999 999999 999999 999999 999999 999999 999999 999999 999999 999999 999999 999999 999999 999999 999999 999999 999999 999999 999999 999999 999999 999999 999999 999999 999999 999999 999999 999999 999999 999999 999999 999999 999999 999999 999999 999999 999999 999999 999999 999999 999999 999999 999999 999999 999999 999999 999999 999999 999999 999999 999999 999999 999999 999999 999999 999999 999999 999999 999999 999999 999999 999999 999999 999999 999999 999999 999999 999999 999999 999999 999999 999999 999999 999999 999999 999999 999999 999999 999999 999999 999999 999999 999999 999999 999999 999999 999999 999999 999999 999999 999999 999999 999999 999999 999999 999999 999999 999999 999999 999999 999999 999999 999999 999999 999999 999999 999999 999999 999999 999999 999999 999999 999999 999999 999999 999999 999999 999999 999999 999999 999999 999999 999999 999999 999999 999999 999999 999999 999999 999999 999999 999999 999999 999999 999999 999999 999999 999999 999999 0 999999 999999 999999 999999 999999 999999 999999 999999 999999 999999 999999 999999 999999 999999 999999 999999 999999 13073 11378 17882 13614 15200 10558 17353 14544 12102 12775 14120 18346 16265 14953 18437 12670 13112 10392 19126 19790 12274 12435 13576 17051 11471 12295 19514 12822 16251 17252 19191 15181 10708 13310 11679 13749 15280 19790 18520 13412 12907 11112 14074 16725 13567 10714 16305 11295 10691 15781 11312 16095 16427 16391 18141 10430 16787 18167 16696 10453 17399 17743 11197 11860 16377 15523 16461 16707 10906 13874 13522 10806 10909 15413 18900 10472 12882 10674 12153 11823 15178 17086 10831 17475 17166 10749 14661 16438 16446 14056 13358 15406 17030 16651 13668 14159 17789 18563 19332 10971 11462 10243 11900 11936 16246 19987 14995 11899 17806 15975 10516 15786 19017 13128 11747 17055 14478 11555 11145 12212 16872 12534 14021 10520 14663 13011 15325 14985 18652 19930 13115 13600 13390 15089 11133 11446 11872 10342 13836 12843 15192 11622 15953 14825 11590 15490 12208 16699 19946 13080 12672 13694 12267 17455 16699 15297 10290 12901 13422 14867 999999
999999 999999 999999 999999 999999 999999 999999 999999 999999 999999 999999 999999 999999 999999 999999 999999 999999 999999 999999 999999 999999 999999 999999 999999 999999 999999 999999 999999 999999 999999 999999 999999 999999 999999 999999 999999 999999 999999 999999 999999 999999 999999 999999 999999 999999 999999 999999 999999 999999 999999 999999 999999 999999 999999 999999 999999 999999 999999 999999 999999 999999 999999 999999 999999 999999 999999 999999 999999 999999 999999 999999 999999 999999 999999 999999 999999 999999 999999 999999 999999 999999 999999 999999 999999 999999 999999 999999 999999 999999 999999 999999 999999 999999 999999 999999 999999 999999 999999 999999 999999 999999 999999 999999 999999 999999 999999 999999 999999 999999 999999 999999 999999 999999 999999 999999 999999 999999 999999 999999 999999 999999 999999 999999 999999 999999 999999 999999 999999 999999 999999 999999 999999 999999 999999 999999 999999 999999 999999 999999 999999 999999 999999 999999 999999 0 999999 999999 999999 999999 999999 999999 999999 999999 999999 999999 999999 999999 999999 999999 999999 999999 13382 12330 14645 12347 10579 10658 14574 18336 16895 14479 18775 12350 14441 16755 17342 14842 17733 17738 10212 13421 10266 16852 14690 15025 12569 17379 10009 15902 15910 14815 12388 12882 14175 18813 12978 13199 12544 12206 18272 14135 18368 14037 13134 16283 19554 13987 18370 17528 18997 19469 18948 14235 11588 16514 12317 17003 14105 18460 10436 10558 12238 14958 19841 12196 10584 11781 10471 10666 12480 12468 14594 19405 10615 15804 17039 10978 13226 19315 13157 19705 15805 16349 15276 18010 13083 10324 13323 16342 13558 14616 10909 10034 17476 12342 18930 17526 10694 16264 17966 17178 13084 12026 10059 18045 11745 13471 16227 10619 15656 14327 10727 14341 10419 11907 10971 16876 11921 19372 13259 17183 11788 17530 19091 13680 17850 14822 19898 19145 12361 12668 10305 19709 19165 17580 15902 18225 16573 15986 10055 19972 11413 16809 12157 13871 11499 14106 12990 14775 11358 12915 14640 11631 14928 14856 13236 13857 16614 19290 18215 19819 999999
999999 999999 999999 999999 999999 999999 999999 999999 999999 999999 999999 999999 999999 999999 999999 999999 999999 999999 999999 999999 999999 999999 999999 999999 999999 999999 999999 999999 999999 999999 999999 999999 999999 999999 999999 999999 999999 999999 999999 999999 999999 999999 999999 999999 999999 999999 999999 999999 999999 999999 999999 999999 999999 999999 999999 999999 999999 999999 999999 999999 999999 999999 999999 999999 999999 999999 999999 999999 999999 999999 999999 999999 999999 999999 999999 999999 999999 999999 999999 999999 999999 999999 999999 999999 999999 999999 999999 999999 999999 999999 999999 999999 999999 999999 999999 999999 999999 999999 999999 999999 999999 999999 999999 999999 999999 999999 999999 999999 999999 999999 999999 999999 999999 999999 999999 999999 999999 999999 999999 999999 999999 999999 999999 999999 999999 999999 999999 999999 999999 999999 999999 999999 999999 999999 999999 999999 999999 999999 999999 999999 999999 999999 999999 999999 999999 0 999999 999999 999999 999999 999999 999999 999999 999999 999999 999999 999999 999999 999999 999999 999999 13741 16044 12231 19108 10753 15964 12947 10068 11256 11456 11150 14302 10063 18390 13323 16837 19742 19383 14822 17423 10536 13765 14125 16009 14988 16490 18492 16941 14131 19924 14451 18719 13378 14890 19265 13715 18566 15422 11691 16701 15942 17536 18054 17044 15221 11037 16484 18819 13292 18148 19265 17248 18813 19001 12830 17416 15463 11400 12904 11512 14435 13319 15254 18293 10922 15460 16931 17660 19720 19788 16833 13633 11031 17499 13923 19832 12920 16021 15498 14899 17766 13062 17551 19116 18444 16939 15806 16185 18511 17201 16740 19969 18282 16701 16682 18577 16036 10905 12186 15378 15651 19354 17697 19547 13778 18216 18985 15901 17764 14883 14526 19389 17336 10908 12029 11723 11228 16961 13839 10046 13045 17811 12610 12271 10102 13772 10456 19120 14710 17169 16884 10093 17873 14903 16258 15254 10531 16635 14095 11852 16524 12545 10108 19185 17357 17208 17129 10595 17066 10940 17796 15536 12417 17352 18081 16304 15295 13415 14856 17226 999999
999999 999999 999999 999999 999999 999999 999999 999999 999999 999999 999999 999999 999999 999999 999999 999999 999999 999999 999999 999999 999999 999999 999999 999999 999999 999999 999999 999999 999999 999999 999999 999999 999999 999999 999999 999999 999999 999999 999999 999999 999999 999999 999999 999999 999999 999999 999999 999999 999999 999999 999999 999999 999999 999999 999999 999999 999999 999999 999999 999999 999999 999999 999999 999999 999999 999999 999999 999999 999999 999999 999999 999999 999999 999999 999999 999999 999999 999999 999999 999999 999999 999999 999999 999999 999999 999999 999999 999999 999999 999999 999999 999999 999999 999999 999999 999999 999999 999999 999999 999999 999999 999999 999999 999999 999999 999999 999999 999999 999999 999999 999999 999999 999999 999999 999999 999999 999999 999999 999999 999999 999999 999999 999999 999999 999999 999999 999999 999999 999999 999999 999999 999999 999999 999999 999999 999999 999999 999999 999999 999999 999999 999999 999999 999999 999999 999999 0 999999 999999 999999 999999 999999 999999 999999 999999 999999 999999 999999 999999 999999 999999 11909 15507 16066 13743 17603 10424 19345 17210 19815 19179 11524 17403 17385 10491 16041 12613 15263 19366 12658 13040 17244 16382 12772 19729 18248 12044 11585 10049 10586 18872 11355 14919 13711 19154 18045 10054 13651 13705 10351 13464 10434 19549 11218 12039 15838 17477 14721 11631 15755 12257 14506 13490 12476 11025 17543 10536 11795 17208 16999 14950 10289 15540 15251 16371 11577 12424 10477 15267 12720 17962 13248 10079 15536 11744 17767 16592 10801 12436 11956 12877 11390 16924 11399 14229 14420 11397 19781 12217 17129 12318 11320 18436 18887 17184 19988 10224 10278 14765 19425 14009 16324 16308 10101 15643 19625 11253 14511 13457 14417 19075 15355 18076 15895 11627 10402 19109 16443 11859 13847 13229 15227 11393 15184 14111 12728 11016 16980 17732 15793 18675 12108 12733 17179 18940 19944 10605 19712 16244 18764 14454 18108 11863 13046 11056 18188 13942 18057 14706 16839 10431 18447 15249 14198 15819 12825 16079 15497 12782 11542 19938 999999
999999 999999 999999 999999 999999 999999 999999 999999 999999 999999 999999 999999 999999 999999 999999 999999 999999 999999 999999 999999 999999 999999 999999 999999 999999 999999 999999 999999 999999 999999 999999 999999 999999 999999 999999 999999 999999 999999 999999 999999 999999 999999 999999 999999 999999 999999 999999 999999 999999 999999 999999 999999 999999 999999 999999 999999 999999 999999 999999 999999 999999 999999 999999 999999 999999 999999 999999 999999 999999 999999 999999 999999 999999 999999 999999 999999 999999 999999 999999 999999 999999 999999 999999 999999 999999 999999 999999 999999 999999 999999 999999 999999 999999 999999 999999 999999 999999 999999 999999 999999 999999 999999 999999 999999 999999 999999 999999 999999 999999 999999 999999 999999 999999 999999 999999 999999 999999 999999 999999 999999 999999 999999 999999 999999 999999 999999 999999 999999 999999 999999 999999 999999 999999 999999 999999 999999 999999 999999 999999 999999 999999 999999 999999 999999 999999 999999 999999 0 999999 999999 999999 999999 999999 999999 999999 999999 999999 999999 999999 999999 999999 12725 10420 11566 15216 18451 18056 16177 16485 13816 12465 13395 14673 18210 13118 10777 10987 18329 16235 14472 14847 17941 13879 19969 18519 17262 12900 17089 15024 11499 19182 17116 14223 18266 12865 11913 12017 17612 17633 12598 18279 14000 13879 15254 16574 14944 11601 13286 13013 10973 15879 10161 13216 16613 10747 16815 18755 16677 14509 10148 18493 14492 17778 10817 18157 18251 14853 14714 10723 19556 16463 11137 18533 16429 17296 18991 12170 17486 15396 16120 14634 10352 13817 11351 17995 12045 11380 15070 14451 15646 10727 10389 19675 14111 18704 14663 11586 12254 17949 16541 17408 15245 12933 14818 12117 17467 14912 17989 18026 13870 11910 10302 10549 13559 18262 12377 10799 15313 11979 15296 10576 14228 17091 16204 15778 18330 17835 18737 11250 14201 11046 16303 19588 17678 12794 14484 18109 12525 10034 16258 10905 11907 18233 13463 19738 11014 15311 11842 15155 15696 18869 15798 19377 11796 14167 10064 15153 19045 14588 15819 17655 999999
999999 999999 999999 999999 999999 999999 999999 999999 999999 999999 999999 999999 999999 999999 999999 999999 999999 999999 999999 999999 999999 999999 999999 999999 999999 999999 999999 999999 999999 999999 999999 999999 999999 999999 999999 999999 999999 999999 999999 999999 999999 999999 999999 999999 999999 999999 999999 999999 999999 999999 999999 999999 999999 999999 999999 999999 999999 999999 999999 999999 999999 999999 999999 999999 999999 999999 999999 999999 999999 999999 999999 999999 999999 999999 999999 999999 999999 999999 999999 999999 999999 999999 999999 999999 999999 999999 999999 999999 999999 999999 999999 999999 999999 999999 999999 999999 999999 999999 999999 999999 999999 999999 999999 999999 999999 999999 999999 999999 999999 999999 999999 999999 999999 999999 999999 999999 999999 999999 999999 999999 999999 999999 999999 999999 999999 999999 999999 999999 999999 999999 999999 999999 999999 999999 999999 999999 999999 999999 999999 999999 999999 999999 999999 999999 999999 999999 999999 999999 0 999999 999999 999999 999999 999999 999999 999999 999999 999999 999999 999999 999999 11272 16001 10909 11405 10067 13760 13425 17944 14399 14461 18848 15889 15859 15295 15585 15561 11746 12919 10595 11693 19191 17021 14954 12705 14282 10607 19323 11992 19305 18723 19684 10550 15699 14661 13156 16761 17810 19079 10325 19488 19404 12155 19054 14943 10105 11506 10734 16295 10428 14280 15324 15600 17269 11187 19117 12010 13832 10093 19521 11601 14771 16685 18947 18182 17700 13868 14640 19218 18275 16141 12755 16518 17292 14944 14513 19737 14519 17224 11826 19375 11281 18391 10653 13039 14936 10399 15239 15033 12021 19023 12851 19587 14065 10936 19958 11886 19656 18033 13238 15797 19087 11551 16606 14262 14193 17335 13695 12016 17048 13660 17640 16799 11810 10695 17634 11911 13789 13082 18741 13025 19587 10124 19424 15704 11490 18054 11347 15636 10779 12037 11930 11452 17902 16055 13329 11323 14967 13608 13830 18385 18627 10369 11383 16832 11383 15463 12641 10231 10458 16349 10453 18809 10757 18609 13525 19600 18624 10629 12349 14404 999999
999999 999999 999999 999999 999999 999999 999999 999999 999999 999999 999999 999999 999999 999999 999999 999999 999999 999999 999999 999999 999999 999999 999999 999999 999999 999999 999999 999999 999999 999999 999999 999999 999999 999999 999999 999999 999999 999999 999999 999999 999999 999999 999999 999999 999999 999999 999999 999999 999999 999999 999999 999999 999999 999999 999999 999999 999999 999999 999999 999999 999999 999999 999999 999999 999999 999999 999999 999999 999999 999999 999999 999999 999999 999999 999999 999999 999999 999999 999999 999999 999999 999999 999999 999999 999999 999999 999999 999999 999999 999999 999999 999999 999999 999999 999999 999999 999999 999999 999999 999999 999999 999999 999999 999999 999999 999999 999999 999999 999999 999999 999999 999999 999999 999999 999999 999999 999999 999999 999999 999999 999999 999999 999999 999999 999999 999999 999999 999999 999999 999999 999999 999999 999999 999999 999999 999999 999999 999999 999999 999999 999999 999999 999999 999999 999999 999999 999999 999999 999999 0 999999 999999 999999 999999 999999 999999 999999 999999 999999 999999 999999 15478 10189 19784 14149 18125 16185 18499 14346 18747 12747 13899 13438 18653 16230 19249 15999 10907 15669 17110 16116 11062 12890 12827 11783 19294 11802 13915 10365 19375 19108 15164 18560 11720 17271 17818 11624 17979 18547 11282 12797 11508 15236 14455 12300 18781 18610 12350 18970 11096 17626 19123 15683 11426 14204 19380 17964 10475 12464 11715 14452 18573 11516 16731 19354 15787 10066 10397 11929 10139 13235 16645 17645 12185 12221 17924 10026 11186 18371 14106 14244 17378 14496 13628 19855 18788 13512 19833 15355 16793 10710 12844 13897 19553 18631 17332 19858 11955 10783 15140 19414 10117 19676 13638 13875 14268 14570 14976 11160 12299 12496 15353 11360 18620 11646 10727 13530 17149 13899 17549 17243 16303 17611 12087 10240 11966 15489 12249 16000 11636 14859 16691 14755 10746 16374 19927 13044 11753 15698 19996 15640 12239 10820 10149 14536 19854 18727 10387 16232 16437 19313 14284 10781 16116 11908 15856 14481 13850 16615 11246 14978 999999
999999 999999 999999 999999 999999 999999 999999 999999 999999 999999 999999 999999 999999 999999 999999 999999 999999 999999 999999 999999 999999 999999 999999 999999 999999 999999 999999 999999 999999 999999 999999 999999 999999 999999 999999 999999 999999 999999 999999 999999 999999 999999 999999 999999 999999 999999 999999 999999 999999 999999 999999 999999 999999 999999 999999 999999 999999 999999 999999 999999 999999 999999 999999 999999 999999 999999 999999 999999 999999 999999 999999 999999 999999 999999 999999 999999 999999 999999 999999 999999 999999 999999 999999 999999 999999 999999 999999 999999 999999 999999 999999 999999 999999 999999 999999 999999 999999 999999 999999 999999 999999 999999 999999 999999 999999 999999 999999 999999 999999 999999 999999 999999 999999 999999 999999 999999 999999 999999 999999 999999 999999 999999 999999 999999 999999 999999 999999 999999 999999 999999 999999 999999 999999 999999 999999 999999 999999 999999 999999 999999 999999 999999 999999 999999 999999 999999 999999 999999 999999 999999 0 999999 999999 999999 999999 999999 999999 999999 999999 999999 999999 14850 10907 15787 18723 19578 18871 13614 11762 15549 18884 17349 17735 11243 12139 16617 16337 11285 16078 13449 10946 10619 15880 14037 18717 12494 10221 12036 17668 12831 12464 19967 12067 16298 19210 16300 10501 12760 14393 14253 17597 11726 17611 19245 19542 19528 15445 10393 11232 10151 13104 13843 18850 12818 15364 12324 15758 12435 14335 16443 17531 19258 11239 11635 13159 16568 18894 19079 14421 17827 11440 17623 12384 15989 17800 13158 13156 15677 13008 11456 12759 16948 12699 11659 15076 14079 14298 13914 19433 12137 17190 17403 15396 15087 11093 13876 17810 16636 14968 12826 11125 10042 14546 11507 17512 12092 18937 19794 14794 13039 14552 11458 16242 11227 14964 19746 10277 18963 12829 10929 18348 15733 16535 19854 11546 19863 18365 16019 19870 12545 18634 11298 13150 14880 10917 19799 13557 14024 14537 14481 13352 16847 16068 14163 11552 12801 11923 12777 17239 16251 12424 16915 17910 13494 19969 14319 14798 18035 17498 18615 18564 999999
999999 999999 999999 999999 999999 999999 999999 999999 999999 999999 999999 999999 999999 999999 999999 999999 999999 999999 999999 999999 999999 999999 999999 999999 999999 999999 999999 999999 999999 999999 999999 999999 999999 999999 999999 999999 999999 999999 999999 999999 999999 999999 999999 999999 999999 999999 999999 999999 999999 999999 999999 999999 999999 999999 999999 999999 999999 999999 999999 999999 999999 999999 999999 999999 999999 999999 999999 999999 999999 999999 999999 999999 999999 999999 999999 999999 999999 999999 999999 999999 999999 999999 999999 999999 999999 999999 999999 999999 999999 999999 999999 999999 999999 999999 999999 999999 999999 999999 999999 999999 999999 999999 999999 999999 999999 999999 999999 999999 999999 999999 999999 999999 999999 999999 999999 999999 999999 999999 999999 999999 999999 999999 999999 999999 999999 999999 999999 999999 999999 999999 999999 999999 999999 999999 999999 999999 999999 999999 999999 999999 999999 999999 999999 999999 999999 999999 999999 999999 999999 999999 999999 0 999999 999999 999999 999999 999999 999999 999999 999999 999999 13043 13529 11238 12521 11990 19621 11045 15113 19310 17520 17277 12477 14912 11448 11215 10828 18580 14640 14048 16528 10576 19238 16127 16491 14199 15611 10957 15625 12632 10951 13264 15829 18165 16945 10430 10134 17697 18444 18376 10431 12801 19976 17652 18744 11297 11269 15441 16248 10445 14167 12371 13235 16060 19587 17628 16862 19792 12270 11738 13247 16989 18067 15545 18605 13762 13911 17594 16345 13744 11667 16008 17257 13288 14297 18121 12869 10639 12961 18147 17836 12598 10448 15062 10574 16898 10847 16536 17971 17526 11147 16403 14631 16219 17384 17584 15724 10097 16535 15854 12806 19880 11217 14464 13348 13840 11973 14403 14787 16171 13205 13813 10993 14960 18669 18364 19846 12393 14618 14837 13444 18887 18119 14193 18290 10147 13450 19483 17003 14069 16163 19032 15405 13303 19309 18631 15759 19397 16385 19810 10240 14185 16936 14632 15032 11755 16642 10390 16422 15724 14600 15529 19966 15278 10648 10396 13041 19318 18151 11285 12017 999999
999999 999999 999999 999999 999999 999999 999999 999999 999999 999999 999999 999999 999999 999999 999999 999999 999999 999999 999999 999999 999999 999999 999999 999999 999999 999999 999999 999999 999999 999999 999999 999999 999999 999999 999999 999999 999999 999999 999999 999999 999999 999999 999999 999999 999999 999999 999999 999999 999999 999999 999999 999999 999999 999999 999999 999999 999999 999999 999999 999999 999999 999999 999999 999999 999999 999999 999999 999999 999999 999999 999999 999999 999999 999999 999999 999999 999999 999999 999999 999999 999999 999999 999999 999999 999999 999999 999999 999999 999999 999999 999999 999999 999999 999999 999999 999999 999999 999999 999999 999999 999999 999999 999999 999999 999999 999999 999999 999999 999999 999999 999999 999999 999999 999999 999999 999999 999999 999999 999999 999999 999999 999999 999999 999999 999999 999999 999999 999999 999999 999999 999999 999999 999999 999999 999999 999999 999999 999999 999999 999999 999999 999999 999999 999999 999999 999999 999999 999999 999999 999999 999999 999999 0 999999 999999 999999 999999 999999 999999 999999 999999 18485 15896 10911 17282 19502 16514 15366 15433 12602 16351 12185 17921 14280 15966 14966 19967 19983 13934 12129 10583 17944 14065 10114 15155 10246 10254 13582 19140 17598 12682 14138 14992 18857 13130 13541 10567 12404 12449 10628 10278 11749 15095 19248 15611 14547 17858 18563 14268 14849 18259 14175 17333 16789 18841 13402 17245 12637 11511 16800 14629 17290 17129 16986 13363 11545 17774 13263 18237 15835 17749 10823 18947 18588 19731 18165 15570 19518 16650 17065 19860 10155 11872 14397 17801 14423 14656 19752 17799 10087 19858 11882 19871 10370 11230 17996 16082 18395 17434 10339 19225 12217 16861 15753 18867 11545 10991 11954 18802 18198 10116 10151 17653 11696 14091 11708 15164 16030 19954 15361 15479 15585 14086 15313 12834 19992 16405 12054 19865 10940 13481 14634 18634 18290 10428 14288 16326 12149 12188 13082 11170 10957 16146 14698 10454 13453 12068 13365 14839 16564 10597 15024 19694 12843 11961 17250 17980 11716 19260 14436 19679 999999
999999 999999 999999 999999 999999 999999 999999 999999 999999 999999 999999 999999 999999 999999 999999 999999 999999 999999 999999 999999 999999 999999 999999 999999 999999 999999 999999 999999 999999 999999 999999 999999 999999 999999 999999 999999 999999 999999 999999 999999 999999 999999 999999 999999 999999 999999 999999 999999 999999 999999 999999 999999 999999 999999 999999 999999 999999 999999 999999 999999 999999 999999 999999 999999 999999 999999 999999 999999 999999 999999 999999 999999 999999 999999 999999 999999 999999 999999 999999 999999 999999 999999 999999 999999 999999 999999 999999 999999 999999 999999 999999 999999 999999 999999 999999 999999 999999 999999 999999 999999 999999 999999 999999 999999 999999 999999 999999 999999 999999 999999 999999 999999 999999 999999 999999 999999 999999 999999 999999 999999 999999 999999 999999 999999 999999 999999 999999 999999 999999 999999 999999 999999 999999 999999 999999 999999 999999 999999 999999 999999 999999 999999 999999 999999 999999 999999 999999 999999 999999 999999 999999 999999 999999 0 999999 999999 999999 999999 999999 999999 999999 18267 16319 10221 12810 17020 13447 10256 18976 11952 16910 14870 15804 19697 19345 15638 18159 11121 11348 18362 10886 19208 11945 13782 14619 12311 15158 18573 17351 18067 10089 19161 14599 19402 14551 11721 18615 15469 18951 10411 16441 13341 15100 13681 15015 14239 19057 13151 10569 18071 15372 18723 16646 14306 11676 12050 16121 18575 12821 11733 16929 11394 14061 11475 18986 19098 17495 15024 14177 18187 13705 11965 19958 17961 13760 11878 15969 13522 12054 17778 19466 18260 17777 11880 10373 16982 15116 10701 14649 12753 14020 16082 17287 19775 15121 19319 17630 14281 19480 10123 10375 13042 13317 14757 17955 13402 13999 15129 19584 11324 13809 13583 10203 14376 12753 18348 12393 16930 18331 13373 17222 11662 16361 12353 19766 15602 10341 19937 15865 15606 13052 11936 15973 16251 17853 16439 18912 19045 16084 11557 11020 11849 16059 11720 12487 10950 16851 11069 13260 19848 18456 10004 12046 11494 16156 12215 18569 12685 11858 12839 14594 999999
999999 999999 999999 999999 999999 999999 999999 999999 999999 999999 999999 999999 999999 999999 999999 999999 999999 999999 999999 999999 999999 999999 999999 999999 999999 999999 999999 999999 999999 999999 999999 999999 999999 999999 999999 999999 999999 999999 999999 999999 999999 999999 999999 999999 999999 999999 999999 999999 999999 999999 999999 999999 999999 999999 999999 999999 999999 999999 999999 999999 999999 999999 999999 999999 999999 999999 999999 999999 999999 999999 999999 999999 999999 999999 999999 999999 999999 999999 999999 999999 999999 999999 999999 999999 999999 999999 999999 999999 999999 999999 999999 999999 999999 999999 999999 999999 999999 999999 999999 999999 999999 999999 999999 999999 999999 999999 999999 999999 999999 999999 999999 999999 999999 999999 999999 999999 999999 999999 999999 999999 999999 999999 999999 999999 999999 999999 999999 999999 999999 999999 999999 999999 999999 999999 999999 999999 999999 999999 999999 999999 999999 999999 999999 999999 999999 999999 999999 999999 999999 999999 999999 999999 999999 999999 0 999999 999999 999999 999999 999999 999999 12828 12554 13691 11685 15204 16329 16133 18243 11467 13797 17984 11645 10589 10324 10806 15016 12502 10997 18052 13976 10281 17280 10007 17130 14228 13743 18461 17423 13649 11911 14971 15811 14104 19702 18019 14224 11380 15446 19844 11908 10114 15564 19966 17105 14636 15534 11283 10219 15259 19605 11814 15991 15094 14043 17758 18284 16048 12670 16542 11794 17829 11402 15065 10178 12078 15525 19490 12324 19079 19876 10032 10477 16830 14675 11742 11152 10021 10003 16051 16197 15194 12698 16724 17797 12349 17880 13816 15642 12883 15829 11868 19624 12557 17558 17815 10041 13231 14795 19325 18776 15125 17112 10011 10872 17599 17833 14832 13648 16669 15591 16485 17750 12124 16335 10865 15652 14420 14563 12988 16069 19006 18705 13484 12594 17715 18656 17763 15833 15373 11085 15081 11492 16713 15121 10535 13832 11897 12473 18551 11788 17052 14636 19393 12595 17416 16485 14322 12582 12188 18976 15215 19893 15813 19035 16799 11482 10408 11275 13473 19453 999999
999999 999999 999999 999999 999999 999999 999999 999999 999999 999999 999999 999999 999999 999999 999999 999999 999999 999999 999999 999999 999999 999999 999999 999999 999999 999999 999999 999999 999999 999999 999999 999999 999999 999999 999999 999999 999999 999999 999999 999999 999999 999999 999999 999999 999999 999999 999999 999999 999999 999999 999999 999999 999999 999999 999999 999999 999999 999999 999999 999999 999999 999999 999999 999999 999999 999999 999999 999999 999999 999999 999999 999999 999999 999999 999999 999999 999999 999999 999999 999999 999999 999999 999999 999999 999999 999999 999999 999999 999999 999999 999999 999999 999999 999999 999999 999999 999999 999999 999999 999999 999999 999999 999999 999999 999999 999999 999999 999999 999999 999999 999999 999999 999999 999999 999999 999999 999999 999999 999999 999999 999999 999999 999999 999999 999999 999999 999999 999999 999999 999999 999999 999999 999999 999999 999999 999999 999999 999999 999999 999999 999999 999999 999999 999999 999999 999999 999999 999999 999999 999999 999999 999999 999999 999999 999999 0 999999 999999 999999 999999 999999 12715 12262 13293 10621 18470 16003 18687 11857 16978 17458 10889 13567 13195 15690 14877 16900 16421 19879 14572 10232 13459 11853 13388 11823 13939 12068 15472 14129 18054 11371 16386 15347 17745 12953 16898 15578 11229 14700 12685 13543 15130 12573 11096 18851 10540 16412 19287 13113 15211 15684 15048 19297 18356 14309 11101 15307 19333 18201 18439 17690 14805 11389 15042 13851 16145 14778 13558 20000 16150 12020 18363 10849 18441 14624 13130 16107 18962 12532 12702 12120 14407 14824 10593 11549 12208 19768 16654 15873 11506 19208 10666 18340 11376 14665 15539 18300 15694 13404 15806 16731 17503 19917 19537 16220 16872 11830 10244 15027 17483 11768 14993 12219 17859 15493 10349 18313 12559 18713 15731 14238 12815 14525 14471 10068 12385 15529 11690 13216 12828 11482 19306 16021 15245 17921 12002 17494 12033 13431 11194 18117 15526 19872 11774 16295 17355 17094 17832 14855 15659 11769 17197 17933 10872 13671 14497 18354 16024 15966 17120 12662 999999
999999 999999 999999 999999 999999 999999 999999 999999 999999 999999 999999 999999 999999 999999 999999 999999 999999 999999 999999 999999 999999 999999 999999 999999 999999 999999 999999 999999 999999 999999 999999 999999 999999 999999 999999 999999 999999 999999 999999 999999 999999 999999 999999 999999 999999 999999 999999 999999 999999 999999 999999 999999 999999 999999 999999 999999 999999 999999 999999 999999 999999 999999 999999 999999 999999 999999 999999 999999 999999 999999 999999 999999 999999 999999 999999 999999 999999 999999 999999 999999 999999 999999 999999 999999 999999 999999 999999 999999 999999 999999 999999 999999 999999 999999 999999 999999 999999 999999 999999 999999 999999 999999 999999 999999 999999 999999 999999 999999 999999 999999 999999 999999 999999 999999 999999 999999 999999 999999 999999 999999 999999 999999 999999 999999 999999 999999 999999 999999 999999 999999 999999 999999 999999 999999 999999 999999 999999 999999 999999 999999 999999 999999 999999 999999 999999 999999 999999 999999 999999 999999 999999 999999 999999 999999 999999 999999 0 999999 999999 999999 999999 18034 13838 18832 12953 17114 19077 14997 12611 11582 13127 10909 10096 11951 14529 14120 15956 19155 17567 13096 13990 15484 19326 10732 13549 18515 10457 14879 15416 17063 10603 18160 14319 11351 13906 12947 18446 16641 16950 13170 17201 10103 11025 12244 10895 14079 13759 17383 10149 17522 19846 17205 14924 16671 17764 10007 15486 11161 19144 11318 12019 14143 19892 17413 13127 10401 10389 11745 13777 12869 15980 13648 17157 10073 18239 17862 14702 19183 18876 13714 12414 17970 14028 12719 11622 13283 12534 16305 13066 13750 12470 15425 15569 16440 11390 13557 10534 12237 11273 14771 12592 14888 14088 16492 16624 10099 10696 18351 18413 13224 18659 10325 17826 11544 10684 18037 12511 10255 16185 12323 16324 11886 10843 19068 19389 15919 11545 17782 10110 17285 12966 12040 19312 16228 13217 14538 14356 15067 19910 19924 18208 13325 10902 16337 18796 17980 19302 19413 14138 19600 14091 11266 16068 10567 14680 18329 10816 13760 13546 17110 16340 999999
999999 999999 999999 999999 999999 999999 999999 999999 999999 999999 999999 999999 999999 999999 999999 999999 999999 999999 999999 999999 999999 999999 999999 999999 999999 999999 999999 999999 999999 999999 999999 999999 999999 999999 999999 999999 999999 999999 999999 999999 999999 999999 999999 999999 999999 999999 999999 999999 999999 999999 999999 999999 999999 999999 999999 999999 999999 999999 999999 999999 999999 999999 999999 999999 999999 999999 999999 999999 999999 999999 999999 999999 999999 999999 999999 999999 999999 999999 999999 999999 999999 999999 999999 999999 999999 999999 999999 999999 999999 999999 999999 999999 999999 999999 999999 999999 999999 999999 999999 999999 999999 999999 999999 999999 999999 999999 999999 999999 999999 999999 999999 999999 999999 999999 999999 999999 999999 999999 999999 999999 999999 999999 999999 999999 999999 999999 999999 999999 999999 999999 999999 999999 999999 999999 999999 999999 999999 999999 999999 999999 999999 999999 999999 999999 999999 999999 999999 999999 999999 999999 999999 999999 999999 999999 999999 999999 999999 0 999999 999999 999999 10918 13449 16074 17454 12455 13466 10132 12086 15844 17324 10903 17697 16976 13566 17388 11037 18635 13277 19530 10498 13203 14419 17760 15525 11949 10735 14621 18646 11201 18194 12666 18541 19315 19884 10597 19043 11343 16835 12164 13314 16226 14922 11820 19340 13543 15636 19844 15271 11017 13796 16444 18038 13361 16563 17499 15282 18863 18384 11894 19364 13714 15097 12813 17475 15816 15599 15365 10063 13109 18352 13457 13561 12021 10976 10300 11596 10303 18068 17571 19512 19658 18641 15281 17553 14078 17566 17097 19942 15484 11470 15523 11890 15736 10713 19008 10919 13419 16757 14944 16140 10265 16261 13164 18728 10035 10134 11354 17452 16877 16856 19272 19964 19521 15331 17991 13393 12786 16332 14479 13679 10017 14510 17695 17606 16091 17824 13858 18898 12114 10687 12296 15317 11318 17226 18873 15216 13716 18301 12859 18003 11614 19599 16654 13709 13585 12725 19169 11646 11676 17639 16522 10319 14630 14096 12922 16660 17475 11784 14260 19143 999999
999999 999999 999999 999999 999999 999999 999999 999999 999999 999999 999999 999999 999999 999999 999999 999999 999999 999999 999999 999999 999999 999999 999999 999999 999999 999999 999999 999999 999999 999999 999999 999999 999999 999999 999999 999999 999999 999999 999999 999999 999999 999999 999999 999999 999999 999999 999999 999999 999999 999999 999999 999999 999999 999999 999999 999999 999999 999999 999999 999999 999999 999999 999999 999999 999999 999999 999999 999999 999999 999999 999999 999999 999999 999999 999999 999999 999999 999999 999999 999999 999999 999999 999999 999999 999999 999999 999999 999999 999999 999999 999999 999999 999999 999999 999999 999999 999999 999999 999999 999999 999999 999999 999999 999999 999999 999999 999999 999999 999999 999999 999999 999999 999999 999999 999999 999999 999999 999999 999999 999999 999999 999999 999999 999999 999999 999999 999999 999999 999999 999999 999999 999999 999999 999999 999999 999999 999999 999999 999999 999999 999999 999999 999999 999999 999999 999999 999999 999999 999999 999999 999999 999999 999999 999999 999999 999999 999999 999999 0 999999 999999 12659 12647 18761 17260 14120 16797 14682 14374 10499 13022 19606 11498 18693 11639 12030 13039 10020 10264 12140 19529 12532 13979 12085 11130 11828 11280 13641 17903 16225 16315 14455 11699 17493 13148 18948 15888 10618 12609 11832 14925 13823 17825 15198 13853 18216 19062 18039 16557 11882 11255 15769 13976 19332 16358 17729 11570 12771 13765 12237 15806 16112 19176 18268 14450 16444 18430 17684 14205 12479 12240 11824 11514 15823 14423 18025 16149 18856 16922 17141 18579 15875 17949 17728 11222 14921 14167 15592 16004 19001 15986 10550 15108 11638 18757 18950 10407 12346 18261 19693 11866 18935 10002 16227 15532 14800 11223 14324 18201 19853 10018 16481 19152 19311 18049 10544 14943 19790 11430 14693 19050 16341 11721 15914 13369 11378 18086 18838 18778 12226 12247 16688 15111 11358 10202 19261 11756 18886 14541 10637 19787 12129 15400 13540 16377 14040 15299 19020 18538 17868 18033 10728 10768 14963 11178 10180 15927 17985 15131 18994 13384 999999
999999 999999 999999 999999 999999 999999 999999 999999 999999 999999 999999 999999 999999 999999 999999 999999 999999 999999 999999 999999 999999 999999 999999 999999 999999 999999 999999 999999 999999 999999 999999 999999 999999 999999 999999 999999 999999 999999 999999 999999 999999 999999 999999 999999 999999 999999 999999 999999 999999 999999 999999 999999 999999 999999 999999 999999 999999 999999 999999 999999 999999 999999 999999 999999 999999 999999 999999 999999 999999 999999 999999 999999 999999 999999 999999 999999 999999 999999 999999 999999 999999 999999 999999 999999 999999 999999 999999 999999 999999 999999 999999 999999 999999 999999 999999 999999 999999 999999 999999 999999 999999 999999 999999 999999 999999 999999 999999 999999 999999 999999 999999 999999 999999 999999 999999 999999 999999 999999 999999 999999 999999 999999 999999 999999 999999 999999 999999 999999 999999 999999 999999 999999 999999 999999 999999 999999 999999 999999 999999 999999 999999 999999 999999 999999 999999 999999 999999 999999 999999 999999 999999 999999 999999 999999 999999 999999 999999 999999 999999 0 999999 15527 19348 12990 10757 12701 12078 11962 19435 19138 15498 15744 11180 16502 15052 18843 17083 10559 11669 10317 18100 11853 14943 18581 17463 10692 18702 16176 13513 14010 16996 18243 17218 10155 10184 12928 13761 11078 10643 18799 12919 10570 18701 17160 18531 15839 13825 17353 19965 12113 17534 10367 10060 11206 16713 10568 15729 15096 11228 10023 16434 17714 12098 18719 18846 11062 11424 15207 19779 18529 18155 15166 19716 17042 17734 18819 11859 14436 13631 11233 16126 18295 14607 16409 18037 14856 17468 12898 14379 18035 18436 17265 18379 19207 14852 17240 11528 16245 10715 17768 12056 11856 19984 18348 10449 10047 12173 14400 15028 12768 18210 15458 12441 19651 13783 17942 13518 19800 14615 11140 18858 10649 13673 15304 16229 14051 16858 11445 10872 18978 10430 12704 11191 12522 16777 12450 19174 18463 19776 18155 19545 18639 17661 17024 18523 10527 15595 12206 10833 16209 11350 18464 14028 15070 16044 13582 11257 16565 11364 13823 18169 999999
999999 999999 999999 999999 999999 999999 999999 999999 999999 999999 999999 999999 999999 999999 999999 999999 999999 999999 999999 999999 999999 999999 999999 999999 999999 999999 999999 999999 999999 999999 999999 999999 999999 999999 999999 999999 999999 999999 999999 999999 999999 999999 999999 999999 999999 999999 999999 999999 999999 999999 999999 999999 999999 999999 999999 999999 999999 999999 999999 999999 999999 999999 999999 999999 999999 999999 999999 999999 999999 999999 999999 999999 999999 999999 999999 999999 999999 999999 999999 999999 999999 999999 999999 999999 999999 999999 999999 999999 999999 999999 999999 999999 999999 999999 999999 999999 999999 999999 999999 999999 999999 999999 999999 999999 999999 999999 999999 999999 999999 999999 999999 999999 999999 999999 999999 999999 999999 999999 999999 999999 999999 999999 999999 999999 999999 999999 999999 999999 999999 999999 999999 999999 999999 999999 999999 999999 999999 999999 999999 999999 999999 999999 999999 999999 999999 999999 999999 999999 999999 999999 999999 999999 999999 999999 999999 999999 999999 999999 999999 999999 0 18515 17996 10182 13188 16840 19517 10462 18312 19224 19558 15457 12684 17466 14431 13313 11324 12981 11784 16932 14234 13855 12204 18905 15676 12327 18119 10676 15419 15084 18569 14676 10382 14750 19686 14789 11190 13977 12145 12563 14661 14018 18764 17194 17730 17494 18334 19709 18297 17114 11908 16182 18064 12560 16505 12204 18451 15540 14307 13916 18957 10422 18785 12171 10430 15821 15756 10314 10763 16011 12090 11181 15762 19595 10366 18596 16369 13812 14251 15201 11529 13448 18491 13027 13404 13676 14752 14940 18276 16891 15233 19244 13637 12220 12399 12553 19854 19638 19753 18844 18762 14326 19777 14059 14749 18274 19581 12604 13157 17181 11699 12374 17903 16202 10921 19351 14555 19576 16373 10911 16866 18532 16899 14374 19180 13833 14516 18025 10905 18634 19353 12104 16100 19499 11363 12651 19730 16722 12171 12181 12696 16436 16012 13375 14992 16464 13681 12437 16957 11596 13675 14847 15710 19102 15067 15711 17328 13855 10464 18891 13144 999999
999999 14696 11383 10488 11011 18372 14971 14933 10387 14966 19131 16532 12549 10194 19601 11440 11003 17166 14339 18740 11050 12406 19708 14103 11043 15270 19960 12880 19826 10606 10225 15709 16855 13919 16333 14842 14665 11118 11830 14724 14262 15374 12075 17247 10744 11959 14070 15154 14525 15637 13018 12527 11183 16844 19914 19426 12682 19861 19156 13137 11757 18767 13285 11368 17875 12520 14961 12399 16313 11765 16890 16455 15201 10887 17404 15411 16712 12883 19850 12432 10880 13220 13505 11190 10710 14331 12263 12705 19142 11377 15056 15783 14056 16429 18671 10174 19906 11326 11676 19682 17522 15488 10302 16009 17540 17728 13445 15970 14458 14668 15677 19123 15084 17776 13608 14570 15055 16125 17124 18745 16591 11070 12140 18071 10278 15940 12714 17224 12076 19503 19130 13666 14373 12128 14961 18314 16715 13556 19660 18991 15224 15090 12428 13073 13382 13741 11909 12725 11272 15478 14850 13043 18485 18267 12828 12715 18034 10918 12659 15527 18515 0 999999 999999 999999 999999 999999 999999 999999 999999 999999 999999 999999 999999 999999 999999 999999 999999 999999 999999 999999 999999 999999 999999 999999 999999 999999 999999 999999 999999 999999 999999 999999 999999 999999 999999 999999 999999 999999 999999 999999 999999 999999 999999 999999 999999 999999 999999 999999 999999 999999 999999 999999 999999 999999 999999 999999 999999 999999 999999 999999 999999 999999 999999 999999 999999 999999 999999 999999 999999 999999 999999 999999 999999 999999 999999 999999 999999 999999 999999 999999 999999 999999 999999 999999 999999 999999 999999 999999 999999 999999 999999 999999 999999 999999 999999 999999 999999 999999 999999 999999 999999 999999 999999 999999 999999 999999 999999 999999 999999 999999 999999 999999 999999 999999 999999 999999 999999 999999 999999 999999 999999 999999 999999 999999 999999 999999 999999 999999 999999 999999 999999 999999 999999 999999 999999 999999 999999 999999 999999 999999 999999 999999 999999 999999 999999 999999 999999 999999 999999 999999 999999 999999 999999 999999 999999 999999 999999 999999 999999 999999 14770
999999 17209 12124 12049 16358 17813 15632 19347 16718 16748 17639 11826 15994 17671 11778 19897 16750 17880 19212 10344 14731 11513 12113 13797 16551 16474 10091 17217 17057 18331 14065 14768 10105 16399 12799 10449 19853 10185 14659 13544 19713 10127 18115 17847 11787 15752 17838 11989 10385 17103 18639 12797 18388 15809 10316 15853 17699 12445 19274 12769 14292 12835 14547 10172 13549 11997 19695 16451 12513 11799 13942 17737 10412 10331 15161 16334 17597 11150 15527 11633 15457 17585 18593 15209 13302 13989 18783 19045 11985 15768 14184 17153 13774 14182 13518 18898 18037 16366 11995 14888 18487 15024 17878 10964 17241 15254 10696 14561 15920 17350 13851 10727 11087 16150 17362 13241 16511 11525 19544 13501 11535 15898 16592 14227 10272 14919 15905 19613 16567 14597 18002 11162 11510 13885 10906 16538 17787 13622 16820 10091 11711 15075 15789 11378 12330 16044 15507 10420 16001 10189 10907 13529 15896 16319 12554 12262 13838 13449 12647 19348 17996 999999 0 999999 999999 999999 999999 999999 999999 999999 999999 999999 999999 999999 999999 999999 999999 999999 999999 999999 999999 999999 999999 999999 999999 999999 999999 999999 999999 999999 999999 999999 999999 999999 999999 999999 999999 999999 999999 999999 999999 999999 999999 999999 999999 999999 999999 999999 999999 999999 999999 999999 999999 999999 999999 999999 999999 999999 999999 999999 999999 999999 999999 999999 999999 999999 999999 999999 999999 999999 999999 999999 999999 999999 999999 999999 999999 999999 999999 999999 999999 999999 999999 999999 999999 999999 999999 999999 999999 999999 999999 999999 999999 999999 999999 999999 999999 999999 999999 999999 999999 999999 999999 999999 999999 999999 999999 999999 999999 999999 999999 999999 999999 999999 999999 999999 999999 999999 999999 999999 999999 999999 999999 999999 999999 999999 999999 999999 999999 999999 999999 999999 999999 999999 999999 999999 999999 999999 999999 999999 999999 999999 999999 999999 999999 999999 999999 999999 999999 999999 999999 999999 999999 999999 999999 999999 999999 999999 999999 999999 999999 7519
999999 13482 15249 12798 19758 10246 19216 18991 14945 17513 19670 16251 16713 19688 11829 16064 16227 11451 13986 18433 10026 15130 19662 19367 16281 19965 12470 11460 14706 14808 10069 13609 11157 18994 12197 14607 11090 13984 12593 17400 18352 19429 14172 15065 17978 12407 19951 15162 16902 19611 16186 16609 13948 13415 13534 19602 15825 16410 17319 19594 16812 15921 10455 12185 15635 19782 11533 11440 17989 14474 18497 14386 10290 15084 16609 11172 10387 14909 17913 15241 16874 13286 15636 12787 10389 16141 19942 17347 11765 16575 10440 19710 11838 14700 15391 16897 14619 19399 14675 16646 15335 11565 12267 10334 16869 16245 17509 15981 19316 14977 16332 16917 15714 12715 12237 17128 10033 10074 18630 14812 11870 14298 15702 16595 11911 16796 13129 11606 17934 15500 16604 14336 17607 19727 10844 17090 19546 13929 15525 13500 12529 19053 11204 17882 14645 12231 16066 11566 10909 19784 15787 11238 10911 10221 13691 13293 18832 16074 18761 12990 10182 999999 999999 0 999999 999999 999999 999999 999999 999999 999999 999999 999999 999999 999999 999999 999999 999999 999999 999999 999999 999999 999999 999999 999999 999999 999999 999999 999999 999999 999999 999999 999999 999999 999999 999999 999999 999999 999999 999999 999999 999999 999999 999999 999999 999999 999999 999999 999999 999999 999999 999999 999999 999999 999999 999999 999999 999999 999999 999999 999999 999999 999999 999999 999999 999999 999999 999999 999999 999999 999999 999999 999999 999999 999999 999999 999999 999999 999999 999999 999999 999999 999999 999999 999999 999999 999999 999999 999999 999999 999999 999999 999999 999999 999999 999999 999999 999999 999999 999999 999999 999999 999999 999999 999999 999999 999999 999999 999999 999999 999999 999999 999999 999999 999999 999999 999999 999999 999999 999999 999999 999999 999999 999999 999999 999999 999999 999999 999999 999999 999999 999999 999999 999999 999999 999999 999999 999999 999999 999999 999999 999999 999999 999999 999999 999999 999999 999999 999999 999999 999999 999999 999999 999999 999999 999999 999999 999999 999999 999999 999999 5144
999999 10225 11879 16884 14768 19023 12496 16988 16771 15862 13304 14786 10519 15277 14281 19240 14907 12396 19604 11481 14315 12552 14493 16356 14841 15894 14867 11847 15302 17566 14751 12074 16999 16790 12961 12447 18129 13362 15382 15623 12158 15746 10239 10677 13063 10216 10995 19702 11613 17852 14706 17185 13234 17371 12385 14872 12999 18779 16108 13418 18798 12634 15376 19957 14247 12307 17294 13885 11594 13698 19320 10728 10478 15431 13394 15664 14932 13130 12266 19611 12895 19205 14154 11659 19933 10601 15686 18571 18701 10540 16000 10554 15889 11775 19904 17077 17893 13760 12974 12211 12039 16524 19690 19336 13334 10626 15219 14623 18919 13294 19513 18570 16991 19994 19445 17326 15950 18904 10354 16424 13346 16837 12443 16346 18597 10470 13366 13182 12749 13919 14053 10481 11053 18038 17000 15058 10994 11020 12283 11278 12052 19766 19711 13614 12347 19108 13743 15216 11405 14149 18723 12521 17282 12810 11685 10621 12953 17454 17260 10757 13188 999999 999999 999999 0 999999 999999 999999 999999 999999 999999 999999 999999 999999 999999 999999 999999 999999 999999 999999 999999 999999 999999 999999 999999 999999 999999 999999 999999 999999 999999 999999 999999 999999 999999 999999 999999 999999 999999 999999 999999 999999 999999 999999 999999 999999 999999 999999 999999 999999 999999 999999 999999 999999 999999 999999 999999 999999 999999 999999 999999 999999 999999 999999 999999 999999 999999 999999 999999 999999 999999 999999 999999 999999 999999 999999 999999 999999 999999 999999 999999 999999 999999 999999 999999 999999 999999 999999 999999 999999 999999 999999 999999 999999 999999 999999 999999 999999 999999 999999 999999 999999 999999 999999 999999 999999 999999 999999 999999 999999 999999 999999 999999 999999 999999 999999 999999 999999 999999 999999 999999 999999 999999 999999 999999 999999 999999 999999 999999 999999 999999 999999 999999 999999 999999 999999 999999 999999 999999 999999 999999 999999 999999 999999 999999 999999 999999 999999 999999 999999 999999 999999 999999 999999 999999 999999 999999 999999 999999 999999 999999 11403
999999 13373 16310 11561 13838 11318 14626 12258 12904 16930 16968 15494 15338 11630 17114 13046 14603 19843 13224 11511 11376 16508 15700 16650 13845 16844 15124 15694 14804 15740 15225 19445 13664 19502 17333 13379 19347 18321 17089 19772 17427 17860 19831 15105 15082 17613 12597 14038 17783 15112 15209 13957 19309 11648 18683 12845 19681 14094 19730 13366 19934 12562 10523 10467 16638 14229 15393 19649 14664 17034 10145 17987 15763 18311 15904 17724 17298 14456 14539 15927 11925 14188 16610 12954 14700 12603 15548 15395 10258 12755 11540 16961 14146 14039 16667 15313 19362 19142 14222 17959 19842 11967 19955 15259 15311 10684 19227 11242 19529 16916 16265 14771 11840 16296 16933 10330 10461 11353 16428 18297 15945 13616 13937 16422 16762 10012 10475 11265 10045 13019 13120 17144 13636 14978 10901 12977 14662 13076 11582 18623 10944 18124 19720 15200 10579 10753 17603 18451 10067 18125 19578 11990 19502 17020 15204 18470 17114 12455 14120 12701 16840 999999 999999 999999 999999 0 999999 999999 999999 999999 999999 999999 999999 999999 999999 999999 999999 999999 999999 999999 999999 999999 999999 999999 999999 999999 999999 999999 999999 999999 999999 999999 999999 999999 999999 999999 999999 999999 999999 999999 999999 999999 999999 999999 999999 999999 999999 999999 999999 999999 999999 999999 999999 999999 999999 999999 999999 999999 999999 999999 999999 999999 999999 999999 999999 999999 999999 999999 999999 999999 999999 999999 999999 999999 999999 999999 999999 999999 999999 999999 999999 999999 999999 999999 999999 999999 999999 999999 999999 999999 999999 999999 999999 999999 999999 999999 999999 999999 999999 999999 999999 999999 999999 999999 999999 999999 999999 999999 999999 999999 999999 999999 999999 999999 999999 999999 999999 999999 999999 999999 999999 999999 999999 999999 999999 999999 999999 999999 999999 999999 999999 999999 999999 999999 999999 999999 999999 999999 999999 999999 999999 999999 999999 999999 999999 999999 999999 999999 999999 999999 999999 999999 999999 999999 999999 999999 999999 999999 999999 999999 999999 13536
999999 19632 19780 11241 14135 10897 18542 11885 11396 12694 11866 19545 19001 13928 11518 19926 17737 18155 19819 18317 11573 12783 19228 18220 14238 16764 19200 17308 14275 15809 11697 12831 18653 19835 11463 17702 17870 19798 15429 15740 14843 16038 15761 15552 14349 13208 10297 17953 13775 16202 18298 16082 12329 10559 15691 15176 18433 11634 18297 12215 14928 17970 15617 17295 19828 19381 17641 19378 19793 10866 18998 13141 10636 12591 12122 15286 18980 15701 14264 10349 13973 12271 12461 12381 11760 12998 10134 16855 16981 19009 14822 12519 19250 10697 14583 19167 17782 10332 19777 11512 13494 18997 12163 17583 10374 11988 18133 19613 18360 10760 17656 19306 12881 16186 16461 15738 17328 12680 12781 10870 14011 19205 17969 13714 16874 13923 10982 10013 16892 18710 15859 12374 15694 14556 11121 18808 16803 16009 17118 15945 19299 12216 19173 10558 10658 15964 10424 18056 13760 16185 18871 19621 16514 13447 16329 16003 19077 13466 16797 12078 19517 999999 999999 999999 999999 999999 0 999999 999999 999999 999999 999999 999999 999999 999999 999999 999999 999999 999999 999999 999999 999999 999999 999999 999999 999999 999999 999999 999999 999999 999999 999999 999999 999999 999999 999999 999999 999999 999999 999999 999999 999999 999999 999999 999999 999999 999999 999999 999999 999999 999999 999999 999999 999999 999999 999999 999999 999999 999999 999999 999999 999999 999999 999999 999999 999999 999999 999999 999999 999999 999999 999999 999999 999999 999999 999999 999999 999999 999999 999999 999999 999999 999999 999999 999999 999999 999999 999999 999999 999999 999999 999999 999999 999999 999999 999999 999999 999999 999999 999999 999999 999999 999999 999999 999999 999999 999999 999999 999999 999999 999999 999999 999999 999999 999999 999999 999999 999999 999999 999999 999999 999999 999999 999999 999999 999999 999999 999999 999999 999999 999999 999999 999999 999999 999999 999999 999999 999999 999999 999999 999999 999999 999999 999999 999999 999999 999999 999999 999999 999999 999999 999999 999999 999999 999999 999999 999999 999999 999999 999999 999999 7300
999999 11812 12515 10033 17891 12236 18936 15595 11931 18090 13572 13379 10030 17880 13488 13681 16165 17056 17672 12087 12673 10676 16742 17172 10181 17446 18139 10965 10591 14990 16285 14073 16562 17477 19377 15162 19854 16341 19381 12091 11394 12897 18217 18720 17883 11401 13154 17431 18124 13717 12558 10754 14918 19498 13977 10257 11441 11612 12951 14202 12285 19924 19381 11501 19942 17974 18248 13168 16248 13656 14321 19425 16526 16566 13063 17982 16144 19933 18199 11420 11919 11445 11915 15738 18305 15815 17091 14886 15676 13305 17955 13204 18520 13008 17292 13188 17122 12607 17035 15984 19496 19885 18896 15711 17053 19152 19505 15825 14089 17596 11605 15268 15598 19476 17047 17787 10580 17733 15241 14459 12621 18176 16481 16592 19300 13706 10211 12681 11461 18603 13030 14762 12155 13721 14716 11004 10736 15133 16108 15626 12448 19712 12076 17353 14574 12947 19345 16177 13425 18499 13614 11045 15366 10256 16133 18687 14997 10132 14682 11962 10462 999999 999999 999999 999999 999999 999999 0 999999 999999 999999 999999 999999 999999 999999 999999 999999 999999 999999 999999 999999 999999 999999 999999 999999 999999 999999 999999 999999 999999 999999 999999 999999 999999 999999 999999 999999 999999 999999 999999 999999 999999 999999 999999 999999 999999 999999 999999 999999 999999 999999 999999 999999 999999 999999 999999 999999 999999 999999 999999 999999 999999 999999 999999 999999 999999 999999 999999 999999 999999 999999 999999 999999 999999 999999 999999 999999 999999 999999 999999 999999 999999 999999 999999 999999 999999 999999 999999 999999 999999 999999 999999 999999 999999 999999 999999 999999 999999 999999 999999 999999 999999 999999 999999 999999 999999 999999 999999 999999 999999 999999 999999 999999 999999 999999 999999 999999 999999 999999 999999 999999 999999 999999 999999 999999 999999 999999 999999 999999 999999 999999 999999 999999 999999 999999 999999 999999 999999 999999 999999 999999 999999 999999 999999 999999 999999 999999 999999 999999 999999 999999 999999 999999 999999 999999 999999 999999 999999 999999 999999 999999 10833
999999 13229 14491 12872 16614 16907 16255 11235 18643 17819 18489 14826 18999 18335 14808 12959 11645 17259 12887 11975 17177 13461 12894 19354 10646 13124 16318 11512 16342 11851 16342 10986 17785 18311 13378 12221 15793 12023 16655 12299 16569 10697 14182 14690 17253 12881 18808 16914 12199 13046 15195 13622 10444 10165 14009 12347 11791 12133 11177 19697 10999 14056 11414 14824 18541 16838 17807 14101 16275 14694 18788 19819 17663 14734 18639 17732 14047 17658 17109 17392 17308 14699 18036 10482 14100 10395 16487 17127 11827 11269 11729 19727 18063 17885 17248 17346 12041 11505 19235 16896 18833 10197 10231 18389 18046 14337 13332 18051 11660 13432 17335 19975 17085 17959 15926 17763 16231 10216 19597 13856 12911 10685 10965 13121 18756 13634 19152 16407 13567 15801 18884 13316 10253 13086 17008 17591 13190 14819 14974 12416 13869 10064 10554 14544 18336 10068 17210 16485 17944 14346 11762 15113 15433 18976 18243 11857 12611 12086 14374 19435 18312 999999 999999 999999 999999 999999 999999 999999 0 999999 999999 999999 999999 999999 999999 999999 999999 999999 999999 999999 999999 999999 999999 999999 999999 999999 999999 999999 999999 999999 999999 999999 999999 999999 999999 999999 999999 999999 999999 999999 999999 999999 999999 999999 999999 999999 999999 999999 999999 999999 999999 999999 999999 999999 999999 999999 999999 999999 999999 999999 999999 999999 999999 999999 999999 999999 999999 999999 999999 999999 999999 999999 999999 999999 999999 999999 999999 999999 999999 999999 999999 999999 999999 999999 999999 999999 999999 999999 999999 999999 999999 999999 999999 999999 999999 999999 999999 999999 999999 999999 999999 999999 999999 999999 999999 999999 999999 999999 999999 999999 999999 999999 999999 999999 999999 999999 999999 999999 999999 999999 999999 999999 999999 999999 999999 999999 999999 999999 999999 999999 999999 999999 999999 999999 999999 999999 999999 999999 999999 999999 999999 999999 999999 999999 999999 999999 999999 999999 999999 999999 999999 999999 999999 999999 999999 999999 999999 999999 999999 999999 999999 6278
999999 13065 12267 12578 10969 11915 18654 10270 15315 19207 10100 19672 17026 17069 19693 14480 19611 19745 19752 18001 12176 16770 15078 10338 17729 13127 18548 15158 10546 12603 14231 17827 17086 10320 18460 17618 17030 19305 17916 10499 16025 14224 13635 12922 10826 15305 18059 16700 19590 15269 12316 14716 16735 18787 19155 17936 14497 17562 17184 19385 19194 12630 17373 16171 18435 14018 13426 15532 17763 17944 10658 12253 10092 13068 13536 18181 11799 18583 13037 10995 16969 12015 18579 18619 16642 14427 11285 13810 11138 17192 15961 12147 17696 12686 18139 14229 12178 18972 11722 15857 17182 12958 11908 11322 11406 13135 14662 15016 18836 17843 18306 18078 17459 12108 11661 17144 10882 18611 11588 18361 18702 14282 19754 19898 17077 14330 13400 11340 14827 16482 11112 19361 19057 14680 15745 10701 15811 10902 11054 14122 14638 10457 15953 12102 16895 11256 19815 13816 14399 18747 15549 19310 12602 11952 11467 16978 11582 15844 10499 19138 19224 999999 999999 999999 999999 999999 999999 999999 999999 0 999999 999999 999999 999999 999999 999999 999999 999999 999999 999999 999999 999999 999999 999999 999999 999999 999999 999999 999999 999999 999999 999999 999999 999999 999999 999999 999999 999999 999999 999999 999999 999999 999999 999999 999999 999999 999999 999999 999999 999999 999999 999999 999999 999999 999999 999999 999999 999999 999999 999999 999999 999999 999999 999999 999999 999999 999999 999999 999999 999999 999999 999999 999999 999999 999999 999999 999999 999999 999999 999999 999999 999999 999999 999999 999999 999999 999999 999999 999999 999999 999999 999999 999999 999999 999999 999999 999999 999999 999999 999999 999999 999999 999999 999999 999999 999999 999999 999999 999999 999999 999999 999999 999999 999999 999999 999999 999999 999999 999999 999999 999999 999999 999999 999999 999999 999999 999999 999999 999999 999999 999999 999999 999999 999999 999999 999999 999999 999999 999999 999999 999999 999999 999999 999999 999999 999999 999999 999999 999999 999999 999999 999999 999999 999999 999999 999999 999999 999999 999999 999999 999999 11009
999999 13359 10801 19864 19898 17790 16714 15176 10743 10239 18731 14157 14282 10699 15360 10234 10763 12918 13315 17377 12124 17290 16151 13313 19296 15845 11664 16244 15362 17282 18828 15685 11692 13450 10991 15884 11916 17474 16435 15117 14102 17576 19568 17389 13539 14877 11342 12250 13744 18870 12842 10395 15530 17799 13074 17153 10824 11499 14625 12661 14142 16778 19733 18952 11916 12689 10352 17351 14008 13889 19968 16410 13152 16370 18421 18074 17751 18297 11091 16410 16469 19880 18016 11305 14028 16969 14877 10456 15760 18514 16574 10411 19845 14368 18105 11549 11190 15305 12357 15492 17293 12332 18665 17451 16879 16375 18766 11552 11015 12269 14598 13741 17410 19649 10125 14596 12380 16901 16362 11810 17939 14517 10417 19631 18199 16186 17928 19182 16890 16289 16623 10821 18817 14617 18425 18210 15888 18994 18910 16698 10547 12974 11356 12775 14479 11456 19179 12465 14461 12747 18884 17520 16351 16910 13797 17458 13127 17324 13022 15498 19558 999999 999999 999999 999999 999999 999999 999999 999999 999999 0 999999 999999 999999 999999 999999 999999 999999 999999 999999 999999 999999 999999 999999 999999 999999 999999 999999 999999 999999 999999 999999 999999 999999 999999 999999 999999 999999 999999 999999 999999 999999 999999 999999 999999 999999 999999 999999 999999 999999 999999 999999 999999 999999 999999 999999 999999 999999 999999 999999 999999 999999 999999 999999 999999 999999 999999 999999 999999 999999 999999 999999 999999 999999 999999 999999 999999 999999 999999 999999 999999 999999 999999 999999 999999 999999 999999 999999 999999 999999 999999 999999 999999 999999 999999 999999 999999 999999 999999 999999 999999 999999 999999 999999 999999 999999 999999 999999 999999 999999 999999 999999 999999 999999 999999 999999 999999 999999 999999 999999 999999 999999 999999 999999 999999 999999 999999 999999 999999 999999 999999 999999 999999 999999 999999 999999 999999 999999 999999 999999 999999 999999 999999 999999 999999 999999 999999 999999 999999 999999 999999 999999 999999 999999 999999 999999 999999 999999 999999 999999 999999 14334
999999 13109 14784 14074 12378 11573 12065 12279 10455 18999 12045 18637 16475 12263 13291 11260 11243 19320 15773 14495 12453 18774 14609 12671 18924 15091 19674 10998 19478 15937 15026 12160 10233 14176 12291 16365 11640 12405 12730 14788 19391 11768 12164 14685 16411 19745 19115 12564 14346 12628 12723 10447 19075 17126 16295 10725 13500 17565 12666 16291 14088 15287 17035 18969 15234 10021 14739 10177 11656 12501 10184 11482 17488 17551 19620 16354 14818 13340 15666 12580 14216 11065 11892 17769 19098 19527 11495 13566 12883 11030 15448 15715 10931 17031 12078 19373 11847 12978 11563 12999 15814 11377 15727 10919 11307 12994 15310 16079 19892 17707 11298 16756 17199 19186 18253 18974 15915 19854 14685 17473 14090 12829 19779 14169 13663 13362 10326 18101 18803 19713 16177 14404 14505 12345 11771 17866 12717 19696 14429 19823 17680 13359 18562 14120 18775 11150 11524 13395 18848 13899 17349 17277 12185 14870 17984 10889 10909 10903 19606 15744 15457 999999 999999 999999 999999 999999 999999 999999 999999 999999 999999 0 999999 999999 999999 999999 999999 999999 999999 999999 999999 999999 999999 999999 999999 999999 999999 999999 999999 999999 999999 999999 999999 999999 999999 999999 999999 999999 999999 999999 999999 999999 999999 999999 999999 999999 999999 999999 999999 999999 999999 999999 999999 999999 999999 999999 999999 999999 999999 999999 999999 999999 999999 999999 999999 999999 999999 999999 999999 999999 999999 999999 999999 999999 999999 999999 999999 999999 999999 999999 999999 999999 999999 999999 999999 999999 999999 999999 999999 999999 999999 999999 999999 999999 999999 999999 999999 999999 999999 999999 999999 999999 999999 999999 999999 999999 999999 999999 999999 999999 999999 999999 999999 999999 999999 999999 999999 999999 999999 999999 999999 999999 999999 999999 999999 999999 999999 999999 999999 999999 999999 999999 999999 999999 999999 999999 999999 999999 999999 999999 999999 999999 999999 999999 999999 999999 999999 999999 999999 999999 999999 999999 999999 999999 999999 999999 999999 999999 999999 999999 999999 11126
999999 17864 17899 11241 14486 19033 17965 19304 16599 19006 11508 16525 11529 14302 16309 13391 15091 13687 18648 17852 17976 12091 15194 19533 19715 14822 16498 10420 17766 13085 13581 15297 17062 12405 19650 19859 18307 12089 17391 19758 12448 18489 13814 12828 10211 16919 15197 12383 18765 15088 12374 17678 18911 16457 18813 11066 19561 10311 17664 16759 10671 11396 17547 10627 12003 15452 12905 15892 18262 19891 11978 13997 18225 16977 19477 11617 15398 16381 15000 17485 14882 19413 11077 10706 12822 12181 17646 18901 19860 16804 19779 11088 14492 10118 13389 15618 18022 15086 10794 13361 15570 15543 10210 12828 19587 16841 18889 19298 14643 13805 19646 12260 13426 11256 13283 15023 19756 13086 16673 14772 12384 16108 14763 12111 19375 12756 10197 12944 11675 13286 11362 16081 15325 12700 14137 10863 17758 12011 11591 10108 14448 17639 17213 18346 12350 14302 17403 14673 15889 13438 17735 12477 17921 15804 11645 13567 10096 17697 11498 11180 12684 999999 999999 999999 999999 999999 999999 999999 999999 999999 999999 999999 0 999999 999999 999999 999999 999999 999999 999999 999999 999999 999999 999999 999999 999999 999999 999999 999999 999999 999999 999999 999999 999999 999999 999999 999999 999999 999999 999999 999999 999999 999999 999999 999999 999999 999999 999999 999999 999999 999999 999999 999999 999999 999999 999999 999999 999999 999999 999999 999999 999999 999999 999999 999999 999999 999999 999999 999999 999999 999999 999999 999999 999999 999999 999999 999999 999999 999999 999999 999999 999999 999999 999999 999999 999999 999999 999999 999999 999999 999999 999999 999999 999999 999999 999999 999999 999999 999999 999999 999999 999999 999999 999999 999999 999999 999999 999999 999999 999999 999999 999999 999999 999999 999999 999999 999999 999999 999999 999999 999999 999999 999999 999999 999999 999999 999999 999999 999999 999999 999999 999999 999999 999999 999999 999999 999999 999999 999999 999999 999999 999999 999999 999999 999999 999999 999999 999999 999999 999999 999999 999999 999999 999999 999999 999999 999999 999999 999999 999999 999999 11637
999999 13093 16582 19876 12245 11285 11888 10231 11756 16346 18369 11419 13850 10062 11485 14128 13177 17101 13966 18027 14698 13897 15407 11542 14433 12771 16762 10249 18925 14538 10033 14187 19016 13429 15252 13434 15387 18980 16300 17220 14075 13915 13185 19638 11921 17096 16401 19025 17783 15172 11663 19014 11898 19360 17174 17276 15808 12891 18385 12909 15860 17771 18289 10195 14974 15844 14033 14174 13819 10632 17435 19919 16502 14827 19962 18023 11903 18340 14043 10550 10975 16388 13721 18188 14338 12963 13827 19395 11518 10176 17585 11215 18753 12944 10510 14213 18881 11763 16269 16714 17983 10660 19422 16536 16439 16828 15742 18495 13841 11409 11058 19312 12094 16836 10329 11396 12284 19554 13983 13949 18990 15523 11401 15289 18625 17099 11494 12818 12894 13180 18870 15444 14293 14208 10181 19846 14710 10531 15833 19671 18413 13348 10491 16265 14441 10063 17385 18210 15859 18653 11243 14912 14280 19697 10589 13195 11951 16976 18693 16502 17466 999999 999999 999999 999999 999999 999999 999999 999999 999999 999999 999999 999999 0 999999 999999 999999 999999 999999 999999 999999 999999 999999 999999 999999 999999 999999 999999 999999 999999 999999 999999 999999 999999 999999 999999 999999 999999 999999 999999 999999 999999 999999 999999 999999 999999 999999 999999 999999 999999 999999 999999 999999 999999 999999 999999 999999 999999 999999 999999 999999 999999 999999 999999 999999 999999 999999 999999 999999 999999 999999 999999 999999 999999 999999 999999 999999 999999 999999 999999 999999 999999 999999 999999 999999 999999 999999 999999 999999 999999 999999 999999 999999 999999 999999 999999 999999 999999 999999 999999 999999 999999 999999 999999 999999 999999 999999 999999 999999 999999 999999 999999 999999 999999 999999 999999 999999 999999 999999 999999 999999 999999 999999 999999 999999 999999 999999 999999 999999 999999 999999 999999 999999 999999 999999 999999 999999 999999 999999 999999 999999 999999 999999 999999 999999 999999 999999 999999 999999 999999 999999 999999 999999 999999 999999 999999 999999 999999 999999 999999 999999 9921
999999 10801 11715 11469 19635 18200 19141 17704 12409 14378 10300 16340 12920 17419 10979 11876 16650 16397 10512 13039 19375 19388 19683 13982 17433 17395 14770 16277 18518 11678 13695 15258 19645 17981 19521 12508 15830 15599 19413 15005 11871 10145 16517 16903 19740 11430 15476 18378 15945 15942 14586 15345 18272 13468 12085 19885 12908 13209 17224 19230 14826 10193 18203 16159 11452 14326 18155 14680 10695 15912 18081 15241 19523 16779 12294 17024 13750 15546 12864 19589 10443 10146 12839 11993 13163 15211 16377 17884 18438 18542 16460 18185 11667 17349 13728 15768 12303 19308 11926 16167 13114 13370 18514 10380 14136 19914 17270 13864 18473 12344 19127 13156 11681 12098 15351 12337 15703 14721 15875 16618 15321 12536 15572 14194 10147 15524 12801 17388 10798 16006 16651 17583 11762 11507 13129 17996 19075 13319 19528 15048 17297 16055 19370 14953 16755 18390 10491 13118 15295 16230 12139 11448 15966 19345 10324 15690 14529 13566 11639 15052 14431 999999 999999 999999 999999 999999 999999 999999 999999 999999 999999 999999 999999 999999 0 999999 999999 999999 999999 999999 999999 999999 999999 999999 999999 999999 999999 999999 999999 999999 999999 999999 999999 999999 999999 999999 999999 999999 999999 999999 999999 999999 999999 999999 999999 999999 999999 999999 999999 999999 999999 999999 999999 999999 999999 999999 999999 999999 999999 999999 999999 999999 999999 999999 999999 999999 999999 999999 999999 999999 999999 999999 999999 999999 999999 999999 999999 999999 999999 999999 999999 999999 999999 999999 999999 999999 999999 999999 999999 999999 999999 999999 999999 999999 999999 999999 999999 999999 999999 999999 999999 999999 999999 999999 999999 999999 999999 999999 999999 999999 999999 999999 999999 999999 999999 999999 999999 999999 999999 999999 999999 999999 999999 999999 999999 999999 999999 999999 999999 999999 999999 999999 999999 999999 999999 999999 999999 999999 999999 999999 999999 999999 999999 999999 999999 999999 999999 999999 999999 999999 999999 999999 999999 999999 999999 999999 999999 999999 999999 999999 999999 5504
999999 12100 14597 11968 10587 14505 12553 13886 18447 12543 16877 14398 19118 19585 17049 18740 11066 17514 14492 13920 17528 11881 15423 17494 13048 11317 18278 18978 17368 19882 10233 12862 15444 18035 17177 15636 12328 19534 19389 12270 19158 10740 16902 15023 19666 10229 19115 14976 19948 14556 19191 10125 16655 12051 15682 19722 19613 16225 18868 10936 18897 16232 10714 12044 10546 15798 14024 17578 15291 18396 17677 19302 11895 16331 17573 16459 18482 14246 10321 18218 13077 10702 14464 14400 18254 18031 18881 15496 11300 17874 18161 17857 17228 14823 11019 10364 13349 11476 15022 11330 11632 16425 17479 10810 19968 12383 18711 14702 14978 13278 16132 19301 14139 19555 19032 11470 14590 18897 10319 10137 19945 10245 11107 11032 13688 10624 11765 16173 12020 19608 18104 15848 18800 12372 17288 14613 13364 18934 15556 17059 11403 17237 17152 18437 17342 13323 16041 10777 15585 19249 16617 11215 14966 15638 10806 14877 14120 17388 12030 18843 13313 999999 999999 999999 999999 999999 999999 999999 999999 999999 999999 999999 999999 999999 999999 0 999999 999999 999999 999999 999999 999999 999999 999999 999999 999999 999999 999999 999999 999999 999999 999999 999999 999999 999999 999999 999999 999999 999999 999999 999999 999999 999999 999999 999999 999999 999999 999999 999999 999999 999999 999999 999999 999999 999999 999999 999999 999999 999999 999999 999999 999999 999999 999999 999999 999999 999999 999999 999999 999999 999999 999999 999999 999999 999999 999999 999999 999999 999999 999999 999999 999999 999999 999999 999999 999999 999999 999999 999999 999999 999999 999999 999999 999999 999999 999999 999999 999999 999999 999999 999999 999999 999999 999999 999999 999999 999999 999999 999999 999999 999999 999999 999999 999999 999999 999999 999999 999999 999999 999999 999999 999999 999999 999999 999999 999999 999999 999999 999999 999999 999999 999999 999999 999999 999999 999999 999999 999999 999999 999999 999999 999999 999999 999999 999999 999999 999999 999999 999999 999999 999999 999999 999999 999999 999999 999999 999999 999999 999999 999999 999999 8221
999999 12414 15549 11208 19513 16459 11086 13167 18920 18286 19732 11935 11856 13565 18967 10628 17286 13771 19903 16301 16521 19445 16424 13047 17323 14938 10665 12516 14156 15270 11195 13971 10479 14556 14243 11927 15700 17482 15024 18359 17345 19319 19480 16524 15103 19730 14515 16071 17453 13766 13134 14827 12838 10349 18006 13765 17530 18024 16048 17653 15927 18068 11888 14547 11634 16137 10800 10845 15171 11621 12524 14710 12462 19377 13169 12754 10654 15661 10754 12114 18372 12215 16633 12123 16014 11144 14445 15686 13951 11953 12853 14901 19143 12646 14742 13910 19697 16155 10453 14540 14515 17394 17775 13998 14013 16049 14846 11406 17306 12881 16627 15231 17673 15615 17424 12337 13010 17970 13764 12433 14374 15354 19941 18865 18030 16363 12184 11958 14840 11179 16441 19983 10213 11604 10831 10599 12449 18125 10775 18589 10690 12546 13026 12670 14842 16837 12613 10987 15561 15999 16337 10828 19967 18159 15016 16900 15956 11037 13039 17083 11324 999999 999999 999999 999999 999999 999999 999999 999999 999999 999999 999999 999999 999999 999999 999999 0 999999 999999 999999 999999 999999 999999 999999 999999 999999 999999 999999 999999 999999 999999 999999 999999 999999 999999 999999 999999 999999 999999 999999 999999 999999 999999 999999 999999 999999 999999 999999 999999 999999 999999 999999 999999 999999 999999 999999 999999 999999 999999 999999 999999 999999 999999 999999 999999 999999 999999 999999 999999 999999 999999 999999 999999 999999 999999 999999 999999 999999 999999 999999 999999 999999 999999 999999 999999 999999 999999 999999 999999 999999 999999 999999 999999 999999 999999 999999 999999 999999 999999 999999 999999 999999 999999 999999 999999 999999 999999 999999 999999 999999 999999 999999 999999 999999 999999 999999 999999 999999 999999 999999 999999 999999 999999 999999 999999 999999 999999 999999 999999 999999 999999 999999 999999 999999 999999 999999 999999 999999 999999 999999 999999 999999 999999 999999 999999 999999 999999 999999 999999 999999 999999 999999 999999 999999 999999 999999 999999 999999 999999 999999 999999 7554
999999 16341 10963 17014 15493 11535 13124 19705 15838 11499 19004 13691 10737 16767 10478 17644 14320 10692 18055 11972 13385 12347 19788 16162 18790 17484 17829 10346 18122 15547 12082 15816 19649 11295 16757 11067 19994 13203 17276 17237 17845 10014 14890 14533 11716 19983 10008 10422 17376 10078 18539 16327 11799 11369 12370 16258 15881 12142 19487 10284 12035 12682 15558 11337 11574 18780 13833 15242 11721 17585 15706 11009 17366 15081 11802 11543 11547 14866 14633 14009 14713 17042 14541 14112 15486 14863 12709 15346 12040 16436 13854 12200 12490 15476 13342 10215 13575 12895 10777 14478 13148 17623 19354 10136 16815 17045 18361 18314 19188 14519 15729 12996 14773 16178 18559 12241 18369 16459 18228 18190 15073 16171 15332 16601 12784 16563 15778 12413 12673 15750 13092 14508 18094 10096 12841 19268 17338 16904 15703 11846 14786 16594 19006 13112 17733 19742 15263 18329 11746 10907 11285 18580 19983 11121 12502 16421 19155 18635 10020 10559 12981 999999 999999 999999 999999 999999 999999 999999 999999 999999 999999 999999 999999 999999 999999 999999 999999 0 999999 999999 999999 999999 999999 999999 999999 999999 999999 999999 999999 999999 999999 999999 999999 999999 999999 999999 999999 999999 999999 999999 999999 999999 999999 999999 999999 999999 999999 999999 999999 999999 999999 999999 999999 999999 999999 999999 999999 999999 999999 999999 999999 999999 999999 999999 999999 999999 999999 999999 999999 999999 999999 999999 999999 999999 999999 999999 999999 999999 999999 999999 999999 999999 999999 999999 999999 999999 999999 999999 999999 999999 999999 999999 999999 999999 999999 999999 999999 999999 999999 999999 999999 999999 999999 999999 999999 999999 999999 999999 999999 999999 999999 999999 999999 999999 999999 999999 999999 999999 999999 999999 999999 999999 999999 999999 999999 999999 999999 999999 999999 999999 999999 999999 999999 999999 999999 999999 999999 999999 999999 999999 999999 999999 999999 999999 999999 999999 999999 999999 999999 999999 999999 999999 999999 999999 999999 999999 999999 999999 999999 999999 999999 12551
999999 13320 13001 11659 13331 15848 16623 19988 12221 14409 11710 15923 16393 19512 11414 10677 14038 17066 15989 16374 10490 17687 16826 15999 15909 18902 19737 13039 12977 11393 14892 12269 19505 16078 19745 13595 12297 11495 13784 11979 11753 18014 14704 17933 19104 17289 15554 13207 15541 11828 12990 17018 15029 15723 20000 17294 18422 14463 10683 15707 15700 12065 19850 14859 15056 15194 11040 14099 17327 19909 13514 14881 17497 18313 17192 18998 12261 12996 15795 12519 18247 16866 13634 18529 17037 19832 17621 19570 12890 14014 11869 14311 17498 10644 19808 19143 17190 11926 18916 17275 17025 11977 19754 11606 16341 15403 15333 16590 15423 13818 18070 11134 18522 12886 19163 17600 13204 18211 11955 13394 12765 18007 19608 10195 18367 11874 15484 18566 11981 18275 11342 17792 17936 17432 11134 13364 18264 19250 10965 16442 13161 13187 13061 10392 17738 19383 19366 16235 12919 15669 16078 14640 13934 11348 10997 19879 17567 13277 10264 11669 11784 999999 999999 999999 999999 999999 999999 999999 999999 999999 999999 999999 999999 999999 999999 999999 999999 999999 0 999999 999999 999999 999999 999999 999999 999999 999999 999999 999999 999999 999999 999999 999999 999999 999999 999999 999999 999999 999999 999999 999999 999999 999999 999999 999999 999999 999999 999999 999999 999999 999999 999999 999999 999999 999999 999999 999999 999999 999999 999999 999999 999999 999999 999999 999999 999999 999999 999999 999999 999999 999999 999999 999999 999999 999999 999999 999999 999999 999999 999999 999999 999999 999999 999999 999999 999999 999999 999999 999999 999999 999999 999999 999999 999999 999999 999999 999999 999999 999999 999999 999999 999999 999999 999999 999999 999999 999999 999999 999999 999999 999999 999999 999999 999999 999999 999999 999999 999999 999999 999999 999999 999999 999999 999999 999999 999999 999999 999999 999999 999999 999999 999999 999999 999999 999999 999999 999999 999999 999999 999999 999999 999999 999999 999999 999999 999999 999999 999999 999999 999999 999999 999999 999999 999999 999999 999999 999999 999999 999999 999999 999999 8451
999999 10595 17547 16309 19716 16593 10573 13999 14181 16037 12148 14627 15518 13192 10185 12943 16791 19909 17481 10087 17815 16710 17612 15360 14178 11229 19125 16725 15648 12981 17725 19989 14588 14769 19789 10127 14632 12817 17786 14770 10291 12894 15941 10852 11721 10533 15714 15358 15507 15571 12060 14670 15990 15807 10474 15691 10146 13733 19628 18577 17535 11314 10737 17938 11936 10323 13527 11932 12003 10659 14815 15428 12092 11254 14554 16142 13987 14909 14727 18952 11141 11131 19299 12363 17130 15963 18219 14937 17817 15910 13917 15727 10607 16594 17040 11469 16140 11844 15693 10803 17689 17162 12697 14491 17868 17855 11327 15849 13795 12461 12103 15701 15673 18594 11656 18835 15235 11208 12053 15268 15410 11093 18782 18467 18714 19941 17385 16631 19345 16865 18881 12337 14838 13239 18309 12208 17885 15757 13819 10187 12589 13096 17614 19126 10212 14822 12658 14472 10595 17110 13449 14048 12129 18362 18052 14572 13096 19530 12140 10317 16932 999999 999999 999999 999999 999999 999999 999999 999999 999999 999999 999999 999999 999999 999999 999999 999999 999999 999999 0 999999 999999 999999 999999 999999 999999 999999 999999 999999 999999 999999 999999 999999 999999 999999 999999 999999 999999 999999 999999 999999 999999 999999 999999 999999 999999 999999 999999 999999 999999 999999 999999 999999 999999 999999 999999 999999 999999 999999 999999 999999 999999 999999 999999 999999 999999 999999 999999 999999 999999 999999 999999 999999 999999 999999 999999 999999 999999 999999 999999 999999 999999 999999 999999 999999 999999 999999 999999 999999 999999 999999 999999 999999 999999 999999 999999 999999 999999 999999 999999 999999 999999 999999 999999 999999 999999 999999 999999 999999 999999 999999 999999 999999 999999 999999 999999 999999 999999 999999 999999 999999 999999 999999 999999 999999 999999 999999 999999 999999 999999 999999 999999 999999 999999 999999 999999 999999 999999 999999 999999 999999 999999 999999 999999 999999 999999 999999 999999 999999 999999 999999 999999 999999 999999 999999 999999 999999 999999 999999 999999 999999 9059
999999 14987 14477 15473 18517 18004 12955 14181 17053 12243 19322 15105 12067 11862 19346 15793 14300 16942 15806 14989 10968 14456 18464 17232 18817 16600 12299 16326 13203 12481 15823 10055 19914 12653 16265 10433 15917 14071 18781 10040 17365 10359 18088 11595 19110 12977 17253 13058 13866 13942 16464 12074 11647 17005 10185 16725 12340 14937 19269 12294 15923 10258 10641 17816 15093 19338 15925 19555 16771 14704 17593 19752 16331 15781 19875 13267 12745 17457 11335 13310 19740 12847 11017 17246 12498 12497 15924 16634 17373 11555 18515 17591 15563 13410 19444 15084 19198 10747 10385 13294 16869 12520 10167 13863 15060 10015 18335 19867 14952 13224 18338 11902 16494 16228 14746 12544 10848 14832 17537 13527 15762 12149 11956 16422 11035 15119 11994 14480 18573 11416 19010 11572 11208 14094 13612 15605 13277 15262 15501 10010 10517 17873 17336 19790 13421 17423 13040 14847 11693 16116 10946 16528 10583 10886 13976 10232 13990 10498 19529 18100 14234 999999 999999 999999 999999 999999 999999 999999 999999 999999 999999 999999 999999 999999 999999 999999 999999 999999 999999 999999 0 999999 999999 999999 999999 999999 999999 999999 999999 999999 999999 999999 999999 999999 999999 999999 999999 999999 999999 999999 999999 999999 999999 999999 999999 999999 999999 999999 999999 999999 999999 999999 999999 999999 999999 999999 999999 999999 999999 999999 999999 999999 999999 999999 999999 999999 999999 999999 999999 999999 999999 999999 999999 999999 999999 999999 999999 999999 999999 999999 999999 999999 999999 999999 999999 999999 999999 999999 999999 999999 999999 999999 999999 999999 999999 999999 999999 999999 999999 999999 999999 999999 999999 999999 999999 999999 999999 999999 999999 999999 999999 999999 999999 999999 999999 999999 999999 999999 999999 999999 999999 999999 999999 999999 999999 999999 999999 999999 999999 999999 999999 999999 999999 999999 999999 999999 999999 999999 999999 999999 999999 999999 999999 999999 999999 999999 999999 999999 999999 999999 999999 999999 999999 999999 999999 999999 999999 999999 999999 999999 999999 5006
999999 17119 18574 11734 12738 16820 11594 16411 12863 14639 13665 16330 17758 17865 19799 16307 19031 14887 18468 14498 19423 11713 18154 13361 14282 11887 18422 10174 18169 18804 18745 11570 16027 13640 10216 13018 13599 13826 18533 10656 11510 13725 14155 12006 15982 18950 16283 11564 19836 18246 18969 11954 17100 17870 16745 19692 17917 19077 12757 18232 11906 18942 19650 18499 19570 10724 10385 11911 10328 18870 11156 12097 10247 11137 18407 15634 14068 12623 11125 10544 13780 17790 14549 17728 17985 13042 10802 10962 16585 11216 13708 18557 15800 18168 11366 16815 13433 17081 17598 19398 13399 10996 12822 10451 17811 18713 16726 15602 14906 15027 14486 11439 18669 14807 19926 13448 17779 12738 13658 16719 11521 15310 11441 14051 17594 10074 12203 19284 18730 11787 17338 13040 14177 15208 14850 13793 15233 13112 16577 18553 15854 15963 14313 12274 10266 10536 17244 17941 19191 11062 10619 10576 17944 19208 10281 13459 15484 13203 12532 11853 13855 999999 999999 999999 999999 999999 999999 999999 999999 999999 999999 999999 999999 999999 999999 999999 999999 999999 999999 999999 999999 0 999999 999999 999999 999999 999999 999999 999999 999999 999999 999999 999999 999999 999999 999999 999999 999999 999999 999999 999999 999999 999999 999999 999999 999999 999999 999999 999999 999999 999999 999999 999999 999999 999999 999999 999999 999999 999999 999999 999999 999999 999999 999999 999999 999999 999999 999999 999999 999999 999999 999999 999999 999999 999999 999999 999999 999999 999999 999999 999999 999999 999999 999999 999999 999999 999999 999999 999999 999999 999999 999999 999999 999999 999999 999999 999999 999999 999999 999999 999999 999999 999999 999999 999999 999999 999999 999999 999999 999999 999999 999999 999999 999999 999999 999999 999999 999999 999999 999999 999999 999999 999999 999999 999999 999999 999999 999999 999999 999999 999999 999999 999999 999999 999999 999999 999999 999999 999999 999999 999999 999999 999999 999999 999999 999999 999999 999999 999999 999999 999999 999999 999999 999999 999999 999999 999999 999999 999999 999999 999999 14387
999999 14670 15966 19631 10447 11131 14170 19939 17779 15882 16768 18268 12270 12010 14781 15734 19194 12141 14956 11849 10769 14937 12139 16978 14310 16778 16717 16915 10759 11232 19486 14735 19388 15007 18012 18714 13364 11491 16318 18528 15078 10296 13876 16260 14851 16239 14095 10752 16833 13265 10399 18447 13248 15391 13432 16235 18908 15371 13262 13656 15782 11617 14095 10252 13633 12865 19462 12446 19639 14325 13820 14689 12698 11719 15290 12299 12257 19729 12755 11364 15923 15745 16615 13510 10200 19561 19407 18248 17152 17460 11300 11542 11057 14207 12944 15020 19798 15120 10900 13106 16134 12809 17012 13963 10078 16859 16059 11414 17972 19604 13321 17307 14386 18357 19243 14954 18529 10646 17413 15612 11900 11197 12863 18402 11108 19436 10620 19100 19637 16694 11555 19611 10308 10774 16414 12203 18951 14758 16015 17915 10172 17002 14474 12435 16852 13765 16382 13879 17021 12890 15880 19238 14065 11945 17280 11853 19326 14419 13979 14943 12204 999999 999999 999999 999999 999999 999999 999999 999999 999999 999999 999999 999999 999999 999999 999999 999999 999999 999999 999999 999999 999999 0 999999 999999 999999 999999 999999 999999 999999 999999 999999 999999 999999 999999 999999 999999 999999 999999 999999 999999 999999 999999 999999 999999 999999 999999 999999 999999 999999 999999 999999 999999 999999 999999 999999 999999 999999 999999 999999 999999 999999 999999 999999 999999 999999 999999 999999 999999 999999 999999 999999 999999 999999 999999 999999 999999 999999 999999 999999 999999 999999 999999 999999 999999 999999 999999 999999 999999 999999 999999 999999 999999 999999 999999 999999 999999 999999 999999 999999 999999 999999 999999 999999 999999 999999 999999 999999 999999 999999 999999 999999 999999 999999 999999 999999 999999 999999 999999 999999 999999 999999 999999 999999 999999 999999 999999 999999 999999 999999 999999 999999 999999 999999 999999 999999 999999 999999 999999 999999 999999 999999 999999 999999 999999 999999 999999 999999 999999 999999 999999 999999 999999 999999 999999 999999 999999 999999 999999 999999 999999 11090
999999 15825 11512 19071 16333 19058 13268 16646 11211 13452 13550 19758 19061 18836 14891 19354 15758 16467 18338 15758 18488 18599 10191 11430 12525 11150 10914 10994 10744 10765 10730 13412 17341 19389 10947 11579 15879 15816 10577 18998 16583 14652 13229 13649 13598 12999 16932 14269 17559 10940 10027 14660 10936 19739 12675 15271 18376 16691 18122 18870 19322 15844 13385 16246 10343 14524 14123 11527 17921 14875 13821 18736 18698 10624 14784 12888 18068 16096 11034 10842 13969 13800 15430 17729 15400 15995 12863 11211 12308 11374 11825 13409 15533 15892 11499 12825 10010 10418 15845 12173 12586 10461 10890 11676 14684 15978 13107 12668 17166 12333 16701 19783 10794 15865 19059 14082 14920 12951 17372 10827 10540 17712 10652 14231 18563 16219 12448 17621 16333 15971 14811 15516 10547 12638 13777 17371 11754 15655 18427 14240 11159 13944 16802 13576 14690 14125 12772 19969 14954 12827 14037 16127 10114 13782 10007 13388 10732 17760 12085 18581 18905 999999 999999 999999 999999 999999 999999 999999 999999 999999 999999 999999 999999 999999 999999 999999 999999 999999 999999 999999 999999 999999 999999 0 999999 999999 999999 999999 999999 999999 999999 999999 999999 999999 999999 999999 999999 999999 999999 999999 999999 999999 999999 999999 999999 999999 999999 999999 999999 999999 999999 999999 999999 999999 999999 999999 999999 999999 999999 999999 999999 999999 999999 999999 999999 999999 999999 999999 999999 999999 999999 999999 999999 999999 999999 999999 999999 999999 999999 999999 999999 999999 999999 999999 999999 999999 999999 999999 999999 999999 999999 999999 999999 999999 999999 999999 999999 999999 999999 999999 999999 999999 999999 999999 999999 999999 999999 999999 999999 999999 999999 999999 999999 999999 999999 999999 999999 999999 999999 999999 999999 999999 999999 999999 999999 999999 999999 999999 999999 999999 999999 999999 999999 999999 999999 999999 999999 999999 999999 999999 999999 999999 999999 999999 999999 999999 999999 999999 999999 999999 999999 999999 999999 999999 999999 999999 999999 999999 999999 999999 999999 5092
999999 16124 10033 19136 12701 17065 13697 11692 13271 19772 18961 15412 15797 11655 15857 17038 12308 12497 10551 10305 12588 10081 15771 17945 17468 13224 15985 10344 18651 10298 18991 11942 10765 19269 19915 12255 19432 16155 16257 19986 14140 15422 14239 10744 10641 11238 19670 12480 13625 11252 17958 19175 14350 16270 18619 17541 10573 13473 15071 14192 18256 19469 17413 15511 10066 17101 19564 10116 17358 19771 18549 18711 16448 14293 12679 10042 17444 19519 14682 17062 15918 10871 17672 18724 18256 10499 11595 14753 11449 16875 15808 10725 10759 17395 11724 12657 13990 18325 12917 11191 12475 18595 13761 12653 10966 13684 18571 18809 10651 16664 11257 18584 17641 11831 15084 17116 11577 12533 17366 17659 16006 19200 16102 11235 13485 19024 13870 10185 14652 14715 10137 17740 16281 19210 10078 10115 17887 14582 14531 18293 19023 13093 10104 17051 15025 16009 19729 18519 12705 11783 18717 16491 15155 14619 17130 11823 13549 15525 11130 17463 15676 999999 999999 999999 999999 999999 999999 999999 999999 999999 999999 999999 999999 999999 999999 999999 999999 999999 999999 999999 999999 999999 999999 999999 0 999999 999999 999999 999999 999999 999999 999999 999999 999999 999999 999999 999999 999999 999999 999999 999999 999999 999999 999999 999999 999999 999999 999999 999999 999999 999999 999999 999999 999999 999999 999999 999999 999999 999999 999999 999999 999999 999999 999999 999999 999999 999999 999999 999999 999999 999999 999999 999999 999999 999999 999999 999999 999999 999999 999999 999999 999999 999999 999999 999999 999999 999999 999999 999999 999999 999999 999999 999999 999999 999999 999999 999999 999999 999999 999999 999999 999999 999999 999999 999999 999999 999999 999999 999999 999999 999999 999999 999999 999999 999999 999999 999999 999999 999999 999999 999999 999999 999999 999999 999999 999999 999999 999999 999999 999999 999999 999999 999999 999999 999999 999999 999999 999999 999999 999999 999999 999999 999999 999999 999999 999999 999999 999999 999999 999999 999999 999999 999999 999999 999999 999999 999999 999999 999999 999999 999999 11840
999999 14247 13251 14802 10612 15167 16973 13939 12450 18166 15459 18733 16580 14652 17803 17702 19657 16001 12045 12560 15587 12496 15480 13439 10230 17419 10728 15373 10117 16157 12603 10173 15304 13780 16758 10296 15726 11647 17411 13933 13602 18845 11271 16902 15156 14732 16837 16534 11045 11476 15668 16129 19767 14123 19807 16017 19735 10686 17214 19673 19201 10016 18708 14669 15108 11926 13640 18090 11818 13295 14647 11768 18284 10944 19152 16782 19842 14756 15031 17140 13172 12922 14597 16877 19660 15517 16162 11883 17025 17078 12619 14185 12165 11344 11046 18513 16746 13460 16443 14381 15864 14308 11553 13315 18327 19317 13333 10732 15739 13662 17779 10362 15750 10045 10203 19194 15923 10604 12193 11202 19931 10125 11169 18097 11846 10373 19765 17709 10433 18553 15546 15404 14879 17069 19506 12249 13297 17378 15262 19358 15360 18629 18254 11471 12569 14988 18248 17262 14282 19294 12494 14199 10246 12311 14228 13939 18515 11949 11828 10692 12327 999999 999999 999999 999999 999999 999999 999999 999999 999999 999999 999999 999999 999999 999999 999999 999999 999999 999999 999999 999999 999999 999999 999999 999999 0 999999 999999 999999 999999 999999 999999 999999 999999 999999 999999 999999 999999 999999 999999 999999 999999 999999 999999 999999 999999 999999 999999 999999 999999 999999 999999 999999 999999 999999 999999 999999 999999 999999 999999 999999 999999 999999 999999 999999 999999 999999 999999 999999 999999 999999 999999 999999 999999 999999 999999 999999 999999 999999 999999 999999 999999 999999 999999 999999 999999 999999 999999 999999 999999 999999 999999 999999 999999 999999 999999 999999 999999 999999 999999 999999 999999 999999 999999 999999 999999 999999 999999 999999 999999 999999 999999 999999 999999 999999 999999 999999 999999 999999 999999 999999 999999 999999 999999 999999 999999 999999 999999 999999 999999 999999 999999 999999 999999 999999 999999 999999 999999 999999 999999 999999 999999 999999 999999 999999 999999 999999 999999 999999 999999 999999 999999 999999 999999 999999 999999 999999 999999 999999 999999 999999 8217
999999 14638 17764 11147 11763 14064 16692 12937 12285 12899 12004 10380 19536 12426 12883 10181 16070 19693 19356 12012 12844 10566 12045 11807 15100 17618 18232 19921 18614 11905 10357 12312 18523 16815 13016 16762 13084 19771 17619 17441 16566 17190 12599 11015 16676 17057 18819 19936 10605 17923 19090 17444 16083 13880 10103 11503 13487 15764 10465 12296 15311 19925 13558 11255 19972 10010 17066 12108 19522 14760 16109 17725 11937 10723 19825 15339 10569 10822 13155 13685 11201 15304 10123 10291 12317 15933 16095 10501 14678 16379 12898 13617 15889 14414 19883 15628 16845 18568 14668 17097 15275 19610 16137 13583 14274 15187 12258 13470 13536 15083 11800 13623 13914 14948 12569 15787 15262 12720 10858 19610 12106 13090 14424 10042 10878 12235 17064 18807 19239 14060 15958 18582 10365 19139 18947 16352 12987 11209 17952 19719 13815 18729 16885 12295 17379 16490 12044 12900 10607 11802 10221 15611 10254 15158 13743 12068 10457 10735 11280 18702 18119 999999 999999 999999 999999 999999 999999 999999 999999 999999 999999 999999 999999 999999 999999 999999 999999 999999 999999 999999 999999 999999 999999 999999 999999 999999 0 999999 999999 999999 999999 999999 999999 999999 999999 999999 999999 999999 999999 999999 999999 999999 999999 999999 999999 999999 999999 999999 999999 999999 999999 999999 999999 999999 999999 999999 999999 999999 999999 999999 999999 999999 999999 999999 999999 999999 999999 999999 999999 999999 999999 999999 999999 999999 999999 999999 999999 999999 999999 999999 999999 999999 999999 999999 999999 999999 999999 999999 999999 999999 999999 999999 999999 999999 999999 999999 999999 999999 999999 999999 999999 999999 999999 999999 999999 999999 999999 999999 999999 999999 999999 999999 999999 999999 999999 999999 999999 999999 999999 999999 999999 999999 999999 999999 999999 999999 999999 999999 999999 999999 999999 999999 999999 999999 999999 999999 999999 999999 999999 999999 999999 999999 999999 999999 999999 999999 999999 999999 999999 999999 999999 999999 999999 999999 999999 999999 999999 999999 999999 999999 999999 11070
999999 14883 11602 16399 16443 17252 19436 17504 10415 13978 16694 17644 18908 13469 17223 10550 14350 17246 17832 18843 13328 13078 10720 18581 10295 12166 14520 10568 18562 11137 13059 15556 19740 16027 11790 16971 11394 14080 18427 16161 18982 13213 19489 13604 19044 14145 11771 14093 17124 17518 19663 11777 19375 18551 11154 10930 13529 12803 14018 15009 11278 16020 16155 11956 18496 14655 16761 17527 10573 10353 19646 10172 18605 12841 16106 19999 18365 11627 18732 10455 13891 11828 10628 11955 15382 10079 18683 16403 10565 18764 18688 16397 19340 13767 17917 15540 10455 14782 11942 17590 16362 14378 19668 15517 11001 17690 18159 15075 17589 15451 12869 15388 15672 10247 15361 17050 16857 10627 17490 15941 16349 12798 14213 13380 11141 17732 13406 19968 15410 16076 13703 15182 17881 13472 18189 18441 17793 12923 13095 14529 14146 17600 10839 19514 10009 18492 11585 17089 19323 13915 12036 10957 13582 18573 18461 15472 14879 14621 13641 16176 10676 999999 999999 999999 999999 999999 999999 999999 999999 999999 999999 999999 999999 999999 999999 999999 999999 999999 999999 999999 999999 999999 999999 999999 999999 999999 999999 0 999999 999999 999999 999999 999999 999999 999999 999999 999999 999999 999999 999999 999999 999999 999999 999999 999999 999999 999999 999999 999999 999999 999999 999999 999999 999999 999999 999999 999999 999999 999999 999999 999999 999999 999999 999999 999999 999999 999999 999999 999999 999999 999999 999999 999999 999999 999999 999999 999999 999999 999999 999999 999999 999999 999999 999999 999999 999999 999999 999999 999999 999999 999999 999999 999999 999999 999999 999999 999999 999999 999999 999999 999999 999999 999999 999999 999999 999999 999999 999999 999999 999999 999999 999999 999999 999999 999999 999999 999999 999999 999999 999999 999999 999999 999999 999999 999999 999999 999999 999999 999999 999999 999999 999999 999999 999999 999999 999999 999999 999999 999999 999999 999999 999999 999999 999999 999999 999999 999999 999999 999999 999999 999999 999999 999999 999999 999999 999999 999999 999999 999999 999999 999999 10847
999999 13766 16200 13848 17118 13384 17652 18097 11516 16037 15221 12179 13667 17636 18391 11993 14066 12318 18661 19530 17137 17676 17594 13524 18721 12471 13462 15926 17613 19596 15392 13295 14476 15708 13024 17728 14041 11394 19932 10079 11355 12904 13384 19188 16837 17458 16207 15331 12874 15877 16387 12454 18695 14170 12117 18441 15903 18003 13474 18427 10208 13570 13009 11688 17673 10056 10155 11995 13429 17069 13243 12084 16395 18550 16243 11897 14435 12321 10356 18945 12430 17500 19776 13110 13941 19565 14812 12261 19386 10577 17927 12463 18996 12165 16225 13430 15360 11743 19066 11297 15861 16787 17434 10522 14365 17662 10129 11793 15877 17824 14608 16402 19620 17488 19482 15288 12060 18793 10917 15396 18606 12392 14653 11790 18058 10802 19638 10669 20000 18279 19717 15265 16239 10568 16872 19038 10336 11220 10414 19882 17579 15048 13279 12822 15902 16941 10049 15024 11992 10365 17668 15625 19140 17351 17423 14129 15416 18646 17903 13513 15419 999999 999999 999999 999999 999999 999999 999999 999999 999999 999999 999999 999999 999999 999999 999999 999999 999999 999999 999999 999999 999999 999999 999999 999999 999999 999999 999999 0 999999 999999 999999 999999 999999 999999 999999 999999 999999 999999 999999 999999 999999 999999 999999 999999 999999 999999 999999 999999 999999 999999 999999 999999 999999 999999 999999 999999 999999 999999 999999 999999 999999 999999 999999 999999 999999 999999 999999 999999 999999 999999 999999 999999 999999 999999 999999 999999 999999 999999 999999 999999 999999 999999 999999 999999 999999 999999 999999 999999 999999 999999 999999 999999 999999 999999 999999 999999 999999 999999 999999 999999 999999 999999 999999 999999 999999 999999 999999 999999 999999 999999 999999 999999 999999 999999 999999 999999 999999 999999 999999 999999 999999 999999 999999 999999 999999 999999 999999 999999 999999 999999 999999 999999 999999 999999 999999 999999 999999 999999 999999 999999 999999 999999 999999 999999 999999 999999 999999 999999 999999 999999 999999 999999 999999 999999 999999 999999 999999 999999 999999 999999 12041
999999 14933 18835 10009 16939 11852 16382 18689 16386 13809 16092 11463 12854 19647 14877 10606 14686 14899 15477 13305 19266 11097 19416 19197 15333 12101 17318 11025 18067 11532 18297 11169 17479 16725 11277 16705 17428 15520 19976 13905 13163 14448 16284 10901 17696 17733 12287 16943 18057 13287 19414 19674 12489 19121 18364 15198 19195 17478 15694 17289 12890 17366 16997 19485 12542 11194 15200 15118 17576 17419 18074 15674 11166 17526 11773 10493 18893 11201 17295 15738 10446 11421 19198 14605 19644 17543 12849 16914 15446 10619 14684 19500 12029 12515 19946 19691 16116 18658 17008 16135 16987 18698 18846 17543 17821 12001 17862 18855 10515 10364 16654 15967 13006 15685 17075 12726 15647 10810 11508 16267 15030 18757 14241 19722 15081 15174 15375 19719 11507 18166 13383 18110 14083 19918 15582 16654 14281 16738 17916 10052 12223 17123 11812 16251 15910 14131 10586 11499 19305 19375 12831 12632 17598 18067 13649 18054 17063 11201 16225 14010 15084 999999 999999 999999 999999 999999 999999 999999 999999 999999 999999 999999 999999 999999 999999 999999 999999 999999 999999 999999 999999 999999 999999 999999 999999 999999 999999 999999 999999 0 999999 999999 999999 999999 999999 999999 999999 999999 999999 999999 999999 999999 999999 999999 999999 999999 999999 999999 999999 999999 999999 999999 999999 999999 999999 999999 999999 999999 999999 999999 999999 999999 999999 999999 999999 999999 999999 999999 999999 999999 999999 999999 999999 999999 999999 999999 999999 999999 999999 999999 999999 999999 999999 999999 999999 999999 999999 999999 999999 999999 999999 999999 999999 999999 999999 999999 999999 999999 999999 999999 999999 999999 999999 999999 999999 999999 999999 999999 999999 999999 999999 999999 999999 999999 999999 999999 999999 999999 999999 999999 999999 999999 999999 999999 999999 999999 999999 999999 999999 999999 999999 999999 999999 999999 999999 999999 999999 999999 999999 999999 999999 999999 999999 999999 999999 999999 999999 999999 999999 999999 999999 999999 999999 999999 999999 999999 999999 999999 999999 999999 999999 8829
999999 18431 16133 19772 19568 16442 18106 12970 19987 15166 12129 14201 16036 14382 11269 19261 15366 14736 11778 15012 11491 15403 10628 16767 10962 19644 13762 10968 17734 19821 11571 11925 17197 16600 19781 11887 11568 13518 15594 14956 18889 16633 16903 13278 13775 14713 16563 15518 14167 10470 10408 13053 13970 19274 19733 14425 17952 17230 18209 17786 11364 10518 10252 14682 19149 18541 14870 16619 14548 16595 17089 18861 10000 13619 16942 13115 17790 19720 14228 14070 12021 14409 10854 14681 16205 11140 11668 19642 18581 10477 10404 10620 10351 15417 12272 19917 12217 11407 18271 16184 15562 15019 18734 13536 18275 18812 15924 13767 14237 14490 13276 12217 15675 15309 15044 15365 11544 18197 15541 13319 12210 16420 10237 17789 18970 13798 13392 15725 10552 18364 16285 12397 16680 15290 17828 15605 16307 12210 16505 13332 13095 10350 13268 17252 14815 19924 18872 19182 18723 19108 12464 10951 12682 10089 11911 11371 10603 18194 16315 16996 18569 999999 999999 999999 999999 999999 999999 999999 999999 999999 999999 999999 999999 999999 999999 999999 999999 999999 999999 999999 999999 999999 999999 999999 999999 999999 999999 999999 999999 999999 0 999999 999999 999999 999999 999999 999999 999999 999999 999999 999999 999999 999999 999999 999999 999999 999999 999999 999999 999999 999999 999999 999999 999999 999999 999999 999999 999999 999999 999999 999999 999999 999999 999999 999999 999999 999999 999999 999999 999999 999999 999999 999999 999999 999999 999999 999999 999999 999999 999999 999999 999999 999999 999999 999999 999999 999999 999999 999999 999999 999999 999999 999999 999999 999999 999999 999999 999999 999999 999999 999999 999999 999999 999999 999999 999999 999999 999999 999999 999999 999999 999999 999999 999999 999999 999999 999999 999999 999999 999999 999999 999999 999999 999999 999999 999999 999999 999999 999999 999999 999999 999999 999999 999999 999999 999999 999999 999999 999999 999999 999999 999999 999999 999999 999999 999999 999999 999999 999999 999999 999999 999999 999999 999999 999999 999999 999999 999999 999999 999999 999999 14023
999999 10171 10496 14177 16960 13650 16654 11330 16066 11038 12859 12459 14627 11200 17916 10536 14030 10034 14131 18939 17137 17695 15802 19304 16022 11047 16668 11842 18769 16884 19601 12127 16217 19524 14927 16174 15068 12510 16380 13216 18855 14996 10579 19832 11968 19303 14161 10727 12593 11327 18931 17219 14328 10798 10887 17278 15086 15179 15740 16923 19397 16123 10538 19719 19644 18327 18662 14881 16341 12820 15681 16864 16763 16280 12731 19941 14430 17185 16534 15769 16483 16472 13391 16265 16060 19521 12637 12555 18398 13466 13879 14121 16799 16165 14342 14632 14226 15192 16160 11354 11801 12028 14118 12543 10269 18481 10116 10785 12301 19522 11557 18025 13924 16548 18858 17123 16312 15264 12235 11088 18126 18851 19851 19003 16520 13751 15144 15104 14795 16269 11738 14974 11717 11059 18857 14680 10201 13760 12376 13592 15283 19570 12995 19191 12388 14451 11355 17116 19684 15164 19967 13264 14138 19161 14971 16386 18160 12666 14455 18243 14676 999999 999999 999999 999999 999999 999999 999999 999999 999999 999999 999999 999999 999999 999999 999999 999999 999999 999999 999999 999999 999999 999999 999999 999999 999999 999999 999999 999999 999999 999999 0 999999 999999 999999 999999 999999 999999 999999 999999 999999 999999 999999 999999 999999 999999 999999 999999 999999 999999 999999 999999 999999 999999 999999 999999 999999 999999 999999 999999 999999 999999 999999 999999 999999 999999 999999 999999 999999 999999 999999 999999 999999 999999 999999 999999 999999 999999 999999 999999 999999 999999 999999 999999 999999 999999 999999 999999 999999 999999 999999 999999 999999 999999 999999 999999 999999 999999 999999 999999 999999 999999 999999 999999 999999 999999 999999 999999 999999 999999 999999 999999 999999 999999 999999 999999 999999 999999 999999 999999 999999 999999 999999 999999 999999 999999 999999 999999 999999 999999 999999 999999 999999 999999 999999 999999 999999 999999 999999 999999 999999 999999 999999 999999 999999 999999 999999 999999 999999 999999 999999 999999 999999 999999 999999 999999 999999 999999 999999 999999 999999 9809
999999 15095 12969 17502 18732 15832 12218 12697 14214 14919 18178 14748 10475 11350 11794 18382 14456 11301 18050 11670 11133 19389 12308 11700 15392 19134 17239 15778 15071 14699 10167 15281 16824 11430 18745 13339 12833 18856 17300 10668 18623 14819 16532 17669 17833 12284 17686 13321 18318 13852 14776 15679 18125 11869 12602 11828 13150 17189 13823 12669 18893 15936 11739 14304 16353 19397 10517 15776 18462 16268 18828 12905 15055 11762 13600 15081 18116 11371 11384 19461 11786 11560 15759 11081 15567 19415 14759 16922 11273 17150 13629 18807 18402 11356 11587 14642 13136 14974 18383 14330 17981 15678 11162 16368 14721 17749 16799 13032 11740 17142 16024 11182 19499 10665 11061 15943 17091 12437 11607 14071 11526 14682 13238 14617 14069 17604 13939 15866 12082 10644 14890 18201 10397 18545 15355 10779 17871 11969 10464 14021 19585 18035 14446 15181 12882 18719 14919 14223 10550 18560 12067 15829 14992 14599 15811 15347 14319 18541 11699 17218 10382 999999 999999 999999 999999 999999 999999 999999 999999 999999 999999 999999 999999 999999 999999 999999 999999 999999 999999 999999 999999 999999 999999 999999 999999 999999 999999 999999 999999 999999 999999 999999 0 999999 999999 999999 999999 999999 999999 999999 999999 999999 999999 999999 999999 999999 999999 999999 999999 999999 999999 999999 999999 999999 999999 999999 999999 999999 999999 999999 999999 999999 999999 999999 999999 999999 999999 999999 999999 999999 999999 999999 999999 999999 999999 999999 999999 999999 999999 999999 999999 999999 999999 999999 999999 999999 999999 999999 999999 999999 999999 999999 999999 999999 999999 999999 999999 999999 999999 999999 999999 999999 999999 999999 999999 999999 999999 999999 999999 999999 999999 999999 999999 999999 999999 999999 999999 999999 999999 999999 999999 999999 999999 999999 999999 999999 999999 999999 999999 999999 999999 999999 999999 999999 999999 999999 999999 999999 999999 999999 999999 999999 999999 999999 999999 999999 999999 999999 999999 999999 999999 999999 999999 999999 999999 999999 999999 999999 999999 999999 999999 10615
999999 17061 13122 18450 18792 17499 13025 18736 14499 13433 11374 13397 13019 13613 13885 17535 18295 16669 11313 16660 10422 15691 19255 11149 15471 12441 12552 16846 16933 10333 17153 13816 13876 15461 15752 14427 10887 11198 11738 17599 13412 10026 11902 12282 11932 13493 15558 10597 11244 14989 17874 19097 13238 15623 11598 15319 11236 17686 16179 18861 18193 18660 16185 12033 18180 10712 11658 10733 10233 17385 17574 13303 15540 17482 16077 14768 12194 13784 17675 13242 10314 17650 13302 19843 19100 16421 19037 10158 11048 12477 19367 14421 10036 17915 13916 15602 19956 10162 14713 15979 17184 11719 18209 15811 12401 14996 19139 12185 19006 19467 10121 19220 11345 16763 10706 11127 11673 18734 19483 14948 18546 16255 10331 12579 19362 16708 19744 15598 13609 16024 10240 18451 17678 19448 18566 19163 15238 12439 10766 16160 14784 11401 10525 10708 14175 13378 13711 18266 15699 11720 16298 18165 18857 19402 14104 17745 11351 19315 17493 10155 14750 999999 999999 999999 999999 999999 999999 999999 999999 999999 999999 999999 999999 999999 999999 999999 999999 999999 999999 999999 999999 999999 999999 999999 999999 999999 999999 999999 999999 999999 999999 999999 999999 0 999999 999999 999999 999999 999999 999999 999999 999999 999999 999999 999999 999999 999999 999999 999999 999999 999999 999999 999999 999999 999999 999999 999999 999999 999999 999999 999999 999999 999999 999999 999999 999999 999999 999999 999999 999999 999999 999999 999999 999999 999999 999999 999999 999999 999999 999999 999999 999999 999999 999999 999999 999999 999999 999999 999999 999999 999999 999999 999999 999999 999999 999999 999999 999999 999999 999999 999999 999999 999999 999999 999999 999999 999999 999999 999999 999999 999999 999999 999999 999999 999999 999999 999999 999999 999999 999999 999999 999999 999999 999999 999999 999999 999999 999999 999999 999999 999999 999999 999999 999999 999999 999999 999999 999999 999999 999999 999999 999999 999999 999999 999999 999999 999999 999999 999999 999999 999999 999999 999999 999999 999999 999999 999999 999999 999999 999999 999999 14361
999999 12154 14567 11391 12061 14333 16578 10311 19957 10339 17358 13060 11903 16209 11140 19229 11237 19192 19523 10606 18162 12275 19495 12979 12969 15063 18125 12282 19831 18896 12592 17921 17720 19316 11884 15030 12930 19209 16250 12901 12851 17252 14539 17698 15331 11328 19607 17599 17583 12570 10984 13946 18663 13069 12323 19806 18265 18207 16660 17187 11876 11685 15241 18699 17917 11855 11911 19964 15582 12207 14368 19377 11655 18928 17426 14684 17380 12747 11427 16892 16190 16501 11640 19353 12996 13593 16676 12732 15784 10395 13027 14446 13997 19080 10997 15224 12081 19438 14869 14958 13186 14816 10947 11129 15719 12978 19426 17753 17390 13463 16868 16072 16594 11622 12614 18475 15924 18962 17515 10567 11008 11955 15316 10767 17930 11481 17697 14004 13268 16635 15105 18879 18897 18789 13116 11753 17677 12485 16508 14924 17839 19577 14466 13310 18813 14890 19154 12865 14661 17271 19210 16945 13130 14551 19702 12953 13906 19884 13148 10184 19686 999999 999999 999999 999999 999999 999999 999999 999999 999999 999999 999999 999999 999999 999999 999999 999999 999999 999999 999999 999999 999999 999999 999999 999999 999999 999999 999999 999999 999999 999999 999999 999999 999999 0 999999 999999 999999 999999 999999 999999 999999 999999 999999 999999 999999 999999 999999 999999 999999 999999 999999 999999 999999 999999 999999 999999 999999 999999 999999 999999 999999 999999 999999 999999 999999 999999 999999 999999 999999 999999 999999 999999 999999 999999 999999 999999 999999 999999 999999 999999 999999 999999 999999 999999 999999 999999 999999 999999 999999 999999 999999 999999 999999 999999 999999 999999 999999 999999 999999 999999 999999 999999 999999 999999 999999 999999 999999 999999 999999 999999 999999 999999 999999 999999 999999 999999 999999 999999 999999 999999 999999 999999 999999 999999 999999 999999 999999 999999 999999 999999 999999 999999 999999 999999 999999 999999 999999 999999 999999 999999 999999 999999 999999 999999 999999 999999 999999 999999 999999 999999 999999 999999 999999 999999 999999 999999 999999 999999 999999 999999 14319
999999 16743 13445 17732 17767 16464 11190 11602 14434 14949 16887 16136 18729 11730 12330 11136 10532 13291 13328 12702 19585 12129 13805 19461 17877 17322 12535 16312 19586 18367 17001 19730 19269 11816 10874 18988 18235 12055 14052 17221 14738 11195 10496 18549 16921 10866 17013 18592 15643 19360 13182 11200 18307 18443 16461 15042 14323 14602 14273 13304 10062 13137 11785 16249 16420 14802 17638 18650 17193 16605 15984 14861 12290 13082 14606 14127 13091 11327 15064 10704 14831 17266 17239 13167 11187 14364 16559 15894 15770 17542 15368 19453 16529 18441 10915 12334 13803 10816 13443 13194 10273 19792 10062 12587 11682 19838 16742 17710 13912 17161 15259 10495 18847 11310 18681 18727 15545 19014 11527 13826 10895 12015 11227 19031 17435 14324 11934 12604 10698 14325 19334 11575 18246 13114 15712 19584 13523 15337 10807 14050 15566 16917 13965 11679 12978 19265 18045 11913 13156 17818 16300 10430 13541 11721 18019 16898 12947 10597 18948 12928 14789 999999 999999 999999 999999 999999 999999 999999 999999 999999 999999 999999 999999 999999 999999 999999 999999 999999 999999 999999 999999 999999 999999 999999 999999 999999 999999 999999 999999 999999 999999 999999 999999 999999 999999 0 999999 999999 999999 999999 999999 999999 999999 999999 999999 999999 999999 999999 999999 999999 999999 999999 999999 999999 999999 999999 999999 999999 999999 999999 999999 999999 999999 999999 999999 999999 999999 999999 999999 999999 999999 999999 999999 999999 999999 999999 999999 999999 999999 999999 999999 999999 999999 999999 999999 999999 999999 999999 999999 999999 999999 999999 999999 999999 999999 999999 999999 999999 999999 999999 999999 999999 999999 999999 999999 999999 999999 999999 999999 999999 999999 999999 999999 999999 999999 999999 999999 999999 999999 999999 999999 999999 999999 999999 999999 999999 999999 999999 999999 999999 999999 999999 999999 999999 999999 999999 999999 999999 999999 999999 999999 999999 999999 999999 999999 999999 999999 999999 999999 999999 999999 999999 999999 999999 999999 999999 999999 999999 999999 999999 999999 11033
999999 16379 15337 14472 15500 14763 18237 10291 12895 16304 10635 17562 16771 12667 13619 10523 13145 18535 13020 16924 16449 10730 13889 10272 19368 17771 19591 13609 15127 19859 11973 15570 10438 16029 15384 12655 18601 16023 12800 13688 12583 17467 15290 10356 13925 12864 15702 13609 11249 11971 10861 12273 10207 10296 18409 10871 14741 18196 10149 13886 19715 14455 12271 13674 19249 13808 10625 12249 16298 12255 15860 14087 14191 17558 19765 12889 15931 10347 11670 14432 14601 15591 15754 17919 12409 19759 15692 15016 18223 10825 15599 14778 11825 15291 14906 10092 10297 18723 13070 13269 13715 17227 15144 10662 10419 15441 17109 19698 11860 18780 19275 11017 14774 15220 19347 11285 13690 19848 15605 17436 14867 10164 13987 12110 11865 10468 11677 14978 19460 18500 17553 19833 14847 18394 18697 14706 15807 15255 17237 17909 16750 10848 10806 13749 13199 13715 10054 12017 16761 11624 10501 10134 10567 18615 14224 15578 18446 19043 15888 13761 11190 999999 999999 999999 999999 999999 999999 999999 999999 999999 999999 999999 999999 999999 999999 999999 999999 999999 999999 999999 999999 999999 999999 999999 999999 999999 999999 999999 999999 999999 999999 999999 999999 999999 999999 999999 0 999999 999999 999999 999999 999999 999999 999999 999999 999999 999999 999999 999999 999999 999999 999999 999999 999999 999999 999999 999999 999999 999999 999999 999999 999999 999999 999999 999999 999999 999999 999999 999999 999999 999999 999999 999999 999999 999999 999999 999999 999999 999999 999999 999999 999999 999999 999999 999999 999999 999999 999999 999999 999999 999999 999999 999999 999999 999999 999999 999999 999999 999999 999999 999999 999999 999999 999999 999999 999999 999999 999999 999999 999999 999999 999999 999999 999999 999999 999999 999999 999999 999999 999999 999999 999999 999999 999999 999999 999999 999999 999999 999999 999999 999999 999999 999999 999999 999999 999999 999999 999999 999999 999999 999999 999999 999999 999999 999999 999999 999999 999999 999999 999999 999999 999999 999999 999999 999999 999999 999999 999999 999999 999999 999999 11697
999999 12350 18773 12727 17045 10852 12936 17439 12773 13768 19446 12837 18213 13515 10688 12269 10471 18082 16770 14943 18294 19775 12745 13345 16962 13198 12142 12056 16054 16695 19756 19085 15167 19855 18485 15562 19553 17237 14675 11222 16638 17911 13707 11739 12294 16657 13980 12397 15743 18320 11258 10841 19540 19095 16015 15615 13793 13770 13230 19840 15646 11111 18361 13937 10775 16157 17850 18425 13583 16282 12906 15607 12938 17052 15767 12242 10092 17405 11284 14396 11282 18036 14383 11170 13326 10945 13565 14488 16789 15162 11558 14230 17100 14863 13487 13342 16100 12951 14025 12367 17438 17174 16978 12993 16543 16951 15170 11664 13689 19183 19159 19215 11651 16226 19355 14914 17335 14124 11199 18516 19283 17582 16137 16992 16217 14845 19307 13712 19089 19144 16900 11868 16038 16083 16317 16539 12167 14023 14542 15877 11596 13314 13470 15280 12544 18566 13651 17612 17810 17979 12760 17697 12404 15469 11380 11229 16641 11343 10618 11078 13977 999999 999999 999999 999999 999999 999999 999999 999999 999999 999999 999999 999999 999999 999999 999999 999999 999999 999999 999999 999999 999999 999999 999999 999999 999999 999999 999999 999999 999999 999999 999999 999999 999999 999999 999999 999999 0 999999 999999 999999 999999 999999 999999 999999 999999 999999 999999 999999 999999 999999 999999 999999 999999 999999 999999 999999 999999 999999 999999 999999 999999 999999 999999 999999 999999 999999 999999 999999 999999 999999 999999 999999 999999 999999 999999 999999 999999 999999 999999 999999 999999 999999 999999 999999 999999 999999 999999 999999 999999 999999 999999 999999 999999 999999 999999 999999 999999 999999 999999 999999 999999 999999 999999 999999 999999 999999 999999 999999 999999 999999 999999 999999 999999 999999 999999 999999 999999 999999 999999 999999 999999 999999 999999 999999 999999 999999 999999 999999 999999 999999 999999 999999 999999 999999 999999 999999 999999 999999 999999 999999 999999 999999 999999 999999 999999 999999 999999 999999 999999 999999 999999 999999 999999 999999 999999 999999 999999 999999 999999 999999 14544
999999 11906 14608 10610 10690 19685 15800 19469 17627 18114 17316 13155 13883 17422 18879 12217 15608 11755 19731 11728 10050 14625 10660 14386 15881 15406 12167 14281 10045 17415 16624 16667 17544 19761 13657 19252 11244 13642 16415 12009 18993 19221 16990 14826 19006 16631 16824 16120 12195 16886 19279 12699 10248 14504 19841 10924 19848 15589 18014 12776 19676 15952 17196 14389 14896 18481 19768 16950 16193 18987 11493 12252 13533 10598 12960 11871 16768 13855 17329 14015 10760 18670 14822 11468 10623 10161 18694 11304 10687 12775 19202 16635 17301 12670 13603 10176 10359 16858 11142 10361 10028 16728 15968 18316 13522 10063 11258 14040 18593 12425 11621 19879 10463 10506 19515 10641 13618 15318 11563 17014 12030 13264 10626 14726 17595 16534 11057 10163 19815 12447 11978 18191 19564 14673 10812 12074 13984 18714 15495 18971 13970 13412 13199 19790 12206 15422 13705 17633 19079 18547 14393 18444 12449 18951 15446 14700 16950 16835 12609 10643 12145 999999 999999 999999 999999 999999 999999 999999 999999 999999 999999 999999 999999 999999 999999 999999 999999 999999 999999 999999 999999 999999 999999 999999 999999 999999 999999 999999 999999 999999 999999 999999 999999 999999 999999 999999 999999 999999 0 999999 999999 999999 999999 999999 999999 999999 999999 999999 999999 999999 999999 999999 999999 999999 999999 999999 999999 999999 999999 999999 999999 999999 999999 999999 999999 999999 999999 999999 999999 999999 999999 999999 999999 999999 999999 999999 999999 999999 999999 999999 999999 999999 999999 999999 999999 999999 999999 999999 999999 999999 999999 999999 999999 999999 999999 999999 999999 999999 999999 999999 999999 999999 999999 999999 999999 999999 999999 999999 999999 999999 999999 999999 999999 999999 999999 999999 999999 999999 999999 999999 999999 999999 999999 999999 999999 999999 999999 999999 999999 999999 999999 999999 999999 999999 999999 999999 999999 999999 999999 999999 999999 999999 999999 999999 999999 999999 999999 999999 999999 999999 999999 999999 999999 999999 999999 999999 999999 999999 999999 999999 999999 6529
999999 14865 12041 15022 11514 12744 13754 14693 16220 17670 12213 10649 10754 14997 12748 15134 12030 12055 14231 15136 13129 15431 19710 19617 14896 13063 19486 11700 14606 17607 17627 17141 17845 14440 16885 16125 13787 12812 19528 12697 15671 12317 11574 15795 17472 11819 17240 12856 19156 16757 14965 14674 18133 19257 10016 19758 10720 16049 18666 16803 16786 15403 14544 13846 13971 11267 19738 14901 17084 14698 12071 14926 19456 11398 18639 15929 19441 18935 17236 12418 13516 12832 14109 13886 10656 17767 17653 17735 10903 18738 17021 10984 19653 16129 17276 12730 14235 10603 14151 16771 17037 13197 19770 18382 19130 18092 13538 19272 19670 15196 18399 14123 12097 11865 17979 17756 18473 10936 11904 10213 19208 13060 18965 10936 11577 14970 17684 16596 13486 14615 10311 17654 11750 17903 12503 18851 15741 10508 15126 18806 13809 13134 17443 18520 18272 11691 10351 12598 10325 11282 14253 18376 10628 10411 19844 12685 13170 12164 11832 18799 12563 999999 999999 999999 999999 999999 999999 999999 999999 999999 999999 999999 999999 999999 999999 999999 999999 999999 999999 999999 999999 999999 999999 999999 999999 999999 999999 999999 999999 999999 999999 999999 999999 999999 999999 999999 999999 999999 999999 0 999999 999999 999999 999999 999999 999999 999999 999999 999999 999999 999999 999999 999999 999999 999999 999999 999999 999999 999999 999999 999999 999999 999999 999999 999999 999999 999999 999999 999999 999999 999999 999999 999999 999999 999999 999999 999999 999999 999999 999999 999999 999999 999999 999999 999999 999999 999999 999999 999999 999999 999999 999999 999999 999999 999999 999999 999999 999999 999999 999999 999999 999999 999999 999999 999999 999999 999999 999999 999999 999999 999999 999999 999999 999999 999999 999999 999999 999999 999999 999999 999999 999999 999999 999999 999999 999999 999999 999999 999999 999999 999999 999999 999999 999999 999999 999999 999999 999999 999999 999999 999999 999999 999999 999999 999999 999999 999999 999999 999999 999999 999999 999999 999999 999999 999999 999999 999999 999999 999999 999999 999999 13767
999999 17071 16703 19195 16958 11240 18959 10264 13342 16482 16800 16220 14299 10246 15957 10673 12579 16019 15258 12415 12465 14615 17901 12573 17110 17709 19546 18724 19195 10035 11015 11989 19837 10931 13322 17082 10788 14951 17115 17628 17953 16098 12499 17599 17003 15325 13316 10359 13138 19792 16849 10926 14043 18833 15164 18763 14360 19819 18077 19953 17245 14732 10502 14517 18300 10795 11109 11068 18214 11016 18676 12650 17312 11184 16370 16958 16623 14490 11216 11436 11356 18749 19946 16016 10324 10020 12557 10347 11249 16537 18891 10140 19409 12437 18780 11182 10774 11878 18537 18363 11252 18518 18595 17605 11659 14658 19685 11757 15184 15059 16023 13566 12927 13492 17333 10861 16204 15932 19019 10959 14042 16967 13693 14087 19405 17543 13709 15213 13547 11320 10633 13527 10105 14688 19463 13945 18093 17772 14801 11269 18489 11403 12560 13412 14135 16701 13464 18279 19488 12797 17597 10431 10278 16441 11908 13543 17201 13314 14925 12919 14661 999999 999999 999999 999999 999999 999999 999999 999999 999999 999999 999999 999999 999999 999999 999999 999999 999999 999999 999999 999999 999999 999999 999999 999999 999999 999999 999999 999999 999999 999999 999999 999999 999999 999999 999999 999999 999999 999999 999999 0 999999 999999 999999 999999 999999 999999 999999 999999 999999 999999 999999 999999 999999 999999 999999 999999 999999 999999 999999 999999 999999 999999 999999 999999 999999 999999 999999 999999 999999 999999 999999 999999 999999 999999 999999 999999 999999 999999 999999 999999 999999 999999 999999 999999 999999 999999 999999 999999 999999 999999 999999 999999 999999 999999 999999 999999 999999 999999 999999 999999 999999 999999 999999 999999 999999 999999 999999 999999 999999 999999 999999 999999 999999 999999 999999 999999 999999 999999 999999 999999 999999 999999 999999 999999 999999 999999 999999 999999 999999 999999 999999 999999 999999 999999 999999 999999 999999 999999 999999 999999 999999 999999 999999 999999 999999 999999 999999 999999 999999 999999 999999 999999 999999 999999 999999 999999 999999 999999 999999 999999 6000
999999 10467 14592 14832 12365 17799 10007 11527 17768 16701 11414 10690 12889 18423 15630 15171 12332 18353 16197 14497 13312 14608 13785 10365 15464 14595 18722 19431 15341 19533 10428 17981 10651 10146 16732 19424 17763 13595 10912 15646 16638 16432 17899 13998 17344 16368 12265 14806 13374 13424 15599 15847 15129 13023 16794 18379 12804 10593 10544 15352 11294 15821 12847 14216 18649 16190 18584 17714 13851 10452 10573 18078 11394 17423 12495 15649 15692 11157 18192 16638 16045 12317 19980 14713 12944 17172 12734 10779 12434 12764 11447 14805 15257 10643 11178 14434 10729 17889 17861 12452 13126 19178 11993 18435 10903 18351 12418 11995 13929 10340 14237 15883 18766 13073 10503 11494 12336 10414 19982 10718 15404 10934 10197 12796 18075 11733 10799 18693 17467 16158 17731 17377 16845 15577 17649 15385 17718 14683 15713 12275 16829 15712 15577 12907 18368 15942 10434 14000 19404 11508 11726 12801 11749 13341 10114 15130 10103 16226 13823 10570 14018 999999 999999 999999 999999 999999 999999 999999 999999 999999 999999 999999 999999 999999 999999 999999 999999 999999 999999 999999 999999 999999 999999 999999 999999 999999 999999 999999 999999 999999 999999 999999 999999 999999 999999 999999 999999 999999 999999 999999 999999 0 999999 999999 999999 999999 999999 999999 999999 999999 999999 999999 999999 999999 999999 999999 999999 999999 999999 999999 999999 999999 999999 999999 999999 999999 999999 999999 999999 999999 999999 999999 999999 999999 999999 999999 999999 999999 999999 999999 999999 999999 999999 999999 999999 999999 999999 999999 999999 999999 999999 999999 999999 999999 999999 999999 999999 999999 999999 999999 999999 999999 999999 999999 999999 999999 999999 999999 999999 999999 999999 999999 999999 999999 999999 999999 999999 999999 999999 999999 999999 999999 999999 999999 999999 999999 999999 999999 999999 999999 999999 999999 999999 999999 999999 999999 999999 999999 999999 999999 999999 999999 999999 999999 999999 999999 999999 999999 999999 999999 999999 999999 999999 999999 999999 999999 999999 999999 999999 999999 999999 12775
999999 10260 13233 13277 11454 19893 15628 16337 14871 16798 15462 17645 16789 10257 17726 17439 17000 12554 15579 18993 16232 15651 19559 11714 18146 19754 14077 13278 10552 18545 17746 18105 16506 19342 19121 19419 18780 18343 12309 13013 10167 12351 13263 15691 10909 15816 17113 19900 10848 11140 18233 11768 11326 12517 10919 11914 14532 10446 18125 14368 17481 15439 11811 18237 11473 11822 19880 14369 19711 16595 11511 14736 16627 11935 17786 19345 16602 17798 17714 13638 11601 11822 19251 19680 12905 15364 13159 11667 17909 11107 18890 13290 12837 11409 18575 14430 12147 16930 15518 18480 13058 16356 11543 15526 18067 12597 18138 12588 12638 11772 18743 15535 11278 18196 10137 18702 14404 15328 12507 17730 12171 17652 11434 19557 13945 19829 14693 15714 16289 18368 13535 11226 15713 18940 18994 11069 17089 12262 11240 17465 16280 14367 13060 11112 14037 17536 19549 13879 12155 15236 17611 19976 15095 15100 15564 12573 11025 14922 17825 18701 18764 999999 999999 999999 999999 999999 999999 999999 999999 999999 999999 999999 999999 999999 999999 999999 999999 999999 999999 999999 999999 999999 999999 999999 999999 999999 999999 999999 999999 999999 999999 999999 999999 999999 999999 999999 999999 999999 999999 999999 999999 999999 0 999999 999999 999999 999999 999999 999999 999999 999999 999999 999999 999999 999999 999999 999999 999999 999999 999999 999999 999999 999999 999999 999999 999999 999999 999999 999999 999999 999999 999999 999999 999999 999999 999999 999999 999999 999999 999999 999999 999999 999999 999999 999999 999999 999999 999999 999999 999999 999999 999999 999999 999999 999999 999999 999999 999999 999999 999999 999999 999999 999999 999999 999999 999999 999999 999999 999999 999999 999999 999999 999999 999999 999999 999999 999999 999999 999999 999999 999999 999999 999999 999999 999999 999999 999999 999999 999999 999999 999999 999999 999999 999999 999999 999999 999999 999999 999999 999999 999999 999999 999999 999999 999999 999999 999999 999999 999999 999999 999999 999999 999999 999999 999999 999999 999999 999999 999999 999999 999999 6277
999999 17417 10147 18416 11530 17589 12201 19863 10034 13102 19959 18236 12327 12227 18053 18721 11606 18484 10645 18221 16916 17501 15207 17057 11787 18354 13703 12447 10132 18334 10800 18048 12082 19494 19042 12686 14628 12689 11406 12172 13583 12612 14684 14317 10524 19421 11508 16008 19596 16543 17196 10994 19244 13565 19143 19279 18107 19031 16041 16187 15265 17579 17060 18585 16290 12871 17830 14400 19331 14031 13932 10496 10382 11376 17748 19567 11970 11024 12007 18821 11750 15089 18601 10593 14570 19173 10558 11913 18857 15049 13280 17046 11336 19656 18442 11081 17480 13432 13300 15341 17970 18350 15280 13295 17127 12198 18942 16398 19372 16407 15202 10117 14200 14219 11343 19361 13094 10091 11529 15317 15247 19129 15084 16468 18311 12200 14979 18857 16793 13508 15727 14666 17107 18406 14000 18033 14866 14829 19158 15937 10884 12552 18237 14074 13134 18054 11218 15254 19054 14455 19245 17652 19248 13681 19966 11096 12244 11820 15198 17160 17194 999999 999999 999999 999999 999999 999999 999999 999999 999999 999999 999999 999999 999999 999999 999999 999999 999999 999999 999999 999999 999999 999999 999999 999999 999999 999999 999999 999999 999999 999999 999999 999999 999999 999999 999999 999999 999999 999999 999999 999999 999999 999999 0 999999 999999 999999 999999 999999 999999 999999 999999 999999 999999 999999 999999 999999 999999 999999 999999 999999 999999 999999 999999 999999 999999 999999 999999 999999 999999 999999 999999 999999 999999 999999 999999 999999 999999 999999 999999 999999 999999 999999 999999 999999 999999 999999 999999 999999 999999 999999 999999 999999 999999 999999 999999 999999 999999 999999 999999 999999 999999 999999 999999 999999 999999 999999 999999 999999 999999 999999 999999 999999 999999 999999 999999 999999 999999 999999 999999 999999 999999 999999 999999 999999 999999 999999 999999 999999 999999 999999 999999 999999 999999 999999 999999 999999 999999 999999 999999 999999 999999 999999 999999 999999 999999 999999 999999 999999 999999 999999 999999 999999 999999 999999 999999 999999 999999 999999 999999 999999 7377
999999 11824 19079 19313 13738 18150 13322 17898 19182 15077 14016 11538 10776 17366 18453 19249 16356 18083 13429 19097 16108 15016 16233 16769 17665 12541 10902 17638 16041 18151 13823 19902 12680 18421 16973 17170 12206 12517 18129 19404 11978 14938 19805 19555 16210 18286 17955 12686 13429 17728 10510 12667 12377 10020 11774 11724 12715 15483 13535 18846 11723 15691 10158 13611 11893 18407 13315 11591 17627 12144 10824 10432 12512 17512 17509 18741 13074 18366 17529 10267 12106 16151 13162 14305 17676 10827 13293 19103 11662 17223 10432 17982 15649 15683 11281 16735 11954 12984 17584 13124 18841 10662 17656 11583 16665 19928 10707 10166 12812 14630 16112 12245 15274 15965 12694 11425 14323 12399 10333 19026 15301 14131 12317 18366 16668 15724 10245 16209 12438 14729 14468 15319 13219 16712 17277 16541 10164 16591 18980 17364 16316 11090 11158 16725 16283 17044 12039 16574 14943 12300 19542 18744 15611 15015 17105 18851 10895 19340 13853 18531 17730 999999 999999 999999 999999 999999 999999 999999 999999 999999 999999 999999 999999 999999 999999 999999 999999 999999 999999 999999 999999 999999 999999 999999 999999 999999 999999 999999 999999 999999 999999 999999 999999 999999 999999 999999 999999 999999 999999 999999 999999 999999 999999 999999 0 999999 999999 999999 999999 999999 999999 999999 999999 999999 999999 999999 999999 999999 999999 999999 999999 999999 999999 999999 999999 999999 999999 999999 999999 999999 999999 999999 999999 999999 999999 999999 999999 999999 999999 999999 999999 999999 999999 999999 999999 999999 999999 999999 999999 999999 999999 999999 999999 999999 999999 999999 999999 999999 999999 999999 999999 999999 999999 999999 999999 999999 999999 999999 999999 999999 999999 999999 999999 999999 999999 999999 999999 999999 999999 999999 999999 999999 999999 999999 999999 999999 999999 999999 999999 999999 999999 999999 999999 999999 999999 999999 999999 999999 999999 999999 999999 999999 999999 999999 999999 999999 999999 999999 999999 999999 999999 999999 999999 999999 999999 999999 999999 999999 999999 999999 999999 6409
999999 18318 14380 14319 19611 11403 12149 18094 11590 10069 13291 16084 13420 10076 12840 18452 16684 16886 19098 16882 11832 14000 17240 18180 13245 11097 19853 13057 10685 18161 13964 14752 18632 14425 16286 17032 19757 15256 13623 16047 17382 16929 17420 16675 18050 15612 19791 16072 13969 14609 16555 15643 16202 16787 19516 10973 18184 14626 16303 14037 18354 16065 19871 12826 17838 10423 13726 16814 10309 18362 19265 18594 16285 18697 11596 13800 19951 18160 18611 16563 10588 11162 14263 13706 15603 13311 13029 17500 19045 12882 11828 14768 19892 18042 13863 13914 16435 10942 15510 13875 15402 14158 10219 16865 19932 12624 10169 12340 13973 15533 12837 14953 13106 19418 19930 15652 15546 18670 10284 11753 15404 12998 18463 11200 11979 19380 11525 13073 12573 14933 18528 14545 17772 11923 12097 15955 14505 16691 11247 19333 19634 19349 11917 13567 19554 15221 15838 14944 10105 18781 19528 11297 14547 14239 14636 10540 14079 13543 18216 15839 17494 999999 999999 999999 999999 999999 999999 999999 999999 999999 999999 999999 999999 999999 999999 999999 999999 999999 999999 999999 999999 999999 999999 999999 999999 999999 999999 999999 999999 999999 999999 999999 999999 999999 999999 999999 999999 999999 999999 999999 999999 999999 999999 999999 999999 0 999999 999999 999999 999999 999999 999999 999999 999999 999999 999999 999999 999999 999999 999999 999999 999999 999999 999999 999999 999999 999999 999999 999999 999999 999999 999999 999999 999999 999999 999999 999999 999999 999999 999999 999999 999999 999999 999999 999999 999999 999999 999999 999999 999999 999999 999999 999999 999999 999999 999999 999999 999999 999999 999999 999999 999999 999999 999999 999999 999999 999999 999999 999999 999999 999999 999999 999999 999999 999999 999999 999999 999999 999999 999999 999999 999999 999999 999999 999999 999999 999999 999999 999999 999999 999999 999999 999999 999999 999999 999999 999999 999999 999999 999999 999999 999999 999999 999999 999999 999999 999999 999999 999999 999999 999999 999999 999999 999999 999999 999999 999999 999999 999999 999999 999999 15000
999999 14413 18957 10023 15536 11808 16538 19585 13116 12339 18228 13676 17197 14102 16472 14152 14284 18903 10672 11628 16754 18192 11380 14509 19739 11514 10863 13419 11616 10561 18350 13244 16547 11843 13506 12085 10870 18258 18045 16593 13447 15242 19218 16645 10779 18304 19752 13346 18434 18110 13857 11143 15851 16693 17077 14741 14577 12762 17234 17011 16797 14136 19525 18449 14239 12497 10417 11267 15619 12021 19872 18473 14530 14575 12765 14895 14326 19497 13438 16112 16212 17793 13595 14227 18704 10259 11407 10275 19845 13007 10306 11625 18122 11654 13500 16247 15735 17752 18099 11030 19725 13749 14787 18946 18930 15470 15019 12603 15964 14008 16375 19500 16886 13610 12521 14909 14369 10125 17662 15756 18280 16681 17225 16941 10842 19608 18130 16902 13340 17584 11266 14017 16240 17880 10050 14299 14727 19886 11200 12500 16158 11038 18342 10714 13987 11037 17477 11601 11506 18610 15445 11269 17858 19057 15534 16412 13759 15636 19062 13825 18334 999999 999999 999999 999999 999999 999999 999999 999999 999999 999999 999999 999999 999999 999999 999999 999999 999999 999999 999999 999999 999999 999999 999999 999999 999999 999999 999999 999999 999999 999999 999999 999999 999999 999999 999999 999999 999999 999999 999999 999999 999999 999999 999999 999999 999999 0 999999 999999 999999 999999 999999 999999 999999 999999 999999 999999 999999 999999 999999 999999 999999 999999 999999 999999 999999 999999 999999 999999 999999 999999 999999 999999 999999 999999 999999 999999 999999 999999 999999 999999 999999 999999 999999 999999 999999 999999 999999 999999 999999 999999 999999 999999 999999 999999 999999 999999 999999 999999 999999 999999 999999 999999 999999 999999 999999 999999 999999 999999 999999 999999 999999 999999 999999 999999 999999 999999 999999 999999 999999 999999 999999 999999 999999 999999 999999 999999 999999 999999 999999 999999 999999 999999 999999 999999 999999 999999 999999 999999 999999 999999 999999 999999 999999 999999 999999 999999 999999 999999 999999 999999 999999 999999 999999 999999 999999 999999 999999 999999 999999 999999 7388
999999 19475 10715 17672 11387 13612 17504 10128 15679 16575 14719 16398 19751 12633 17926 10588 17619 10649 13022 13105 13638 12520 10185 12479 14960 14358 14044 10592 10025 19568 18747 14150 14754 19664 13093 18782 10417 19997 14835 16939 11683 19097 11297 11367 10353 10244 12816 17343 10966 16714 19935 10761 18193 13603 13710 12992 19935 10177 15063 12850 11891 13794 18565 14169 19665 15805 16102 17778 11774 19343 17891 16126 16619 19125 11189 10737 17814 18262 13939 10470 16208 16694 16009 17312 11054 14352 15320 13979 12604 10837 18296 16431 17056 13562 16372 15203 17703 11918 16253 13696 13132 16438 18703 17741 15988 11697 11973 19673 10187 12525 16794 11262 18897 18337 17339 10467 18920 18619 16474 14578 16517 12946 12624 18957 14914 13350 11636 15339 17160 15769 16789 13405 14928 11727 16089 18991 13411 17696 18662 17786 11913 18149 13187 16305 18370 16484 14721 13286 10734 12350 10393 15441 18563 13151 11283 19287 17383 19844 18039 17353 19709 999999 999999 999999 999999 999999 999999 999999 999999 999999 999999 999999 999999 999999 999999 999999 999999 999999 999999 999999 999999 999999 999999 999999 999999 999999 999999 999999 999999 999999 999999 999999 999999 999999 999999 999999 999999 999999 999999 999999 999999 999999 999999 999999 999999 999999 999999 0 999999 999999 999999 999999 999999 999999 999999 999999 999999 999999 999999 999999 999999 999999 999999 999999 999999 999999 999999 999999 999999 999999 999999 999999 999999 999999 999999 999999 999999 999999 999999 999999 999999 999999 999999 999999 999999 999999 999999 999999 999999 999999 999999 999999 999999 999999 999999 999999 999999 999999 999999 999999 999999 999999 999999 999999 999999 999999 999999 999999 999999 999999 999999 999999 999999 999999 999999 999999 999999 999999 999999 999999 999999 999999 999999 999999 999999 999999 999999 999999 999999 999999 999999 999999 999999 999999 999999 999999 999999 999999 999999 999999 999999 999999 999999 999999 999999 999999 999999 999999 999999 999999 999999 999999 999999 999999 999999 999999 999999 999999 999999 999999 999999 5772
999999 12411 18797 18950 15926 18494 10192 13427 12506 10500 12903 10782 13041 10672 14122 11461 13692 12214 18487 15493 13647 16886 10575 10326 17304 16746 16016 10445 19278 11704 17907 13070 16297 16022 19951 11308 16006 16927 18594 10198 18309 17845 19071 18246 13291 17551 17959 13551 16546 11071 13862 14126 12245 18436 13544 16673 12719 13603 16748 18609 15664 19632 18115 10957 18817 17935 10769 15408 11847 12018 13651 11022 13043 11823 17346 10777 15563 12889 17890 11960 18819 15372 13815 12294 15994 17244 17601 18280 14039 17184 10916 15223 11409 18155 19576 18095 11148 16959 14290 18795 14464 17304 14225 10363 11635 15858 14466 15903 11069 15117 18353 10219 16736 17819 18916 11343 14043 13654 18046 11138 12467 16800 19413 16974 19427 17102 11834 19079 19650 12060 10885 13263 16787 11293 16222 16374 14780 17338 18123 17419 11312 10862 17612 11295 17528 18819 11631 13013 16295 18970 11232 16248 14268 10569 10219 13113 10149 15271 16557 19965 18297 999999 999999 999999 999999 999999 999999 999999 999999 999999 999999 999999 999999 999999 999999 999999 999999 999999 999999 999999 999999 999999 999999 999999 999999 999999 999999 999999 999999 999999 999999 999999 999999 999999 999999 999999 999999 999999 999999 999999 999999 999999 999999 999999 999999 999999 999999 999999 0 999999 999999 999999 999999 999999 999999 999999 999999 999999 999999 999999 999999 999999 999999 999999 999999 999999 999999 999999 999999 999999 999999 999999 999999 999999 999999 999999 999999 999999 999999 999999 999999 999999 999999 999999 999999 999999 999999 999999 999999 999999 999999 999999 999999 999999 999999 999999 999999 999999 999999 999999 999999 999999 999999 999999 999999 999999 999999 999999 999999 999999 999999 999999 999999 999999 999999 999999 999999 999999 999999 999999 999999 999999 999999 999999 999999 999999 999999 999999 999999 999999 999999 999999 999999 999999 999999 999999 999999 999999 999999 999999 999999 999999 999999 999999 999999 999999 999999 999999 999999 999999 999999 999999 999999 999999 999999 999999 999999 999999 999999 999999 999999 7683
999999 15510 15368 17258 17921 14983 19780 11957 13675 16771 15850 18713 11447 10532 10583 10599 17470 18408 17396 18382 14690 18027 10712 17868 18839 15667 17021 11948 11580 16055 18604 19598 16832 16322 19268 10345 16695 11019 16878 19104 11175 18607 10539 15505 18800 12919 18335 17160 13545 11590 12481 16094 18505 14558 12195 17034 18269 11786 13407 13703 19539 16811 12188 19224 19144 10302 15702 16584 13117 14422 17928 18804 17247 18860 12335 12054 13022 10127 18321 19477 19487 14333 13394 10369 14119 16115 18820 17107 11023 17617 16689 12183 16155 17853 14317 12068 18309 15887 15076 17984 15051 18589 16564 18966 17258 10304 14636 13922 13946 13850 12307 15698 15157 11405 10672 16317 13834 18373 17916 15576 15166 11048 11190 14779 16886 14480 15143 18232 13726 16811 16494 13714 13499 10495 11812 19059 10389 11899 12877 16092 15370 16704 13424 10691 18997 13292 15755 10973 10428 11096 10151 10445 14849 18071 15259 15211 17522 11017 11882 12113 17114 999999 999999 999999 999999 999999 999999 999999 999999 999999 999999 999999 999999 999999 999999 999999 999999 999999 999999 999999 999999 999999 999999 999999 999999 999999 999999 999999 999999 999999 999999 999999 999999 999999 999999 999999 999999 999999 999999 999999 999999 999999 999999 999999 999999 999999 999999 999999 999999 0 999999 999999 999999 999999 999999 999999 999999 999999 999999 999999 999999 999999 999999 999999 999999 999999 999999 999999 999999 999999 999999 999999 999999 999999 999999 999999 999999 999999 999999 999999 999999 999999 999999 999999 999999 999999 999999 999999 999999 999999 999999 999999 999999 999999 999999 999999 999999 999999 999999 999999 999999 999999 999999 999999 999999 999999 999999 999999 999999 999999 999999 999999 999999 999999 999999 999999 999999 999999 999999 999999 999999 999999 999999 999999 999999 999999 999999 999999 999999 999999 999999 999999 999999 999999 999999 999999 999999 999999 999999 999999 999999 999999 999999 999999 999999 999999 999999 999999 999999 999999 999999 999999 999999 999999 999999 999999 999999 999999 999999 999999 999999 8427
999999 13074 12182 17933 15869 10594 13142 11935 10050 12675 17300 12894 11661 10165 11734 14910 13789 13061 14270 14051 11729 13017 19516 14312 19396 12893 12404 11023 15971 17608 12361 18010 16371 13272 12047 10226 13256 17879 18627 16830 15280 11669 13105 13012 19473 16909 11267 18202 10188 15500 15386 15043 13526 17380 11441 14787 16066 11868 19938 18861 11232 18668 16859 12883 14763 13698 15147 16245 16433 10439 14800 10278 13287 14110 15753 13661 12723 16214 19903 18458 17541 12618 16559 10948 19014 18706 17345 14854 17221 15202 13843 13994 15782 11936 10227 16482 19587 19934 17734 17848 19833 19877 18272 14699 11356 16024 13603 15124 16853 13875 16778 15286 10962 12514 14124 15896 15341 11857 13731 17844 11964 15069 12517 17543 14826 12205 14935 17355 14318 16706 12977 13139 16231 12327 18853 10057 13527 14855 17290 12949 16519 17219 14435 15781 19469 18148 12257 15879 14280 17626 13104 14167 18259 15372 19605 15684 19846 13796 11255 17534 11908 999999 999999 999999 999999 999999 999999 999999 999999 999999 999999 999999 999999 999999 999999 999999 999999 999999 999999 999999 999999 999999 999999 999999 999999 999999 999999 999999 999999 999999 999999 999999 999999 999999 999999 999999 999999 999999 999999 999999 999999 999999 999999 999999 999999 999999 999999 999999 999999 999999 0 999999 999999 999999 999999 999999 999999 999999 999999 999999 999999 999999 999999 999999 999999 999999 999999 999999 999999 999999 999999 999999 999999 999999 999999 999999 999999 999999 999999 999999 999999 999999 999999 999999 999999 999999 999999 999999 999999 999999 999999 999999 999999 999999 999999 999999 999999 999999 999999 999999 999999 999999 999999 999999 999999 999999 999999 999999 999999 999999 999999 999999 999999 999999 999999 999999 999999 999999 999999 999999 999999 999999 999999 999999 999999 999999 999999 999999 999999 999999 999999 999999 999999 999999 999999 999999 999999 999999 999999 999999 999999 999999 999999 999999 999999 999999 999999 999999 999999 999999 999999 999999 999999 999999 999999 999999 999999 999999 999999 999999 999999 10549
999999 19711 16412 16318 15284 11543 13315 12619 13513 12464 16832 17652 13959 15826 12486 19989 18085 12907 19201 17640 16967 14749 12803 14815 18857 11090 18879 16525 14642 11235 14625 18142 16176 13983 13307 16028 17483 11010 15623 12588 14700 15997 15455 16504 10501 19891 12819 12015 15530 13184 13579 10598 16129 10370 18241 19022 16742 16500 15615 18106 16740 12543 18248 15558 16491 19045 12881 16310 13742 11244 17535 12496 12668 18975 18852 14661 10928 12470 14128 10345 12238 10720 12565 18382 10438 17684 14474 18603 14987 12274 13091 17030 18599 10481 13393 11502 12716 10435 15523 17793 17009 16368 14802 19106 19657 11736 10121 10094 19677 16926 19198 17191 17516 18258 10365 10195 14111 13869 16896 13030 12989 15538 19734 17111 15274 15918 11920 17148 13957 14470 16764 15365 14961 13391 12448 14778 18064 11047 18321 17560 14250 12403 11457 11312 18948 19265 14506 10161 15324 19123 13843 12371 14175 18723 11814 15048 17205 16444 15769 10367 16182 999999 999999 999999 999999 999999 999999 999999 999999 999999 999999 999999 999999 999999 999999 999999 999999 999999 999999 999999 999999 999999 999999 999999 999999 999999 999999 999999 999999 999999 999999 999999 999999 999999 999999 999999 999999 999999 999999 999999 999999 999999 999999 999999 999999 999999 999999 999999 999999 999999 999999 0 999999 999999 999999 999999 999999 999999 999999 999999 999999 999999 999999 999999 999999 999999 999999 999999 999999 999999 999999 999999 999999 999999 999999 999999 999999 999999 999999 999999 999999 999999 999999 999999 999999 999999 999999 999999 999999 999999 999999 999999 999999 999999 999999 999999 999999 999999 999999 999999 999999 999999 999999 999999 999999 999999 999999 999999 999999 999999 999999 999999 999999 999999 999999 999999 999999 999999 999999 999999 999999 999999 999999 999999 999999 999999 999999 999999 999999 999999 999999 999999 999999 999999 999999 999999 999999 999999 999999 999999 999999 999999 999999 999999 999999 999999 999999 999999 999999 999999 999999 999999 999999 999999 999999 999999 999999 999999 999999 999999 999999 11302
999999 18689 16867 12221 10930 14603 13652 11551 15295 14482 11576 14869 16604 10360 18423 10965 11389 13817 12121 13391 11284 17210 16903 14526 15153 14199 16087 17526 14497 13829 19830 13874 10492 19543 10557 12978 13203 11570 12569 15118 19690 11336 10624 18591 17790 17485 12487 19947 19283 18034 12354 12113 16683 19448 18298 16428 14637 14423 14949 17704 16108 15620 10315 19736 11582 10939 18925 10143 18711 18549 13447 14849 15566 12888 11803 10860 13011 10634 19114 13106 16121 10366 13867 16968 18036 17855 16777 17358 17476 10234 15608 17697 11369 17878 13043 18126 12551 16321 14708 16463 16982 14222 10717 10440 13034 13360 19926 11962 18339 12365 17387 16581 13880 12436 10736 13800 11574 15812 15345 11263 19060 19627 17889 18662 14035 16176 17015 16393 16399 16542 19544 17086 19766 10382 19734 15394 11017 14817 16280 14546 10705 18303 10736 16095 14235 17248 13490 13216 15600 15683 18850 13235 17333 16646 15991 19297 14924 18038 13976 10060 18064 999999 999999 999999 999999 999999 999999 999999 999999 999999 999999 999999 999999 999999 999999 999999 999999 999999 999999 999999 999999 999999 999999 999999 999999 999999 999999 999999 999999 999999 999999 999999 999999 999999 999999 999999 999999 999999 999999 999999 999999 999999 999999 999999 999999 999999 999999 999999 999999 999999 999999 999999 0 999999 999999 999999 999999 999999 999999 999999 999999 999999 999999 999999 999999 999999 999999 999999 999999 999999 999999 999999 999999 999999 999999 999999 999999 999999 999999 999999 999999 999999 999999 999999 999999 999999 999999 999999 999999 999999 999999 999999 999999 999999 999999 999999 999999 999999 999999 999999 999999 999999 999999 999999 999999 999999 999999 999999 999999 999999 999999 999999 999999 999999 999999 999999 999999 999999 999999 999999 999999 999999 999999 999999 999999 999999 999999 999999 999999 999999 999999 999999 999999 999999 999999 999999 999999 999999 999999 999999 999999 999999 999999 999999 999999 999999 999999 999999 999999 999999 999999 999999 999999 999999 999999 999999 999999 999999 999999 999999 999999 9362
999999 17478 17182 10635 16293 12120 17559 10812 14772 17378 18043 13224 18297 18904 16079 19986 18101 16710 18145 19790 15493 16950 15691 14557 10301 16988 12865 14799 17302 19068 10359 12826 14484 19805 15807 12783 15215 11534 17220 14527 11148 19862 13276 15682 12074 12655 14270 15382 10264 19749 14368 12301 10409 18009 14308 10526 15873 14428 10203 14184 11428 14290 18432 16741 14971 14880 17643 17335 14917 11036 18007 17266 17592 19514 14469 15950 15069 17030 16425 15448 18647 18539 19431 17272 18328 13266 12468 15946 15176 16141 17116 12510 11692 14676 10064 12761 17992 12622 19621 13857 12857 12571 11900 11656 10218 19782 19433 19706 16599 11683 16004 14512 17636 17792 12034 14419 12316 10202 17884 15792 13254 11534 16400 15778 15730 13658 13962 19575 17476 18428 19536 16258 15776 10121 11252 14973 17693 14984 18840 16319 12480 13749 19340 16427 11588 18813 12476 16613 17269 11426 12818 16060 16789 14306 15094 18356 16671 13361 19332 11206 12560 999999 999999 999999 999999 999999 999999 999999 999999 999999 999999 999999 999999 999999 999999 999999 999999 999999 999999 999999 999999 999999 999999 999999 999999 999999 999999 999999 999999 999999 999999 999999 999999 999999 999999 999999 999999 999999 999999 999999 999999 999999 999999 999999 999999 999999 999999 999999 999999 999999 999999 999999 999999 0 999999 999999 999999 999999 999999 999999 999999 999999 999999 999999 999999 999999 999999 999999 999999 999999 999999 999999 999999 999999 999999 999999 999999 999999 999999 999999 999999 999999 999999 999999 999999 999999 999999 999999 999999 999999 999999 999999 999999 999999 999999 999999 999999 999999 999999 999999 999999 999999 999999 999999 999999 999999 999999 999999 999999 999999 999999 999999 999999 999999 999999 999999 999999 999999 999999 999999 999999 999999 999999 999999 999999 999999 999999 999999 999999 999999 999999 999999 999999 999999 999999 999999 999999 999999 999999 999999 999999 999999 999999 999999 999999 999999 999999 999999 999999 999999 999999 999999 999999 999999 999999 999999 999999 999999 999999 999999 999999 7285
999999 18152 15645 11808 16090 19085 13787 12346 12676 17695 18210 14038 12165 11492 15935 17648 16796 13519 11920 13768 14301 15462 16001 14504 14523 12387 15618 19399 16331 17288 11434 12440 16367 14077 16508 10742 16228 15924 14763 14417 19159 12858 15457 15438 18981 13525 16259 17050 14736 16436 13349 19559 12664 11510 10945 12486 15477 10483 13969 14886 15624 15871 16968 17952 10890 14994 11870 15129 10201 10100 18725 18089 11606 19131 18078 18349 18787 13934 15835 11979 19117 12101 13855 18555 10571 19765 12108 16062 17273 16497 17598 12739 19834 10755 12158 12425 18309 13914 17621 10199 12861 16983 19877 14111 14102 19816 13633 10578 13937 13016 17837 15623 16258 13090 14442 16337 19425 11124 11763 15583 12157 17612 18260 14266 12341 12563 17097 17325 18556 15447 13622 13727 15177 13620 18005 19128 11056 19751 16193 18695 18267 11363 17739 16391 16514 19001 11025 10747 11187 14204 15364 19587 18841 11676 14043 14309 17764 16563 16358 16713 16505 999999 999999 999999 999999 999999 999999 999999 999999 999999 999999 999999 999999 999999 999999 999999 999999 999999 999999 999999 999999 999999 999999 999999 999999 999999 999999 999999 999999 999999 999999 999999 999999 999999 999999 999999 999999 999999 999999 999999 999999 999999 999999 999999 999999 999999 999999 999999 999999 999999 999999 999999 999999 999999 0 999999 999999 999999 999999 999999 999999 999999 999999 999999 999999 999999 999999 999999 999999 999999 999999 999999 999999 999999 999999 999999 999999 999999 999999 999999 999999 999999 999999 999999 999999 999999 999999 999999 999999 999999 999999 999999 999999 999999 999999 999999 999999 999999 999999 999999 999999 999999 999999 999999 999999 999999 999999 999999 999999 999999 999999 999999 999999 999999 999999 999999 999999 999999 999999 999999 999999 999999 999999 999999 999999 999999 999999 999999 999999 999999 999999 999999 999999 999999 999999 999999 999999 999999 999999 999999 999999 999999 999999 999999 999999 999999 999999 999999 999999 999999 999999 999999 999999 999999 999999 999999 999999 999999 999999 999999 999999 13481
999999 12239 18363 12272 16585 12871 12090 10283 12997 16784 14289 12777 16175 12459 13858 15183 12345 16806 12550 18233 12603 14887 17268 14601 17156 17527 14803 10397 11202 12845 15105 18066 14534 12242 14004 18034 10339 15812 16031 13237 14417 14232 19509 15443 10781 16098 10723 19709 13367 11903 10628 14880 17616 12042 14412 11527 13993 15582 15460 13764 12803 15296 17616 16089 12699 11225 19929 12575 16319 10702 15979 17455 14269 17078 13221 18260 14734 19367 12335 11812 14071 12225 12277 13159 10476 17874 13184 19910 19902 19152 18080 15917 15691 14759 10109 18272 11277 12300 12276 10843 16786 18277 16190 17430 15097 19664 15181 10541 19966 13215 14971 19345 16656 13494 11512 15426 10655 19389 19617 15446 11268 19150 12951 13279 17316 11739 17075 12321 10705 13827 14523 18745 13868 15846 10884 15013 19357 17832 12270 13308 15925 16581 10976 18141 12317 12830 17543 16815 19117 19380 12324 17628 13402 12050 17758 11101 10007 17499 17729 10568 12204 999999 999999 999999 999999 999999 999999 999999 999999 999999 999999 999999 999999 999999 999999 999999 999999 999999 999999 999999 999999 999999 999999 999999 999999 999999 999999 999999 999999 999999 999999 999999 999999 999999 999999 999999 999999 999999 999999 999999 999999 999999 999999 999999 999999 999999 999999 999999 999999 999999 999999 999999 999999 999999 999999 0 999999 999999 999999 999999 999999 999999 999999 999999 999999 999999 999999 999999 999999 999999 999999 999999 999999 999999 999999 999999 999999 999999 999999 999999 999999 999999 999999 999999 999999 999999 999999 999999 999999 999999 999999 999999 999999 999999 999999 999999 999999 999999 999999 999999 999999 999999 999999 999999 999999 999999 999999 999999 999999 999999 999999 999999 999999 999999 999999 999999 999999 999999 999999 999999 999999 999999 999999 999999 999999 999999 999999 999999 999999 999999 999999 999999 999999 999999 999999 999999 999999 999999 999999 999999 999999 999999 999999 999999 999999 999999 999999 999999 999999 999999 999999 999999 999999 999999 999999 999999 999999 999999 999999 999999 999999 13286
999999 13497 12438 10072 19639 15038 13366 13676 19764 15390 16085 13068 15975 17413 13754 15687 18578 13385 10750 19961 10570 19350 14511 10684 18660 12357 19750 14951 14697 16966 10762 10669 11871 19295 15649 18967 19945 17261 10420 13637 19226 10330 16051 19585 19802 11397 13595 16417 17498 17342 10853 15399 11099 18098 13335 16663 12458 12875 18314 14367 14969 18267 11866 18459 18256 11060 13214 11929 12999 19990 16098 10325 10316 18966 18920 12390 11124 16253 12668 10053 12357 19291 11297 16969 17728 11557 18215 16811 15171 18259 19108 19912 12197 16756 19728 17951 12896 19480 10125 19961 14779 19309 19303 19459 17114 11219 14784 17460 10034 14786 16042 15428 17957 19633 13323 16387 13141 18461 13387 12238 13312 12567 13447 10100 14167 15757 16857 14820 17603 16676 19426 16297 19537 13583 14443 12474 17255 18864 15869 18651 10417 15943 12338 10430 17003 17416 10536 18755 12010 17964 15758 16862 17245 16121 18284 15307 15486 15282 11570 15729 18451 999999 999999 999999 999999 999999 999999 999999 999999 999999 999999 999999 999999 999999 999999 999999 999999 999999 999999 999999 999999 999999 999999 999999 999999 999999 999999 999999 999999 999999 999999 999999 999999 999999 999999 999999 999999 999999 999999 999999 999999 999999 999999 999999 999999 999999 999999 999999 999999 999999 999999 999999 999999 999999 999999 999999 0 999999 999999 999999 999999 999999 999999 999999 999999 999999 999999 999999 999999 999999 999999 999999 999999 999999 999999 999999 999999 999999 999999 999999 999999 999999 999999 999999 999999 999999 999999 999999 999999 999999 999999 999999 999999 999999 999999 999999 999999 999999 999999 999999 999999 999999 999999 999999 999999 999999 999999 999999 999999 999999 999999 999999 999999 999999 999999 999999 999999 999999 999999 999999 999999 999999 999999 999999 999999 999999 999999 999999 999999 999999 999999 999999 999999 999999 999999 999999 999999 999999 999999 999999 999999 999999 999999 999999 999999 999999 999999 999999 999999 999999 999999 999999 999999 999999 999999 999999 999999 999999 999999 999999 999999 7862
999999 18164 19662 18612 10653 12823 18351 11527 11368 13789 15230 17790 14341 12951 19534 13916 17573 16527 15364 10692 12636 10077 11995 12800 17472 12717 13629 19693 14397 10185 13689 15416 16466 15295 16935 16135 15364 19619 18590 19950 12478 11134 11035 11259 18416 19168 13773 19332 11111 14618 13544 19184 15678 11093 18964 17817 11770 19589 16794 16231 12256 14062 16215 17411 12968 17495 19825 11039 19658 14481 15398 14393 14886 10047 16063 12912 17187 11178 18417 12450 13248 14352 12744 15583 19105 10307 18943 13784 16493 11900 11826 14477 10875 14619 18076 12354 18305 14432 19829 10644 12848 15712 13247 14631 19857 17814 14234 13310 10459 11892 13461 15350 11148 11283 18837 19398 12675 14304 14156 11066 14331 16056 17022 19801 10292 11126 20000 19315 15720 14147 13407 19137 12453 11034 14230 16292 18087 12714 12859 13871 17312 19922 17246 16787 14105 15463 11795 16677 13832 10475 12435 19792 12637 18575 16048 19333 11161 18863 12771 15096 15540 999999 999999 999999 999999 999999 999999 999999 999999 999999 999999 999999 999999 999999 999999 999999 999999 999999 999999 999999 999999 999999 999999 999999 999999 999999 999999 999999 999999 999999 999999 999999 999999 999999 999999 999999 999999 999999 999999 999999 999999 999999 999999 999999 999999 999999 999999 999999 999999 999999 999999 999999 999999 999999 999999 999999 999999 0 999999 999999 999999 999999 999999 999999 999999 999999 999999 999999 999999 999999 999999 999999 999999 999999 999999 999999 999999 999999 999999 999999 999999 999999 999999 999999 999999 999999 999999 999999 999999 999999 999999 999999 999999 999999 999999 999999 999999 999999 999999 999999 999999 999999 999999 999999 999999 999999 999999 999999 999999 999999 999999 999999 999999 999999 999999 999999 999999 999999 999999 999999 999999 999999 999999 999999 999999 999999 999999 999999 999999 999999 999999 999999 999999 999999 999999 999999 999999 999999 999999 999999 999999 999999 999999 999999 999999 999999 999999 999999 999999 999999 999999 999999 999999 999999 999999 999999 999999 999999 999999 999999 999999 14533
999999 16932 18336 17356 17334 14167 16781 16387 10037 19218 18407 13381 15186 14579 19621 10918 16590 14943 15567 18771 10223 11251 13351 11416 15572 14381 15905 19661 11345 14259 17828 11069 16098 19970 16934 11280 13570 12697 14065 10789 17725 16528 11221 13631 11469 16542 12025 17601 16556 15087 16437 15059 13382 14787 15815 13479 10861 12867 18943 12878 16769 18241 12997 17707 10820 11600 13383 19941 15606 17250 19951 11987 18600 19524 11955 14945 19264 12254 13662 10292 18756 14092 13328 12189 13775 16741 15212 14585 17015 14492 13179 13161 12692 10748 11443 15842 13452 10502 19471 18981 14199 15210 17759 12205 11264 12948 15096 12593 14931 13435 12237 19112 16577 10280 18030 15926 18315 17803 18280 11592 18394 16653 17910 13454 17402 11528 14464 18327 18115 15887 11753 11820 18279 14610 10668 18574 17096 10497 11780 11947 19396 13749 19303 18167 18460 11400 17208 14509 10093 12464 14335 12270 11511 12821 12670 18201 19144 18384 13765 11228 14307 999999 999999 999999 999999 999999 999999 999999 999999 999999 999999 999999 999999 999999 999999 999999 999999 999999 999999 999999 999999 999999 999999 999999 999999 999999 999999 999999 999999 999999 999999 999999 999999 999999 999999 999999 999999 999999 999999 999999 999999 999999 999999 999999 999999 999999 999999 999999 999999 999999 999999 999999 999999 999999 999999 999999 999999 999999 0 999999 999999 999999 999999 999999 999999 999999 999999 999999 999999 999999 999999 999999 999999 999999 999999 999999 999999 999999 999999 999999 999999 999999 999999 999999 999999 999999 999999 999999 999999 999999 999999 999999 999999 999999 999999 999999 999999 999999 999999 999999 999999 999999 999999 999999 999999 999999 999999 999999 999999 999999 999999 999999 999999 999999 999999 999999 999999 999999 999999 999999 999999 999999 999999 999999 999999 999999 999999 999999 999999 999999 999999 999999 999999 999999 999999 999999 999999 999999 999999 999999 999999 999999 999999 999999 999999 999999 999999 999999 999999 999999 999999 999999 999999 999999 999999 999999 999999 999999 999999 999999 999999 13733
999999 15622 10664 16726 16690 14322 16430 12627 17543 18602 19164 19699 18374 10976 18582 12681 15653 17220 18670 17615 14555 18186 10260 17293 10822 19101 10490 16971 10811 19285 14570 10350 19191 19841 18963 14443 18510 11823 12269 11377 14786 16976 12877 11545 12460 10730 11650 10316 11980 18425 17712 19234 10005 12987 15066 10574 15322 10369 14451 11024 19657 15202 19100 11187 11623 14401 11392 12824 13259 16906 12886 13479 12015 11709 17489 14052 13527 19612 18410 10103 19163 11512 16696 14943 17170 12231 16969 11445 15526 19963 15600 11184 12593 19130 14288 18759 17009 17291 12406 13801 13190 11661 19836 19449 14147 16004 11715 16154 12988 13722 15328 19970 11518 10922 12136 15808 17413 14756 11246 15188 15462 14013 14230 18605 19566 11741 18814 16964 16990 10663 14480 12358 13984 10263 17326 12909 15787 11820 16302 16625 13377 18493 16927 16696 10436 12904 16999 10148 19521 11715 16443 11738 16800 11733 16542 18439 11318 11894 12237 10023 13916 999999 999999 999999 999999 999999 999999 999999 999999 999999 999999 999999 999999 999999 999999 999999 999999 999999 999999 999999 999999 999999 999999 999999 999999 999999 999999 999999 999999 999999 999999 999999 999999 999999 999999 999999 999999 999999 999999 999999 999999 999999 999999 999999 999999 999999 999999 999999 999999 999999 999999 999999 999999 999999 999999 999999 999999 999999 999999 0 999999 999999 999999 999999 999999 999999 999999 999999 999999 999999 999999 999999 999999 999999 999999 999999 999999 999999 999999 999999 999999 999999 999999 999999 999999 999999 999999 999999 999999 999999 999999 999999 999999 999999 999999 999999 999999 999999 999999 999999 999999 999999 999999 999999 999999 999999 999999 999999 999999 999999 999999 999999 999999 999999 999999 999999 999999 999999 999999 999999 999999 999999 999999 999999 999999 999999 999999 999999 999999 999999 999999 999999 999999 999999 999999 999999 999999 999999 999999 999999 999999 999999 999999 999999 999999 999999 999999 999999 999999 999999 999999 999999 999999 999999 999999 999999 999999 999999 999999 999999 999999 6706
999999 11966 13820 11488 12031 14465 14302 13626 16929 15652 15143 16571 14542 16678 16583 16500 16357 11732 18462 19218 10983 16067 15944 15312 12886 19826 12771 12668 12968 12442 12829 19033 13878 16649 10118 11533 15045 10479 10154 19974 16850 15746 18850 16602 16250 18839 17611 14011 13680 16863 18682 14717 17898 13708 16049 11574 15893 14758 17788 14314 10221 10746 11406 11040 16711 17657 14385 16956 16245 16499 17318 14906 12559 15882 13816 13372 17734 14020 10649 12178 12286 11004 12847 10264 19990 17265 11073 14673 13466 18230 15078 13649 10259 16560 12233 15070 18357 16871 16808 18080 15940 15090 18027 15839 16599 17229 16077 12333 10312 10451 19522 10391 13846 10451 15712 18145 10619 16017 10459 12131 17578 16871 14435 16516 14439 14656 17298 19614 13808 14950 16332 16205 10691 14290 17657 17698 11823 13688 14058 16985 12507 12877 16148 10453 10558 11512 14950 18493 11601 14452 17531 13247 14629 16929 11794 17690 12019 19364 15806 16434 18957 999999 999999 999999 999999 999999 999999 999999 999999 999999 999999 999999 999999 999999 999999 999999 999999 999999 999999 999999 999999 999999 999999 999999 999999 999999 999999 999999 999999 999999 999999 999999 999999 999999 999999 999999 999999 999999 999999 999999 999999 999999 999999 999999 999999 999999 999999 999999 999999 999999 999999 999999 999999 999999 999999 999999 999999 999999 999999 999999 0 999999 999999 999999 999999 999999 999999 999999 999999 999999 999999 999999 999999 999999 999999 999999 999999 999999 999999 999999 999999 999999 999999 999999 999999 999999 999999 999999 999999 999999 999999 999999 999999 999999 999999 999999 999999 999999 999999 999999 999999 999999 999999 999999 999999 999999 999999 999999 999999 999999 999999 999999 999999 999999 999999 999999 999999 999999 999999 999999 999999 999999 999999 999999 999999 999999 999999 999999 999999 999999 999999 999999 999999 999999 999999 999999 999999 999999 999999 999999 999999 999999 999999 999999 999999 999999 999999 999999 999999 999999 999999 999999 999999 999999 999999 999999 999999 999999 999999 999999 999999 5439
999999 15285 14835 16814 12604 11038 17583 10551 14486 10847 14524 18390 14948 17903 14200 17341 11978 16812 18055 11388 10989 13968 17846 12812 19890 16011 15214 16518 12460 18846 19617 18838 12912 11918 11068 14781 10869 16204 13049 15756 12915 16659 17252 12129 13069 17794 14798 17997 13396 14418 16131 14870 12600 11629 10048 16751 16920 19342 10905 17065 13737 15065 18748 15661 10485 12611 12467 14592 14710 15816 19532 14379 14507 14690 19205 11257 12062 16585 13898 18294 18311 11217 17572 16661 10658 12840 15973 12694 16274 13080 11278 19089 15241 15026 15010 18363 14503 11427 11962 17369 10796 19697 14317 10164 17245 16638 13633 10802 19083 10048 19008 14008 13742 14174 14379 14603 18333 16927 10931 19159 18012 19493 16501 16506 12005 11120 13129 12089 11404 15919 19189 13765 11748 16409 10059 19091 19321 18860 19175 16933 12197 12882 16451 17399 12238 14435 10289 14492 14771 18573 19258 16989 17290 11394 17829 14805 14143 13714 16112 17714 10422 999999 999999 999999 999999 999999 999999 999999 999999 999999 999999 999999 999999 999999 999999 999999 999999 999999 999999 999999 999999 999999 999999 999999 999999 999999 999999 999999 999999 999999 999999 999999 999999 999999 999999 999999 999999 999999 999999 999999 999999 999999 999999 999999 999999 999999 999999 999999 999999 999999 999999 999999 999999 999999 999999 999999 999999 999999 999999 999999 999999 0 999999 999999 999999 999999 999999 999999 999999 999999 999999 999999 999999 999999 999999 999999 999999 999999 999999 999999 999999 999999 999999 999999 999999 999999 999999 999999 999999 999999 999999 999999 999999 999999 999999 999999 999999 999999 999999 999999 999999 999999 999999 999999 999999 999999 999999 999999 999999 999999 999999 999999 999999 999999 999999 999999 999999 999999 999999 999999 999999 999999 999999 999999 999999 999999 999999 999999 999999 999999 999999 999999 999999 999999 999999 999999 999999 999999 999999 999999 999999 999999 999999 999999 999999 999999 999999 999999 999999 999999 999999 999999 999999 999999 999999 999999 999999 999999 999999 999999 999999 14104
999999 10640 13926 13133 14460 13295 18858 18229 19482 13473 16180 17737 13606 12431 13373 17925 12578 19141 16159 10225 10082 13754 15903 18167 17831 12668 18674 12247 12722 18476 11264 10707 18493 18950 14481 18863 17993 17917 14857 13710 12491 12214 13489 14839 18860 19606 19737 12346 19511 18737 10506 14910 18910 14039 10183 18784 13399 10968 13135 16951 18413 13131 17732 17001 11557 11150 16579 13244 16892 13792 15470 14670 18694 16983 14858 13428 11525 11310 13264 15178 10840 17522 11191 19568 13990 16517 18523 16585 11260 12927 14774 12260 14218 17980 13618 10381 11791 17978 13318 16877 12693 13910 13079 19013 12254 10260 10929 13524 19813 16528 13016 19488 13543 17792 17997 14136 19822 13373 15387 16746 16381 13725 10411 14286 10290 10721 17316 16147 15259 15989 11291 13549 10361 16311 18770 10706 18610 16080 10594 13427 19386 18816 10642 17743 14958 13319 15540 17778 16685 11516 11239 18067 17129 14061 11402 11389 19892 15097 19176 12098 18785 999999 999999 999999 999999 999999 999999 999999 999999 999999 999999 999999 999999 999999 999999 999999 999999 999999 999999 999999 999999 999999 999999 999999 999999 999999 999999 999999 999999 999999 999999 999999 999999 999999 999999 999999 999999 999999 999999 999999 999999 999999 999999 999999 999999 999999 999999 999999 999999 999999 999999 999999 999999 999999 999999 999999 999999 999999 999999 999999 999999 999999 0 999999 999999 999999 999999 999999 999999 999999 999999 999999 999999 999999 999999 999999 999999 999999 999999 999999 999999 999999 999999 999999 999999 999999 999999 999999 999999 999999 999999 999999 999999 999999 999999 999999 999999 999999 999999 999999 999999 999999 999999 999999 999999 999999 999999 999999 999999 999999 999999 999999 999999 999999 999999 999999 999999 999999 999999 999999 999999 999999 999999 999999 999999 999999 999999 999999 999999 999999 999999 999999 999999 999999 999999 999999 999999 999999 999999 999999 999999 999999 999999 999999 999999 999999 999999 999999 999999 999999 999999 999999 999999 999999 999999 999999 999999 999999 999999 999999 999999 11065
999999 11212 18757 14894 19886 14864 12455 19630 12384 16763 17441 13644 19913 10711 10834 12893 19752 12500 15047 10600 14523 19339 18344 10258 13295 19726 11256 14238 16478 14244 10333 18246 15708 19702 13462 10367 17339 19706 14519 17773 10656 10642 15691 16070 14147 19484 13864 13481 12314 12012 16409 19858 16050 10684 16443 18341 15182 10625 15982 17961 16304 17548 15603 12770 17960 13380 15956 18199 15214 18445 18514 13047 19747 14722 12574 15571 19353 17678 17073 17739 13478 10375 11169 10846 18694 16565 19997 14539 10406 14214 15584 14708 19896 10328 14405 15286 13826 15785 17941 19824 19715 17241 19126 19275 15771 18245 12445 14173 19528 17112 19414 12152 14837 17414 15600 18607 19212 12982 15681 16739 17831 13839 14976 17493 18277 15659 16354 17623 15049 19460 16648 19494 11027 18458 11678 15324 11562 18315 17336 13093 11532 12962 12508 11197 19841 15254 15251 10817 18947 16731 11635 15545 16986 11475 15065 15042 17413 12813 18268 18719 12171 999999 999999 999999 999999 999999 999999 999999 999999 999999 999999 999999 999999 999999 999999 999999 999999 999999 999999 999999 999999 999999 999999 999999 999999 999999 999999 999999 999999 999999 999999 999999 999999 999999 999999 999999 999999 999999 999999 999999 999999 999999 999999 999999 999999 999999 999999 999999 999999 999999 999999 999999 999999 999999 999999 999999 999999 999999 999999 999999 999999 999999 999999 0 999999 999999 999999 999999 999999 999999 999999 999999 999999 999999 999999 999999 999999 999999 999999 999999 999999 999999 999999 999999 999999 999999 999999 999999 999999 999999 999999 999999 999999 999999 999999 999999 999999 999999 999999 999999 999999 999999 999999 999999 999999 999999 999999 999999 999999 999999 999999 999999 999999 999999 999999 999999 999999 999999 999999 999999 999999 999999 999999 999999 999999 999999 999999 999999 999999 999999 999999 999999 999999 999999 999999 999999 999999 999999 999999 999999 999999 999999 999999 999999 999999 999999 999999 999999 999999 999999 999999 999999 999999 999999 999999 999999 999999 999999 999999 999999 999999 8223
999999 19711 18678 11239 15151 16699 10548 13457 10105 16487 15386 10761 18253 16027 18210 18715 12001 18232 11504 18577 15512 19319 12602 16942 11458 17221 17950 13431 18082 14514 15854 17584 14375 10945 13275 19316 15812 10971 16361 15615 17579 15923 16438 16993 15312 17753 10171 16230 12449 10000 10474 17372 17962 18166 12031 13988 17190 16723 11571 19939 12422 13973 17803 19900 11891 11272 11361 16203 18059 19448 17119 18031 18272 14485 11414 14665 16990 16805 18556 17874 16952 12543 19069 19066 15650 13317 12960 14486 11072 11108 12532 19720 13986 18628 16323 17293 14400 13737 10272 13761 16910 18293 19453 13204 17545 11471 15261 18166 16277 16746 13924 16704 19688 18195 12506 10528 14212 16198 19492 17427 13195 16539 18923 15440 18579 12114 19275 14974 17269 19725 14295 10735 15069 17078 16964 19567 10049 17233 13720 12809 19625 14469 14525 11860 12196 18293 16371 18157 18182 19354 13159 18605 13363 18986 10178 13851 13127 17475 14450 18846 10430 999999 999999 999999 999999 999999 999999 999999 999999 999999 999999 999999 999999 999999 999999 999999 999999 999999 999999 999999 999999 999999 999999 999999 999999 999999 999999 999999 999999 999999 999999 999999 999999 999999 999999 999999 999999 999999 999999 999999 999999 999999 999999 999999 999999 999999 999999 999999 999999 999999 999999 999999 999999 999999 999999 999999 999999 999999 999999 999999 999999 999999 999999 999999 0 999999 999999 999999 999999 999999 999999 999999 999999 999999 999999 999999 999999 999999 999999 999999 999999 999999 999999 999999 999999 999999 999999 999999 999999 999999 999999 999999 999999 999999 999999 999999 999999 999999 999999 999999 999999 999999 999999 999999 999999 999999 999999 999999 999999 999999 999999 999999 999999 999999 999999 999999 999999 999999 999999 999999 999999 999999 999999 999999 999999 999999 999999 999999 999999 999999 999999 999999 999999 999999 999999 999999 999999 999999 999999 999999 999999 999999 999999 999999 999999 999999 999999 999999 999999 999999 999999 999999 999999 999999 999999 999999 999999 999999 999999 999999 999999 10893
999999 11462 13095 16942 14673 13759 18094 13754 18520 17281 15739 17472 18641 13274 10544 18263 13631 19134 17902 16952 13102 11063 14925 11577 12252 18916 10408 13055 12714 17201 11610 16858 13925 13275 19803 15653 19953 18687 10009 17623 12692 15357 17752 10910 12982 10214 12010 19412 18733 18706 10412 11124 18857 13492 13571 17662 18202 15596 12807 19603 11511 12996 17214 14976 15317 10072 11115 10462 17662 15353 14385 10103 16965 11928 19905 12839 12573 14363 17688 11888 11025 11763 11646 17243 18136 14381 18057 16357 19769 15446 12118 13638 19998 16289 10116 14111 13473 11849 15076 14660 16534 15249 16496 16131 19830 14553 14497 13602 15991 15641 19272 12771 13041 15818 13881 16058 19654 12799 17941 13092 10564 12545 18672 19647 10340 16937 17527 17512 17159 13009 11715 19854 12718 13550 17156 19369 14743 12554 19634 19191 10484 11826 19453 16377 10584 10922 11577 18251 17700 15787 16568 13762 11545 19098 12078 16145 10401 15816 16444 11062 15821 999999 999999 999999 999999 999999 999999 999999 999999 999999 999999 999999 999999 999999 999999 999999 999999 999999 999999 999999 999999 999999 999999 999999 999999 999999 999999 999999 999999 999999 999999 999999 999999 999999 999999 999999 999999 999999 999999 999999 999999 999999 999999 999999 999999 999999 999999 999999 999999 999999 999999 999999 999999 999999 999999 999999 999999 999999 999999 999999 999999 999999 999999 999999 999999 0 999999 999999 999999 999999 999999 999999 999999 999999 999999 999999 999999 999999 999999 999999 999999 999999 999999 999999 999999 999999 999999 999999 999999 999999 999999 999999 999999 999999 999999 999999 999999 999999 999999 999999 999999 999999 999999 999999 999999 999999 999999 999999 999999 999999 999999 999999 999999 999999 999999 999999 999999 999999 999999 999999 999999 999999 999999 999999 999999 999999 999999 999999 999999 999999 999999 999999 999999 999999 999999 999999 999999 999999 999999 999999 999999 999999 999999 999999 999999 999999 999999 999999 999999 999999 999999 999999 999999 999999 999999 999999 999999 999999 999999 999999 999999 7371
999999 16546 17772 10191 13442 13282 19575 19723 16019 14419 11332 16355 16032 10544 19425 11064 13332 14423 11767 17815 10653 13691 10601 10865 15071 11200 17586 10556 17508 14088 19398 13524 11264 10489 19137 12282 12929 11777 10698 16183 13820 10506 14210 17044 11719 16021 18662 15464 13916 11020 13673 10492 15706 19836 12469 13622 18261 18411 12264 13514 14642 16432 11920 12535 10033 12307 10608 17446 10499 18209 10931 11106 12356 10942 18257 13920 12559 10465 16287 14950 16913 18485 12614 12114 18964 16086 10920 15636 15023 15734 17444 15048 11092 19493 17356 13259 19403 15735 16504 16350 18953 17831 16398 10339 13904 15922 12562 11082 17789 17709 12143 17734 19815 10783 17671 10458 14786 17589 10388 15074 11951 19633 15568 19500 19606 13565 19515 19265 12327 17886 10135 19905 10846 15687 16479 18724 11136 14793 17828 12247 10700 10403 18357 15523 11781 15460 12424 14853 13868 10066 18894 13911 17774 17495 15525 14778 10389 15599 18430 11424 15756 999999 999999 999999 999999 999999 999999 999999 999999 999999 999999 999999 999999 999999 999999 999999 999999 999999 999999 999999 999999 999999 999999 999999 999999 999999 999999 999999 999999 999999 999999 999999 999999 999999 999999 999999 999999 999999 999999 999999 999999 999999 999999 999999 999999 999999 999999 999999 999999 999999 999999 999999 999999 999999 999999 999999 999999 999999 999999 999999 999999 999999 999999 999999 999999 999999 0 999999 999999 999999 999999 999999 999999 999999 999999 999999 999999 999999 999999 999999 999999 999999 999999 999999 999999 999999 999999 999999 999999 999999 999999 999999 999999 999999 999999 999999 999999 999999 999999 999999 999999 999999 999999 999999 999999 999999 999999 999999 999999 999999 999999 999999 999999 999999 999999 999999 999999 999999 999999 999999 999999 999999 999999 999999 999999 999999 999999 999999 999999 999999 999999 999999 999999 999999 999999 999999 999999 999999 999999 999999 999999 999999 999999 999999 999999 999999 999999 999999 999999 999999 999999 999999 999999 999999 999999 999999 999999 999999 999999 999999 999999 14023
999999 13387 11598 19823 13989 16379 17487 13727 15833 17772 19912 11743 16160 15355 17430 15854 10480 12983 17021 15904 17454 11805 17627 15747 19512 18459 17762 12697 11158 11338 13134 19293 19553 16703 12975 13098 12527 15276 16099 18006 17423 10598 16005 15862 16663 14651 10163 19679 11807 14864 18380 11010 11737 18940 11539 15508 11205 16204 15932 15028 11864 17103 18310 18314 19376 14139 10056 14161 15757 14872 10844 13664 16169 10564 13319 16859 13651 16526 15718 12863 15179 19913 14166 15460 18182 14068 17949 13205 17714 11630 10065 10963 19876 15954 16384 10725 14670 11949 18406 11247 10884 14307 15290 18657 10735 17719 14760 13033 12692 19036 19201 19861 15049 18031 10479 14131 17288 17101 13009 12213 12891 19219 10580 17256 15176 17280 13719 14720 10587 14125 14156 15059 16645 13116 12140 18466 13359 12051 16143 14965 15961 12789 10454 16461 10471 16931 10477 14714 14640 10397 19079 17594 13263 15024 19490 13558 11745 15365 17684 15207 10314 999999 999999 999999 999999 999999 999999 999999 999999 999999 999999 999999 999999 999999 999999 999999 999999 999999 999999 999999 999999 999999 999999 999999 999999 999999 999999 999999 999999 999999 999999 999999 999999 999999 999999 999999 999999 999999 999999 999999 999999 999999 999999 999999 999999 999999 999999 999999 999999 999999 999999 999999 999999 999999 999999 999999 999999 999999 999999 999999 999999 999999 999999 999999 999999 999999 999999 0 999999 999999 999999 999999 999999 999999 999999 999999 999999 999999 999999 999999 999999 999999 999999 999999 999999 999999 999999 999999 999999 999999 999999 999999 999999 999999 999999 999999 999999 999999 999999 999999 999999 999999 999999 999999 999999 999999 999999 999999 999999 999999 999999 999999 999999 999999 999999 999999 999999 999999 999999 999999 999999 999999 999999 999999 999999 999999 999999 999999 999999 999999 999999 999999 999999 999999 999999 999999 999999 999999 999999 999999 999999 999999 999999 999999 999999 999999 999999 999999 999999 999999 999999 999999 999999 999999 999999 999999 999999 999999 999999 999999 999999 8682
999999 15257 18812 12050 15655 10913 12067 19077 19640 18450 13858 15217 16244 18727 14585 12367 15081 13847 15358 16979 18504 17460 11100 13819 13941 16665 13704 13626 18140 19706 11483 19744 16273 10326 15075 15952 17731 18158 18426 13022 13853 14782 13987 11132 11557 12850 11636 16813 10590 12514 17936 16449 15685 16599 10310 18497 12116 13355 16792 11728 14353 10488 16455 15436 17672 17362 19908 14189 14894 14799 19375 14054 16655 13406 15344 12562 14106 15958 12842 16303 17960 11902 18576 18508 11342 14748 18612 12828 18238 11615 18596 14002 15068 19884 19786 12523 18763 10491 10577 18315 13724 17835 16433 11365 12984 11388 17873 14500 11698 17326 14404 13561 10372 16166 14765 18643 13733 16625 15552 12459 15570 15192 18676 14811 19544 12343 19914 10692 17027 17002 16812 12796 12139 11691 12060 18459 10006 19878 12304 13298 18841 11175 13479 16707 10666 17660 15267 10723 19218 11929 14421 16345 18237 14177 12324 20000 13777 10063 14205 19779 10763 999999 999999 999999 999999 999999 999999 999999 999999 999999 999999 999999 999999 999999 999999 999999 999999 999999 999999 999999 999999 999999 999999 999999 999999 999999 999999 999999 999999 999999 999999 999999 999999 999999 999999 999999 999999 999999 999999 999999 999999 999999 999999 999999 999999 999999 999999 999999 999999 999999 999999 999999 999999 999999 999999 999999 999999 999999 999999 999999 999999 999999 999999 999999 999999 999999 999999 999999 0 999999 999999 999999 999999 999999 999999 999999 999999 999999 999999 999999 999999 999999 999999 999999 999999 999999 999999 999999 999999 999999 999999 999999 999999 999999 999999 999999 999999 999999 999999 999999 999999 999999 999999 999999 999999 999999 999999 999999 999999 999999 999999 999999 999999 999999 999999 999999 999999 999999 999999 999999 999999 999999 999999 999999 999999 999999 999999 999999 999999 999999 999999 999999 999999 999999 999999 999999 999999 999999 999999 999999 999999 999999 999999 999999 999999 999999 999999 999999 999999 999999 999999 999999 999999 999999 999999 999999 999999 999999 999999 999999 999999 7873
999999 17107 11734 12002 18178 10016 16966 19107 15192 12386 13943 12196 15112 13739 16209 10603 17059 13095 16923 12496 19012 17149 13122 17741 18246 18121 16475 15202 13732 13859 13627 12917 19188 11222 14785 18835 19594 14960 15828 14996 14277 19021 18964 18823 10903 13343 18567 12609 15541 19712 10920 10202 12488 18859 18262 12676 14367 12429 14949 17806 15209 17983 13530 13859 11583 17451 13590 10716 17178 13914 18465 15388 17982 15399 13017 19538 16585 17228 12237 17552 10455 12470 12060 13493 18237 17352 18572 12112 13106 19985 10783 16186 17814 15110 18258 18026 18834 19416 11348 17875 12974 17715 15234 18072 13235 19269 12871 13908 15157 10425 11124 12896 12714 19590 14041 18964 16639 16996 11716 10089 11574 18531 10000 18320 13241 17216 14417 19216 14715 17575 17102 12014 15230 19537 14293 13895 18263 19658 14413 18380 17856 17155 19245 10906 12480 19720 12720 19556 18275 10139 17827 13744 15835 18187 19079 16150 12869 13109 12479 18529 16011 999999 999999 999999 999999 999999 999999 999999 999999 999999 999999 999999 999999 999999 999999 999999 999999 999999 999999 999999 999999 999999 999999 999999 999999 999999 999999 999999 999999 999999 999999 999999 999999 999999 999999 999999 999999 999999 999999 999999 999999 999999 999999 999999 999999 999999 999999 999999 999999 999999 999999 999999 999999 999999 999999 999999 999999 999999 999999 999999 999999 999999 999999 999999 999999 999999 999999 999999 999999 0 999999 999999 999999 999999 999999 999999 999999 999999 999999 999999 999999 999999 999999 999999 999999 999999 999999 999999 999999 999999 999999 999999 999999 999999 999999 999999 999999 999999 999999 999999 999999 999999 999999 999999 999999 999999 999999 999999 999999 999999 999999 999999 999999 999999 999999 999999 999999 999999 999999 999999 999999 999999 999999 999999 999999 999999 999999 999999 999999 999999 999999 999999 999999 999999 999999 999999 999999 999999 999999 999999 999999 999999 999999 999999 999999 999999 999999 999999 999999 999999 999999 999999 999999 999999 999999 999999 999999 999999 999999 999999 999999 6803
999999 19440 17718 12903 17653 17150 16902 13604 14077 11777 19153 15988 19356 13215 17448 19623 11960 18294 14219 19925 16966 18260 18732 19352 14708 16132 18327 10611 10972 19839 16185 10081 14958 18283 15022 11808 17325 16376 11013 12238 18235 14011 14972 10029 10150 13069 12636 19017 10017 17459 15242 10401 15079 13497 14850 18992 18824 18251 12154 18554 12045 10827 19894 12573 11927 14589 19693 10266 11839 16938 11703 16706 14537 17673 12017 18745 17801 13174 10443 15619 10754 16021 17104 11593 14511 15511 12801 13934 13564 10626 15756 10643 15343 14148 13022 11067 12464 11576 19369 15913 17704 16652 10905 13322 10586 15367 16806 15337 16656 17604 12376 13656 10648 10111 17430 11566 10266 18844 10633 15002 14096 19679 13913 18524 15398 12853 16379 11670 16716 14217 11464 13296 19478 17078 18487 18136 15964 13855 11374 15662 15640 10640 15380 13874 12468 19788 17962 16463 16141 13235 11440 11667 17749 13705 19876 12020 15980 18352 12240 18155 12090 999999 999999 999999 999999 999999 999999 999999 999999 999999 999999 999999 999999 999999 999999 999999 999999 999999 999999 999999 999999 999999 999999 999999 999999 999999 999999 999999 999999 999999 999999 999999 999999 999999 999999 999999 999999 999999 999999 999999 999999 999999 999999 999999 999999 999999 999999 999999 999999 999999 999999 999999 999999 999999 999999 999999 999999 999999 999999 999999 999999 999999 999999 999999 999999 999999 999999 999999 999999 999999 0 999999 999999 999999 999999 999999 999999 999999 999999 999999 999999 999999 999999 999999 999999 999999 999999 999999 999999 999999 999999 999999 999999 999999 999999 999999 999999 999999 999999 999999 999999 999999 999999 999999 999999 999999 999999 999999 999999 999999 999999 999999 999999 999999 999999 999999 999999 999999 999999 999999 999999 999999 999999 999999 999999 999999 999999 999999 999999 999999 999999 999999 999999 999999 999999 999999 999999 999999 999999 999999 999999 999999 999999 999999 999999 999999 999999 999999 999999 999999 999999 999999 999999 999999 999999 999999 999999 999999 999999 999999 999999 8307
999999 15728 14819 15867 12011 14260 11393 16017 18847 13043 15937 16428 12641 10066 11342 17175 17599 12608 11681 10251 13681 19754 11599 19060 13644 15733 10134 16541 18186 12471 17950 13780 12902 11675 14817 15471 14913 10689 17066 10075 12934 18993 14142 12294 11234 15218 18652 12801 16975 19983 19150 17943 18852 14239 11084 17728 19451 11313 14238 11772 11969 13421 12692 13164 17200 14424 16070 19466 13234 19687 19274 11795 10940 18280 18608 19357 13440 19897 15010 13938 11975 11708 19807 18648 13046 13285 10383 13714 10168 14129 18806 14953 12513 19590 14859 10573 13938 18311 18267 16223 19730 12362 16498 14573 10507 18981 17536 10989 19007 15222 18856 16825 10318 10621 13895 16086 17796 10566 19723 14732 11248 10771 15117 13787 13371 19829 10153 16458 18137 11040 13945 18373 19409 16914 18079 12152 15928 18891 15472 12596 16665 17548 16484 13522 14594 16833 13248 11137 12755 16645 17623 16008 10823 11965 10032 18363 13648 13457 11824 15166 11181 999999 999999 999999 999999 999999 999999 999999 999999 999999 999999 999999 999999 999999 999999 999999 999999 999999 999999 999999 999999 999999 999999 999999 999999 999999 999999 999999 999999 999999 999999 999999 999999 999999 999999 999999 999999 999999 999999 999999 999999 999999 999999 999999 999999 999999 999999 999999 999999 999999 999999 999999 999999 999999 999999 999999 999999 999999 999999 999999 999999 999999 999999 999999 999999 999999 999999 999999 999999 999999 999999 0 999999 999999 999999 999999 999999 999999 999999 999999 999999 999999 999999 999999 999999 999999 999999 999999 999999 999999 999999 999999 999999 999999 999999 999999 999999 999999 999999 999999 999999 999999 999999 999999 999999 999999 999999 999999 999999 999999 999999 999999 999999 999999 999999 999999 999999 999999 999999 999999 999999 999999 999999 999999 999999 999999 999999 999999 999999 999999 999999 999999 999999 999999 999999 999999 999999 999999 999999 999999 999999 999999 999999 999999 999999 999999 999999 999999 999999 999999 999999 999999 999999 999999 999999 999999 999999 999999 999999 999999 999999 8773
999999 10875 14083 13279 16877 18977 15065 15741 16692 11744 12774 16732 16723 13946 19386 13090 15564 12447 16714 16280 14832 11470 15053 11784 12775 19346 19361 13800 13299 19898 13254 12536 15155 19812 14619 12989 10069 14780 17760 17043 19528 18633 13809 18159 11938 13119 19812 17288 12840 11421 13531 15870 15848 11845 11635 17606 10012 12328 15668 12741 12507 19852 19394 12521 12705 17408 15616 18311 12577 15032 17048 19587 14681 15635 10470 16214 16561 14333 13086 11538 12463 15616 10293 14678 16630 17467 19700 19825 16341 16939 17509 19518 17894 11147 11779 11289 19962 12643 12140 11307 16883 14566 12504 18341 10910 17261 13955 16556 12158 15183 13123 17165 13018 11045 15134 19785 19786 15819 19142 14202 11660 17555 15867 11709 13394 15355 11652 19080 10569 13973 11010 13351 13087 18023 19937 16941 13830 13299 18529 19602 19139 18163 14967 10806 19405 13633 10079 18533 16518 17645 12384 17257 18947 19958 10477 10849 17157 13561 11514 19716 15762 999999 999999 999999 999999 999999 999999 999999 999999 999999 999999 999999 999999 999999 999999 999999 999999 999999 999999 999999 999999 999999 999999 999999 999999 999999 999999 999999 999999 999999 999999 999999 999999 999999 999999 999999 999999 999999 999999 999999 999999 999999 999999 999999 999999 999999 999999 999999 999999 999999 999999 999999 999999 999999 999999 999999 999999 999999 999999 999999 999999 999999 999999 999999 999999 999999 999999 999999 999999 999999 999999 999999 0 999999 999999 999999 999999 999999 999999 999999 999999 999999 999999 999999 999999 999999 999999 999999 999999 999999 999999 999999 999999 999999 999999 999999 999999 999999 999999 999999 999999 999999 999999 999999 999999 999999 999999 999999 999999 999999 999999 999999 999999 999999 999999 999999 999999 999999 999999 999999 999999 999999 999999 999999 999999 999999 999999 999999 999999 999999 999999 999999 999999 999999 999999 999999 999999 999999 999999 999999 999999 999999 999999 999999 999999 999999 999999 999999 999999 999999 999999 999999 999999 999999 999999 999999 999999 999999 999999 999999 999999 10082
999999 18587 14721 15212 15175 10246 18005 10624 13356 14137 10386 10007 17413 12921 14272 14131 18933 18227 16869 15676 12381 19572 18044 10098 13827 19947 12651 12328 12790 19571 13838 15878 14610 12131 19774 14245 15472 14965 16944 13325 13116 13497 18857 18634 13880 15607 18741 11965 19455 14011 14989 18089 13084 11728 13617 15176 11406 16915 13483 10818 10338 12144 15516 18178 13864 15100 17004 16298 15171 17402 11690 10042 19780 19517 19404 17515 16253 11715 14532 10904 12401 11797 15905 19102 13059 16185 13399 13798 10292 10568 11178 14372 14230 12688 18736 10308 18217 11102 14410 11270 13457 12963 11855 18956 16355 15450 18906 13004 11009 19531 17293 13921 15123 16327 12118 15382 14790 16847 17412 11938 13753 15652 10664 10089 16911 11462 11197 12595 11985 14163 10602 12151 12069 17504 19001 18853 19545 16142 13190 12124 10613 16382 13548 10909 10615 11031 15536 16429 17292 12185 15989 13288 18588 17961 16830 18441 10073 12021 15823 17042 19595 999999 999999 999999 999999 999999 999999 999999 999999 999999 999999 999999 999999 999999 999999 999999 999999 999999 999999 999999 999999 999999 999999 999999 999999 999999 999999 999999 999999 999999 999999 999999 999999 999999 999999 999999 999999 999999 999999 999999 999999 999999 999999 999999 999999 999999 999999 999999 999999 999999 999999 999999 999999 999999 999999 999999 999999 999999 999999 999999 999999 999999 999999 999999 999999 999999 999999 999999 999999 999999 999999 999999 999999 0 999999 999999 999999 999999 999999 999999 999999 999999 999999 999999 999999 999999 999999 999999 999999 999999 999999 999999 999999 999999 999999 999999 999999 999999 999999 999999 999999 999999 999999 999999 999999 999999 999999 999999 999999 999999 999999 999999 999999 999999 999999 999999 999999 999999 999999 999999 999999 999999 999999 999999 999999 999999 999999 999999 999999 999999 999999 999999 999999 999999 999999 999999 999999 999999 999999 999999 999999 999999 999999 999999 999999 999999 999999 999999 999999 999999 999999 999999 999999 999999 999999 999999 999999 999999 999999 999999 999999 8321
999999 12955 13596 18649 18652 11007 19171 18113 17245 11841 14699 17056 16879 10304 17458 15335 18063 16362 12659 15160 14090 19584 18823 18825 17755 17506 13640 11791 18259 13119 16501 12928 16693 13946 16050 14371 12089 15386 10628 18999 19167 16095 19709 17229 16093 16500 19038 18975 13489 19347 11399 19722 11828 13555 17024 11531 16536 16939 11624 10812 18776 15327 14842 17364 12875 12735 16801 15014 19279 19004 14850 19061 14756 14519 15159 10516 10212 17260 19028 14531 14937 10074 12919 10159 11436 17189 15301 18324 18016 18884 15197 17307 15378 12022 14714 19227 15680 11404 15277 16734 18436 15119 11922 15339 14930 14069 15092 11927 12047 11666 16711 15655 11348 15546 17139 13211 15836 12935 13323 17073 15034 19797 14889 11093 13165 16678 14109 11874 11232 11012 14084 15412 16731 14123 15759 17609 14980 19964 17649 17292 16569 11026 16299 15413 15804 17499 11744 17296 14944 12221 17800 14297 19731 13760 14675 14624 18239 10976 14423 17734 10366 999999 999999 999999 999999 999999 999999 999999 999999 999999 999999 999999 999999 999999 999999 999999 999999 999999 999999 999999 999999 999999 999999 999999 999999 999999 999999 999999 999999 999999 999999 999999 999999 999999 999999 999999 999999 999999 999999 999999 999999 999999 999999 999999 999999 999999 999999 999999 999999 999999 999999 999999 999999 999999 999999 999999 999999 999999 999999 999999 999999 999999 999999 999999 999999 999999 999999 999999 999999 999999 999999 999999 999999 999999 0 999999 999999 999999 999999 999999 999999 999999 999999 999999 999999 999999 999999 999999 999999 999999 999999 999999 999999 999999 999999 999999 999999 999999 999999 999999 999999 999999 999999 999999 999999 999999 999999 999999 999999 999999 999999 999999 999999 999999 999999 999999 999999 999999 999999 999999 999999 999999 999999 999999 999999 999999 999999 999999 999999 999999 999999 999999 999999 999999 999999 999999 999999 999999 999999 999999 999999 999999 999999 999999 999999 999999 999999 999999 999999 999999 999999 999999 999999 999999 999999 999999 999999 999999 999999 999999 999999 10826
999999 19569 18256 13526 15273 14395 19360 19509 16385 18812 10965 13430 12890 19569 11758 16454 18620 16303 17456 15836 19775 17398 17131 13253 10677 15183 17362 16594 19416 17926 11055 17312 14121 14619 11083 16880 18638 10167 16083 16674 17445 12830 16366 16950 14153 18912 18022 18757 13895 13792 11339 10539 13144 19046 19502 17983 18681 17021 19807 12257 18847 18576 12803 12898 10385 13501 10843 17299 13803 15109 18456 15338 17103 11188 18565 17364 11159 13802 16384 10739 11505 18004 14052 10575 14848 17502 16693 17973 16888 19866 16611 15637 13290 19167 10683 18419 16123 15438 12739 17883 11672 13943 10248 16432 18030 11674 15083 16303 14571 10580 10489 13879 12186 17020 17005 11519 11831 12046 18072 12463 16429 11526 19469 10070 12940 19554 12780 10218 14910 13496 14480 12212 14508 16945 18789 12764 14339 11563 11670 14359 19887 19781 13963 18900 17039 13923 17767 18991 14513 17924 13158 18121 18165 11878 11742 13130 17862 10300 18025 18819 18596 999999 999999 999999 999999 999999 999999 999999 999999 999999 999999 999999 999999 999999 999999 999999 999999 999999 999999 999999 999999 999999 999999 999999 999999 999999 999999 999999 999999 999999 999999 999999 999999 999999 999999 999999 999999 999999 999999 999999 999999 999999 999999 999999 999999 999999 999999 999999 999999 999999 999999 999999 999999 999999 999999 999999 999999 999999 999999 999999 999999 999999 999999 999999 999999 999999 999999 999999 999999 999999 999999 999999 999999 999999 999999 0 999999 999999 999999 999999 999999 999999 999999 999999 999999 999999 999999 999999 999999 999999 999999 999999 999999 999999 999999 999999 999999 999999 999999 999999 999999 999999 999999 999999 999999 999999 999999 999999 999999 999999 999999 999999 999999 999999 999999 999999 999999 999999 999999 999999 999999 999999 999999 999999 999999 999999 999999 999999 999999 999999 999999 999999 999999 999999 999999 999999 999999 999999 999999 999999 999999 999999 999999 999999 999999 999999 999999 999999 999999 999999 999999 999999 999999 999999 999999 999999 999999 999999 999999 999999 999999 6068
999999 13608 14719 19138 12876 11649 15709 18238 13004 16510 12962 17935 19960 10237 18471 16767 11338 16262 13677 16142 17214 11686 10878 19270 15886 14429 14811 13903 19027 17876 13502 13958 19455 11738 16422 19187 11790 14112 17137 16139 18680 10379 13770 13900 18230 13790 13465 12781 14645 13543 18123 10381 18413 13568 19243 18875 15679 17887 11752 15118 17688 13048 14622 19648 15026 17262 10907 14968 10501 10776 13002 19394 16482 15420 18166 12333 16874 14661 11895 15534 16906 16218 16627 11937 19859 13394 16974 16375 12262 19975 18029 19720 13759 10308 17464 12086 10336 16006 13589 14926 10285 15349 11408 15720 17196 11026 12857 10343 17821 17825 19081 13979 11395 18531 16705 17571 12855 15307 13272 13805 11792 11285 12770 12691 12175 15012 19987 14416 19658 12821 12329 19725 16274 19239 13667 14077 19007 11989 19760 14614 18560 13532 18106 10472 10978 19832 16592 12170 19737 10026 13156 12869 15570 15969 11152 16107 14702 11596 16149 11859 16369 999999 999999 999999 999999 999999 999999 999999 999999 999999 999999 999999 999999 999999 999999 999999 999999 999999 999999 999999 999999 999999 999999 999999 999999 999999 999999 999999 999999 999999 999999 999999 999999 999999 999999 999999 999999 999999 999999 999999 999999 999999 999999 999999 999999 999999 999999 999999 999999 999999 999999 999999 999999 999999 999999 999999 999999 999999 999999 999999 999999 999999 999999 999999 999999 999999 999999 999999 999999 999999 999999 999999 999999 999999 999999 999999 0 999999 999999 999999 999999 999999 999999 999999 999999 999999 999999 999999 999999 999999 999999 999999 999999 999999 999999 999999 999999 999999 999999 999999 999999 999999 999999 999999 999999 999999 999999 999999 999999 999999 999999 999999 999999 999999 999999 999999 999999 999999 999999 999999 999999 999999 999999 999999 999999 999999 999999 999999 999999 999999 999999 999999 999999 999999 999999 999999 999999 999999 999999 999999 999999 999999 999999 999999 999999 999999 999999 999999 999999 999999 999999 999999 999999 999999 999999 999999 999999 999999 999999 999999 999999 9665
999999 12210 14158 19785 18832 14712 15754 18344 18145 17494 18522 19091 15374 19542 19574 12668 17158 17899 14350 13429 17821 16647 18843 10810 18348 11879 15436 11758 12785 13535 17138 11385 14664 16619 14448 11179 11247 18769 18074 12326 18319 14449 14490 18087 16052 10788 11170 12970 11995 16581 12208 18327 14080 14163 14290 16401 16325 12223 15840 16024 15207 15552 15230 17898 19605 13224 16502 16112 15189 14477 15304 16662 19829 18391 11834 17587 19874 12701 19169 10580 17444 19923 13950 12504 14149 17123 12600 14809 14694 10294 12509 10762 18152 15361 15564 14195 10593 10290 19290 11452 10605 14361 19877 14060 13533 11584 16514 15629 17479 10571 19729 11956 11492 19592 17904 14876 13178 14324 11406 11916 19650 18858 11657 19526 16858 12528 13531 12298 18597 12020 16322 18175 10454 18397 15884 16681 15028 11111 19268 12011 15422 14262 13046 12882 13226 12920 10801 17486 14519 11186 15677 10639 19518 13522 10021 18962 19183 10303 18856 14436 13812 999999 999999 999999 999999 999999 999999 999999 999999 999999 999999 999999 999999 999999 999999 999999 999999 999999 999999 999999 999999 999999 999999 999999 999999 999999 999999 999999 999999 999999 999999 999999 999999 999999 999999 999999 999999 999999 999999 999999 999999 999999 999999 999999 999999 999999 999999 999999 999999 999999 999999 999999 999999 999999 999999 999999 999999 999999 999999 999999 999999 999999 999999 999999 999999 999999 999999 999999 999999 999999 999999 999999 999999 999999 999999 999999 999999 0 999999 999999 999999 999999 999999 999999 999999 999999 999999 999999 999999 999999 999999 999999 999999 999999 999999 999999 999999 999999 999999 999999 999999 999999 999999 999999 999999 999999 999999 999999 999999 999999 999999 999999 999999 999999 999999 999999 999999 999999 999999 999999 999999 999999 999999 999999 999999 999999 999999 999999 999999 999999 999999 999999 999999 999999 999999 999999 999999 999999 999999 999999 999999 999999 999999 999999 999999 999999 999999 999999 999999 999999 999999 999999 999999 999999 999999 999999 999999 999999 999999 999999 999999 8028
999999 18233 19598 15087 13015 11418 15375 10815 11909 14169 10288 11082 12906 16226 10718 13218 14844 13317 12358 18797 10863 11883 17446 12278 16057 17709 11705 13956 18828 10277 19342 15707 19464 15772 18774 10470 18198 19453 10130 19911 19553 17032 11282 11829 13145 16780 18508 18390 18746 15109 10979 11230 10768 14679 12106 17452 12849 15203 15440 17633 11494 19315 19401 13680 13727 14602 17380 17096 13449 15839 12345 15047 17047 13120 14999 14901 12237 18312 19945 17270 12122 10846 12150 16979 17065 17970 11045 10981 17175 14099 14486 15567 12944 10281 16490 10436 18781 16629 12093 17420 16822 16065 19693 10137 17583 18433 17981 13413 12395 14164 11195 19413 19114 17714 16215 16315 14455 19377 12248 12547 19663 12754 18540 11724 11371 10291 17753 16967 14084 12502 18364 15119 10210 16513 11039 16253 18845 14804 15029 17101 17055 14404 16618 10674 19315 16021 12436 15396 17224 18371 13008 12961 16650 12054 10003 12532 18876 18068 16922 13631 14251 999999 999999 999999 999999 999999 999999 999999 999999 999999 999999 999999 999999 999999 999999 999999 999999 999999 999999 999999 999999 999999 999999 999999 999999 999999 999999 999999 999999 999999 999999 999999 999999 999999 999999 999999 999999 999999 999999 999999 999999 999999 999999 999999 999999 999999 999999 999999 999999 999999 999999 999999 999999 999999 999999 999999 999999 999999 999999 999999 999999 999999 999999 999999 999999 999999 999999 999999 999999 999999 999999 999999 999999 999999 999999 999999 999999 999999 0 999999 999999 999999 999999 999999 999999 999999 999999 999999 999999 999999 999999 999999 999999 999999 999999 999999 999999 999999 999999 999999 999999 999999 999999 999999 999999 999999 999999 999999 999999 999999 999999 999999 999999 999999 999999 999999 999999 999999 999999 999999 999999 999999 999999 999999 999999 999999 999999 999999 999999 999999 999999 999999 999999 999999 999999 999999 999999 999999 999999 999999 999999 999999 999999 999999 999999 999999 999999 999999 999999 999999 999999 999999 999999 999999 999999 999999 999999 999999 999999 999999 999999 10997
999999 18024 15069 16922 19418 14722 12672 17024 12616 14639 15498 14767 17526 13029 13225 18431 16318 11502 19326 19704 17608 14969 19571 10374 14245 10435 16607 11909 17349 18126 18004 12529 11010 13050 19236 15203 19052 19952 11355 10599 18516 16130 13169 17813 18145 17523 18668 18308 19836 12198 19796 11853 13221 13351 19383 14370 14173 15671 15375 13191 13640 15300 14884 13844 13679 17067 10589 16502 10080 10976 15365 16924 12610 13003 15055 20000 15783 11204 19499 10702 18355 15684 18252 17761 19361 18480 16076 10096 17893 16319 19983 15026 19953 16436 19074 18015 17308 13735 18210 19305 13225 14785 19790 18189 15774 15473 15869 16521 14041 15637 13247 10834 16656 17064 16842 18848 12280 18064 14723 18035 16781 16072 11967 14006 13818 17205 12856 14959 11983 11461 10253 19240 17163 18758 16602 10364 13018 18230 16813 10258 15306 16921 15826 12153 13157 15498 11956 16120 11826 14106 11456 18147 17065 17778 16051 12702 13714 17571 17141 11233 15201 999999 999999 999999 999999 999999 999999 999999 999999 999999 999999 999999 999999 999999 999999 999999 999999 999999 999999 999999 999999 999999 999999 999999 999999 999999 999999 999999 999999 999999 999999 999999 999999 999999 999999 999999 999999 999999 999999 999999 999999 999999 999999 999999 999999 999999 999999 999999 999999 999999 999999 999999 999999 999999 999999 999999 999999 999999 999999 999999 999999 999999 999999 999999 999999 999999 999999 999999 999999 999999 999999 999999 999999 999999 999999 999999 999999 999999 999999 0 999999 999999 999999 999999 999999 999999 999999 999999 999999 999999 999999 999999 999999 999999 999999 999999 999999 999999 999999 999999 999999 999999 999999 999999 999999 999999 999999 999999 999999 999999 999999 999999 999999 999999 999999 999999 999999 999999 999999 999999 999999 999999 999999 999999 999999 999999 999999 999999 999999 999999 999999 999999 999999 999999 999999 999999 999999 999999 999999 999999 999999 999999 999999 999999 999999 999999 999999 999999 999999 999999 999999 999999 999999 999999 999999 999999 999999 999999 999999 999999 999999 8323
999999 11690 10408 19341 17392 16205 16800 19768 19972 18079 14506 14854 10105 18536 13019 16786 13456 10246 19997 12349 18740 15352 15478 11776 19591 19358 11116 11066 11136 18972 15553 16165 19808 16712 14253 14330 13875 12864 16386 18475 16455 17526 16705 11451 10290 16484 18246 16365 10919 18710 18478 16927 14805 10008 13310 12100 18975 11112 12789 16447 11095 16871 17990 18539 13120 18798 12105 14168 14028 13274 10738 18457 19269 18796 10117 13310 11255 12328 14953 14369 10061 18493 15745 11625 11366 10273 14052 12797 13927 10094 18115 15834 17435 12538 16157 16786 10657 17571 15188 15446 12774 16876 13816 15688 18446 16692 14543 11740 14443 10401 18457 12523 19339 15094 19563 14789 14097 13404 18025 12586 16098 16771 10851 17587 19947 17127 10814 14800 11765 18914 17293 17177 13193 16864 19147 19252 15421 19906 19284 16853 18860 16517 14015 11823 19705 14899 12877 14634 19375 14244 12759 17836 19860 19466 16197 12120 12414 19512 18579 16126 11529 999999 999999 999999 999999 999999 999999 999999 999999 999999 999999 999999 999999 999999 999999 999999 999999 999999 999999 999999 999999 999999 999999 999999 999999 999999 999999 999999 999999 999999 999999 999999 999999 999999 999999 999999 999999 999999 999999 999999 999999 999999 999999 999999 999999 999999 999999 999999 999999 999999 999999 999999 999999 999999 999999 999999 999999 999999 999999 999999 999999 999999 999999 999999 999999 999999 999999 999999 999999 999999 999999 999999 999999 999999 999999 999999 999999 999999 999999 999999 0 999999 999999 999999 999999 999999 999999 999999 999999 999999 999999 999999 999999 999999 999999 999999 999999 999999 999999 999999 999999 999999 999999 999999 999999 999999 999999 999999 999999 999999 999999 999999 999999 999999 999999 999999 999999 999999 999999 999999 999999 999999 999999 999999 999999 999999 999999 999999 999999 999999 999999 999999 999999 999999 999999 999999 999999 999999 999999 999999 999999 999999 999999 999999 999999 999999 999999 999999 999999 999999 999999 999999 999999 999999 999999 999999 999999 999999 999999 999999 999999 13024
999999 11272 15242 16956 13633 12913 17823 16156 19991 19181 15212 15455 19125 16033 15716 15339 19331 12438 14654 10370 15068 11256 15142 17772 19844 18628 14566 12989 15517 19201 13778 17155 10275 15401 10609 12706 14143 15142 16006 16940 15790 14076 19746 15890 15468 15510 10045 17320 16655 16488 17186 11223 14764 15550 13258 17565 10897 10835 11120 12969 10386 14853 15200 19817 11611 11182 13037 18647 18713 14984 10346 17481 13589 19639 13831 15328 10981 19656 16802 15357 19596 14806 11711 14298 15942 15883 18741 15429 11837 15521 14399 12673 12020 19760 19953 15106 19745 19519 14496 15755 14845 18698 15829 16826 19927 15006 16804 16654 15706 15981 18110 17046 10018 11095 19173 10482 12487 12867 18452 10890 10426 11293 13146 10113 13308 12969 10936 18649 14249 19297 13667 13822 12192 16730 19076 19515 13547 17382 13317 12197 14001 19058 10128 15178 15805 17766 11390 10352 11281 17378 16948 12598 10155 18260 15194 14407 17970 19658 15875 18295 13448 999999 999999 999999 999999 999999 999999 999999 999999 999999 999999 999999 999999 999999 999999 999999 999999 999999 999999 999999 999999 999999 999999 999999 999999 999999 999999 999999 999999 999999 999999 999999 999999 999999 999999 999999 999999 999999 999999 999999 999999 999999 999999 999999 999999 999999 999999 999999 999999 999999 999999 999999 999999 999999 999999 999999 999999 999999 999999 999999 999999 999999 999999 999999 999999 999999 999999 999999 999999 999999 999999 999999 999999 999999 999999 999999 999999 999999 999999 999999 999999 0 999999 999999 999999 999999 999999 999999 999999 999999 999999 999999 999999 999999 999999 999999 999999 999999 999999 999999 999999 999999 999999 999999 999999 999999 999999 999999 999999 999999 999999 999999 999999 999999 999999 999999 999999 999999 999999 999999 999999 999999 999999 999999 999999 999999 999999 999999 999999 999999 999999 999999 999999 999999 999999 999999 999999 999999 999999 999999 999999 999999 999999 999999 999999 999999 999999 999999 999999 999999 999999 999999 999999 999999 999999 999999 999999 999999 999999 999999 999999 11182
999999 11386 15090 15739 11278 11538 10367 19013 13908 13569 17671 10669 12485 12609 10749 10289 15620 16272 13442 16274 10010 10223 15872 16044 10291 15629 10386 18492 14805 13613 14863 16025 14330 13584 15396 12841 13354 17733 19222 12887 11766 18348 12784 15138 15344 10155 13671 12677 19642 14252 17509 15297 15208 11881 19148 10124 17998 14574 12200 11752 12118 17735 14907 17459 10923 13716 15638 10216 16472 11098 10266 12848 12939 19201 12484 19663 17336 10958 19185 11860 12920 10627 15906 14450 10590 11994 10329 16659 11485 11690 12958 19320 11507 18495 19228 17988 15418 14648 12061 11845 11398 14184 17647 11461 12351 19070 14791 17433 12616 10904 10207 17981 15946 10251 17537 17684 19831 11489 10022 14149 15065 11204 17108 19752 10565 11712 18298 13705 19315 10340 10415 18780 17540 18861 18200 15849 19005 11590 10124 15253 16301 19264 18182 17086 16349 13062 16924 13817 18391 14496 12699 10448 11872 17777 12698 14824 14028 18641 17949 14607 18491 999999 999999 999999 999999 999999 999999 999999 999999 999999 999999 999999 999999 999999 999999 999999 999999 999999 999999 999999 999999 999999 999999 999999 999999 999999 999999 999999 999999 999999 999999 999999 999999 999999 999999 999999 999999 999999 999999 999999 999999 999999 999999 999999 999999 999999 999999 999999 999999 999999 999999 999999 999999 999999 999999 999999 999999 999999 999999 999999 999999 999999 999999 999999 999999 999999 999999 999999 999999 999999 999999 999999 999999 999999 999999 999999 999999 999999 999999 999999 999999 999999 0 999999 999999 999999 999999 999999 999999 999999 999999 999999 999999 999999 999999 999999 999999 999999 999999 999999 999999 999999 999999 999999 999999 999999 999999 999999 999999 999999 999999 999999 999999 999999 999999 999999 999999 999999 999999 999999 999999 999999 999999 999999 999999 999999 999999 999999 999999 999999 999999 999999 999999 999999 999999 999999 999999 999999 999999 999999 999999 999999 999999 999999 999999 999999 999999 999999 999999 999999 999999 999999 999999 999999 999999 999999 999999 999999 999999 999999 999999 12441
999999 15450 13578 16571 13673 13730 13528 11699 17960 13281 10344 13416 19307 18124 18885 11442 10839 18063 18985 17402 11388 19932 11242 19888 15073 15270 12608 14668 18290 14844 10521 16376 17538 14487 14690 14157 19606 17151 13710 12238 17012 16909 17644 15230 13900 15686 13809 16355 19694 12380 18776 13262 13235 10378 12650 17507 12726 17077 16653 10061 14813 13148 10173 17326 18385 11340 12157 13455 13583 15822 11980 14489 16868 15790 11616 18235 16957 17981 11760 13536 18237 16264 14710 15644 18622 17673 14366 17467 18297 17111 15915 19114 13339 12725 13538 16785 15672 14322 10018 16522 10337 19900 12775 14425 14898 12612 18381 18418 16309 18621 15404 14708 16374 17999 12302 12329 11735 13686 14298 15765 13458 13623 16402 19740 13907 19616 18471 11071 18094 16467 13722 17938 19280 16155 14357 10566 19746 14180 10831 13024 10835 12567 16299 10831 15276 17551 11399 11351 10653 13628 11659 15062 14397 11880 16724 10593 12719 15281 17728 16409 13027 999999 999999 999999 999999 999999 999999 999999 999999 999999 999999 999999 999999 999999 999999 999999 999999 999999 999999 999999 999999 999999 999999 999999 999999 999999 999999 999999 999999 999999 999999 999999 999999 999999 999999 999999 999999 999999 999999 999999 999999 999999 999999 999999 999999 999999 999999 999999 999999 999999 999999 999999 999999 999999 999999 999999 999999 999999 999999 999999 999999 999999 999999 999999 999999 999999 999999 999999 999999 999999 999999 999999 999999 999999 999999 999999 999999 999999 999999 999999 999999 999999 999999 0 999999 999999 999999 999999 999999 999999 999999 999999 999999 999999 999999 999999 999999 999999 999999 999999 999999 999999 999999 999999 999999 999999 999999 999999 999999 999999 999999 999999 999999 999999 999999 999999 999999 999999 999999 999999 999999 999999 999999 999999 999999 999999 999999 999999 999999 999999 999999 999999 999999 999999 999999 999999 999999 999999 999999 999999 999999 999999 999999 999999 999999 999999 999999 999999 999999 999999 999999 999999 999999 999999 999999 999999 999999 999999 999999 999999 999999 5979
999999 15769 11872 14273 12873 17874 14306 13022 14681 13953 10331 16958 18021 11770 11139 18047 11981 19470 10147 14679 14945 10539 14085 17239 19452 15554 17335 10853 17313 14077 16653 19601 10443 14157 10651 12092 14218 10992 18748 16404 12063 15947 13271 17785 17188 15288 13543 11980 17799 18886 10284 17616 16677 15312 12463 17910 10652 14127 12298 17279 13705 11995 16551 16744 17385 17318 18592 19581 15363 18532 14310 11610 17856 15640 18724 14950 18805 14985 16047 13876 12904 12599 16639 10731 11973 15303 14192 10791 13356 16540 10139 19531 11048 17363 15464 17062 19262 10340 15458 12021 10783 15607 19585 11260 11271 14631 12946 12980 16151 16271 18784 16247 18006 13735 17066 14431 14703 11731 16677 18085 16291 14010 14479 18669 11938 16994 18610 16018 11898 19737 15853 14223 11167 18321 15244 16349 11558 16368 18347 15992 10026 11121 18440 17475 18010 19116 14229 17995 13039 19855 15076 10574 17801 10373 17797 11549 11622 17553 11222 18037 13404 999999 999999 999999 999999 999999 999999 999999 999999 999999 999999 999999 999999 999999 999999 999999 999999 999999 999999 999999 999999 999999 999999 999999 999999 999999 999999 999999 999999 999999 999999 999999 999999 999999 999999 999999 999999 999999 999999 999999 999999 999999 999999 999999 999999 999999 999999 999999 999999 999999 999999 999999 999999 999999 999999 999999 999999 999999 999999 999999 999999 999999 999999 999999 999999 999999 999999 999999 999999 999999 999999 999999 999999 999999 999999 999999 999999 999999 999999 999999 999999 999999 999999 999999 0 999999 999999 999999 999999 999999 999999 999999 999999 999999 999999 999999 999999 999999 999999 999999 999999 999999 999999 999999 999999 999999 999999 999999 999999 999999 999999 999999 999999 999999 999999 999999 999999 999999 999999 999999 999999 999999 999999 999999 999999 999999 999999 999999 999999 999999 999999 999999 999999 999999 999999 999999 999999 999999 999999 999999 999999 999999 999999 999999 999999 999999 999999 999999 999999 999999 999999 999999 999999 999999 999999 999999 999999 999999 999999 999999 999999 7837
999999 10747 15395 18739 12713 13435 12661 15188 13205 15477 16822 16524 14286 16977 12815 11044 19538 10704 15054 12105 19970 18472 19325 13445 17394 10277 17412 11323 17284 12025 11102 15407 19073 12567 15639 11409 18563 17849 10601 12935 17433 14973 11503 17651 10560 14472 11195 13695 11135 17589 14243 12301 11195 15963 18079 18275 19752 12124 11945 11286 17137 10966 12838 11037 11549 19725 12881 16318 14756 19793 15490 10486 10331 19202 15540 10280 10837 11082 12092 17636 11489 14560 14305 16715 16505 18287 19850 10913 12919 16394 12251 15187 13019 11889 19428 13092 13922 15746 17775 18726 15413 19051 17339 15195 14422 15937 13237 11791 11273 19667 16444 16585 14183 19329 14475 10033 17422 13835 11138 10288 17386 10593 11926 13122 17785 15163 10685 16556 11936 13304 13301 13490 18015 18058 11708 15196 19350 11362 14303 18268 10962 17233 13619 17166 13083 18444 14420 12045 14936 18788 14079 16898 14423 16982 12349 12208 13283 14078 14921 14856 13676 999999 999999 999999 999999 999999 999999 999999 999999 999999 999999 999999 999999 999999 999999 999999 999999 999999 999999 999999 999999 999999 999999 999999 999999 999999 999999 999999 999999 999999 999999 999999 999999 999999 999999 999999 999999 999999 999999 999999 999999 999999 999999 999999 999999 999999 999999 999999 999999 999999 999999 999999 999999 999999 999999 999999 999999 999999 999999 999999 999999 999999 999999 999999 999999 999999 999999 999999 999999 999999 999999 999999 999999 999999 999999 999999 999999 999999 999999 999999 999999 999999 999999 999999 999999 0 999999 999999 999999 999999 999999 999999 999999 999999 999999 999999 999999 999999 999999 999999 999999 999999 999999 999999 999999 999999 999999 999999 999999 999999 999999 999999 999999 999999 999999 999999 999999 999999 999999 999999 999999 999999 999999 999999 999999 999999 999999 999999 999999 999999 999999 999999 999999 999999 999999 999999 999999 999999 999999 999999 999999 999999 999999 999999 999999 999999 999999 999999 999999 999999 999999 999999 999999 999999 999999 999999 999999 999999 999999 999999 999999 8852
999999 17227 19797 14957 12064 12121 17688 17370 17187 11732 13280 10290 19901 19250 10735 15212 11116 12827 12255 18014 16597 18843 11566 18382 12662 11695 18264 18451 13809 16612 11276 13988 12802 18211 13586 11999 18420 17647 19212 16796 18244 10920 15065 17372 13978 19199 18884 13615 16598 12371 17668 10644 14672 12581 10209 17492 10617 10109 12973 18942 19782 17703 17252 14064 10664 13387 15268 17580 13239 18594 19616 14548 14120 12464 12987 10457 13380 16339 13010 15258 18269 18416 11718 14791 10353 13095 13815 12730 13941 17734 19291 17604 11693 18620 19293 18836 10276 13383 14295 16588 17524 14239 16544 18925 11363 18814 17202 12822 12374 18111 17481 16691 17980 17140 14755 10153 11039 10790 13416 13578 14757 13336 18576 15341 14563 15805 13710 15663 19880 18472 19493 11529 13690 12315 17013 12158 14818 16329 12414 16198 19841 12664 16954 10749 10324 16939 11397 11380 10399 13512 14298 10847 14656 15116 17880 19768 12534 17566 14167 17468 14752 999999 999999 999999 999999 999999 999999 999999 999999 999999 999999 999999 999999 999999 999999 999999 999999 999999 999999 999999 999999 999999 999999 999999 999999 999999 999999 999999 999999 999999 999999 999999 999999 999999 999999 999999 999999 999999 999999 999999 999999 999999 999999 999999 999999 999999 999999 999999 999999 999999 999999 999999 999999 999999 999999 999999 999999 999999 999999 999999 999999 999999 999999 999999 999999 999999 999999 999999 999999 999999 999999 999999 999999 999999 999999 999999 999999 999999 999999 999999 999999 999999 999999 999999 999999 999999 0 999999 999999 999999 999999 999999 999999 999999 999999 999999 999999 999999 999999 999999 999999 999999 999999 999999 999999 999999 999999 999999 999999 999999 999999 999999 999999 999999 999999 999999 999999 999999 999999 999999 999999 999999 999999 999999 999999 999999 999999 999999 999999 999999 999999 999999 999999 999999 999999 999999 999999 999999 999999 999999 999999 999999 999999 999999 999999 999999 999999 999999 999999 999999 999999 999999 999999 999999 999999 999999 999999 999999 999999 999999 999999 5836
999999 17878 19381 12902 19662 13637 10259 19173 15522 16619 15399 15054 16486 17874 17547 19918 10909 17799 15258 17845 18379 10753 15904 18231 10908 16996 18018 14882 19779 17801 10812 14698 14482 19186 11225 12547 10304 10491 11154 19004 11567 12038 14515 18137 19500 13254 17284 19925 16617 14268 15500 13371 11654 11351 19027 19431 17708 12614 15812 15925 15094 19359 18128 15690 15224 15848 12065 14445 19786 14410 10541 12347 14477 19469 18271 18876 13599 11931 17178 15061 13194 10524 10118 19654 16851 12600 15138 14360 13594 16125 11296 19487 11454 13246 15710 13351 16190 14289 18133 15001 13646 11304 17079 11924 10760 14009 19686 19761 10045 12831 13437 14261 12488 19184 14787 17213 16132 10822 15884 12059 13312 16611 11671 19456 11316 10765 18142 18329 17270 13518 10679 19056 17157 10326 16722 15479 13128 18049 11874 16260 14421 17582 10586 14661 13323 15806 19781 15070 15239 19833 13914 16536 19752 10701 13816 16654 16305 17097 15592 12898 14940 999999 999999 999999 999999 999999 999999 999999 999999 999999 999999 999999 999999 999999 999999 999999 999999 999999 999999 999999 999999 999999 999999 999999 999999 999999 999999 999999 999999 999999 999999 999999 999999 999999 999999 999999 999999 999999 999999 999999 999999 999999 999999 999999 999999 999999 999999 999999 999999 999999 999999 999999 999999 999999 999999 999999 999999 999999 999999 999999 999999 999999 999999 999999 999999 999999 999999 999999 999999 999999 999999 999999 999999 999999 999999 999999 999999 999999 999999 999999 999999 999999 999999 999999 999999 999999 999999 0 999999 999999 999999 999999 999999 999999 999999 999999 999999 999999 999999 999999 999999 999999 999999 999999 999999 999999 999999 999999 999999 999999 999999 999999 999999 999999 999999 999999 999999 999999 999999 999999 999999 999999 999999 999999 999999 999999 999999 999999 999999 999999 999999 999999 999999 999999 999999 999999 999999 999999 999999 999999 999999 999999 999999 999999 999999 999999 999999 999999 999999 999999 999999 999999 999999 999999 999999 999999 999999 999999 999999 999999 999999 5298
999999 12579 17461 13774 18490 19417 16999 15689 12911 13949 14080 19646 10680 13462 15067 17628 11924 17996 15935 16651 12518 19963 16735 11074 14539 19737 19405 13140 12419 17523 11479 12875 13394 15390 14561 10938 19027 15714 15170 15702 10478 17856 18154 19697 17256 17287 14115 13622 12729 12506 18295 19142 12822 10433 18676 16917 14662 18300 10499 17489 11523 16896 12460 13012 18672 10217 12295 11498 16695 14276 13228 13138 17544 10988 18077 12283 17311 13680 15810 19288 13956 17972 16799 13107 15648 13709 12814 11947 14016 14584 10180 16914 14884 11619 16397 14725 17863 13211 14993 14216 17647 13523 19872 18229 10507 12324 18553 12608 11643 12169 10348 10970 16410 16717 15130 11256 14494 14828 19211 17170 10070 17028 11296 17707 13174 10044 13473 14760 16818 14381 12366 11012 10105 16785 19296 11525 15858 17321 13204 19454 12411 13226 13783 16438 16342 16185 12217 14451 15033 15355 19433 17971 17799 14649 15642 15873 13066 19942 16004 14379 18276 999999 999999 999999 999999 999999 999999 999999 999999 999999 999999 999999 999999 999999 999999 999999 999999 999999 999999 999999 999999 999999 999999 999999 999999 999999 999999 999999 999999 999999 999999 999999 999999 999999 999999 999999 999999 999999 999999 999999 999999 999999 999999 999999 999999 999999 999999 999999 999999 999999 999999 999999 999999 999999 999999 999999 999999 999999 999999 999999 999999 999999 999999 999999 999999 999999 999999 999999 999999 999999 999999 999999 999999 999999 999999 999999 999999 999999 999999 999999 999999 999999 999999 999999 999999 999999 999999 999999 0 999999 999999 999999 999999 999999 999999 999999 999999 999999 999999 999999 999999 999999 999999 999999 999999 999999 999999 999999 999999 999999 999999 999999 999999 999999 999999 999999 999999 999999 999999 999999 999999 999999 999999 999999 999999 999999 999999 999999 999999 999999 999999 999999 999999 999999 999999 999999 999999 999999 999999 999999 999999 999999 999999 999999 999999 999999 999999 999999 999999 999999 999999 999999 999999 999999 999999 999999 999999 999999 999999 999999 999999 10587
999999 15172 17789 17569 12575 14859 12010 10271 17104 18281 12279 17925 14454 12896 16511 10762 10857 18959 13127 18881 13473 15658 18386 12462 18438 18000 12537 11512 15567 14665 17594 12564 16298 11011 13759 10135 12561 15874 11442 14425 15532 10280 14344 14884 15525 15996 16017 16993 19570 13486 12472 14835 10568 19699 13110 14705 12769 12054 16894 20000 11333 17774 11187 19829 18107 11828 15729 19130 17257 13477 13558 12465 12870 14269 16521 15525 12494 11237 10226 19114 19481 14391 15695 18219 14918 17941 19598 16558 19755 10453 17197 10851 16802 16757 14760 16323 18483 10918 11610 10576 14710 14316 18008 12570 13465 18666 14425 13060 17557 12626 14552 10158 16909 19469 19563 15481 13982 19483 13991 15471 14377 12067 11960 15233 11938 17539 14918 13715 11005 12009 18557 13106 18213 16617 14700 13517 13793 17889 14175 16265 14761 17818 16736 16446 13558 18511 17129 15646 12021 16793 12137 17526 10087 12753 12883 11506 13750 15484 19001 18035 16891 999999 999999 999999 999999 999999 999999 999999 999999 999999 999999 999999 999999 999999 999999 999999 999999 999999 999999 999999 999999 999999 999999 999999 999999 999999 999999 999999 999999 999999 999999 999999 999999 999999 999999 999999 999999 999999 999999 999999 999999 999999 999999 999999 999999 999999 999999 999999 999999 999999 999999 999999 999999 999999 999999 999999 999999 999999 999999 999999 999999 999999 999999 999999 999999 999999 999999 999999 999999 999999 999999 999999 999999 999999 999999 999999 999999 999999 999999 999999 999999 999999 999999 999999 999999 999999 999999 999999 999999 0 999999 999999 999999 999999 999999 999999 999999 999999 999999 999999 999999 999999 999999 999999 999999 999999 999999 999999 999999 999999 999999 999999 999999 999999 999999 999999 999999 999999 999999 999999 999999 999999 999999 999999 999999 999999 999999 999999 999999 999999 999999 999999 999999 999999 999999 999999 999999 999999 999999 999999 999999 999999 999999 999999 999999 999999 999999 999999 999999 999999 999999 999999 999999 999999 999999 999999 999999 999999 999999 999999 999999 8230
999999 15660 18467 11479 12837 13554 14343 10852 12089 11800 14772 16733 17314 15196 10534 11120 18613 15894 16364 12723 15984 10309 16551 15552 10062 14124 12504 18008 14038 19553 10520 15397 15511 12186 12958 13980 13972 10231 12425 13606 16838 18515 18252 11140 18290 10948 19647 16645 12399 15598 18502 13996 17233 10307 17342 15372 16613 19652 18133 14889 17511 14663 18481 10112 18867 14269 17031 10875 15750 11648 14489 19675 14914 10697 12168 16208 12061 15932 14648 13759 13739 19009 13411 10135 14663 13025 19794 12997 17807 10863 14631 13657 11286 12677 12398 17065 16750 10879 17352 13634 18726 13678 14145 18356 10765 17391 18347 17080 15869 12828 11496 14083 14785 14491 18882 13742 10723 19593 10686 15474 18724 17425 18492 13383 17603 18431 18802 16684 14491 12412 19647 19243 16503 15756 18568 14535 12752 11037 13030 14877 14276 15566 13198 14056 14616 17201 12318 10727 19023 10710 17190 11147 19858 14020 15829 19208 12470 11470 15986 18436 15233 999999 999999 999999 999999 999999 999999 999999 999999 999999 999999 999999 999999 999999 999999 999999 999999 999999 999999 999999 999999 999999 999999 999999 999999 999999 999999 999999 999999 999999 999999 999999 999999 999999 999999 999999 999999 999999 999999 999999 999999 999999 999999 999999 999999 999999 999999 999999 999999 999999 999999 999999 999999 999999 999999 999999 999999 999999 999999 999999 999999 999999 999999 999999 999999 999999 999999 999999 999999 999999 999999 999999 999999 999999 999999 999999 999999 999999 999999 999999 999999 999999 999999 999999 999999 999999 999999 999999 999999 999999 0 999999 999999 999999 999999 999999 999999 999999 999999 999999 999999 999999 999999 999999 999999 999999 999999 999999 999999 999999 999999 999999 999999 999999 999999 999999 999999 999999 999999 999999 999999 999999 999999 999999 999999 999999 999999 999999 999999 999999 999999 999999 999999 999999 999999 999999 999999 999999 999999 999999 999999 999999 999999 999999 999999 999999 999999 999999 999999 999999 999999 999999 999999 999999 999999 999999 999999 999999 999999 999999 999999 6881
999999 16671 14711 11595 13000 19348 14841 14071 11113 14692 12314 15703 10876 14698 12869 17631 11790 18336 13303 13591 14515 17463 15195 18562 12835 13743 18555 11699 14090 19604 18774 17141 10014 10641 18652 11305 14345 11936 12182 15655 10883 19346 14110 12502 11223 10092 10782 12238 19380 11256 10565 19825 10341 19620 19575 13454 12542 15128 16581 14601 19783 11809 15958 13940 12814 10375 18366 15535 14511 14049 15256 15398 18178 13926 15875 15221 16367 10610 17466 14869 12759 17452 14428 18642 17524 10437 14113 19668 15304 15006 19546 18824 14375 15534 14617 19524 13664 11428 15347 11231 18857 14004 17336 13092 12254 14762 16408 11688 13569 15915 12013 18740 12056 16560 12602 13716 15209 16553 13339 15109 10768 16943 17960 12031 11898 15010 19131 18693 11122 10462 17254 11031 19838 14518 14427 14323 12434 14291 18211 13329 16360 19063 17607 13358 10909 16740 11320 10389 12851 12844 17403 16403 11882 16082 11868 10666 15425 15523 10550 17265 19244 999999 999999 999999 999999 999999 999999 999999 999999 999999 999999 999999 999999 999999 999999 999999 999999 999999 999999 999999 999999 999999 999999 999999 999999 999999 999999 999999 999999 999999 999999 999999 999999 999999 999999 999999 999999 999999 999999 999999 999999 999999 999999 999999 999999 999999 999999 999999 999999 999999 999999 999999 999999 999999 999999 999999 999999 999999 999999 999999 999999 999999 999999 999999 999999 999999 999999 999999 999999 999999 999999 999999 999999 999999 999999 999999 999999 999999 999999 999999 999999 999999 999999 999999 999999 999999 999999 999999 999999 999999 999999 0 999999 999999 999999 999999 999999 999999 999999 999999 999999 999999 999999 999999 999999 999999 999999 999999 999999 999999 999999 999999 999999 999999 999999 999999 999999 999999 999999 999999 999999 999999 999999 999999 999999 999999 999999 999999 999999 999999 999999 999999 999999 999999 999999 999999 999999 999999 999999 999999 999999 999999 999999 999999 999999 999999 999999 999999 999999 999999 999999 999999 999999 999999 999999 999999 999999 999999 999999 999999 999999 6246
999999 13076 10594 12387 14969 13565 19867 12683 15612 11445 19759 14109 11549 14105 11365 15814 12259 13998 14879 11761 16440 11551 18313 14900 15342 19571 11370 16323 16022 16874 15341 19217 17876 16098 15474 17968 18717 12812 14134 19290 19734 19720 19296 13019 18520 10326 16234 19237 13498 12708 10842 17584 19792 19263 12839 18200 17892 15203 11497 16337 15588 19405 11358 17988 19422 19178 10150 11334 17453 16048 19775 17380 15805 18126 16758 10923 11033 13054 19964 11473 17793 18548 19704 19412 10924 16091 14515 16842 12153 11125 17684 12908 11771 17021 15498 10112 12536 16790 17678 19885 13345 14135 14153 10705 12215 14180 12611 19731 19949 10383 10671 16879 17044 13107 15551 18064 11412 14739 12767 10935 14543 18839 17224 19599 10711 17043 17374 11142 18464 19620 13358 15541 13274 14867 13698 18968 19751 11567 13568 10514 13730 15127 15377 15406 10034 19969 18436 19675 19587 13897 15396 14631 19871 17287 19624 18340 15569 11890 15108 18379 13637 999999 999999 999999 999999 999999 999999 999999 999999 999999 999999 999999 999999 999999 999999 999999 999999 999999 999999 999999 999999 999999 999999 999999 999999 999999 999999 999999 999999 999999 999999 999999 999999 999999 999999 999999 999999 999999 999999 999999 999999 999999 999999 999999 999999 999999 999999 999999 999999 999999 999999 999999 999999 999999 999999 999999 999999 999999 999999 999999 999999 999999 999999 999999 999999 999999 999999 999999 999999 999999 999999 999999 999999 999999 999999 999999 999999 999999 999999 999999 999999 999999 999999 999999 999999 999999 999999 999999 999999 999999 999999 999999 0 999999 999999 999999 999999 999999 999999 999999 999999 999999 999999 999999 999999 999999 999999 999999 999999 999999 999999 999999 999999 999999 999999 999999 999999 999999 999999 999999 999999 999999 999999 999999 999999 999999 999999 999999 999999 999999 999999 999999 999999 999999 999999 999999 999999 999999 999999 999999 999999 999999 999999 999999 999999 999999 999999 999999 999999 999999 999999 999999 999999 999999 999999 999999 999999 999999 999999 999999 999999 14346
999999 12477 15522 17924 18497 11850 12304 14146 12136 19845 16523 12771 10388 10044 19531 13349 15789 18072 17587 10540 11217 10142 13690 12383 14115 18689 13229 16546 10952 18266 11741 12095 17503 12752 15771 12007 15739 13099 11368 18106 13696 14281 10523 16117 10800 15822 19089 12212 16569 13908 11641 10637 17474 16813 19887 19766 10040 13051 13584 15436 16038 15013 11063 12955 10530 15624 19971 14630 17038 13750 15697 14394 17058 14925 17007 16600 16494 17205 11885 13891 13034 16734 18775 13956 18675 19715 11101 14443 10975 11801 15296 13118 14487 14288 19042 18349 10953 11130 12815 15535 18167 19083 17345 10071 10332 12714 15465 19723 19428 14649 16585 13467 15846 19293 14222 14286 15223 13008 12219 14245 13223 18635 19321 11872 17132 19059 13379 12105 14168 19165 17505 11961 16035 11695 12798 16489 19024 14809 15471 11792 17788 14274 15915 17030 17476 18282 18887 14111 14065 19553 15087 16219 10370 19775 12557 11376 16440 15736 11638 19207 12220 999999 999999 999999 999999 999999 999999 999999 999999 999999 999999 999999 999999 999999 999999 999999 999999 999999 999999 999999 999999 999999 999999 999999 999999 999999 999999 999999 999999 999999 999999 999999 999999 999999 999999 999999 999999 999999 999999 999999 999999 999999 999999 999999 999999 999999 999999 999999 999999 999999 999999 999999 999999 999999 999999 999999 999999 999999 999999 999999 999999 999999 999999 999999 999999 999999 999999 999999 999999 999999 999999 999999 999999 999999 999999 999999 999999 999999 999999 999999 999999 999999 999999 999999 999999 999999 999999 999999 999999 999999 999999 999999 999999 0 999999 999999 999999 999999 999999 999999 999999 999999 999999 999999 999999 999999 999999 999999 999999 999999 999999 999999 999999 999999 999999 999999 999999 999999 999999 999999 999999 999999 999999 999999 999999 999999 999999 999999 999999 999999 999999 999999 999999 999999 999999 999999 999999 999999 999999 999999 999999 999999 999999 999999 999999 999999 999999 999999 999999 999999 999999 999999 999999 999999 999999 999999 999999 999999 999999 999999 999999 10325
999999 12438 15601 15538 17902 16858 15704 10103 17292 15067 14008 16925 16193 17768 15124 14124 12743 15843 11508 13339 14423 11963 15451 19197 13818 19202 16026 12826 12675 15976 12718 12354 10492 17487 13172 16237 14004 11763 19072 10082 19733 16283 13008 14101 19495 18346 18728 11801 15072 15276 12644 15169 18618 17861 13656 11738 15246 15274 12786 14841 17182 15414 11474 13689 13664 12865 19821 16252 12971 12648 17050 18817 16688 16672 10535 16127 18371 18986 15033 16008 14066 10844 15538 14827 13884 11935 13456 16097 12814 10652 17343 13733 18332 17812 19547 14772 12460 17363 12377 10894 11664 11494 13275 16257 19398 16457 13422 13796 18008 15119 12681 14357 12778 17808 14879 19107 14224 10748 16787 17332 10637 12891 12914 12558 10157 10118 11157 14313 13483 11942 14450 16523 19315 10211 11248 10885 14203 10813 16667 17414 11223 14528 12289 16651 12342 16701 17184 18704 10936 18631 11093 17384 11230 15121 17558 14665 11390 10713 18757 14852 12399 999999 999999 999999 999999 999999 999999 999999 999999 999999 999999 999999 999999 999999 999999 999999 999999 999999 999999 999999 999999 999999 999999 999999 999999 999999 999999 999999 999999 999999 999999 999999 999999 999999 999999 999999 999999 999999 999999 999999 999999 999999 999999 999999 999999 999999 999999 999999 999999 999999 999999 999999 999999 999999 999999 999999 999999 999999 999999 999999 999999 999999 999999 999999 999999 999999 999999 999999 999999 999999 999999 999999 999999 999999 999999 999999 999999 999999 999999 999999 999999 999999 999999 999999 999999 999999 999999 999999 999999 999999 999999 999999 999999 999999 0 999999 999999 999999 999999 999999 999999 999999 999999 999999 999999 999999 999999 999999 999999 999999 999999 999999 999999 999999 999999 999999 999999 999999 999999 999999 999999 999999 999999 999999 999999 999999 999999 999999 999999 999999 999999 999999 999999 999999 999999 999999 999999 999999 999999 999999 999999 999999 999999 999999 999999 999999 999999 999999 999999 999999 999999 999999 999999 999999 999999 999999 999999 999999 999999 999999 999999 14541
999999 15777 18523 13459 15467 14135 17027 13724 18659 12358 12399 19692 11954 11238 18436 14962 14124 16161 11829 12201 12200 16412 18423 15502 15612 13602 14575 14827 19564 18348 12146 13547 14716 14194 18951 18449 17644 15504 12483 15896 10251 17405 12179 12692 18760 15271 14275 11562 16239 12438 19101 14656 12468 14988 12496 10456 12984 19775 18120 11496 10392 17946 14878 18206 17682 16862 11043 15627 15274 11464 17776 14298 14158 14964 14113 12999 16618 10451 15366 18370 13370 17128 18115 10075 11158 16176 13898 19211 10807 12030 18696 17191 18648 10467 16588 17062 14755 10387 12772 10820 10563 14574 11848 14389 14832 19546 13179 15334 10619 10710 10797 13103 14278 11012 17463 14399 17697 19869 13210 14849 11333 15720 13291 13754 11905 15772 19370 14505 11936 10041 19073 10903 14385 18438 17754 14423 10505 18930 13069 11349 16794 10554 18425 13668 18930 16682 19988 14663 19958 17332 13876 17584 17996 19319 17815 15539 13557 19008 18950 17240 12553 999999 999999 999999 999999 999999 999999 999999 999999 999999 999999 999999 999999 999999 999999 999999 999999 999999 999999 999999 999999 999999 999999 999999 999999 999999 999999 999999 999999 999999 999999 999999 999999 999999 999999 999999 999999 999999 999999 999999 999999 999999 999999 999999 999999 999999 999999 999999 999999 999999 999999 999999 999999 999999 999999 999999 999999 999999 999999 999999 999999 999999 999999 999999 999999 999999 999999 999999 999999 999999 999999 999999 999999 999999 999999 999999 999999 999999 999999 999999 999999 999999 999999 999999 999999 999999 999999 999999 999999 999999 999999 999999 999999 999999 999999 0 999999 999999 999999 999999 999999 999999 999999 999999 999999 999999 999999 999999 999999 999999 999999 999999 999999 999999 999999 999999 999999 999999 999999 999999 999999 999999 999999 999999 999999 999999 999999 999999 999999 999999 999999 999999 999999 999999 999999 999999 999999 999999 999999 999999 999999 999999 999999 999999 999999 999999 999999 999999 999999 999999 999999 999999 999999 999999 999999 999999 999999 999999 999999 999999 999999 8206
999999 16999 10719 10264 14040 19551 18729 13715 14562 11106 12880 10046 11484 12787 17591 13582 17494 10294 17030 18315 19863 18996 18931 16816 11267 18502 12186 15010 14241 15547 17122 11602 19307 18093 16576 17508 14743 12028 11431 13275 11718 17204 15322 19492 19157 16818 18656 10730 17632 15564 14873 18394 16708 10075 14300 16620 16320 17628 15339 15433 14095 16682 18346 10075 12273 15028 11994 14792 11915 11537 14675 17369 12603 12821 13976 14206 14639 13102 14582 12446 11190 11599 12001 18628 19531 14008 19944 12293 15789 19657 18112 11819 18566 11118 16352 14103 14979 19253 17871 17825 11049 11266 14201 18212 12299 17975 18708 18501 12734 13096 15274 18947 18003 18511 18124 14529 10842 17563 14884 12288 13336 12503 15379 14326 12635 15940 10274 15776 17790 10080 15457 19748 19833 14081 10492 17625 17553 12078 18104 12944 17284 19931 18126 14159 17526 18577 10224 11586 11886 19858 17810 15724 16082 17630 10041 18300 10534 10919 10407 11528 19854 999999 999999 999999 999999 999999 999999 999999 999999 999999 999999 999999 999999 999999 999999 999999 999999 999999 999999 999999 999999 999999 999999 999999 999999 999999 999999 999999 999999 999999 999999 999999 999999 999999 999999 999999 999999 999999 999999 999999 999999 999999 999999 999999 999999 999999 999999 999999 999999 999999 999999 999999 999999 999999 999999 999999 999999 999999 999999 999999 999999 999999 999999 999999 999999 999999 999999 999999 999999 999999 999999 999999 999999 999999 999999 999999 999999 999999 999999 999999 999999 999999 999999 999999 999999 999999 999999 999999 999999 999999 999999 999999 999999 999999 999999 999999 0 999999 999999 999999 999999 999999 999999 999999 999999 999999 999999 999999 999999 999999 999999 999999 999999 999999 999999 999999 999999 999999 999999 999999 999999 999999 999999 999999 999999 999999 999999 999999 999999 999999 999999 999999 999999 999999 999999 999999 999999 999999 999999 999999 999999 999999 999999 999999 999999 999999 999999 999999 999999 999999 999999 999999 999999 999999 999999 999999 999999 999999 999999 999999 999999 14497
999999 10499 14591 18931 10219 13698 13030 15520 11268 10628 11404 10173 19528 11609 14088 11490 17861 14268 12492 11594 19147 18723 17122 17538 10072 12892 12330 19658 16376 10306 19769 10328 16612 17904 14199 14640 15398 19208 13428 14537 14804 13032 11597 18423 10426 17569 17529 15122 11369 19276 12249 15034 15790 16462 18579 17335 13626 19930 17186 13830 17603 13899 10806 12558 14236 16513 12859 14668 12129 10509 15905 17129 13148 13545 13913 13500 14365 16582 14609 13768 11350 19040 18727 11594 10850 17375 10612 14584 10869 15041 18825 12745 12519 17997 13140 10286 12678 10486 10666 12598 12130 16658 13278 10491 18804 19627 17411 12337 11564 14673 13564 19468 12435 15383 13725 11245 10804 16698 17779 16368 16433 11949 10764 12963 15227 18201 11298 16001 13406 13438 12143 16803 19110 10257 11016 14414 18521 10292 18032 15810 10502 10496 14865 17789 10694 16036 10278 12254 19656 11955 16636 10097 18395 14281 13231 15694 12237 13419 12346 16245 19638 999999 999999 999999 999999 999999 999999 999999 999999 999999 999999 999999 999999 999999 999999 999999 999999 999999 999999 999999 999999 999999 999999 999999 999999 999999 999999 999999 999999 999999 999999 999999 999999 999999 999999 999999 999999 999999 999999 999999 999999 999999 999999 999999 999999 999999 999999 999999 999999 999999 999999 999999 999999 999999 999999 999999 999999 999999 999999 999999 999999 999999 999999 999999 999999 999999 999999 999999 999999 999999 999999 999999 999999 999999 999999 999999 999999 999999 999999 999999 999999 999999 999999 999999 999999 999999 999999 999999 999999 999999 999999 999999 999999 999999 999999 999999 999999 0 999999 999999 999999 999999 999999 999999 999999 999999 999999 999999 999999 999999 999999 999999 999999 999999 999999 999999 999999 999999 999999 999999 999999 999999 999999 999999 999999 999999 999999 999999 999999 999999 999999 999999 999999 999999 999999 999999 999999 999999 999999 999999 999999 999999 999999 999999 999999 999999 999999 999999 999999 999999 999999 999999 999999 999999 999999 999999 999999 999999 999999 999999 999999 10875
999999 17667 18372 14705 13428 11459 19520 19993 13842 19850 14936 18153 10679 13314 15949 12031 11396 14011 14647 16239 12662 17509 16437 12579 15097 14887 11442 14907 13325 16190 10895 17387 19692 10453 10120 16434 13378 17899 17292 16014 16378 16708 13280 18282 17747 12150 15039 13515 19325 15759 13457 10823 18852 13468 11816 18827 17705 12527 16064 11107 19313 11824 17597 15058 15992 16719 12342 19774 13845 18753 11117 18398 14644 11411 19878 17367 12730 15267 10998 18069 17581 10029 17320 18758 17646 18162 17517 14135 16135 17897 10447 18152 11855 17088 11982 15708 13101 18107 16105 10385 15789 10432 16997 16599 17870 17506 15759 14260 18112 14090 10426 14956 16633 13581 19733 10172 17661 11364 19021 15725 11042 16804 19357 14666 18913 15011 12127 12712 14462 12832 14274 10890 17026 19560 17537 18040 18674 17254 18108 12026 18386 15448 15861 18563 16264 10905 14765 17949 18033 10783 14968 16535 17434 19480 14795 13404 11273 16757 18261 10715 19753 999999 999999 999999 999999 999999 999999 999999 999999 999999 999999 999999 999999 999999 999999 999999 999999 999999 999999 999999 999999 999999 999999 999999 999999 999999 999999 999999 999999 999999 999999 999999 999999 999999 999999 999999 999999 999999 999999 999999 999999 999999 999999 999999 999999 999999 999999 999999 999999 999999 999999 999999 999999 999999 999999 999999 999999 999999 999999 999999 999999 999999 999999 999999 999999 999999 999999 999999 999999 999999 999999 999999 999999 999999 999999 999999 999999 999999 999999 999999 999999 999999 999999 999999 999999 999999 999999 999999 999999 999999 999999 999999 999999 999999 999999 999999 999999 999999 0 999999 999999 999999 999999 999999 999999 999999 999999 999999 999999 999999 999999 999999 999999 999999 999999 999999 999999 999999 999999 999999 999999 999999 999999 999999 999999 999999 999999 999999 999999 999999 999999 999999 999999 999999 999999 999999 999999 999999 999999 999999 999999 999999 999999 999999 999999 999999 999999 999999 999999 999999 999999 999999 999999 999999 999999 999999 999999 999999 999999 999999 999999 7269
999999 19529 12012 13914 15673 16373 12028 19484 10260 10345 11853 17838 10680 11616 12104 12220 16887 19442 15563 11516 15310 10171 19249 14317 19765 18093 18482 14659 10221 10740 17446 11216 15671 15024 13018 14974 14493 11412 17573 16881 11408 14147 11486 18792 10088 11109 12922 10561 15880 12952 18056 14697 12270 17300 18937 16881 17590 16391 13985 12307 12887 11641 12807 17439 16901 14929 15691 11783 12696 11787 11238 13222 12060 11843 14619 18305 12173 11274 10610 16985 11821 16471 13837 10779 14386 19127 19687 16569 14868 14454 17574 10714 17864 17879 18004 16418 12898 13492 16376 11535 16266 12188 11751 18722 14482 18408 18990 18545 10878 15715 14975 14087 10234 10593 15046 12054 18768 19301 11140 14408 19088 18660 10747 16497 10431 16691 18410 17917 16556 16951 18986 14034 10500 11656 11488 13520 13821 16761 13878 16317 19093 14033 13855 19332 17966 12186 19425 16541 13238 15140 12826 15854 10339 10123 19325 15806 14771 14944 19693 17768 18844 999999 999999 999999 999999 999999 999999 999999 999999 999999 999999 999999 999999 999999 999999 999999 999999 999999 999999 999999 999999 999999 999999 999999 999999 999999 999999 999999 999999 999999 999999 999999 999999 999999 999999 999999 999999 999999 999999 999999 999999 999999 999999 999999 999999 999999 999999 999999 999999 999999 999999 999999 999999 999999 999999 999999 999999 999999 999999 999999 999999 999999 999999 999999 999999 999999 999999 999999 999999 999999 999999 999999 999999 999999 999999 999999 999999 999999 999999 999999 999999 999999 999999 999999 999999 999999 999999 999999 999999 999999 999999 999999 999999 999999 999999 999999 999999 999999 999999 0 999999 999999 999999 999999 999999 999999 999999 999999 999999 999999 999999 999999 999999 999999 999999 999999 999999 999999 999999 999999 999999 999999 999999 999999 999999 999999 999999 999999 999999 999999 999999 999999 999999 999999 999999 999999 999999 999999 999999 999999 999999 999999 999999 999999 999999 999999 999999 999999 999999 999999 999999 999999 999999 999999 999999 999999 999999 999999 999999 999999 999999 7953
999999 13966 15570 10726 10619 14918 14338 18513 17924 18878 16328 12092 18322 19568 16561 16374 16240 11160 11963 12925 10115 11704 11201 10618 18579 17775 12388 11442 13185 11913 11860 11417 16867 17390 18723 12632 11589 14292 13585 15063 19429 19384 17982 14620 14283 16337 18731 12425 14134 14902 13421 12294 17426 18137 17573 15014 12315 13841 17836 19065 19002 14227 19760 18589 19850 15303 11552 14317 14209 19192 17828 17457 18138 14961 16630 14733 11173 18754 16142 14632 18267 10662 15733 17992 17348 18007 15442 12427 10440 10520 13976 19471 13551 17948 16168 11799 10437 19622 19934 19386 19700 12216 14346 12874 16783 12589 11006 12329 19034 10628 11353 19114 18442 10174 17123 12249 15346 12767 15475 15443 18772 11342 15449 12888 18388 15076 17748 16742 15894 10384 19477 13082 15311 17394 13225 11808 13484 18159 11685 16391 15667 18005 15034 10971 17178 15378 14009 17408 15797 19414 11125 12806 19225 10375 18776 16731 12592 16140 11866 12056 18762 999999 999999 999999 999999 999999 999999 999999 999999 999999 999999 999999 999999 999999 999999 999999 999999 999999 999999 999999 999999 999999 999999 999999 999999 999999 999999 999999 999999 999999 999999 999999 999999 999999 999999 999999 999999 999999 999999 999999 999999 999999 999999 999999 999999 999999 999999 999999 999999 999999 999999 999999 999999 999999 999999 999999 999999 999999 999999 999999 999999 999999 999999 999999 999999 999999 999999 999999 999999 999999 999999 999999 999999 999999 999999 999999 999999 999999 999999 999999 999999 999999 999999 999999 999999 999999 999999 999999 999999 999999 999999 999999 999999 999999 999999 999999 999999 999999 999999 999999 0 999999 999999 999999 999999 999999 999999 999999 999999 999999 999999 999999 999999 999999 999999 999999 999999 999999 999999 999999 999999 999999 999999 999999 999999 999999 999999 999999 999999 999999 999999 999999 999999 999999 999999 999999 999999 999999 999999 999999 999999 999999 999999 999999 999999 999999 999999 999999 999999 999999 999999 999999 999999 999999 999999 999999 999999 999999 999999 999999 999999 9776
999999 12468 14667 10424 14639 13224 19927 16084 11127 17308 10688 15131 13453 18360 17356 16800 15741 11306 10225 12261 15195 14832 13047 17562 14351 12849 18072 17895 16326 14633 14700 13687 18754 10255 19524 14784 13845 18606 14359 16285 12558 15058 10410 17810 19938 11312 16465 10691 15296 12432 15343 11554 13741 10423 14020 10108 18580 14659 15029 19367 16398 10140 14047 18016 14356 16741 16774 13863 18794 13282 18024 12920 19430 16901 17004 18550 17780 17371 12051 10033 15923 15115 15851 19702 15929 13905 14880 14075 11938 14947 15132 16363 15837 12405 13811 15971 13553 19216 13573 10879 19241 17858 10145 16896 12760 16956 11847 17660 17140 10395 18969 11556 12585 11783 19578 14314 19477 14599 16782 19806 10593 14042 16362 15320 12736 15518 17317 19323 14306 16581 16992 11470 13452 12830 16025 19148 10692 16146 11794 18211 13553 10193 19188 11462 13084 15651 16324 15245 19087 10117 10042 19880 12217 13042 15125 17503 14888 10265 18935 11856 14326 999999 999999 999999 999999 999999 999999 999999 999999 999999 999999 999999 999999 999999 999999 999999 999999 999999 999999 999999 999999 999999 999999 999999 999999 999999 999999 999999 999999 999999 999999 999999 999999 999999 999999 999999 999999 999999 999999 999999 999999 999999 999999 999999 999999 999999 999999 999999 999999 999999 999999 999999 999999 999999 999999 999999 999999 999999 999999 999999 999999 999999 999999 999999 999999 999999 999999 999999 999999 999999 999999 999999 999999 999999 999999 999999 999999 999999 999999 999999 999999 999999 999999 999999 999999 999999 999999 999999 999999 999999 999999 999999 999999 999999 999999 999999 999999 999999 999999 999999 999999 0 999999 999999 999999 999999 999999 999999 999999 999999 999999 999999 999999 999999 999999 999999 999999 999999 999999 999999 999999 999999 999999 999999 999999 999999 999999 999999 999999 999999 999999 999999 999999 999999 999999 999999 999999 999999 999999 999999 999999 999999 999999 999999 999999 999999 999999 999999 999999 999999 999999 999999 999999 999999 999999 999999 999999 999999 999999 999999 999999 9482
999999 11108 13625 19155 10748 15137 13087 15136 11598 13445 12743 16426 12099 19013 11630 10899 14384 17308 17045 14680 13453 16467 12411 16307 13968 19103 16231 10645 11837 16366 11540 19866 19948 18806 15236 16158 19828 17049 17074 17881 14110 11155 10605 14859 18356 10598 19321 16350 10005 14036 17863 19682 13628 18826 11643 18418 17727 11023 10655 14916 12694 13092 16857 11764 13994 17628 16402 19808 12510 19826 18620 15003 17775 10864 19743 14790 16455 10381 10983 16056 11018 10578 17037 12012 14006 12772 16946 10648 12616 13558 10592 11690 16025 18816 15227 12501 11625 10360 15745 19544 10385 16411 18926 15604 11845 11776 16929 12186 18385 12186 10008 13335 17337 11963 12614 17345 10260 17218 13273 19494 18899 17027 16138 17929 11827 18391 11280 14254 15227 14021 11219 19168 10749 15445 15444 16708 17620 10569 16417 19598 18412 19339 16003 10243 12026 19354 16308 12933 11551 19676 14546 11217 16861 13317 17112 19917 14088 16261 10002 19984 19777 999999 999999 999999 999999 999999 999999 999999 999999 999999 999999 999999 999999 999999 999999 999999 999999 999999 999999 999999 999999 999999 999999 999999 999999 999999 999999 999999 999999 999999 999999 999999 999999 999999 999999 999999 999999 999999 999999 999999 999999 999999 999999 999999 999999 999999 999999 999999 999999 999999 999999 999999 999999 999999 999999 999999 999999 999999 999999 999999 999999 999999 999999 999999 999999 999999 999999 999999 999999 999999 999999 999999 999999 999999 999999 999999 999999 999999 999999 999999 999999 999999 999999 999999 999999 999999 999999 999999 999999 999999 999999 999999 999999 999999 999999 999999 999999 999999 999999 999999 999999 999999 0 999999 999999 999999 999999 999999 999999 999999 999999 999999 999999 999999 999999 999999 999999 999999 999999 999999 999999 999999 999999 999999 999999 999999 999999 999999 999999 999999 999999 999999 999999 999999 999999 999999 999999 999999 999999 999999 999999 999999 999999 999999 999999 999999 999999 999999 999999 999999 999999 999999 999999 999999 999999 999999 999999 999999 999999 999999 999999 14660
999999 18091 19440 19770 16738 14028 14313 11010 17113 14485 19903 19570 19603 12522 18740 10517 16031 14252 19653 12669 14608 12500 17395 18566 13003 12852 19756 12970 11968 12001 14341 17732 18658 10985 19348 13253 13071 18432 18738 12473 13349 15027 16081 16780 18579 18371 11773 10636 10987 10935 11561 19809 18719 16626 14473 18433 19017 13180 10378 12002 15665 18506 13902 15449 10523 15645 12116 13612 18260 18552 19892 11068 13079 17674 19762 12375 12051 16593 16453 11444 10379 15748 11818 11654 11702 10197 13845 18347 12577 16176 11050 15934 18651 19877 17433 17332 16347 15792 15272 11892 15803 17221 13757 18460 12739 14486 19217 11654 19479 16782 12644 16520 15098 10351 13622 19094 18101 12850 15963 13060 13662 11328 13754 14542 14371 14956 12911 18774 11287 16934 11816 10158 18370 16277 16683 11307 18983 10578 19237 13627 17296 18089 12348 11900 10059 17697 10101 14818 16606 13638 11507 14464 15753 14757 10011 19537 16492 13164 16227 18348 14059 999999 999999 999999 999999 999999 999999 999999 999999 999999 999999 999999 999999 999999 999999 999999 999999 999999 999999 999999 999999 999999 999999 999999 999999 999999 999999 999999 999999 999999 999999 999999 999999 999999 999999 999999 999999 999999 999999 999999 999999 999999 999999 999999 999999 999999 999999 999999 999999 999999 999999 999999 999999 999999 999999 999999 999999 999999 999999 999999 999999 999999 999999 999999 999999 999999 999999 999999 999999 999999 999999 999999 999999 999999 999999 999999 999999 999999 999999 999999 999999 999999 999999 999999 999999 999999 999999 999999 999999 999999 999999 999999 999999 999999 999999 999999 999999 999999 999999 999999 999999 999999 999999 0 999999 999999 999999 999999 999999 999999 999999 999999 999999 999999 999999 999999 999999 999999 999999 999999 999999 999999 999999 999999 999999 999999 999999 999999 999999 999999 999999 999999 999999 999999 999999 999999 999999 999999 999999 999999 999999 999999 999999 999999 999999 999999 999999 999999 999999 999999 999999 999999 999999 999999 999999 999999 999999 999999 999999 999999 999999 13257
999999 13731 11588 14512 19110 13187 17556 15591 11824 15251 17280 19436 19340 11831 19896 14721 12614 18022 15240 14306 14556 15897 10534 17367 13768 15965 14825 10254 16373 14707 15399 11130 12180 15021 14054 13477 14617 11000 16376 19873 12872 10596 16201 15893 16702 18260 13423 11713 18621 18185 10262 10242 11547 17737 18204 11897 15598 10678 19592 11712 10229 13061 14397 12730 16091 18272 18958 11766 13203 13078 16689 10751 10749 16616 16428 16354 15185 19052 12960 10306 17266 14201 13860 16460 13324 17150 19324 11966 14783 17296 12251 16946 12896 14403 11309 19837 14239 16319 16372 15268 10456 13860 12051 11104 16402 13273 17851 16683 14120 17143 13851 19489 17568 17238 17063 17152 18443 15224 17750 16734 18890 16867 13038 15495 13516 12257 13054 18546 15520 19810 14132 15030 14045 15891 16468 19213 10459 12696 12624 13380 16785 10037 10600 11936 18045 19547 15643 12117 14262 13875 17512 13348 18867 17955 10872 16220 16624 18728 15532 10449 14749 999999 999999 999999 999999 999999 999999 999999 999999 999999 999999 999999 999999 999999 999999 999999 999999 999999 999999 999999 999999 999999 999999 999999 999999 999999 999999 999999 999999 999999 999999 999999 999999 999999 999999 999999 999999 999999 999999 999999 999999 999999 999999 999999 999999 999999 999999 999999 999999 999999 999999 999999 999999 999999 999999 999999 999999 999999 999999 999999 999999 999999 999999 999999 999999 999999 999999 999999 999999 999999 999999 999999 999999 999999 999999 999999 999999 999999 999999 999999 999999 999999 999999 999999 999999 999999 999999 999999 999999 999999 999999 999999 999999 999999 999999 999999 999999 999999 999999 999999 999999 999999 999999 999999 0 999999 999999 999999 999999 999999 999999 999999 999999 999999 999999 999999 999999 999999 999999 999999 999999 999999 999999 999999 999999 999999 999999 999999 999999 999999 999999 999999 999999 999999 999999 999999 999999 999999 999999 999999 999999 999999 999999 999999 999999 999999 999999 999999 999999 999999 999999 999999 999999 999999 999999 999999 999999 999999 999999 999999 999999 12163
999999 15103 14541 12635 19305 15459 19053 15285 11232 13359 12269 16411 15005 16031 15240 13446 19154 12286 16202 10551 14875 13029 19163 11217 19885 14417 15238 13970 10924 17794 13982 17921 15079 16932 11820 13483 18770 11136 14043 16617 16032 18931 11530 11947 15771 17047 10577 12717 17088 11605 13601 14488 14316 14807 10838 17503 13792 13378 19437 12762 16993 10073 16820 10981 18605 15168 14942 14608 16848 18775 17541 14248 11320 16744 19234 11962 18903 12871 13709 18808 12358 13982 13503 14285 14059 19252 14420 16642 13665 12706 17700 19295 12291 11056 10405 19000 14085 11098 16766 18135 18240 18742 11164 14104 15236 13224 15937 11571 18459 17792 17867 16736 19279 14592 11099 16804 19731 17866 16587 18418 10908 11602 18914 10633 15122 19092 13408 12571 18369 14398 17383 15190 16313 16201 15983 13859 16177 11604 14515 10633 15294 11401 19689 16246 11745 13778 19625 17467 14193 14268 12092 13840 11545 13402 17599 16872 10099 10035 14800 10047 18274 999999 999999 999999 999999 999999 999999 999999 999999 999999 999999 999999 999999 999999 999999 999999 999999 999999 999999 999999 999999 999999 999999 999999 999999 999999 999999 999999 999999 999999 999999 999999 999999 999999 999999 999999 999999 999999 999999 999999 999999 999999 999999 999999 999999 999999 999999 999999 999999 999999 999999 999999 999999 999999 999999 999999 999999 999999 999999 999999 999999 999999 999999 999999 999999 999999 999999 999999 999999 999999 999999 999999 999999 999999 999999 999999 999999 999999 999999 999999 999999 999999 999999 999999 999999 999999 999999 999999 999999 999999 999999 999999 999999 999999 999999 999999 999999 999999 999999 999999 999999 999999 999999 999999 999999 0 999999 999999 999999 999999 999999 999999 999999 999999 999999 999999 999999 999999 999999 999999 999999 999999 999999 999999 999999 999999 999999 999999 999999 999999 999999 999999 999999 999999 999999 999999 999999 999999 999999 999999 999999 999999 999999 999999 999999 999999 999999 999999 999999 999999 999999 999999 999999 999999 999999 999999 999999 999999 999999 999999 999999 10780
999999 12814 15991 18163 15487 15110 12771 14271 13467 18778 16687 16748 17082 15394 14308 18318 11701 10821 19713 10097 17522 15456 10920 11367 15063 19043 18261 14971 14215 18119 18864 19073 12851 15341 15149 19202 17824 19102 19537 19548 13498 11130 11871 19542 17628 19426 15005 13285 13368 10304 16963 16548 11311 19337 11912 17159 13348 14634 16284 18275 12700 18466 10677 15697 10962 18141 18695 18178 16726 11114 15298 15347 12999 16365 10005 18205 12137 12797 19970 16691 18618 13881 13454 17345 19002 12147 15326 13583 19071 16930 17903 12640 11577 11660 15573 11552 16583 15721 15734 15489 11012 17495 12642 10748 16833 10469 10575 12898 14426 10055 11057 17898 16836 17687 10889 19378 13831 16039 13740 18619 11386 17999 12683 11314 13777 15655 17367 18258 17487 12701 13439 16358 17879 16318 18717 10388 16355 14016 10027 19956 18065 14199 11803 19987 13471 18216 11253 14912 17335 14570 18937 11973 10991 13999 17833 11830 10696 10134 11223 12173 19581 999999 999999 999999 999999 999999 999999 999999 999999 999999 999999 999999 999999 999999 999999 999999 999999 999999 999999 999999 999999 999999 999999 999999 999999 999999 999999 999999 999999 999999 999999 999999 999999 999999 999999 999999 999999 999999 999999 999999 999999 999999 999999 999999 999999 999999 999999 999999 999999 999999 999999 999999 999999 999999 999999 999999 999999 999999 999999 999999 999999 999999 999999 999999 999999 999999 999999 999999 999999 999999 999999 999999 999999 999999 999999 999999 999999 999999 999999 999999 999999 999999 999999 999999 999999 999999 999999 999999 999999 999999 999999 999999 999999 999999 999999 999999 999999 999999 999999 999999 999999 999999 999999 999999 999999 999999 0 999999 999999 999999 999999 999999 999999 999999 999999 999999 999999 999999 999999 999999 999999 999999 999999 999999 999999 999999 999999 999999 999999 999999 999999 999999 999999 999999 999999 999999 999999 999999 999999 999999 999999 999999 999999 999999 999999 999999 999999 999999 999999 999999 999999 999999 999999 999999 999999 999999 999999 999999 999999 999999 999999 13767
999999 14095 15617 15934 17089 13594 13818 16418 14520 14000 14722 14352 11256 13136 10923 17508 14601 13322 12056 14967 19909 15735 17020 11796 12487 18472 19588 17157 16150 18091 17978 16878 13417 16417 13151 12811 10374 10449 13076 13091 11085 16292 17789 13025 17473 18795 19986 15736 13395 16695 19790 11833 16702 11656 15841 10597 15172 10775 12487 18540 11975 10755 12296 16483 16656 12258 19765 14733 17858 18609 11074 15731 14458 19200 19674 18598 17711 18609 18839 13939 12819 11118 18489 19151 16290 15443 13149 16927 13981 18121 15874 11792 17561 12708 13036 17902 12238 12256 15104 10831 13752 11066 17368 18466 11437 15661 19440 18935 16479 17553 18773 19352 14436 16447 16871 18203 11087 12982 19904 12086 18353 13598 15888 19630 11582 19223 10999 11352 14772 14515 13263 12957 19161 18676 12981 15323 14632 16054 19854 12180 13054 11667 14176 14995 16227 18985 14511 17989 13695 14976 19794 14403 11954 15129 14832 10244 18351 11354 14324 14400 12604 999999 999999 999999 999999 999999 999999 999999 999999 999999 999999 999999 999999 999999 999999 999999 999999 999999 999999 999999 999999 999999 999999 999999 999999 999999 999999 999999 999999 999999 999999 999999 999999 999999 999999 999999 999999 999999 999999 999999 999999 999999 999999 999999 999999 999999 999999 999999 999999 999999 999999 999999 999999 999999 999999 999999 999999 999999 999999 999999 999999 999999 999999 999999 999999 999999 999999 999999 999999 999999 999999 999999 999999 999999 999999 999999 999999 999999 999999 999999 999999 999999 999999 999999 999999 999999 999999 999999 999999 999999 999999 999999 999999 999999 999999 999999 999999 999999 999999 999999 999999 999999 999999 999999 999999 999999 999999 0 999999 999999 999999 999999 999999 999999 999999 999999 999999 999999 999999 999999 999999 999999 999999 999999 999999 999999 999999 999999 999999 999999 999999 999999 999999 999999 999999 999999 999999 999999 999999 999999 999999 999999 999999 999999 999999 999999 999999 999999 999999 999999 999999 999999 999999 999999 999999 999999 999999 999999 999999 999999 999999 10972
999999 16365 12834 13186 15347 14054 15906 11933 12142 11658 16735 12435 17709 10976 16156 18273 14758 17590 17303 15735 10712 17498 13744 14846 12158 10359 14037 13076 19576 13527 13599 18953 18961 11371 15314 17735 18737 12070 16365 18385 19548 16336 11364 14003 15743 11882 12147 13167 12249 16085 12130 10296 17313 11816 19212 18219 12607 14811 13841 12476 12806 11277 14547 14295 19488 10988 19442 18764 10175 13852 15611 14831 10629 13937 18356 10713 15163 19629 10422 17556 11304 19773 12897 10118 19551 15015 14765 10988 13391 14534 19052 19807 13355 12809 13559 13560 16418 15153 17712 16570 17184 10847 11025 15326 18797 18399 10852 17051 19688 15682 13372 15347 11104 16546 10798 10070 17851 18995 14754 18058 10296 18843 16483 12285 14347 14894 12703 11403 14742 18347 17934 17166 19602 18164 12426 11082 13661 11305 12831 12293 18992 19139 13311 11899 10619 15901 13457 18026 12016 11160 14794 14787 18802 19584 13648 15027 18413 17452 18201 15028 13157 999999 999999 999999 999999 999999 999999 999999 999999 999999 999999 999999 999999 999999 999999 999999 999999 999999 999999 999999 999999 999999 999999 999999 999999 999999 999999 999999 999999 999999 999999 999999 999999 999999 999999 999999 999999 999999 999999 999999 999999 999999 999999 999999 999999 999999 999999 999999 999999 999999 999999 999999 999999 999999 999999 999999 999999 999999 999999 999999 999999 999999 999999 999999 999999 999999 999999 999999 999999 999999 999999 999999 999999 999999 999999 999999 999999 999999 999999 999999 999999 999999 999999 999999 999999 999999 999999 999999 999999 999999 999999 999999 999999 999999 999999 999999 999999 999999 999999 999999 999999 999999 999999 999999 999999 999999 999999 999999 0 999999 999999 999999 999999 999999 999999 999999 999999 999999 999999 999999 999999 999999 999999 999999 999999 999999 999999 999999 999999 999999 999999 999999 999999 999999 999999 999999 999999 999999 999999 999999 999999 999999 999999 999999 999999 999999 999999 999999 999999 999999 999999 999999 999999 999999 999999 999999 999999 999999 999999 999999 999999 8170
999999 16104 14583 16482 10374 16770 11640 10845 13696 14763 10156 12526 10998 15591 17875 16834 13601 19306 16092 10516 11154 18826 19355 16650 10284 11957 11936 13596 13237 17432 11033 19347 10149 19990 10263 18783 11129 10434 16921 19209 17087 16757 12077 11620 11601 16169 19301 14802 15240 13556 11978 18973 17468 18686 14320 13169 19456 10374 14729 10304 12736 17400 16587 19345 19051 11588 14220 19183 18336 11473 10182 18598 15271 12203 17723 10448 17919 18956 18371 11324 15769 13412 12974 12323 14745 11718 14725 17815 14009 16930 15058 14512 13121 13381 12782 16298 13158 18976 18666 15304 15949 18294 17773 17022 16552 18997 16919 18590 10826 19842 12907 19510 17263 15325 16773 13964 11070 11545 11077 18885 13260 10384 12924 11771 15048 13439 11887 17045 18505 12154 17810 18452 12230 12089 10286 19946 11944 10690 12817 11632 14443 12012 10720 17806 15656 17764 14417 13870 17048 12299 13039 16171 18198 11324 16669 17483 13224 16877 19853 12768 17181 999999 999999 999999 999999 999999 999999 999999 999999 999999 999999 999999 999999 999999 999999 999999 999999 999999 999999 999999 999999 999999 999999 999999 999999 999999 999999 999999 999999 999999 999999 999999 999999 999999 999999 999999 999999 999999 999999 999999 999999 999999 999999 999999 999999 999999 999999 999999 999999 999999 999999 999999 999999 999999 999999 999999 999999 999999 999999 999999 999999 999999 999999 999999 999999 999999 999999 999999 999999 999999 999999 999999 999999 999999 999999 999999 999999 999999 999999 999999 999999 999999 999999 999999 999999 999999 999999 999999 999999 999999 999999 999999 999999 999999 999999 999999 999999 999999 999999 999999 999999 999999 999999 999999 999999 999999 999999 999999 999999 0 999999 999999 999999 999999 999999 999999 999999 999999 999999 999999 999999 999999 999999 999999 999999 999999 999999 999999 999999 999999 999999 999999 999999 999999 999999 999999 999999 999999 999999 999999 999999 999999 999999 999999 999999 999999 999999 999999 999999 999999 999999 999999 999999 999999 999999 999999 999999 999999 999999 999999 999999 5561
999999 19188 18189 12961 10270 13066 14108 18957 13133 16081 17126 14070 10017 19895 19130 19679 12680 10326 13778 19072 14187 17612 16894 12374 12321 14939 19593 11936 19973 14106 14866 10649 15393 19129 18627 12138 11490 18304 15467 16275 14363 13202 15414 14033 18421 19995 17585 14903 17765 14625 18313 18940 10860 18516 15555 17586 15073 19089 10782 16127 17828 18720 17422 12309 15486 15167 17472 13825 15980 17036 16896 12561 17773 16195 11117 14398 14092 15236 13418 11180 14206 17010 12221 10019 15125 17935 12648 10821 13216 10603 12140 11715 10348 12285 13282 19860 10107 17893 10277 16530 15589 15475 10090 18011 18023 19107 16176 19450 11715 11345 11762 11635 14118 13092 10749 11448 10103 10549 14777 16756 16851 11663 12160 13052 16793 12902 15781 15151 19216 13319 14988 13868 16544 17670 19704 10172 16321 14068 10838 13593 13069 12750 11039 15975 14327 14883 19075 11910 13660 12496 14552 13205 10116 13809 15591 11768 18659 16856 10018 18210 11699 999999 999999 999999 999999 999999 999999 999999 999999 999999 999999 999999 999999 999999 999999 999999 999999 999999 999999 999999 999999 999999 999999 999999 999999 999999 999999 999999 999999 999999 999999 999999 999999 999999 999999 999999 999999 999999 999999 999999 999999 999999 999999 999999 999999 999999 999999 999999 999999 999999 999999 999999 999999 999999 999999 999999 999999 999999 999999 999999 999999 999999 999999 999999 999999 999999 999999 999999 999999 999999 999999 999999 999999 999999 999999 999999 999999 999999 999999 999999 999999 999999 999999 999999 999999 999999 999999 999999 999999 999999 999999 999999 999999 999999 999999 999999 999999 999999 999999 999999 999999 999999 999999 999999 999999 999999 999999 999999 999999 999999 0 999999 999999 999999 999999 999999 999999 999999 999999 999999 999999 999999 999999 999999 999999 999999 999999 999999 999999 999999 999999 999999 999999 999999 999999 999999 999999 999999 999999 999999 999999 999999 999999 999999 999999 999999 999999 999999 999999 999999 999999 999999 999999 999999 999999 999999 999999 999999 999999 999999 999999 13959
999999 17133 17001 10277 15012 10256 15163 18772 13634 16813 11682 10383 10242 18279 10116 11443 19790 12181 16889 12586 13681 11614 10868 12080 19278 16236 14938 18216 17574 13102 13443 14393 16229 16566 12735 10955 10730 11102 11094 18126 12337 10526 14726 10121 17382 19808 15764 14303 19966 12691 17159 18042 19333 15098 17048 14591 10297 18612 17096 17770 14840 17716 11026 12425 17963 17454 10301 10457 18837 18444 12736 12477 18220 12777 17369 17389 17540 12567 18450 19158 11228 12070 19176 17702 15365 18105 10532 18234 17686 18692 10896 18529 15372 11745 17660 16385 12576 15967 15372 16695 15743 13447 16900 10165 11917 15165 10415 17329 17848 13894 16640 10367 12117 16023 10940 17625 16022 12354 18577 17363 10416 14044 11096 18452 16738 19750 13078 17418 14066 14313 17065 11941 10654 14675 18377 14004 16814 15960 10490 18039 17147 17826 12206 10516 10727 14526 15355 10302 17640 15353 11458 13813 10151 13583 16485 14993 10325 19272 16481 15458 12374 999999 999999 999999 999999 999999 999999 999999 999999 999999 999999 999999 999999 999999 999999 999999 999999 999999 999999 999999 999999 999999 999999 999999 999999 999999 999999 999999 999999 999999 999999 999999 999999 999999 999999 999999 999999 999999 999999 999999 999999 999999 999999 999999 999999 999999 999999 999999 999999 999999 999999 999999 999999 999999 999999 999999 999999 999999 999999 999999 999999 999999 999999 999999 999999 999999 999999 999999 999999 999999 999999 999999 999999 999999 999999 999999 999999 999999 999999 999999 999999 999999 999999 999999 999999 999999 999999 999999 999999 999999 999999 999999 999999 999999 999999 999999 999999 999999 999999 999999 999999 999999 999999 999999 999999 999999 999999 999999 999999 999999 999999 0 999999 999999 999999 999999 999999 999999 999999 999999 999999 999999 999999 999999 999999 999999 999999 999999 999999 999999 999999 999999 999999 999999 999999 999999 999999 999999 999999 999999 999999 999999 999999 999999 999999 999999 999999 999999 999999 999999 999999 999999 999999 999999 999999 999999 999999 999999 999999 999999 999999 14835
999999 17742 15885 12182 19604 16008 10406 10467 12471 11109 14608 15518 19262 11283 10236 10984 17374 14823 17855 17201 13338 16725 14302 11035 11659 17350 19654 12371 19296 17155 16567 11895 10041 19004 12058 18326 11442 14444 13801 16938 18766 14804 13154 17721 14356 13147 17770 17460 16532 14324 13475 17072 15985 16904 17544 12994 16301 13125 16731 16103 19192 15094 15371 13826 13806 15099 17907 10273 11063 11670 14121 11370 17451 11206 13668 15360 11893 14538 18450 13715 10204 18890 13866 17836 15768 19320 14210 19135 11024 15170 17767 19585 10698 15016 12413 16278 15882 16433 18442 17087 12603 19948 17647 13208 12769 19628 14953 19982 13069 10287 19742 12637 18430 14582 16181 16232 18202 18383 15355 12912 17650 13081 14299 10834 12023 13669 18681 10590 13825 17759 14690 19821 11313 14263 19641 12063 14655 16393 10043 18778 15648 17021 14222 15786 14341 19389 18076 10549 16799 11360 16242 10993 17653 10203 17750 12219 17826 19964 19152 12441 17903 999999 999999 999999 999999 999999 999999 999999 999999 999999 999999 999999 999999 999999 999999 999999 999999 999999 999999 999999 999999 999999 999999 999999 999999 999999 999999 999999 999999 999999 999999 999999 999999 999999 999999 999999 999999 999999 999999 999999 999999 999999 999999 999999 999999 999999 999999 999999 999999 999999 999999 999999 999999 999999 999999 999999 999999 999999 999999 999999 999999 999999 999999 999999 999999 999999 999999 999999 999999 999999 999999 999999 999999 999999 999999 999999 999999 999999 999999 999999 999999 999999 999999 999999 999999 999999 999999 999999 999999 999999 999999 999999 999999 999999 999999 999999 999999 999999 999999 999999 999999 999999 999999 999999 999999 999999 999999 999999 999999 999999 999999 999999 0 999999 999999 999999 999999 999999 999999 999999 999999 999999 999999 999999 999999 999999 999999 999999 999999 999999 999999 999999 999999 999999 999999 999999 999999 999999 999999 999999 999999 999999 999999 999999 999999 999999 999999 999999 999999 999999 999999 999999 999999 999999 999999 999999 999999 999999 999999 999999 999999 12426
999999 12311 16460 13854 11114 18211 15012 16462 16654 17440 12781 12199 18384 12608 10881 14969 16372 16349 13648 18073 19644 13033 13574 13287 19970 19233 10310 14687 17743 10708 14654 13897 15183 10897 16338 13215 14859 10376 13591 16105 14585 16288 19371 19231 19955 18530 11536 17812 18880 15342 15524 12103 10228 17435 13357 16229 12657 19760 18396 11384 12626 19074 16826 10592 19352 10820 18555 19473 15263 10167 11782 11564 11812 14901 11763 17662 12479 19669 16707 11562 10890 17824 14541 14898 17491 17643 15910 11654 15320 12068 17946 15704 18936 16507 18676 19629 11652 15555 14400 17792 13208 14528 18933 11411 12098 16346 13298 11041 17757 18848 11038 11495 18996 11838 19833 18752 14288 17296 19933 18605 18841 17411 19611 18108 16969 16970 10169 17516 14787 16586 16128 18365 10948 11521 15897 15658 17665 18179 14570 17999 10683 15383 14617 19017 10419 17336 15895 13559 11810 18620 11227 14960 11696 14376 12124 17859 11544 19521 19311 19651 16202 999999 999999 999999 999999 999999 999999 999999 999999 999999 999999 999999 999999 999999 999999 999999 999999 999999 999999 999999 999999 999999 999999 999999 999999 999999 999999 999999 999999 999999 999999 999999 999999 999999 999999 999999 999999 999999 999999 999999 999999 999999 999999 999999 999999 999999 999999 999999 999999 999999 999999 999999 999999 999999 999999 999999 999999 999999 999999 999999 999999 999999 999999 999999 999999 999999 999999 999999 999999 999999 999999 999999 999999 999999 999999 999999 999999 999999 999999 999999 999999 999999 999999 999999 999999 999999 999999 999999 999999 999999 999999 999999 999999 999999 999999 999999 999999 999999 999999 999999 999999 999999 999999 999999 999999 999999 999999 999999 999999 999999 999999 999999 999999 0 999999 999999 999999 999999 999999 999999 999999 999999 999999 999999 999999 999999 999999 999999 999999 999999 999999 999999 999999 999999 999999 999999 999999 999999 999999 999999 999999 999999 999999 999999 999999 999999 999999 999999 999999 999999 999999 999999 999999 999999 999999 999999 999999 999999 999999 999999 999999 10289
999999 13636 16987 11348 17716 17810 18087 10875 19603 11880 15517 12828 13979 18507 13601 15527 18527 16194 16648 10366 13792 12909 13198 16663 12006 18929 12582 14677 19133 17314 16903 12962 12057 17025 18883 18454 17037 13329 12476 16918 10840 19525 11678 15553 17454 19280 16793 12067 10630 17657 13705 15155 10679 15729 11177 17446 14742 17343 16714 19132 15374 12073 11095 16218 18404 11440 12821 17570 12750 19322 13532 12125 14634 10835 10850 16064 14424 11726 17205 18643 15981 11580 19649 12048 15835 12344 13359 16288 19005 19919 10242 17028 14407 12323 15796 11569 16287 13155 14743 18476 13767 11315 11642 16994 18660 10355 17301 16865 10150 15728 17152 14378 14355 15791 11747 11312 18701 13414 17609 18048 18017 16843 11737 13882 15066 19177 10262 15103 12569 18411 17409 15747 14608 19874 19760 17775 19850 11415 11985 11767 18235 13976 16778 13128 11907 10908 11627 18262 10695 11646 14964 18669 14091 12753 16335 15493 10684 15331 18049 13783 10921 999999 999999 999999 999999 999999 999999 999999 999999 999999 999999 999999 999999 999999 999999 999999 999999 999999 999999 999999 999999 999999 999999 999999 999999 999999 999999 999999 999999 999999 999999 999999 999999 999999 999999 999999 999999 999999 999999 999999 999999 999999 999999 999999 999999 999999 999999 999999 999999 999999 999999 999999 999999 999999 999999 999999 999999 999999 999999 999999 999999 999999 999999 999999 999999 999999 999999 999999 999999 999999 999999 999999 999999 999999 999999 999999 999999 999999 999999 999999 999999 999999 999999 999999 999999 999999 999999 999999 999999 999999 999999 999999 999999 999999 999999 999999 999999 999999 999999 999999 999999 999999 999999 999999 999999 999999 999999 999999 999999 999999 999999 999999 999999 999999 0 999999 999999 999999 999999 999999 999999 999999 999999 999999 999999 999999 999999 999999 999999 999999 999999 999999 999999 999999 999999 999999 999999 999999 999999 999999 999999 999999 999999 999999 999999 999999 999999 999999 999999 999999 999999 999999 999999 999999 999999 999999 999999 999999 999999 999999 999999 11815
999999 12739 14106 12173 17513 14993 11845 19486 10649 16920 12307 19043 10459 11464 19102 16373 17068 17817 16188 19194 16242 10516 19978 19949 10743 10063 19152 15419 17494 13422 14359 19017 17966 17010 13596 15657 10954 16433 15633 13731 17801 10183 11282 16176 17953 16250 10437 17402 17978 19334 19206 13912 11462 19086 10538 19007 14485 15679 10717 15171 16301 14188 11395 12772 19198 10518 11420 16060 13179 19974 16781 17894 18043 14353 11618 14245 16669 13176 18348 14817 12397 17966 18514 17392 13468 19482 11699 10202 10621 16378 15927 19479 11901 17036 16057 18376 10889 19499 10468 16984 17429 18020 10320 17605 14613 17897 13149 12743 13276 17293 16625 10336 13349 18647 16991 15976 19263 16846 10379 10380 12151 19498 17793 15191 13698 19473 12670 14802 17076 17919 19827 19484 17976 10795 13796 14047 12897 14922 12325 19871 12408 16778 11525 11747 10971 12029 10402 12377 17634 10727 19746 18364 11708 18348 10865 10349 18037 17991 10544 17942 19351 999999 999999 999999 999999 999999 999999 999999 999999 999999 999999 999999 999999 999999 999999 999999 999999 999999 999999 999999 999999 999999 999999 999999 999999 999999 999999 999999 999999 999999 999999 999999 999999 999999 999999 999999 999999 999999 999999 999999 999999 999999 999999 999999 999999 999999 999999 999999 999999 999999 999999 999999 999999 999999 999999 999999 999999 999999 999999 999999 999999 999999 999999 999999 999999 999999 999999 999999 999999 999999 999999 999999 999999 999999 999999 999999 999999 999999 999999 999999 999999 999999 999999 999999 999999 999999 999999 999999 999999 999999 999999 999999 999999 999999 999999 999999 999999 999999 999999 999999 999999 999999 999999 999999 999999 999999 999999 999999 999999 999999 999999 999999 999999 999999 999999 0 999999 999999 999999 999999 999999 999999 999999 999999 999999 999999 999999 999999 999999 999999 999999 999999 999999 999999 999999 999999 999999 999999 999999 999999 999999 999999 999999 999999 999999 999999 999999 999999 999999 999999 999999 999999 999999 999999 999999 999999 999999 999999 999999 999999 999999 8614
999999 17779 19906 15593 17610 14860 16485 13800 18357 18491 12988 12434 14041 12823 10854 15746 13462 16046 18603 18961 13809 17576 17210 17785 10192 12541 16786 15565 11730 17495 13351 19177 15332 11765 19235 15782 11638 16202 11440 15136 11729 10742 13817 13869 15350 15195 15757 17538 14725 17197 12137 11697 11120 12266 10280 12966 14188 10340 14485 19970 18343 11158 16032 11199 10350 10537 17540 10076 18100 12244 15488 12012 15603 10654 10616 13283 19875 15520 17411 11075 15762 11453 17920 12208 19759 14868 12166 14898 18577 14140 19836 19003 18790 13904 13841 18969 18451 18378 14441 13274 16764 10653 18870 19676 17771 10405 14948 17155 13125 12702 19462 12428 16560 11691 10868 10276 10424 14356 17153 19631 13376 11855 19318 16333 11739 15905 13638 19536 11490 10697 14104 12651 14025 18151 10501 17362 11626 10196 17222 14375 10939 16154 12970 17055 16876 11723 19109 10799 11911 13530 10277 19846 15164 12393 15652 18313 12511 13393 14943 13518 14555 999999 999999 999999 999999 999999 999999 999999 999999 999999 999999 999999 999999 999999 999999 999999 999999 999999 999999 999999 999999 999999 999999 999999 999999 999999 999999 999999 999999 999999 999999 999999 999999 999999 999999 999999 999999 999999 999999 999999 999999 999999 999999 999999 999999 999999 999999 999999 999999 999999 999999 999999 999999 999999 999999 999999 999999 999999 999999 999999 999999 999999 999999 999999 999999 999999 999999 999999 999999 999999 999999 999999 999999 999999 999999 999999 999999 999999 999999 999999 999999 999999 999999 999999 999999 999999 999999 999999 999999 999999 999999 999999 999999 999999 999999 999999 999999 999999 999999 999999 999999 999999 999999 999999 999999 999999 999999 999999 999999 999999 999999 999999 999999 999999 999999 999999 0 999999 999999 999999 999999 999999 999999 999999 999999 999999 999999 999999 999999 999999 999999 999999 999999 999999 999999 999999 999999 999999 999999 999999 999999 999999 999999 999999 999999 999999 999999 999999 999999 999999 999999 999999 999999 999999 999999 999999 999999 999999 999999 999999 999999 5827
999999 17611 16093 16489 11539 13107 14328 14466 14247 19341 13233 14373 12326 11865 18477 12893 16067 10678 18157 10977 10391 13419 17106 19387 13541 19828 16715 11442 19550 17977 19762 10956 15554 16078 17346 15856 18509 19903 16879 18605 19858 10306 18611 17016 10305 14904 11579 17428 10861 12692 13564 15395 14667 18285 19694 12245 19738 15597 11741 15455 19871 13997 16075 13991 18101 11678 12105 15752 19211 15234 14290 11188 15624 17860 13516 11619 12104 12651 15151 12199 10414 18614 14479 11393 14899 14439 12964 19867 18518 17686 16934 18208 14470 12375 14156 18494 12972 11279 10716 13100 10194 10394 18486 19849 15115 19759 16580 12156 16289 10615 19435 18552 16378 19242 16967 17021 19109 16564 12103 10542 19447 15995 16377 13021 16498 15097 18907 12261 17338 14767 13667 15065 18476 14916 11806 10250 19187 19855 11395 14363 15811 12195 16168 14478 11921 11228 16443 15313 13789 17149 18963 12393 16030 16930 14420 12559 10255 12786 19790 19800 19576 999999 999999 999999 999999 999999 999999 999999 999999 999999 999999 999999 999999 999999 999999 999999 999999 999999 999999 999999 999999 999999 999999 999999 999999 999999 999999 999999 999999 999999 999999 999999 999999 999999 999999 999999 999999 999999 999999 999999 999999 999999 999999 999999 999999 999999 999999 999999 999999 999999 999999 999999 999999 999999 999999 999999 999999 999999 999999 999999 999999 999999 999999 999999 999999 999999 999999 999999 999999 999999 999999 999999 999999 999999 999999 999999 999999 999999 999999 999999 999999 999999 999999 999999 999999 999999 999999 999999 999999 999999 999999 999999 999999 999999 999999 999999 999999 999999 999999 999999 999999 999999 999999 999999 999999 999999 999999 999999 999999 999999 999999 999999 999999 999999 999999 999999 999999 0 999999 999999 999999 999999 999999 999999 999999 999999 999999 999999 999999 999999 999999 999999 999999 999999 999999 999999 999999 999999 999999 999999 999999 999999 999999 999999 999999 999999 999999 999999 999999 999999 999999 999999 999999 999999 999999 999999 999999 999999 999999 999999 999999 13929
999999 14719 12533 15956 12887 16227 19421 13046 13561 19242 16081 12200 15111 12297 17558 18807 16323 12351 10038 18092 13158 17551 19880 16306 12867 13577 19204 13935 13369 13874 10768 15220 18424 10083 17503 13681 13588 10255 10294 11350 19114 12861 10622 18891 12484 15033 19188 16333 19237 17017 14072 16197 16547 12139 10127 15097 14214 18972 13393 13889 15887 14248 14278 14620 17419 17666 11486 16964 14412 10092 17338 12042 10533 19627 17261 12758 13149 10489 18880 17984 19767 12102 12244 12222 10694 17358 14500 15085 17108 15517 10143 13656 19389 17139 16267 11237 11016 15904 10665 15628 10625 18168 16805 14927 15992 15347 12697 15753 11434 15024 15905 11814 10379 18529 12118 10130 14519 17725 11081 14559 16990 14370 17283 19637 10665 17020 17609 17506 16173 11893 11831 11938 13735 13187 17638 12529 18173 13543 14634 14764 18110 13456 13530 11555 19372 16961 11859 11979 13082 13899 12829 14618 19954 18331 14563 18713 16185 16332 11430 14615 16373 999999 999999 999999 999999 999999 999999 999999 999999 999999 999999 999999 999999 999999 999999 999999 999999 999999 999999 999999 999999 999999 999999 999999 999999 999999 999999 999999 999999 999999 999999 999999 999999 999999 999999 999999 999999 999999 999999 999999 999999 999999 999999 999999 999999 999999 999999 999999 999999 999999 999999 999999 999999 999999 999999 999999 999999 999999 999999 999999 999999 999999 999999 999999 999999 999999 999999 999999 999999 999999 999999 999999 999999 999999 999999 999999 999999 999999 999999 999999 999999 999999 999999 999999 999999 999999 999999 999999 999999 999999 999999 999999 999999 999999 999999 999999 999999 999999 999999 999999 999999 999999 999999 999999 999999 999999 999999 999999 999999 999999 999999 999999 999999 999999 999999 999999 999999 999999 0 999999 999999 999999 999999 999999 999999 999999 999999 999999 999999 999999 999999 999999 999999 999999 999999 999999 999999 999999 999999 999999 999999 999999 999999 999999 999999 999999 999999 999999 999999 999999 999999 999999 999999 999999 999999 999999 999999 999999 999999 999999 999999 9431
999999 16997 10638 15888 15414 16311 19912 16621 11147 13787 19975 12395 12016 12611 10550 12570 15189 16285 16750 11967 19067 14491 16251 16693 19984 17130 12266 17838 19990 19784 11014 18315 13890 12386 17227 15226 13321 10106 14180 17177 16779 15187 11050 17994 13003 16193 12105 16935 18327 10039 12369 16208 11713 18954 11863 16699 14332 16070 10912 15679 19695 11120 10298 15105 10581 16782 14557 19680 15968 14635 17889 12451 17686 16929 16888 19298 15686 18771 13937 14860 11787 12700 11744 19892 11278 16870 18086 16546 19880 12628 11270 19679 11948 19065 19440 19523 18200 18739 17993 12398 16604 17359 10389 14565 11674 18322 11774 19987 19720 13020 16085 14990 10277 19841 12840 11155 16460 14080 14295 19868 14568 11029 12650 18088 14340 17438 19506 13580 18903 13147 14661 10163 10040 11292 15203 11885 12904 10128 17782 13286 15203 17204 10632 11145 13259 13839 13847 15296 18741 17549 10929 14837 15361 13373 12988 15731 12323 14479 14693 11140 10911 999999 999999 999999 999999 999999 999999 999999 999999 999999 999999 999999 999999 999999 999999 999999 999999 999999 999999 999999 999999 999999 999999 999999 999999 999999 999999 999999 999999 999999 999999 999999 999999 999999 999999 999999 999999 999999 999999 999999 999999 999999 999999 999999 999999 999999 999999 999999 999999 999999 999999 999999 999999 999999 999999 999999 999999 999999 999999 999999 999999 999999 999999 999999 999999 999999 999999 999999 999999 999999 999999 999999 999999 999999 999999 999999 999999 999999 999999 999999 999999 999999 999999 999999 999999 999999 999999 999999 999999 999999 999999 999999 999999 999999 999999 999999 999999 999999 999999 999999 999999 999999 999999 999999 999999 999999 999999 999999 999999 999999 999999 999999 999999 999999 999999 999999 999999 999999 999999 0 999999 999999 999999 999999 999999 999999 999999 999999 999999 999999 999999 999999 999999 999999 999999 999999 999999 999999 999999 999999 999999 999999 999999 999999 999999 999999 999999 999999 999999 999999 999999 999999 999999 999999 999999 999999 999999 999999 999999 999999 999999 7890
999999 11523 19017 16390 13039 11995 14925 17187 18248 16773 19699 11151 11643 17483 15235 16676 14693 10526 14957 14504 12127 11569 18707 10345 12349 16857 10880 14772 19110 19156 13605 18191 13384 18289 16772 18376 14402 13637 16266 16944 15963 13259 14936 14959 14363 10288 19960 14813 19918 11597 11862 15135 17486 19324 16342 12823 14184 17558 17224 19874 12934 14196 10203 11076 19952 13853 19126 19175 15779 10318 11897 17075 14284 10126 10591 17850 15227 15621 13761 14367 16652 11888 14924 10542 18476 16288 11211 19016 15978 17432 15838 11358 12518 16209 10317 13731 14225 15763 15246 13159 15681 18088 12595 11917 16976 17087 15628 12442 11016 11090 17894 19636 12562 18654 18220 15660 16780 16076 15336 13090 19043 19660 12013 12134 17988 15417 12682 19068 12508 14729 16903 11961 13140 12573 15605 14079 19270 17639 16806 12468 10166 18028 17127 12212 17183 10046 13229 10576 13025 17243 18348 13444 15479 17222 16069 14238 16324 13679 19050 18858 16866 999999 999999 999999 999999 999999 999999 999999 999999 999999 999999 999999 999999 999999 999999 999999 999999 999999 999999 999999 999999 999999 999999 999999 999999 999999 999999 999999 999999 999999 999999 999999 999999 999999 999999 999999 999999 999999 999999 999999 999999 999999 999999 999999 999999 999999 999999 999999 999999 999999 999999 999999 999999 999999 999999 999999 999999 999999 999999 999999 999999 999999 999999 999999 999999 999999 999999 999999 999999 999999 999999 999999 999999 999999 999999 999999 999999 999999 999999 999999 999999 999999 999999 999999 999999 999999 999999 999999 999999 999999 999999 999999 999999 999999 999999 999999 999999 999999 999999 999999 999999 999999 999999 999999 999999 999999 999999 999999 999999 999999 999999 999999 999999 999999 999999 999999 999999 999999 999999 999999 0 999999 999999 999999 999999 999999 999999 999999 999999 999999 999999 999999 999999 999999 999999 999999 999999 999999 999999 999999 999999 999999 999999 999999 999999 999999 999999 999999 999999 999999 999999 999999 999999 999999 999999 999999 999999 999999 999999 999999 999999 10881
999999 14845 13456 14944 18386 12525 15249 19705 18561 16290 18312 11761 11566 10983 11625 19097 19739 16492 11384 17099 10447 13253 11275 15564 11742 14159 10448 12152 18034 12634 12682 10217 11039 15397 11508 11438 14409 16559 13528 18798 16542 11471 18149 10878 11514 19428 14867 19746 17007 10772 11784 17063 10212 18619 19868 13031 14368 19659 13765 17246 10051 18218 15525 17506 18722 17674 19742 12885 12009 13766 19821 19944 17894 18446 14831 16699 19870 18146 17638 13610 13217 10586 13440 15905 18871 15053 15186 15122 10535 17172 19993 15849 16590 14481 13663 16829 16854 11846 10831 10469 10831 17648 11021 16350 17966 18507 18550 13617 10438 12756 12453 18342 16853 13894 10471 18404 10950 17104 11748 12477 14446 19557 13840 13804 12290 12495 14553 10635 12582 18436 12889 13472 16816 15798 15555 15022 14899 16722 14047 17613 11634 16737 17084 16872 11788 13045 15227 14228 19587 16303 15733 18887 15585 11662 19006 12815 11886 10017 16341 10649 18532 999999 999999 999999 999999 999999 999999 999999 999999 999999 999999 999999 999999 999999 999999 999999 999999 999999 999999 999999 999999 999999 999999 999999 999999 999999 999999 999999 999999 999999 999999 999999 999999 999999 999999 999999 999999 999999 999999 999999 999999 999999 999999 999999 999999 999999 999999 999999 999999 999999 999999 999999 999999 999999 999999 999999 999999 999999 999999 999999 999999 999999 999999 999999 999999 999999 999999 999999 999999 999999 999999 999999 999999 999999 999999 999999 999999 999999 999999 999999 999999 999999 999999 999999 999999 999999 999999 999999 999999 999999 999999 999999 999999 999999 999999 999999 999999 999999 999999 999999 999999 999999 999999 999999 999999 999999 999999 999999 999999 999999 999999 999999 999999 999999 999999 999999 999999 999999 999999 999999 999999 0 999999 999999 999999 999999 999999 999999 999999 999999 999999 999999 999999 999999 999999 999999 999999 999999 999999 999999 999999 999999 999999 999999 999999 999999 999999 999999 999999 999999 999999 999999 999999 999999 999999 999999 999999 999999 999999 999999 999999 8007
999999 14947 17345 17175 10816 17204 15364 19364 13254 14161 15516 13657 17980 16721 18680 14026 19660 13723 11190 16004 17728 17006 17018 10492 13364 10283 14925 13157 13966 14632 15069 13119 19247 13692 13179 16623 14327 14169 11824 17034 11351 17138 10590 13025 14861 17195 10748 13275 17705 12561 11350 17884 11152 10028 11740 19438 16241 15324 12702 16451 18006 10272 10608 18136 11487 14345 17752 18259 10157 14606 11275 13612 14327 15991 12882 11795 12367 18178 16670 15506 18466 11953 19334 19565 10137 18435 19176 14731 12754 10771 15285 12876 15027 18288 18897 17835 18402 16568 13146 18719 10873 15365 10172 15519 11157 19185 13344 17799 15734 17224 13192 17369 19948 13007 12871 13904 18649 12449 13365 16491 18807 12677 17493 16338 18823 11756 16423 12298 12931 17139 14498 19146 19526 15162 16810 16402 10359 15614 19066 14641 11740 16912 13195 12534 17530 17811 11393 17091 10124 17611 16535 18119 14086 16361 18705 14525 10843 14510 11721 13673 16899 999999 999999 999999 999999 999999 999999 999999 999999 999999 999999 999999 999999 999999 999999 999999 999999 999999 999999 999999 999999 999999 999999 999999 999999 999999 999999 999999 999999 999999 999999 999999 999999 999999 999999 999999 999999 999999 999999 999999 999999 999999 999999 999999 999999 999999 999999 999999 999999 999999 999999 999999 999999 999999 999999 999999 999999 999999 999999 999999 999999 999999 999999 999999 999999 999999 999999 999999 999999 999999 999999 999999 999999 999999 999999 999999 999999 999999 999999 999999 999999 999999 999999 999999 999999 999999 999999 999999 999999 999999 999999 999999 999999 999999 999999 999999 999999 999999 999999 999999 999999 999999 999999 999999 999999 999999 999999 999999 999999 999999 999999 999999 999999 999999 999999 999999 999999 999999 999999 999999 999999 999999 0 999999 999999 999999 999999 999999 999999 999999 999999 999999 999999 999999 999999 999999 999999 999999 999999 999999 999999 999999 999999 999999 999999 999999 999999 999999 999999 999999 999999 999999 999999 999999 999999 999999 999999 999999 999999 999999 999999 5051
999999 18992 16392 18075 19957 17273 11396 14112 12210 12953 10777 13733 15741 10472 10305 12354 12055 12514 16796 17038 18416 11410 10479 13587 12593 14936 14900 12832 12419 11924 12555 17132 16770 12091 19308 19022 10702 19985 14033 12570 15510 19590 15658 17572 13596 15831 11070 10237 19057 10485 12802 10384 10895 17591 11238 14531 19614 14696 10284 10359 13828 11046 10123 17787 18988 17529 16047 15758 11113 16474 17011 13075 12523 18910 10678 16952 19408 10812 18534 19446 12187 17422 13212 19177 10579 19213 14420 16511 16124 12964 16583 19504 18537 13066 10060 18284 10648 17383 17600 14302 12101 10236 14137 14472 16868 13530 12562 16593 12231 11189 15886 15943 14176 10613 10416 10215 16529 12012 11917 12893 14546 11283 10713 18550 15872 17977 18281 10795 18746 18405 14276 15940 10031 19142 16861 10906 10167 18218 15820 13042 15070 17207 19018 14021 19091 12610 15184 16204 19424 12087 19854 14193 15313 12353 13484 14471 19068 17695 15914 15304 14374 999999 999999 999999 999999 999999 999999 999999 999999 999999 999999 999999 999999 999999 999999 999999 999999 999999 999999 999999 999999 999999 999999 999999 999999 999999 999999 999999 999999 999999 999999 999999 999999 999999 999999 999999 999999 999999 999999 999999 999999 999999 999999 999999 999999 999999 999999 999999 999999 999999 999999 999999 999999 999999 999999 999999 999999 999999 999999 999999 999999 999999 999999 999999 999999 999999 999999 999999 999999 999999 999999 999999 999999 999999 999999 999999 999999 999999 999999 999999 999999 999999 999999 999999 999999 999999 999999 999999 999999 999999 999999 999999 999999 999999 999999 999999 999999 999999 999999 999999 999999 999999 999999 999999 999999 999999 999999 999999 999999 999999 999999 999999 999999 999999 999999 999999 999999 999999 999999 999999 999999 999999 999999 0 999999 999999 999999 999999 999999 999999 999999 999999 999999 999999 999999 999999 999999 999999 999999 999999 999999 999999 999999 999999 999999 999999 999999 999999 999999 999999 999999 999999 999999 999999 999999 999999 999999 999999 999999 999999 999999 6216
999999 19070 14452 18078 12952 11097 13943 12958 12750 16582 10765 10310 16457 18910 13708 17427 14514 13356 18709 15992 18143 18501 18156 10105 19365 16229 13720 17522 12625 18269 10302 16063 17384 19766 18015 16376 11127 15919 12209 16117 13332 14373 19620 17908 13406 19673 11296 12515 15736 10822 10751 17449 15324 19103 11755 16703 17406 11439 11326 13645 10753 18031 15596 15986 13100 14175 12107 15424 18078 15084 11177 14664 13273 11730 19054 11720 10550 15480 16470 17829 12765 16574 18354 12574 12182 18202 19439 19353 17049 14979 11219 18565 18170 13095 16614 18290 18509 15229 13478 13734 19511 11014 15330 12505 10689 16162 15118 11916 11130 12217 13451 14948 16083 15062 15951 16580 11214 10647 10025 11701 19931 10191 14939 14575 19677 13197 18023 19080 10404 13119 16664 19874 13998 15732 15722 18898 18462 10177 15737 15197 19846 13074 11704 10520 13680 12271 14111 15778 15704 10240 11546 18290 12834 19766 12594 10068 19389 17606 13369 16229 19180 999999 999999 999999 999999 999999 999999 999999 999999 999999 999999 999999 999999 999999 999999 999999 999999 999999 999999 999999 999999 999999 999999 999999 999999 999999 999999 999999 999999 999999 999999 999999 999999 999999 999999 999999 999999 999999 999999 999999 999999 999999 999999 999999 999999 999999 999999 999999 999999 999999 999999 999999 999999 999999 999999 999999 999999 999999 999999 999999 999999 999999 999999 999999 999999 999999 999999 999999 999999 999999 999999 999999 999999 999999 999999 999999 999999 999999 999999 999999 999999 999999 999999 999999 999999 999999 999999 999999 999999 999999 999999 999999 999999 999999 999999 999999 999999 999999 999999 999999 999999 999999 999999 999999 999999 999999 999999 999999 999999 999999 999999 999999 999999 999999 999999 999999 999999 999999 999999 999999 999999 999999 999999 999999 0 999999 999999 999999 999999 999999 999999 999999 999999 999999 999999 999999 999999 999999 999999 999999 999999 999999 999999 999999 999999 999999 999999 999999 999999 999999 999999 999999 999999 999999 999999 999999 999999 999999 999999 999999 999999 8936
999999 16012 13131 15935 11746 14398 10270 15531 11608 10931 17744 12187 19949 10064 19341 14275 16453 11038 19225 15381 16624 17629 19588 13340 15980 17227 15381 17188 14086 15872 11731 10489 12973 12904 11098 14964 13420 13124 19202 14272 18737 12522 17189 14992 15228 14804 12472 10909 16115 15127 15827 18485 15783 12656 15018 13144 12046 13309 15931 18342 18718 12981 13145 14678 19338 11431 11829 11486 18695 19171 13858 11962 12376 17942 16269 17101 19943 14953 12494 16895 13982 18493 18816 17858 14200 15274 15568 16009 18026 10329 10014 16539 15424 18894 11556 18789 17936 10337 13728 16882 15159 15430 10334 12594 12070 17487 19715 16970 14111 13875 18999 12784 16594 11975 16647 15422 17007 15497 12941 17316 19249 10299 18798 14546 16198 11599 14131 13089 14836 11823 15678 12673 10427 17076 16420 14954 11214 10653 11221 18875 14151 11897 10265 14663 17850 10102 12728 18330 11490 11966 19863 10147 19992 15602 17715 12385 15919 16091 11378 14051 13833 999999 999999 999999 999999 999999 999999 999999 999999 999999 999999 999999 999999 999999 999999 999999 999999 999999 999999 999999 999999 999999 999999 999999 999999 999999 999999 999999 999999 999999 999999 999999 999999 999999 999999 999999 999999 999999 999999 999999 999999 999999 999999 999999 999999 999999 999999 999999 999999 999999 999999 999999 999999 999999 999999 999999 999999 999999 999999 999999 999999 999999 999999 999999 999999 999999 999999 999999 999999 999999 999999 999999 999999 999999 999999 999999 999999 999999 999999 999999 999999 999999 999999 999999 999999 999999 999999 999999 999999 999999 999999 999999 999999 999999 999999 999999 999999 999999 999999 999999 999999 999999 999999 999999 999999 999999 999999 999999 999999 999999 999999 999999 999999 999999 999999 999999 999999 999999 999999 999999 999999 999999 999999 999999 999999 0 999999 999999 999999 999999 999999 999999 999999 999999 999999 999999 999999 999999 999999 999999 999999 999999 999999 999999 999999 999999 999999 999999 999999 999999 999999 999999 999999 999999 999999 999999 999999 999999 999999 999999 999999 9515
999999 16184 15342 11543 10624 18421 16391 17383 11515 11169 19271 14751 18556 17718 15465 16455 10939 15413 16409 15249 17514 15908 16354 17233 12238 10917 18069 16703 10205 15657 14090 15038 19719 14033 16255 14628 11637 19367 14212 16667 18859 13596 14837 13693 16790 12880 11260 17167 15240 19785 19369 12661 14801 14591 14984 16741 17249 12673 16107 11004 16712 16716 16485 11575 10398 14236 16645 13900 16910 12311 19145 10637 16943 14334 17939 19673 10410 11142 12352 18790 15121 19076 18332 19775 12520 11761 14628 19975 10330 13257 12292 13149 16228 19314 13640 18294 14737 15489 17714 11096 18213 17366 12808 14346 13345 16591 15213 17451 17623 10846 10776 18292 16841 12613 10877 12902 19552 17286 11441 19696 19795 11006 15634 17799 12584 10115 16107 12155 12328 15014 10934 10490 12694 15763 13154 12854 11987 12553 13334 10462 18295 10862 17522 13011 14822 13772 11016 17835 18054 15489 18365 13450 16405 10341 18656 15529 11545 17824 18086 16858 14516 999999 999999 999999 999999 999999 999999 999999 999999 999999 999999 999999 999999 999999 999999 999999 999999 999999 999999 999999 999999 999999 999999 999999 999999 999999 999999 999999 999999 999999 999999 999999 999999 999999 999999 999999 999999 999999 999999 999999 999999 999999 999999 999999 999999 999999 999999 999999 999999 999999 999999 999999 999999 999999 999999 999999 999999 999999 999999 999999 999999 999999 999999 999999 999999 999999 999999 999999 999999 999999 999999 999999 999999 999999 999999 999999 999999 999999 999999 999999 999999 999999 999999 999999 999999 999999 999999 999999 999999 999999 999999 999999 999999 999999 999999 999999 999999 999999 999999 999999 999999 999999 999999 999999 999999 999999 999999 999999 999999 999999 999999 999999 999999 999999 999999 999999 999999 999999 999999 999999 999999 999999 999999 999999 999999 999999 0 999999 999999 999999 999999 999999 999999 999999 999999 999999 999999 999999 999999 999999 999999 999999 999999 999999 999999 999999 999999 999999 999999 999999 999999 999999 999999 999999 999999 999999 999999 999999 999999 999999 999999 6231
999999 18161 10943 17950 18860 13046 15219 11809 10787 13768 15478 11031 14256 19753 12302 18945 16342 13197 14419 19222 15853 16380 15203 15776 16050 18922 15954 18011 16144 19762 18115 18982 18611 10362 15881 18031 14970 12373 19289 13000 19868 18141 16575 15191 16408 17055 13203 14204 18429 15412 13169 19650 13717 19818 15740 17951 12803 14902 17243 16504 11101 14709 14623 18551 16307 14603 12240 13444 11503 19671 15260 15900 13044 12119 14256 10935 13329 12377 17428 17526 15677 18807 13359 15683 15986 17040 11413 10202 13198 14107 11132 16894 13595 14107 13877 15704 13771 12385 14226 16226 17464 18253 10167 12071 13267 12569 18582 11787 14533 11398 19269 18637 15169 18784 17867 14968 10881 18993 12897 19829 11085 12752 11255 14779 19346 18904 19668 10465 18157 14330 14931 16476 12003 18205 12723 14241 16622 10707 15768 16922 12650 10787 15452 15325 19898 10456 16980 18737 11347 12249 16019 19483 12054 19937 17763 11690 17782 13858 18838 11445 18025 999999 999999 999999 999999 999999 999999 999999 999999 999999 999999 999999 999999 999999 999999 999999 999999 999999 999999 999999 999999 999999 999999 999999 999999 999999 999999 999999 999999 999999 999999 999999 999999 999999 999999 999999 999999 999999 999999 999999 999999 999999 999999 999999 999999 999999 999999 999999 999999 999999 999999 999999 999999 999999 999999 999999 999999 999999 999999 999999 999999 999999 999999 999999 999999 999999 999999 999999 999999 999999 999999 999999 999999 999999 999999 999999 999999 999999 999999 999999 999999 999999 999999 999999 999999 999999 999999 999999 999999 999999 999999 999999 999999 999999 999999 999999 999999 999999 999999 999999 999999 999999 999999 999999 999999 999999 999999 999999 999999 999999 999999 999999 999999 999999 999999 999999 999999 999999 999999 999999 999999 999999 999999 999999 999999 999999 999999 0 999999 999999 999999 999999 999999 999999 999999 999999 999999 999999 999999 999999 999999 999999 999999 999999 999999 999999 999999 999999 999999 999999 999999 999999 999999 999999 999999 999999 999999 999999 999999 999999 999999 12970
999999 10318 14596 16446 16576 19986 11650 17759 16377 14155 16092 12945 12676 10742 13784 14535 16794 16306 14300 16554 10786 17738 10301 10598 13175 14071 12089 10618 19832 11822 13283 12772 18621 12159 18740 13235 15566 15827 12737 16346 13139 17789 14469 17780 19431 15295 14426 19893 15201 12836 12897 15058 15720 11204 10492 13572 11752 10040 15879 10305 16852 12436 17344 18422 16963 17297 17227 15739 13487 16604 10015 13242 10174 18817 18697 18519 14753 18263 15943 12948 14916 12256 14943 15101 14410 13408 19588 11711 13300 18675 13761 18929 13914 17909 18544 14890 14977 16589 17045 13308 19827 17827 18599 17405 19769 13457 10337 15194 11739 11181 11197 16290 15446 17316 15503 13089 16505 15603 18945 13085 10088 10436 19680 17675 18689 15390 19409 14110 19513 15821 12582 12631 18788 16002 11760 18538 10270 14442 11264 14833 14841 17440 14579 14985 19145 19120 17732 11250 15636 16000 19870 17003 19865 15865 15833 13216 10110 18898 18778 10872 10905 999999 999999 999999 999999 999999 999999 999999 999999 999999 999999 999999 999999 999999 999999 999999 999999 999999 999999 999999 999999 999999 999999 999999 999999 999999 999999 999999 999999 999999 999999 999999 999999 999999 999999 999999 999999 999999 999999 999999 999999 999999 999999 999999 999999 999999 999999 999999 999999 999999 999999 999999 999999 999999 999999 999999 999999 999999 999999 999999 999999 999999 999999 999999 999999 999999 999999 999999 999999 999999 999999 999999 999999 999999 999999 999999 999999 999999 999999 999999 999999 999999 999999 999999 999999 999999 999999 999999 999999 999999 999999 999999 999999 999999 999999 999999 999999 999999 999999 999999 999999 999999 999999 999999 999999 999999 999999 999999 999999 999999 999999 999999 999999 999999 999999 999999 999999 999999 999999 999999 999999 999999 999999 999999 999999 999999 999999 999999 0 999999 999999 999999 999999 999999 999999 999999 999999 999999 999999 999999 999999 999999 999999 999999 999999 999999 999999 999999 999999 999999 999999 999999 999999 999999 999999 999999 999999 999999 999999 999999 999999 8289
999999 19034 18484 19723 11126 19205 10185 10089 15757 11256 15061 13411 16902 11633 12229 18815 18936 11347 19363 12721 18462 17380 13480 14698 14525 13644 18901 10026 12473 15367 13605 12426 16342 12465 10022 13978 13918 19958 18356 13265 15589 14169 19983 19324 10902 12109 15325 15878 19810 15968 16237 15179 14073 15173 16146 15633 13607 10137 12933 11923 16666 17198 14644 10384 10822 16511 10559 14001 11104 17922 18758 12581 19559 15374 11463 14260 17456 19978 15865 11927 14130 16380 17145 15561 19104 14440 14422 12027 19798 19608 14913 15940 18836 18521 11889 11636 18931 19659 16751 12953 12687 13538 10995 15390 15700 10061 14374 11414 16455 18491 13523 18105 13264 11715 19548 12598 12528 14188 14294 17951 19158 12367 13821 10285 10584 17155 15785 13793 12365 16736 11459 11070 11687 10683 11611 12504 13138 10976 18272 13536 16152 17179 11033 18652 12361 14710 15793 14201 10779 11636 12545 14069 10940 15606 15373 12828 17285 12114 12226 18978 18634 999999 999999 999999 999999 999999 999999 999999 999999 999999 999999 999999 999999 999999 999999 999999 999999 999999 999999 999999 999999 999999 999999 999999 999999 999999 999999 999999 999999 999999 999999 999999 999999 999999 999999 999999 999999 999999 999999 999999 999999 999999 999999 999999 999999 999999 999999 999999 999999 999999 999999 999999 999999 999999 999999 999999 999999 999999 999999 999999 999999 999999 999999 999999 999999 999999 999999 999999 999999 999999 999999 999999 999999 999999 999999 999999 999999 999999 999999 999999 999999 999999 999999 999999 999999 999999 999999 999999 999999 999999 999999 999999 999999 999999 999999 999999 999999 999999 999999 999999 999999 999999 999999 999999 999999 999999 999999 999999 999999 999999 999999 999999 999999 999999 999999 999999 999999 999999 999999 999999 999999 999999 999999 999999 999999 999999 999999 999999 999999 0 999999 999999 999999 999999 999999 999999 999999 999999 999999 999999 999999 999999 999999 999999 999999 999999 999999 999999 999999 999999 999999 999999 999999 999999 999999 999999 999999 999999 999999 999999 999999 9924
999999 18133 18728 16400 15877 17869 14331 19122 19001 17091 12232 10084 17363 19357 14321 19071 15364 12193 15190 12123 14626 15459 18500 11327 13964 13329 15902 11252 19744 10410 14064 15898 12198 13435 13837 19502 17494 16863 15114 15438 12931 13536 15229 10949 19667 11615 15433 18125 19927 17392 10630 17558 10561 18632 16425 13766 19262 16427 10300 18647 18280 10336 19241 18870 15159 13656 11770 15767 13437 19096 17924 10857 16170 13644 16732 18876 16488 18243 11643 15489 12427 19474 14520 19096 10875 14640 15188 15716 16416 17710 11078 14624 16880 11794 15814 19385 14703 15019 11026 17323 15246 14999 13904 15122 17177 14712 18510 19857 19919 19049 13522 15000 13098 18259 12610 17881 15678 14970 12076 18058 17474 19830 14408 16072 10843 10365 17837 16611 14290 16657 13433 11696 18808 15708 13312 16427 10243 10111 11618 11666 19602 14383 10907 19930 12668 17169 18675 11046 12037 14859 18634 16163 13481 13052 11085 11482 12966 10687 12247 10430 19353 999999 999999 999999 999999 999999 999999 999999 999999 999999 999999 999999 999999 999999 999999 999999 999999 999999 999999 999999 999999 999999 999999 999999 999999 999999 999999 999999 999999 999999 999999 999999 999999 999999 999999 999999 999999 999999 999999 999999 999999 999999 999999 999999 999999 999999 999999 999999 999999 999999 999999 999999 999999 999999 999999 999999 999999 999999 999999 999999 999999 999999 999999 999999 999999 999999 999999 999999 999999 999999 999999 999999 999999 999999 999999 999999 999999 999999 999999 999999 999999 999999 999999 999999 999999 999999 999999 999999 999999 999999 999999 999999 999999 999999 999999 999999 999999 999999 999999 999999 999999 999999 999999 999999 999999 999999 999999 999999 999999 999999 999999 999999 999999 999999 999999 999999 999999 999999 999999 999999 999999 999999 999999 999999 999999 999999 999999 999999 999999 999999 0 999999 999999 999999 999999 999999 999999 999999 999999 999999 999999 999999 999999 999999 999999 999999 999999 999999 999999 999999 999999 999999 999999 999999 999999 999999 999999 999999 999999 999999 999999 7500
999999 15547 11283 12189 11771 15130 11223 12224 19351 19136 17900 15832 19941 10344 13147 13616 18373 17325 11476 12184 10218 11816 19451 18710 15457 10622 11986 15823 19286 14420 16332 18967 11851 19290 19267 11965 17537 19168 14558 14113 11775 16295 18289 18583 14837 11457 11223 17747 19185 14694 14973 12746 13038 15960 19640 17859 12165 13977 14385 11681 10408 19898 16598 14244 15686 16072 19276 18916 10662 12997 19876 13676 17440 17838 10902 16225 18321 12403 17465 16438 10434 19858 15177 18155 18098 16606 12792 15213 12843 13538 16295 15695 14241 10132 14670 13581 15706 13914 18774 13121 10664 18749 17212 13860 10994 10545 15097 16619 11153 19059 14906 15230 14101 13303 16788 13117 10422 12265 14078 17743 12767 19901 13985 12048 11520 16166 16872 18802 12476 15615 16016 17666 14854 12772 19044 19032 13612 15372 19583 15147 18198 16561 11637 13115 10305 16884 12108 16303 11930 16691 11298 19032 14634 11936 15081 19306 12040 12296 16688 12704 12104 999999 999999 999999 999999 999999 999999 999999 999999 999999 999999 999999 999999 999999 999999 999999 999999 999999 999999 999999 999999 999999 999999 999999 999999 999999 999999 999999 999999 999999 999999 999999 999999 999999 999999 999999 999999 999999 999999 999999 999999 999999 999999 999999 999999 999999 999999 999999 999999 999999 999999 999999 999999 999999 999999 999999 999999 999999 999999 999999 999999 999999 999999 999999 999999 999999 999999 999999 999999 999999 999999 999999 999999 999999 999999 999999 999999 999999 999999 999999 999999 999999 999999 999999 999999 999999 999999 999999 999999 999999 999999 999999 999999 999999 999999 999999 999999 999999 999999 999999 999999 999999 999999 999999 999999 999999 999999 999999 999999 999999 999999 999999 999999 999999 999999 999999 999999 999999 999999 999999 999999 999999 999999 999999 999999 999999 999999 999999 999999 999999 999999 0 999999 999999 999999 999999 999999 999999 999999 999999 999999 999999 999999 999999 999999 999999 999999 999999 999999 999999 999999 999999 999999 999999 999999 999999 999999 999999 999999 999999 999999 14196
999999 12825 18009 17170 10165 18017 17773 14546 11312 16208 11415 16436 17739 12219 13324 13069 14917 19597 15470 15222 14866 19675 11676 12002 16180 15958 12847 10523 19338 14413 10819 19296 14056 14081 13501 13956 10146 15601 10540 16679 11680 16790 17475 17516 13434 13425 17816 19816 15618 12677 14568 15148 19277 17490 17287 16807 11805 13321 14660 12555 19051 14743 15730 19265 14765 12162 17389 19777 11061 13862 16703 10992 19748 10266 18853 14806 13455 13657 12781 11907 15115 14978 14176 16163 19514 10912 12808 19343 14918 15109 17782 16734 19681 11567 15779 15954 14554 17494 13395 18897 19196 18378 18483 15707 17587 17092 11581 19047 11694 17544 19356 11264 10404 17487 15116 10152 19880 19314 11849 11883 14247 18121 11246 16512 16464 11092 14659 18445 19193 19445 11237 16049 12503 16902 15713 13943 11548 17047 10750 13435 12456 10879 19857 13600 19709 10093 12733 19588 11452 14755 13150 15405 18634 15973 11492 16021 19312 15317 15111 11191 16100 999999 999999 999999 999999 999999 999999 999999 999999 999999 999999 999999 999999 999999 999999 999999 999999 999999 999999 999999 999999 999999 999999 999999 999999 999999 999999 999999 999999 999999 999999 999999 999999 999999 999999 999999 999999 999999 999999 999999 999999 999999 999999 999999 999999 999999 999999 999999 999999 999999 999999 999999 999999 999999 999999 999999 999999 999999 999999 999999 999999 999999 999999 999999 999999 999999 999999 999999 999999 999999 999999 999999 999999 999999 999999 999999 999999 999999 999999 999999 999999 999999 999999 999999 999999 999999 999999 999999 999999 999999 999999 999999 999999 999999 999999 999999 999999 999999 999999 999999 999999 999999 999999 999999 999999 999999 999999 999999 999999 999999 999999 999999 999999 999999 999999 999999 999999 999999 999999 999999 999999 999999 999999 999999 999999 999999 999999 999999 999999 999999 999999 999999 0 999999 999999 999999 999999 999999 999999 999999 999999 999999 999999 999999 999999 999999 999999 999999 999999 999999 999999 999999 999999 999999 999999 999999 999999 999999 999999 999999 999999 11715
999999 15327 18108 19184 14912 10956 18809 19597 13193 16250 18048 16057 12433 14480 18017 17191 12570 17353 13178 10191 16936 17506 17409 12790 11345 16465 14256 15667 18770 11095 16336 14897 18914 15305 15473 17824 16290 13458 18443 15996 15242 10259 18210 12551 14784 16405 15638 17565 15448 11521 12996 14239 14710 14076 17035 11531 15504 14956 16230 10974 16753 14153 19735 13866 17117 12261 19992 12281 10737 19550 10724 12865 10513 19699 14835 12512 11016 13395 12818 14277 17264 12648 14425 18977 12886 12671 19456 17000 18932 15258 10804 13768 13053 13026 14864 19756 18078 10158 17517 19521 10668 17549 16698 16766 12878 18331 16096 12548 12177 19123 10538 17248 12797 11232 12461 17358 19061 13718 12435 14692 15390 10604 14420 13833 11129 10487 11344 10771 12892 15053 13898 13332 18123 18555 14063 14803 18551 17291 18222 14083 10625 11862 15637 13390 19165 17873 17179 17678 17902 10746 14880 13303 18290 16251 16713 15245 16228 11318 11358 12522 19499 999999 999999 999999 999999 999999 999999 999999 999999 999999 999999 999999 999999 999999 999999 999999 999999 999999 999999 999999 999999 999999 999999 999999 999999 999999 999999 999999 999999 999999 999999 999999 999999 999999 999999 999999 999999 999999 999999 999999 999999 999999 999999 999999 999999 999999 999999 999999 999999 999999 999999 999999 999999 999999 999999 999999 999999 999999 999999 999999 999999 999999 999999 999999 999999 999999 999999 999999 999999 999999 999999 999999 999999 999999 999999 999999 999999 999999 999999 999999 999999 999999 999999 999999 999999 999999 999999 999999 999999 999999 999999 999999 999999 999999 999999 999999 999999 999999 999999 999999 999999 999999 999999 999999 999999 999999 999999 999999 999999 999999 999999 999999 999999 999999 999999 999999 999999 999999 999999 999999 999999 999999 999999 999999 999999 999999 999999 999999 999999 999999 999999 999999 999999 0 999999 999999 999999 999999 999999 999999 999999 999999 999999 999999 999999 999999 999999 999999 999999 999999 999999 999999 999999 999999 999999 999999 999999 999999 999999 999999 999999 12300
999999 10601 11951 11827 11650 13539 14371 16088 16675 11498 14285 18489 15946 10069 16149 11212 15565 18783 16811 19148 14287 10621 10196 13283 10027 11437 15353 14993 16863 13425 15711 13846 10028 11090 16088 15489 17861 12778 15549 10142 14899 10861 19556 19644 15562 16426 13082 18030 15318 15146 18540 13179 10046 16259 16188 12094 13276 16418 10517 11949 13536 15312 11321 13970 11855 12502 19673 12163 10707 13444 14780 16398 11293 16882 17826 10037 15613 15832 19343 14568 10132 15536 16713 11386 15374 10381 18961 15593 15240 13645 14149 19788 15238 11668 14972 17890 15234 16765 16886 11265 13300 13773 19970 18783 14214 16717 14610 18234 13686 18026 17590 13869 16695 15188 19869 15540 11717 18154 12093 19820 10199 10178 17470 14936 14826 17433 19148 10407 15208 14630 11073 14786 13288 17361 18093 16409 11512 13433 18278 16289 12864 10246 14143 15089 17580 14903 18940 12794 16055 16374 10917 19309 10428 17853 15121 17921 13217 17226 10202 16777 11363 999999 999999 999999 999999 999999 999999 999999 999999 999999 999999 999999 999999 999999 999999 999999 999999 999999 999999 999999 999999 999999 999999 999999 999999 999999 999999 999999 999999 999999 999999 999999 999999 999999 999999 999999 999999 999999 999999 999999 999999 999999 999999 999999 999999 999999 999999 999999 999999 999999 999999 999999 999999 999999 999999 999999 999999 999999 999999 999999 999999 999999 999999 999999 999999 999999 999999 999999 999999 999999 999999 999999 999999 999999 999999 999999 999999 999999 999999 999999 999999 999999 999999 999999 999999 999999 999999 999999 999999 999999 999999 999999 999999 999999 999999 999999 999999 999999 999999 999999 999999 999999 999999 999999 999999 999999 999999 999999 999999 999999 999999 999999 999999 999999 999999 999999 999999 999999 999999 999999 999999 999999 999999 999999 999999 999999 999999 999999 999999 999999 999999 999999 999999 999999 0 999999 999999 999999 999999 999999 999999 999999 999999 999999 999999 999999 999999 999999 999999 999999 999999 999999 999999 999999 999999 999999 999999 999999 999999 999999 999999 6175
999999 10080 17008 14951 12777 13187 12084 14291 11932 18558 15911 18002 18578 13659 15120 13693 13863 12037 14157 18875 19023 12978 12880 18472 13929 14170 12973 15679 14697 17882 19989 14846 11031 16104 11414 11195 12566 10584 12773 10236 19493 18146 16144 11942 18910 17681 17119 10795 16818 13162 10649 19202 18091 10225 14478 15726 12582 18382 14684 18912 13130 16339 19912 15698 17927 16692 17537 19531 14837 17131 16750 15643 15350 17951 19114 10596 13259 17161 13489 16709 15313 17606 17717 16003 18722 12201 13064 19551 12803 13442 16623 16234 15849 19295 14836 14832 15527 13971 13380 15434 13803 19125 11888 16672 10047 10652 10743 17003 14962 11624 16455 16613 19528 13121 19515 13221 14611 13574 10225 11412 14464 19311 17254 19128 11095 13185 10293 19878 12007 10625 19861 17529 16705 16402 11048 10642 10775 15092 14752 19291 11435 15471 19701 11133 15902 16258 19944 14484 13329 19927 19799 18631 14288 16439 10535 12002 14538 18873 19261 12450 12651 999999 999999 999999 999999 999999 999999 999999 999999 999999 999999 999999 999999 999999 999999 999999 999999 999999 999999 999999 999999 999999 999999 999999 999999 999999 999999 999999 999999 999999 999999 999999 999999 999999 999999 999999 999999 999999 999999 999999 999999 999999 999999 999999 999999 999999 999999 999999 999999 999999 999999 999999 999999 999999 999999 999999 999999 999999 999999 999999 999999 999999 999999 999999 999999 999999 999999 999999 999999 999999 999999 999999 999999 999999 999999 999999 999999 999999 999999 999999 999999 999999 999999 999999 999999 999999 999999 999999 999999 999999 999999 999999 999999 999999 999999 999999 999999 999999 999999 999999 999999 999999 999999 999999 999999 999999 999999 999999 999999 999999 999999 999999 999999 999999 999999 999999 999999 999999 999999 999999 999999 999999 999999 999999 999999 999999 999999 999999 999999 999999 999999 999999 999999 999999 999999 0 999999 999999 999999 999999 999999 999999 999999 999999 999999 999999 999999 999999 999999 999999 999999 999999 999999 999999 999999 999999 999999 999999 999999 999999 999999 6113
999999 19453 15062 19751 15677 17168 13409 18300 13564 14641 14819 17556 13573 17542 10771 13020 12726 15409 14516 12344 13786 16145 14256 18258 11537 16289 16558 16233 10603 16663 19924 19491 14695 10280 18179 16308 13261 19716 11200 16175 15452 18926 19966 14287 13359 11858 17682 18329 17650 13457 14566 18877 14455 12046 15465 13527 10210 13089 11797 17038 15969 17291 14270 16638 17639 19967 11100 14355 11678 19868 10371 17371 15519 13286 16498 16635 16238 13757 14921 18838 19861 19988 16989 16555 14160 17722 16703 10187 15390 17073 12017 15845 16446 12804 12994 19745 10812 12817 13709 14211 17791 10415 13671 19626 16273 10943 18482 11651 13561 15305 10354 17872 19155 13623 16293 17399 11752 17520 17012 17643 13739 19776 17242 14521 12151 18608 15092 14915 10732 19629 15045 15848 14345 13121 12209 18215 15041 17168 19143 11533 19627 12808 19378 11446 18225 15254 10605 18109 11323 13044 13557 15759 16326 18912 13832 17494 14356 15216 11756 19174 19730 999999 999999 999999 999999 999999 999999 999999 999999 999999 999999 999999 999999 999999 999999 999999 999999 999999 999999 999999 999999 999999 999999 999999 999999 999999 999999 999999 999999 999999 999999 999999 999999 999999 999999 999999 999999 999999 999999 999999 999999 999999 999999 999999 999999 999999 999999 999999 999999 999999 999999 999999 999999 999999 999999 999999 999999 999999 999999 999999 999999 999999 999999 999999 999999 999999 999999 999999 999999 999999 999999 999999 999999 999999 999999 999999 999999 999999 999999 999999 999999 999999 999999 999999 999999 999999 999999 999999 999999 999999 999999 999999 999999 999999 999999 999999 999999 999999 999999 999999 999999 999999 999999 999999 999999 999999 999999 999999 999999 999999 999999 999999 999999 999999 999999 999999 999999 999999 999999 999999 999999 999999 999999 999999 999999 999999 999999 999999 999999 999999 999999 999999 999999 999999 999999 999999 0 999999 999999 999999 999999 999999 999999 999999 999999 999999 999999 999999 999999 999999 999999 999999 999999 999999 999999 999999 999999 999999 999999 999999 999999 10579
999999 12475 15242 15578 10344 16977 16253 16684 12054 11062 11996 15842 19855 10734 18499 12417 16853 10464 11790 14053 11556 15043 10851 14028 11131 14599 17336 14578 18295 16759 17041 17096 13762 16211 15166 17343 19647 17957 11304 16065 15885 19718 18783 12693 15198 12565 14954 16008 17043 15227 19998 10058 16415 12272 13520 18071 18441 16944 14485 14841 16051 17359 15609 17801 14298 11335 19456 10262 18845 14109 18734 19091 15645 16010 19727 12973 15683 18737 15898 15389 11839 14596 13666 13669 11887 18183 13856 19895 15938 15328 10079 11453 14890 15532 14017 14811 17330 15903 19879 16062 12029 13458 19837 19136 13365 14300 10763 17532 12568 14403 19139 15331 12877 12011 10520 10052 16473 14329 16866 16896 15479 18216 16169 11719 12013 11004 13572 15339 14434 16409 12440 17183 13550 12545 19817 10625 15642 18513 11649 16199 12355 11195 12025 11872 16573 10531 19712 12525 14967 11753 14024 19397 12149 19045 11897 12033 15067 13716 18886 18463 16722 999999 999999 999999 999999 999999 999999 999999 999999 999999 999999 999999 999999 999999 999999 999999 999999 999999 999999 999999 999999 999999 999999 999999 999999 999999 999999 999999 999999 999999 999999 999999 999999 999999 999999 999999 999999 999999 999999 999999 999999 999999 999999 999999 999999 999999 999999 999999 999999 999999 999999 999999 999999 999999 999999 999999 999999 999999 999999 999999 999999 999999 999999 999999 999999 999999 999999 999999 999999 999999 999999 999999 999999 999999 999999 999999 999999 999999 999999 999999 999999 999999 999999 999999 999999 999999 999999 999999 999999 999999 999999 999999 999999 999999 999999 999999 999999 999999 999999 999999 999999 999999 999999 999999 999999 999999 999999 999999 999999 999999 999999 999999 999999 999999 999999 999999 999999 999999 999999 999999 999999 999999 999999 999999 999999 999999 999999 999999 999999 999999 999999 999999 999999 999999 999999 999999 999999 0 999999 999999 999999 999999 999999 999999 999999 999999 999999 999999 999999 999999 999999 999999 999999 999999 999999 999999 999999 999999 999999 999999 999999 14730
999999 17450 18165 18742 11188 19293 14063 12844 15716 10533 18086 16573 11681 14412 11776 12640 14369 17701 19641 18530 14129 18276 17691 13366 15217 17898 15624 10643 15708 13181 17502 12410 18035 18463 19436 12639 10451 17326 10135 13276 10704 17446 18733 17230 18663 12344 16556 13359 17465 15711 11157 17977 14160 16285 18475 17374 16405 10005 10051 19862 14973 19655 10146 19690 18703 10931 13031 12060 18654 15619 13790 19386 12144 13305 19904 17236 16745 18651 14724 10873 14497 12976 16590 15558 15973 19975 19298 14836 14156 15654 18332 14550 17037 12397 15661 12287 14367 19808 10205 16633 12645 15767 15871 13432 17234 18190 12471 15601 18326 19972 18518 13667 11732 16294 15113 15063 10165 10503 10050 10411 17094 17307 12274 17979 17814 12675 13287 17547 13950 10041 15246 17632 17130 13765 10146 12068 10788 18332 19659 11654 15248 18495 13706 10342 15986 16635 16244 10034 13608 15698 14537 16385 12188 16084 12473 13431 19910 18301 14541 19776 12171 999999 999999 999999 999999 999999 999999 999999 999999 999999 999999 999999 999999 999999 999999 999999 999999 999999 999999 999999 999999 999999 999999 999999 999999 999999 999999 999999 999999 999999 999999 999999 999999 999999 999999 999999 999999 999999 999999 999999 999999 999999 999999 999999 999999 999999 999999 999999 999999 999999 999999 999999 999999 999999 999999 999999 999999 999999 999999 999999 999999 999999 999999 999999 999999 999999 999999 999999 999999 999999 999999 999999 999999 999999 999999 999999 999999 999999 999999 999999 999999 999999 999999 999999 999999 999999 999999 999999 999999 999999 999999 999999 999999 999999 999999 999999 999999 999999 999999 999999 999999 999999 999999 999999 999999 999999 999999 999999 999999 999999 999999 999999 999999 999999 999999 999999 999999 999999 999999 999999 999999 999999 999999 999999 999999 999999 999999 999999 999999 999999 999999 999999 999999 999999 999999 999999 999999 999999 0 999999 999999 999999 999999 999999 999999 999999 999999 999999 999999 999999 999999 999999 999999 999999 999999 999999 999999 999999 999999 999999 999999 6555
999999 13152 16645 19242 12278 15516 19955 18684 18566 14843 10386 16892 18127 16226 11868 17756 12110 18134 10057 15820 11748 15572 16827 13392 19443 14048 14797 11472 17420 14663 14499 16839 13004 15174 13460 19860 14094 19408 12740 17216 17938 16685 17516 10728 10995 19255 16811 15291 19459 14617 16551 10975 13538 10498 19472 16820 15698 16413 12582 16742 16695 10438 19880 10247 17308 15475 18194 17219 13080 18648 11031 12222 18270 13237 12194 13411 13992 13074 19996 14624 17997 15075 18481 14354 13191 13599 13104 11955 19985 10706 10696 12970 11251 14927 19093 18735 16642 18318 14664 12420 13275 17534 19605 11804 13098 19758 17222 17176 19398 16139 12175 13632 10526 11768 15819 10921 12215 15977 11104 11721 14093 14986 12524 15701 12359 11320 14722 12162 16917 14162 11873 11781 12689 17984 12883 13991 14228 15237 13467 11362 19818 12930 17901 13836 10055 14095 18764 16258 13830 19996 14481 19810 13082 11557 18551 11194 19924 12859 10637 18155 12181 999999 999999 999999 999999 999999 999999 999999 999999 999999 999999 999999 999999 999999 999999 999999 999999 999999 999999 999999 999999 999999 999999 999999 999999 999999 999999 999999 999999 999999 999999 999999 999999 999999 999999 999999 999999 999999 999999 999999 999999 999999 999999 999999 999999 999999 999999 999999 999999 999999 999999 999999 999999 999999 999999 999999 999999 999999 999999 999999 999999 999999 999999 999999 999999 999999 999999 999999 999999 999999 999999 999999 999999 999999 999999 999999 999999 999999 999999 999999 999999 999999 999999 999999 999999 999999 999999 999999 999999 999999 999999 999999 999999 999999 999999 999999 999999 999999 999999 999999 999999 999999 999999 999999 999999 999999 999999 999999 999999 999999 999999 999999 999999 999999 999999 999999 999999 999999 999999 999999 999999 999999 999999 999999 999999 999999 999999 999999 999999 999999 999999 999999 999999 999999 999999 999999 999999 999999 999999 0 999999 999999 999999 999999 999999 999999 999999 999999 999999 999999 999999 999999 999999 999999 999999 999999 999999 999999 999999 999999 999999 7016
999999 10934 13436 11548 14071 13799 15554 10676 17835 12230 15842 11999 16641 12960 10296 15609 16627 10115 14777 18363 15911 10060 12159 14487 10274 13987 10348 13575 12659 13254 15913 15885 17692 11656 19473 16453 19308 10908 17712 11818 17320 12263 13939 15765 16820 18828 12575 11268 10559 14834 16802 10320 14581 15555 17913 17526 13899 14233 10955 10403 16187 17484 10362 10674 16587 13347 15179 12440 10193 11438 13944 13246 11210 15807 10403 18001 19097 14953 12350 12085 11506 11269 19383 16980 12060 13584 18654 13873 15344 17712 13380 15815 17630 17677 16058 10730 17391 13103 17055 15010 18233 17207 12726 11527 17623 13763 12333 17883 17514 12975 15159 14426 16547 10990 13219 16594 14070 17545 16498 10849 17906 14553 14114 11566 16960 19436 13481 12645 15206 18581 18966 12672 17631 17975 19918 12245 18755 10502 12889 11125 16111 11945 13764 12843 19972 11852 14454 10905 18385 15640 13352 10240 11170 11020 11788 18117 18208 18003 19787 19545 12696 999999 999999 999999 999999 999999 999999 999999 999999 999999 999999 999999 999999 999999 999999 999999 999999 999999 999999 999999 999999 999999 999999 999999 999999 999999 999999 999999 999999 999999 999999 999999 999999 999999 999999 999999 999999 999999 999999 999999 999999 999999 999999 999999 999999 999999 999999 999999 999999 999999 999999 999999 999999 999999 999999 999999 999999 999999 999999 999999 999999 999999 999999 999999 999999 999999 999999 999999 999999 999999 999999 999999 999999 999999 999999 999999 999999 999999 999999 999999 999999 999999 999999 999999 999999 999999 999999 999999 999999 999999 999999 999999 999999 999999 999999 999999 999999 999999 999999 999999 999999 999999 999999 999999 999999 999999 999999 999999 999999 999999 999999 999999 999999 999999 999999 999999 999999 999999 999999 999999 999999 999999 999999 999999 999999 999999 999999 999999 999999 999999 999999 999999 999999 999999 999999 999999 999999 999999 999999 999999 0 999999 999999 999999 999999 999999 999999 999999 999999 999999 999999 999999 999999 999999 999999 999999 999999 999999 999999 999999 999999 12009
999999 15866 11223 17009 13482 17826 16580 13561 15530 11849 16506 17752 10897 13149 18459 12917 14548 17888 10660 13357 19757 16455 17082 15376 10119 11675 14301 17266 18590 11550 10470 19417 15450 11740 19658 13074 18996 10305 17680 13499 15565 18561 19511 19586 14548 16257 10194 15194 15019 13400 16778 19312 10078 18845 15107 13754 14268 14511 10780 11230 12792 14841 14743 10437 10371 13935 18569 12787 16161 14167 11667 17189 19087 16460 15277 14322 16853 13273 10310 12501 13175 16365 10376 11291 13994 19636 13813 19225 14460 19795 12646 13136 18005 17618 11602 17313 15728 19154 12666 14712 18289 12678 19337 10269 14093 17223 17970 10658 19430 17190 15998 18118 17595 10058 14109 17769 11515 15830 12571 12713 12159 11286 13932 10300 14335 18991 14709 18766 13743 18401 16396 15764 14342 17676 12606 17990 14784 18167 12634 18096 12163 13057 13217 15192 11413 16524 18108 11907 18627 12239 16847 14185 10957 11849 17052 15526 13325 11614 12129 18639 16436 999999 999999 999999 999999 999999 999999 999999 999999 999999 999999 999999 999999 999999 999999 999999 999999 999999 999999 999999 999999 999999 999999 999999 999999 999999 999999 999999 999999 999999 999999 999999 999999 999999 999999 999999 999999 999999 999999 999999 999999 999999 999999 999999 999999 999999 999999 999999 999999 999999 999999 999999 999999 999999 999999 999999 999999 999999 999999 999999 999999 999999 999999 999999 999999 999999 999999 999999 999999 999999 999999 999999 999999 999999 999999 999999 999999 999999 999999 999999 999999 999999 999999 999999 999999 999999 999999 999999 999999 999999 999999 999999 999999 999999 999999 999999 999999 999999 999999 999999 999999 999999 999999 999999 999999 999999 999999 999999 999999 999999 999999 999999 999999 999999 999999 999999 999999 999999 999999 999999 999999 999999 999999 999999 999999 999999 999999 999999 999999 999999 999999 999999 999999 999999 999999 999999 999999 999999 999999 999999 999999 0 999999 999999 999999 999999 999999 999999 999999 999999 999999 999999 999999 999999 999999 999999 999999 999999 999999 999999 999999 13509
999999 18559 13200 16759 16141 17660 10821 14252 18975 17570 11631 10046 19353 19795 15056 18229 19578 18181 11545 10745 12370 14548 16317 18680 16435 19424 14722 10391 16209 19413 12462 12096 10557 17384 13421 13970 13465 12901 15387 11317 19326 17421 10451 17174 17552 18228 10861 17430 18161 11129 13165 15699 10376 19545 12025 14699 15946 19546 14105 16811 18237 17554 16968 10707 19763 16363 13540 11341 15894 17671 14711 14397 13921 14293 10598 10318 17595 13581 12773 17038 19423 13156 13819 19726 15333 11879 15906 10746 14134 18273 17563 18698 11700 17718 16368 14972 12059 13724 19859 19017 12544 16839 11666 10035 18176 12417 14253 18098 10209 17973 18464 11178 15265 11939 15898 15345 12734 12568 15103 12937 16752 14883 10525 19589 16511 10345 18091 16440 15368 16873 18934 10653 12601 12547 15769 19796 17005 18015 16991 18093 10735 16687 11754 11622 16809 12545 11863 18233 10369 10820 16068 16936 16146 16059 14636 19872 10902 19599 15400 17661 16012 999999 999999 999999 999999 999999 999999 999999 999999 999999 999999 999999 999999 999999 999999 999999 999999 999999 999999 999999 999999 999999 999999 999999 999999 999999 999999 999999 999999 999999 999999 999999 999999 999999 999999 999999 999999 999999 999999 999999 999999 999999 999999 999999 999999 999999 999999 999999 999999 999999 999999 999999 999999 999999 999999 999999 999999 999999 999999 999999 999999 999999 999999 999999 999999 999999 999999 999999 999999 999999 999999 999999 999999 999999 999999 999999 999999 999999 999999 999999 999999 999999 999999 999999 999999 999999 999999 999999 999999 999999 999999 999999 999999 999999 999999 999999 999999 999999 999999 999999 999999 999999 999999 999999 999999 999999 999999 999999 999999 999999 999999 999999 999999 999999 999999 999999 999999 999999 999999 999999 999999 999999 999999 999999 999999 999999 999999 999999 999999 999999 999999 999999 999999 999999 999999 999999 999999 999999 999999 999999 999999 999999 0 999999 999999 999999 999999 999999 999999 999999 999999 999999 999999 999999 999999 999999 999999 999999 999999 999999 999999 7881
999999 16514 19166 18647 14590 19327 10811 19907 14302 15831 14181 12454 13008 13714 16603 18347 11993 12068 16409 18617 17587 16159 19035 17672 17080 19935 11503 14204 12664 16621 10538 17141 19145 14446 17593 13115 14987 13964 15534 17901 15497 11128 13378 16117 13476 16064 10092 10135 10661 15750 17273 15986 15635 19459 15339 16529 17605 19144 17367 11712 11098 17437 13280 15422 18486 17458 13420 15424 13037 17982 12896 11130 17330 16207 16488 11100 14650 12086 17090 15503 10381 12862 12240 17255 16875 16081 12871 17794 17451 19919 14899 11844 19247 12522 10464 17419 12055 19020 15050 15548 12463 12769 14862 16087 16204 13318 18845 11434 13407 17492 15998 12229 14276 18763 19117 11770 16416 19776 12265 17444 13081 15647 15116 11780 14098 13472 14913 13099 14202 10990 18697 19478 10568 18748 12544 18878 19965 11750 18593 15063 12643 11381 19933 15953 12157 10108 13046 13463 11383 10149 14163 14632 14698 11720 19393 11774 16337 16654 13540 17024 13375 999999 999999 999999 999999 999999 999999 999999 999999 999999 999999 999999 999999 999999 999999 999999 999999 999999 999999 999999 999999 999999 999999 999999 999999 999999 999999 999999 999999 999999 999999 999999 999999 999999 999999 999999 999999 999999 999999 999999 999999 999999 999999 999999 999999 999999 999999 999999 999999 999999 999999 999999 999999 999999 999999 999999 999999 999999 999999 999999 999999 999999 999999 999999 999999 999999 999999 999999 999999 999999 999999 999999 999999 999999 999999 999999 999999 999999 999999 999999 999999 999999 999999 999999 999999 999999 999999 999999 999999 999999 999999 999999 999999 999999 999999 999999 999999 999999 999999 999999 999999 999999 999999 999999 999999 999999 999999 999999 999999 999999 999999 999999 999999 999999 999999 999999 999999 999999 999999 999999 999999 999999 999999 999999 999999 999999 999999 999999 999999 999999 999999 999999 999999 999999 999999 999999 999999 999999 999999 999999 999999 999999 999999 0 999999 999999 999999 999999 999999 999999 999999 999999 999999 999999 999999 999999 999999 999999 999999 999999 999999 10807
999999 12689 14363 13560 14540 14422 19966 17319 10098 16594 17592 11197 16069 12605 11009 11534 18385 14847 15341 17894 15295 15658 10561 12935 16788 13830 18103 15466 14015 16342 17370 15543 14420 13092 17909 15964 16522 11154 15049 14010 17775 17237 14902 12053 10666 17270 18850 14122 11582 19256 14140 12851 18926 19551 11609 11272 12718 11851 13535 15825 17473 15809 16468 19946 15242 15757 16300 11509 13036 13911 16969 18852 13747 12257 13032 12739 15744 15492 14883 17269 17235 19252 12797 12903 10541 14943 15087 10768 16821 11182 13480 15916 16436 17528 19258 13201 18848 11995 17351 11164 18596 13402 13489 18638 19820 13923 11434 10032 13091 14739 17661 12553 14139 14514 15698 15182 18138 12709 17658 12118 11413 13641 17172 11646 13722 13215 10511 18650 10408 13301 14012 18579 19629 13107 19048 12804 10681 13593 18362 13261 11573 17492 11225 14825 13871 19185 11056 19738 16832 14536 11552 15032 10454 12487 12595 16295 18796 13709 16377 18523 14992 999999 999999 999999 999999 999999 999999 999999 999999 999999 999999 999999 999999 999999 999999 999999 999999 999999 999999 999999 999999 999999 999999 999999 999999 999999 999999 999999 999999 999999 999999 999999 999999 999999 999999 999999 999999 999999 999999 999999 999999 999999 999999 999999 999999 999999 999999 999999 999999 999999 999999 999999 999999 999999 999999 999999 999999 999999 999999 999999 999999 999999 999999 999999 999999 999999 999999 999999 999999 999999 999999 999999 999999 999999 999999 999999 999999 999999 999999 999999 999999 999999 999999 999999 999999 999999 999999 999999 999999 999999 999999 999999 999999 999999 999999 999999 999999 999999 999999 999999 999999 999999 999999 999999 999999 999999 999999 999999 999999 999999 999999 999999 999999 999999 999999 999999 999999 999999 999999 999999 999999 999999 999999 999999 999999 999999 999999 999999 999999 999999 999999 999999 999999 999999 999999 999999 999999 999999 999999 999999 999999 999999 999999 999999 0 999999 999999 999999 999999 999999 999999 999999 999999 999999 999999 999999 999999 999999 999999 999999 999999 10465
999999 12250 18588 14970 10821 18188 16113 19466 10605 14375 14096 12081 17866 11135 18781 11550 16165 13084 10522 15541 12311 18219 17931 19753 10952 17637 16470 15447 16478 12447 17990 15034 19618 13176 19630 16348 19559 17686 15655 15946 12838 14102 16881 17064 19810 11036 19501 19599 14133 16749 11118 10342 14539 16731 19251 19721 12495 14336 17907 11197 15601 10388 10733 14195 14483 18368 12016 15620 16165 19296 10622 11790 15532 11696 16152 16686 17988 19271 10660 17138 18840 19778 15966 14972 13040 17113 12130 18076 14791 19332 15387 11678 11162 11219 15101 11041 18110 10629 18154 18136 13209 18662 17203 14324 12089 14871 18324 18469 13527 14097 16095 11981 13581 18782 14050 13436 19473 11061 10658 13804 13721 16625 15679 19373 18425 11649 18910 17297 14810 12821 11161 15452 16942 14388 11836 15125 17466 11014 19268 16131 19988 19521 11924 11590 11499 17357 18188 11014 11383 19854 12801 11755 13453 10950 17416 17355 17980 13585 14040 10527 16464 999999 999999 999999 999999 999999 999999 999999 999999 999999 999999 999999 999999 999999 999999 999999 999999 999999 999999 999999 999999 999999 999999 999999 999999 999999 999999 999999 999999 999999 999999 999999 999999 999999 999999 999999 999999 999999 999999 999999 999999 999999 999999 999999 999999 999999 999999 999999 999999 999999 999999 999999 999999 999999 999999 999999 999999 999999 999999 999999 999999 999999 999999 999999 999999 999999 999999 999999 999999 999999 999999 999999 999999 999999 999999 999999 999999 999999 999999 999999 999999 999999 999999 999999 999999 999999 999999 999999 999999 999999 999999 999999 999999 999999 999999 999999 999999 999999 999999 999999 999999 999999 999999 999999 999999 999999 999999 999999 999999 999999 999999 999999 999999 999999 999999 999999 999999 999999 999999 999999 999999 999999 999999 999999 999999 999999 999999 999999 999999 999999 999999 999999 999999 999999 999999 999999 999999 999999 999999 999999 999999 999999 999999 999999 999999 0 999999 999999 999999 999999 999999 999999 999999 999999 999999 999999 999999 999999 999999 999999 999999 9521
999999 19713 10016 14740 11998 15595 12989 16476 10946 14992 16396 11819 17947 18276 13206 18832 11556 13697 13283 14490 11550 10051 16194 14714 17417 19526 15919 16931 18383 11236 15070 12716 16517 14718 10435 13845 14441 11114 12351 16042 16889 18884 15468 13188 11335 16493 16730 19330 17138 10649 11260 13793 15323 19601 12878 16246 18397 13554 19714 16194 16974 10473 13769 16053 18410 19950 11438 18249 16983 18927 18840 13157 16241 11669 15446 13865 16685 19017 13073 17015 16484 13228 16721 17626 18924 14463 19025 15511 11580 11530 11502 11818 10714 15875 15737 11111 19220 13362 12405 16681 19862 19171 10207 11827 12345 16454 12924 17116 11483 18993 15141 16495 13763 13475 13345 17777 19021 15193 19045 16944 11832 16877 14965 19148 10951 14615 11044 14463 19843 16272 18461 16299 19992 17071 17534 10807 12306 17933 17438 17103 15925 19086 15933 15490 14106 17208 13942 15311 15463 18727 11923 16642 12068 16851 16485 17094 19302 12725 15299 15595 13681 999999 999999 999999 999999 999999 999999 999999 999999 999999 999999 999999 999999 999999 999999 999999 999999 999999 999999 999999 999999 999999 999999 999999 999999 999999 999999 999999 999999 999999 999999 999999 999999 999999 999999 999999 999999 999999 999999 999999 999999 999999 999999 999999 999999 999999 999999 999999 999999 999999 999999 999999 999999 999999 999999 999999 999999 999999 999999 999999 999999 999999 999999 999999 999999 999999 999999 999999 999999 999999 999999 999999 999999 999999 999999 999999 999999 999999 999999 999999 999999 999999 999999 999999 999999 999999 999999 999999 999999 999999 999999 999999 999999 999999 999999 999999 999999 999999 999999 999999 999999 999999 999999 999999 999999 999999 999999 999999 999999 999999 999999 999999 999999 999999 999999 999999 999999 999999 999999 999999 999999 999999 999999 999999 999999 999999 999999 999999 999999 999999 999999 999999 999999 999999 999999 999999 999999 999999 999999 999999 999999 999999 999999 999999 999999 999999 0 999999 999999 999999 999999 999999 999999 999999 999999 999999 999999 999999 999999 999999 999999 5808
999999 12976 10821 18375 10523 16096 12806 18502 10133 18574 13935 16589 12538 19118 15780 12256 15200 12939 11956 13253 16715 14192 18617 10036 15170 11764 18901 14565 14865 13054 11255 18832 12282 10043 18647 11791 13962 12957 19855 15462 14008 14541 12054 12258 16080 15412 19309 11300 14928 10028 12311 16287 15134 19247 17780 13263 15261 18851 11912 15569 11628 12473 10008 19796 13531 10680 13169 18616 19892 14168 17465 16035 17982 18190 16120 10335 16719 13008 19580 18410 19327 12023 12688 11048 14773 12964 10519 15059 17749 19714 15052 15310 10559 17882 17086 18821 17770 18022 11357 10275 15132 18774 11989 12408 19176 11688 12458 16318 16802 16758 15452 12691 17478 13052 11712 12498 16315 12893 18113 17832 12060 13469 19204 13905 15801 12984 13832 17196 19291 16905 14683 18363 13026 18569 19917 17923 17172 10005 19587 15083 11989 10185 13998 12208 12990 17129 18057 11842 12641 10387 12777 10390 13365 11069 14322 17832 19413 19169 19020 12206 12437 999999 999999 999999 999999 999999 999999 999999 999999 999999 999999 999999 999999 999999 999999 999999 999999 999999 999999 999999 999999 999999 999999 999999 999999 999999 999999 999999 999999 999999 999999 999999 999999 999999 999999 999999 999999 999999 999999 999999 999999 999999 999999 999999 999999 999999 999999 999999 999999 999999 999999 999999 999999 999999 999999 999999 999999 999999 999999 999999 999999 999999 999999 999999 999999 999999 999999 999999 999999 999999 999999 999999 999999 999999 999999 999999 999999 999999 999999 999999 999999 999999 999999 999999 999999 999999 999999 999999 999999 999999 999999 999999 999999 999999 999999 999999 999999 999999 999999 999999 999999 999999 999999 999999 999999 999999 999999 999999 999999 999999 999999 999999 999999 999999 999999 999999 999999 999999 999999 999999 999999 999999 999999 999999 999999 999999 999999 999999 999999 999999 999999 999999 999999 999999 999999 999999 999999 999999 999999 999999 999999 999999 999999 999999 999999 999999 999999 0 999999 999999 999999 999999 999999 999999 999999 999999 999999 999999 999999 999999 999999 9232
999999 13758 18538 10889 14810 13731 18002 16637 14115 18621 13408 14400 17289 15306 16733 11769 18801 17838 15614 10182 16730 14426 17516 17565 14073 16989 16311 10991 16880 15001 15810 11842 13206 10709 10553 15059 15722 13383 15678 12144 12512 13543 18943 14921 14617 17573 12785 17301 11264 14939 13725 16648 10688 16788 15689 15821 14424 12396 11425 14700 17684 10522 11862 12483 17504 14374 11396 16465 10801 17700 15424 15983 13654 17116 10454 14519 11296 18808 10495 18124 10599 15690 17166 18380 15112 13324 12987 11625 12853 15555 19592 16646 17716 10741 12764 11822 12026 19315 12620 11499 15685 19794 16139 14874 15314 19144 13755 13150 10267 19805 14803 15828 14894 16437 19009 10078 13247 12508 16793 16588 11710 11246 14211 11122 15453 12783 19957 15132 19938 13895 15374 13051 17445 19427 14804 18394 13483 15054 18280 17924 18936 19457 16318 16699 14775 10595 14706 15155 10231 16232 17239 16422 14839 13260 12582 14855 14138 11646 18538 10833 16957 999999 999999 999999 999999 999999 999999 999999 999999 999999 999999 999999 999999 999999 999999 999999 999999 999999 999999 999999 999999 999999 999999 999999 999999 999999 999999 999999 999999 999999 999999 999999 999999 999999 999999 999999 999999 999999 999999 999999 999999 999999 999999 999999 999999 999999 999999 999999 999999 999999 999999 999999 999999 999999 999999 999999 999999 999999 999999 999999 999999 999999 999999 999999 999999 999999 999999 999999 999999 999999 999999 999999 999999 999999 999999 999999 999999 999999 999999 999999 999999 999999 999999 999999 999999 999999 999999 999999 999999 999999 999999 999999 999999 999999 999999 999999 999999 999999 999999 999999 999999 999999 999999 999999 999999 999999 999999 999999 999999 999999 999999 999999 999999 999999 999999 999999 999999 999999 999999 999999 999999 999999 999999 999999 999999 999999 999999 999999 999999 999999 999999 999999 999999 999999 999999 999999 999999 999999 999999 999999 999999 999999 999999 999999 999999 999999 999999 999999 0 999999 999999 999999 999999 999999 999999 999999 999999 999999 999999 999999 999999 5529
999999 14939 16016 19886 14015 19771 12475 16917 19045 18263 10982 18796 17780 12070 18555 13372 14133 16765 10242 14890 18993 12477 12142 17465 12336 13744 17820 18820 14829 18759 18850 17258 17462 17014 12701 14784 13428 13906 10302 10946 14188 19077 10733 17369 18366 11619 17207 11817 16831 12136 18680 16181 17447 16744 14061 11949 18034 15914 10301 17953 10617 10093 19639 18303 13624 12584 12191 15171 15376 19622 17330 15704 13781 17601 15180 15325 10754 17033 19443 19476 15300 18276 19824 12025 17764 11361 19324 16679 13626 14358 17335 12785 16912 19143 14718 13835 17055 10417 13765 10700 16768 13712 19362 19926 16972 16570 18116 10177 13088 18581 15050 10380 18967 11527 16278 11764 17460 15531 10696 17025 16043 15205 13319 13982 10598 19972 13248 19318 16512 19574 13991 19447 15789 18811 16297 16752 14187 19733 18183 11264 13727 13370 13117 19946 11358 17066 16839 15696 10458 16437 16251 15724 16564 19848 12188 15659 19600 11676 17868 16209 11596 999999 999999 999999 999999 999999 999999 999999 999999 999999 999999 999999 999999 999999 999999 999999 999999 999999 999999 999999 999999 999999 999999 999999 999999 999999 999999 999999 999999 999999 999999 999999 999999 999999 999999 999999 999999 999999 999999 999999 999999 999999 999999 999999 999999 999999 999999 999999 999999 999999 999999 999999 999999 999999 999999 999999 999999 999999 999999 999999 999999 999999 999999 999999 999999 999999 999999 999999 999999 999999 999999 999999 999999 999999 999999 999999 999999 999999 999999 999999 999999 999999 999999 999999 999999 999999 999999 999999 999999 999999 999999 999999 999999 999999 999999 999999 999999 999999 999999 999999 999999 999999 999999 999999 999999 999999 999999 999999 999999 999999 999999 999999 999999 999999 999999 999999 999999 999999 999999 999999 999999 999999 999999 999999 999999 999999 999999 999999 999999 999999 999999 999999 999999 999999 999999 999999 999999 999999 999999 999999 999999 999999 999999 999999 999999 999999 999999 999999 999999 0 999999 999999 999999 999999 999999 999999 999999 999999 999999 999999 999999 12279
999999 10363 19565 14159 10712 17270 10666 10871 14562 14685 19809 17433 16344 18934 13216 19163 15176 10391 19365 18592 11743 19354 12204 14862 19464 17923 19739 16363 14568 18160 11190 11440 18612 11645 15014 19046 15936 19029 19764 12140 17314 18857 18092 15788 17918 11426 12952 16088 14217 12433 15378 17414 15177 13218 19097 13090 16430 14649 18998 16544 19417 13540 13958 12059 15440 11324 18549 19140 13869 15718 18288 11813 13884 18405 17137 12230 17786 19091 19212 11396 12431 12505 14164 18433 13833 13505 18530 10560 15508 13083 15478 18751 11889 13837 17348 13536 11683 17122 19912 17200 10601 17736 18782 14824 17197 11202 14721 18131 12861 18951 13318 18843 18766 16657 11330 16431 15513 17833 16686 18698 11498 11227 15334 18265 13839 13147 18089 10904 13272 15096 19200 16367 17494 16612 13886 15282 16802 10010 11643 18286 13893 17548 18925 13080 12915 10940 10431 18869 16349 19313 12424 14600 10597 18456 18976 11769 14091 17639 18033 11350 13675 999999 999999 999999 999999 999999 999999 999999 999999 999999 999999 999999 999999 999999 999999 999999 999999 999999 999999 999999 999999 999999 999999 999999 999999 999999 999999 999999 999999 999999 999999 999999 999999 999999 999999 999999 999999 999999 999999 999999 999999 999999 999999 999999 999999 999999 999999 999999 999999 999999 999999 999999 999999 999999 999999 999999 999999 999999 999999 999999 999999 999999 999999 999999 999999 999999 999999 999999 999999 999999 999999 999999 999999 999999 999999 999999 999999 999999 999999 999999 999999 999999 999999 999999 999999 999999 999999 999999 999999 999999 999999 999999 999999 999999 999999 999999 999999 999999 999999 999999 999999 999999 999999 999999 999999 999999 999999 999999 999999 999999 999999 999999 999999 999999 999999 999999 999999 999999 999999 999999 999999 999999 999999 999999 999999 999999 999999 999999 999999 999999 999999 999999 999999 999999 999999 999999 999999 999999 999999 999999 999999 999999 999999 999999 999999 999999 999999 999999 999999 999999 0 999999 999999 999999 999999 999999 999999 999999 999999 999999 999999 10599
999999 12484 19295 12001 10589 19016 18489 14239 14203 17264 14825 10168 17977 10299 10005 10586 13169 12579 18641 16442 10997 14175 19363 14221 14102 18561 18032 16952 17802 14393 16214 19215 11336 11642 13910 12550 14099 17124 12872 16889 12008 11648 18531 14994 14190 18478 12285 17995 14621 16437 17578 16172 18417 15090 12789 17623 11471 15093 11195 15915 13339 16779 18588 15576 15595 15026 12642 18475 18315 11958 18584 16692 18125 19281 11066 11768 12357 14661 14168 11903 17423 15344 16281 12244 12984 16526 16076 14701 18686 19143 12968 11822 16204 18765 10499 18434 17918 16879 16561 15727 14428 11271 15046 13659 12617 18027 13222 12420 13885 10140 18126 16804 15071 17238 18282 19540 15094 13106 19253 18211 10997 10483 17972 17745 15397 16930 19136 17633 18909 13997 17682 17730 16983 16791 10479 15569 18691 12693 18245 11628 19505 18575 17216 12672 14640 17796 18447 15798 10453 14284 16915 15529 15024 10004 15215 17197 11266 16522 10728 18464 14847 999999 999999 999999 999999 999999 999999 999999 999999 999999 999999 999999 999999 999999 999999 999999 999999 999999 999999 999999 999999 999999 999999 999999 999999 999999 999999 999999 999999 999999 999999 999999 999999 999999 999999 999999 999999 999999 999999 999999 999999 999999 999999 999999 999999 999999 999999 999999 999999 999999 999999 999999 999999 999999 999999 999999 999999 999999 999999 999999 999999 999999 999999 999999 999999 999999 999999 999999 999999 999999 999999 999999 999999 999999 999999 999999 999999 999999 999999 999999 999999 999999 999999 999999 999999 999999 999999 999999 999999 999999 999999 999999 999999 999999 999999 999999 999999 999999 999999 999999 999999 999999 999999 999999 999999 999999 999999 999999 999999 999999 999999 999999 999999 999999 999999 999999 999999 999999 999999 999999 999999 999999 999999 999999 999999 999999 999999 999999 999999 999999 999999 999999 999999 999999 999999 999999 999999 999999 999999 999999 999999 999999 999999 999999 999999 999999 999999 999999 999999 999999 999999 0 999999 999999 999999 999999 999999 999999 999999 999999 999999 13784
999999 12843 15950 11837 18668 19636 19197 12830 14505 16073 14135 13278 10247 15984 19301 17916 16257 10376 11147 10350 13291 15728 10096 13577 16243 12537 10570 11072 10239 15826 17043 18980 16753 16775 14751 19253 16725 13444 17200 15871 10092 10807 17104 13710 16253 10526 15988 19210 19150 11445 17977 17094 14216 10257 17422 17124 15411 10627 16604 14456 15623 17689 17990 16682 14798 11114 15676 14620 11122 17284 18848 10266 15696 12132 11448 19058 15064 14486 18538 12103 14477 18173 14124 18924 12062 18554 12433 13456 11958 19317 10802 13054 10802 10418 10851 12916 17467 14626 19074 18567 11211 11388 14259 13185 10908 10334 11238 18128 11364 16338 13585 15827 15909 17895 11357 13039 17613 12314 18236 18707 18962 19740 17071 15589 11805 10178 15832 14523 11932 12530 11503 11728 10473 17208 18069 10211 17027 11399 19740 14840 17865 15090 18144 13694 11631 15536 15249 19377 18809 10781 17910 19966 19694 12046 19893 17933 16068 10319 10768 14028 15710 999999 999999 999999 999999 999999 999999 999999 999999 999999 999999 999999 999999 999999 999999 999999 999999 999999 999999 999999 999999 999999 999999 999999 999999 999999 999999 999999 999999 999999 999999 999999 999999 999999 999999 999999 999999 999999 999999 999999 999999 999999 999999 999999 999999 999999 999999 999999 999999 999999 999999 999999 999999 999999 999999 999999 999999 999999 999999 999999 999999 999999 999999 999999 999999 999999 999999 999999 999999 999999 999999 999999 999999 999999 999999 999999 999999 999999 999999 999999 999999 999999 999999 999999 999999 999999 999999 999999 999999 999999 999999 999999 999999 999999 999999 999999 999999 999999 999999 999999 999999 999999 999999 999999 999999 999999 999999 999999 999999 999999 999999 999999 999999 999999 999999 999999 999999 999999 999999 999999 999999 999999 999999 999999 999999 999999 999999 999999 999999 999999 999999 999999 999999 999999 999999 999999 999999 999999 999999 999999 999999 999999 999999 999999 999999 999999 999999 999999 999999 999999 999999 999999 0 999999 999999 999999 999999 999999 999999 999999 999999 13243
999999 14282 15423 12063 15510 10707 15710 19076 19759 16186 18306 12991 16451 19497 11037 10395 13307 10026 10883 14779 10463 18109 15372 13757 15271 10958 14175 13858 17765 14697 19250 16246 16031 16865 11299 11134 19968 14698 13651 19006 15768 18161 16318 11082 16807 12278 18481 13000 14183 19318 17560 14135 15648 18144 16459 17520 19379 14905 19609 16293 18155 18429 13202 15088 10861 16714 10715 16465 13294 11278 14210 15609 17013 19190 13425 16291 15246 19753 10360 19402 12067 12624 11486 13387 11331 15416 18079 18597 12120 16335 12461 19883 19871 12394 14523 12257 15200 14492 11773 15343 17991 13701 13510 19458 13114 13016 15510 16819 15183 11782 17423 10428 18165 16245 11054 13989 17645 15554 12892 12180 18104 18679 11036 17417 16171 19647 15296 10556 15752 13810 19373 11944 18132 16677 16621 11727 11767 11584 17003 14280 11140 12614 12895 12267 14928 12417 14198 11796 10757 16116 13494 15278 12843 11494 15813 10872 10567 14630 14963 15070 19102 999999 999999 999999 999999 999999 999999 999999 999999 999999 999999 999999 999999 999999 999999 999999 999999 999999 999999 999999 999999 999999 999999 999999 999999 999999 999999 999999 999999 999999 999999 999999 999999 999999 999999 999999 999999 999999 999999 999999 999999 999999 999999 999999 999999 999999 999999 999999 999999 999999 999999 999999 999999 999999 999999 999999 999999 999999 999999 999999 999999 999999 999999 999999 999999 999999 999999 999999 999999 999999 999999 999999 999999 999999 999999 999999 999999 999999 999999 999999 999999 999999 999999 999999 999999 999999 999999 999999 999999 999999 999999 999999 999999 999999 999999 999999 999999 999999 999999 999999 999999 999999 999999 999999 999999 999999 999999 999999 999999 999999 999999 999999 999999 999999 999999 999999 999999 999999 999999 999999 999999 999999 999999 999999 999999 999999 999999 999999 999999 999999 999999 999999 999999 999999 999999 999999 999999 999999 999999 999999 999999 999999 999999 999999 999999 999999 999999 999999 999999 999999 999999 999999 999999 0 999999 999999 999999 999999 999999 999999 999999 12544
999999 19934 14301 13863 18947 16403 18578 12468 17392 18523 16404 10841 14997 16967 11585 15890 17011 16864 15414 17156 11337 11231 14784 18287 19161 14440 12943 17847 16422 14893 10120 10642 13767 15060 18022 13255 15947 17453 17571 12393 17977 16508 10002 16488 12767 19748 15816 13879 12711 19244 18403 13952 14037 14933 18094 14527 11243 10271 18123 19835 17554 19894 13635 14194 16131 15461 11827 16616 12577 18677 10961 15948 10095 19811 12296 18867 19600 14335 17543 12684 17768 17380 15476 11350 10247 18355 15699 15577 17594 17915 11020 13784 12433 11724 15085 14546 16437 10300 15613 15623 13434 14570 17371 19414 13526 12052 15549 15608 19162 14311 10889 12295 11166 10458 16634 19387 15821 12278 12174 16715 14700 18922 12736 16236 19350 12353 12855 19057 12911 18130 13349 15744 11143 13254 13677 16114 16014 12504 14336 10038 10274 18085 13999 17455 14856 17352 15819 14167 18609 11908 19969 10648 11961 16156 19035 13671 14680 14096 11178 16044 15067 999999 999999 999999 999999 999999 999999 999999 999999 999999 999999 999999 999999 999999 999999 999999 999999 999999 999999 999999 999999 999999 999999 999999 999999 999999 999999 999999 999999 999999 999999 999999 999999 999999 999999 999999 999999 999999 999999 999999 999999 999999 999999 999999 999999 999999 999999 999999 999999 999999 999999 999999 999999 999999 999999 999999 999999 999999 999999 999999 999999 999999 999999 999999 999999 999999 999999 999999 999999 999999 999999 999999 999999 999999 999999 999999 999999 999999 999999 999999 999999 999999 999999 999999 999999 999999 999999 999999 999999 999999 999999 999999 999999 999999 999999 999999 999999 999999 999999 999999 999999 999999 999999 999999 999999 999999 999999 999999 999999 999999 999999 999999 999999 999999 999999 999999 999999 999999 999999 999999 999999 999999 999999 999999 999999 999999 999999 999999 999999 999999 999999 999999 999999 999999 999999 999999 999999 999999 999999 999999 999999 999999 999999 999999 999999 999999 999999 999999 999999 999999 999999 999999 999999 999999 0 999999 999999 999999 999999 999999 999999 7826
999999 17884 11246 15413 19178 19745 15354 12887 19217 16421 19970 11730 17553 18059 17811 11981 12397 17045 12160 14740 15201 12820 18637 19636 11317 10038 19130 16896 10716 14593 11260 15910 14418 11437 17884 19314 14061 10723 17053 11072 13151 16229 17707 11262 13197 18787 11401 13546 19669 12837 11525 15770 13556 12827 19806 11587 14114 11925 17500 11504 19240 14547 13304 11960 16259 10132 12258 15896 13708 18413 18293 11546 18541 17989 11162 13901 19962 16796 15966 16157 10140 19387 15634 11699 10110 13883 13884 10111 14576 11855 19233 19651 17827 14214 17321 17640 11680 14118 14921 14362 15821 16241 17628 17746 12915 16219 16807 16390 19163 10891 13823 15677 15978 10202 16149 15254 16919 11032 12289 15093 19607 19026 19630 16683 10274 18345 16375 11137 11860 19221 17449 15362 14144 19923 14294 13927 18178 16866 17865 19544 15980 16511 19310 16699 13236 18081 12825 10064 13525 15856 14319 10396 17250 12215 16799 14497 18329 12922 10180 13582 15711 999999 999999 999999 999999 999999 999999 999999 999999 999999 999999 999999 999999 999999 999999 999999 999999 999999 999999 999999 999999 999999 999999 999999 999999 999999 999999 999999 999999 999999 999999 999999 999999 999999 999999 999999 999999 999999 999999 999999 999999 999999 999999 999999 999999 999999 999999 999999 999999 999999 999999 999999 999999 999999 999999 999999 999999 999999 999999 999999 999999 999999 999999 999999 999999 999999 999999 999999 999999 999999 999999 999999 999999 999999 999999 999999 999999 999999 999999 999999 999999 999999 999999 999999 999999 999999 999999 999999 999999 999999 999999 999999 999999 999999 999999 999999 999999 999999 999999 999999 999999 999999 999999 999999 999999 999999 999999 999999 999999 999999 999999 999999 999999 999999 999999 999999 999999 999999 999999 999999 999999 999999 999999 999999 999999 999999 999999 999999 999999 999999 999999 999999 999999 999999 999999 999999 999999 999999 999999 999999 999999 999999 999999 999999 999999 999999 999999 999999 999999 999999 999999 999999 999999 999999 999999 0 999999 999999 999999 999999 999999 12526
999999 11175 14215 12718 17080 14793 13032 11743 11629 15233 15379 15722 12694 11697 19265 17261 19258 17033 10854 19090 10227 13179 17021 18621 18456 12833 19384 18448 14013 19494 10448 12047 16625 11723 15870 18905 13243 16674 16333 18040 12280 14973 11677 19491 18722 10790 16980 13210 12258 17136 14571 17513 15968 17827 15183 17035 18343 17914 16910 19421 15875 15131 18105 18218 15480 17667 18550 16597 13374 13955 14302 12079 13986 15588 15978 15289 16937 14594 14448 11926 18365 15041 16569 18293 19855 16500 11068 11872 19516 17551 15516 16290 12822 18950 18660 15507 17281 17084 19167 14095 10254 13832 18990 11783 10253 12303 18544 12307 13649 19170 11502 11982 11201 12959 15284 12375 13670 11457 13742 14509 19785 10977 11763 10342 18528 17998 17098 18691 14386 10003 15693 16396 19317 11513 18091 17428 10193 16762 18642 12972 18801 18583 16285 15297 13857 16304 16079 15153 19600 14481 14798 13041 17980 18569 11482 18354 10816 16660 15927 11257 17328 999999 999999 999999 999999 999999 999999 999999 999999 999999 999999 999999 999999 999999 999999 999999 999999 999999 999999 999999 999999 999999 999999 999999 999999 999999 999999 999999 999999 999999 999999 999999 999999 999999 999999 999999 999999 999999 999999 999999 999999 999999 999999 999999 999999 999999 999999 999999 999999 999999 999999 999999 999999 999999 999999 999999 999999 999999 999999 999999 999999 999999 999999 999999 999999 999999 999999 999999 999999 999999 999999 999999 999999 999999 999999 999999 999999 999999 999999 999999 999999 999999 999999 999999 999999 999999 999999 999999 999999 999999 999999 999999 999999 999999 999999 999999 999999 999999 999999 999999 999999 999999 999999 999999 999999 999999 999999 999999 999999 999999 999999 999999 999999 999999 999999 999999 999999 999999 999999 999999 999999 999999 999999 999999 999999 999999 999999 999999 999999 999999 999999 999999 999999 999999 999999 999999 999999 999999 999999 999999 999999 999999 999999 999999 999999 999999 999999 999999 999999 999999 999999 999999 999999 999999 999999 999999 0 999999 999999 999999 999999 12489
999999 18498 12825 15515 13052 10518 13444 18988 18702 11413 19220 16829 11821 15987 16277 12593 13012 17007 17421 15012 15005 17968 13872 12801 10071 19393 18135 13467 18184 11137 19795 17085 11525 18300 17238 15887 11949 15350 13771 10700 17848 10881 18758 12368 12111 19495 11248 16427 10872 17242 17266 17575 10599 17296 12303 15336 10867 19250 15852 18124 10676 14600 15025 14035 11503 11221 14610 10196 13431 10622 10644 16492 13189 13843 12234 18132 19547 19376 13733 19816 18688 11705 10325 19744 13743 12400 19693 10845 18848 16413 11420 11025 10160 16880 13115 14417 18968 15249 14060 12279 13869 17061 18661 18916 16332 17905 19906 15428 12316 15649 12010 15660 16377 16782 11878 13732 16828 15406 11034 14007 18394 16536 19564 12376 14146 14194 17318 14174 16553 16694 14782 19493 16316 11566 16848 19511 13979 19400 17595 14026 15639 10673 10661 10290 16614 15295 15497 19045 18624 13850 18035 19318 11716 12685 10408 16024 13760 17475 17985 16565 13855 999999 999999 999999 999999 999999 999999 999999 999999 999999 999999 999999 999999 999999 999999 999999 999999 999999 999999 999999 999999 999999 999999 999999 999999 999999 999999 999999 999999 999999 999999 999999 999999 999999 999999 999999 999999 999999 999999 999999 999999 999999 999999 999999 999999 999999 999999 999999 999999 999999 999999 999999 999999 999999 999999 999999 999999 999999 999999 999999 999999 999999 999999 999999 999999 999999 999999 999999 999999 999999 999999 999999 999999 999999 999999 999999 999999 999999 999999 999999 999999 999999 999999 999999 999999 999999 999999 999999 999999 999999 999999 999999 999999 999999 999999 999999 999999 999999 999999 999999 999999 999999 999999 999999 999999 999999 999999 999999 999999 999999 999999 999999 999999 999999 999999 999999 999999 999999 999999 999999 999999 999999 999999 999999 999999 999999 999999 999999 999999 999999 999999 999999 999999 999999 999999 999999 999999 999999 999999 999999 999999 999999 999999 999999 999999 999999 999999 999999 999999 999999 999999 999999 999999 999999 999999 999999 999999 0 999999 999999 999999 9144
999999 16631 15014 16303 14638 18565 19783 17384 13343 10345 17869 15000 11597 12153 10026 10854 17701 15895 16824 19471 18713 16885 12411 19511 10447 13549 12510 18900 17911 19801 18233 16491 11007 10048 19974 19535 14143 15057 18257 10525 13491 11327 16563 18242 14559 16448 15706 16708 16382 15837 19153 13496 19530 14715 12583 14609 12674 15673 10461 15103 18157 13853 14947 16065 17544 19357 16993 14401 16541 15327 16043 17456 17638 10623 17413 13706 10616 14919 15944 15980 12951 17791 13071 17596 18360 18149 18643 16921 11530 16189 18432 16983 11483 18348 18235 17002 11192 15616 16385 14884 16410 11011 11885 14123 14530 11915 10304 12497 10413 13097 17627 12261 19998 16522 11882 10534 11453 11025 12314 10931 12744 16589 17465 19737 16790 13848 12702 16302 14006 10373 10754 10869 17093 16395 15958 11363 16131 18102 13523 17473 14282 15845 12325 12901 19290 13415 12782 14588 10629 16615 17498 18151 19260 11858 11275 15966 13546 11784 15131 11364 10464 999999 999999 999999 999999 999999 999999 999999 999999 999999 999999 999999 999999 999999 999999 999999 999999 999999 999999 999999 999999 999999 999999 999999 999999 999999 999999 999999 999999 999999 999999 999999 999999 999999 999999 999999 999999 999999 999999 999999 999999 999999 999999 999999 999999 999999 999999 999999 999999 999999 999999 999999 999999 999999 999999 999999 999999 999999 999999 999999 999999 999999 999999 999999 999999 999999 999999 999999 999999 999999 999999 999999 999999 999999 999999 999999 999999 999999 999999 999999 999999 999999 999999 999999 999999 999999 999999 999999 999999 999999 999999 999999 999999 999999 999999 999999 999999 999999 999999 999999 999999 999999 999999 999999 999999 999999 999999 999999 999999 999999 999999 999999 999999 999999 999999 999999 999999 999999 999999 999999 999999 999999 999999 999999 999999 999999 999999 999999 999999 999999 999999 999999 999999 999999 999999 999999 999999 999999 999999 999999 999999 999999 999999 999999 999999 999999 999999 999999 999999 999999 999999 999999 999999 999999 999999 999999 999999 999999 0 999999 999999 6066
999999 17198 12159 16050 14979 19414 14880 19334 15933 16988 15363 14564 10937 17658 13844 17516 10764 17607 19316 13559 19895 12530 16242 12334 17152 16233 16990 19552 11440 14079 13974 13700 15433 16795 15035 12970 13108 16964 15629 17220 10695 16081 12119 17863 15527 16346 17336 19951 15241 11213 15896 17180 17312 17123 18432 15549 18487 12085 15266 13677 10493 10711 10903 14132 10263 13962 12443 10909 12676 11009 10456 17542 11352 19149 18035 15945 11904 16946 19878 14018 11401 15592 14572 18434 13588 17250 15364 19010 16942 17286 15819 19695 18773 13872 18381 15790 19011 10874 15069 18684 17729 19407 14303 14342 16564 13599 18325 18942 17585 10043 13068 16249 17242 10455 19100 16884 14459 19813 15304 17329 15391 16951 11112 17670 13233 12453 17332 19913 16272 15412 15685 16244 18754 18420 16819 12833 16709 17094 12978 11733 18761 13588 14159 13422 18215 14856 11542 15819 12349 11246 18615 11285 14436 12839 13473 17120 17110 14260 18994 13823 18891 999999 999999 999999 999999 999999 999999 999999 999999 999999 999999 999999 999999 999999 999999 999999 999999 999999 999999 999999 999999 999999 999999 999999 999999 999999 999999 999999 999999 999999 999999 999999 999999 999999 999999 999999 999999 999999 999999 999999 999999 999999 999999 999999 999999 999999 999999 999999 999999 999999 999999 999999 999999 999999 999999 999999 999999 999999 999999 999999 999999 999999 999999 999999 999999 999999 999999 999999 999999 999999 999999 999999 999999 999999 999999 999999 999999 999999 999999 999999 999999 999999 999999 999999 999999 999999 999999 999999 999999 999999 999999 999999 999999 999999 999999 999999 999999 999999 999999 999999 999999 999999 999999 999999 999999 999999 999999 999999 999999 999999 999999 999999 999999 999999 999999 999999 999999 999999 999999 999999 999999 999999 999999 999999 999999 999999 999999 999999 999999 999999 999999 999999 999999 999999 999999 999999 999999 999999 999999 999999 999999 999999 999999 999999 999999 999999 999999 999999 999999 999999 999999 999999 999999 999999 999999 999999 999999 999999 999999 0 999999 9700
999999 13925 10897 11422 19895 19459 16663 11440 12494 19806 13211 12342 18939 15576 14125 15292 16015 19452 13208 14841 17437 19261 15262 11861 14600 13953 13526 15289 15932 13757 18065 17955 12032 14341 14941 14786 13348 18806 17008 12857 13066 17784 12525 17287 18819 18641 14869 17832 14772 19295 12827 13698 18842 15748 10341 18728 13496 14171 14768 11573 16520 13682 18966 16007 18331 11345 14480 16995 14896 18916 17761 15902 12532 16020 10556 11704 18804 13870 12584 14430 17589 19276 17260 15224 11025 17111 19586 13899 17392 10255 10999 12145 19766 18069 12495 10310 19976 13177 16841 12707 10719 16965 11889 17168 15525 19708 15598 19520 12474 12637 16225 17835 15597 10296 15356 11942 16162 10616 14168 14687 13316 15874 12027 17442 15445 14141 17635 12599 19468 11025 13575 14876 16093 16788 13255 10628 16102 15618 11264 11184 11934 13650 18192 14867 19819 17226 19938 17655 14404 14978 18564 12017 19679 14594 19453 12662 16340 19143 13384 18169 13144 999999 999999 999999 999999 999999 999999 999999 999999 999999 999999 999999 999999 999999 999999 999999 999999 999999 999999 999999 999999 999999 999999 999999 999999 999999 999999 999999 999999 999999 999999 999999 999999 999999 999999 999999 999999 999999 999999 999999 999999 999999 999999 999999 999999 999999 999999 999999 999999 999999 999999 999999 999999 999999 999999 999999 999999 999999 999999 999999 999999 999999 999999 999999 999999 999999 999999 999999 999999 999999 999999 999999 999999 999999 999999 999999 999999 999999 999999 999999 999999 999999 999999 999999 999999 999999 999999 999999 999999 999999 999999 999999 999999 999999 999999 999999 999999 999999 999999 999999 999999 999999 999999 999999 999999 999999 999999 999999 999999 999999 999999 999999 999999 999999 999999 999999 999999 999999 999999 999999 999999 999999 999999 999999 999999 999999 999999 999999 999999 999999 999999 999999 999999 999999 999999 999999 999999 999999 999999 999999 999999 999999 999999 999999 999999 999999 999999 999999 999999 999999 999999 999999 999999 999999 999999 999999 999999 999999 999999 999999 0 5216
1 999999 999999 999999 999999 999999 999999 999999 999999 999999 999999 999999 999999 999999 999999 999999 999999 999999 999999 999999 999999 999999 999999 999999 999999 999999 999999 999999 999999 999999 999999 999999 999999 999999 999999 999999 999999 999999 999999 999999 999999 999999 999999 999999 999999 999999 999999 999999 999999 999999 999999 999999 999999 999999 999999 999999 999999 999999 999999 999999 999999 999999 999999 999999 999999 999999 999999 999999 999999 999999 999999 999999 999999 999999 999999 999999 999999 999999 999999 999999 999999 999999 999999 999999 999999 999999 999999 999999 999999 999999 999999 999999 999999 999999 999999 999999 999999 999999 999999 999999 999999 999999 999999 999999 999999 999999 999999 999999 999999 999999 999999 999999 999999 999999 999999 999999 999999 999999 999999 999999 999999 999999 999999 999999 999999 999999 999999 999999 999999 999999 999999 999999 999999 999999 999999 999999 999999 999999 999999 999999 999999 999999 999999 999999 999999 999999 999999 999999 999999 999999 999999 999999 999999 999999 999999 999999 999999 999999 999999 999999 999999 999999 999999 999999 999999 999999 999999 999999 999999 999999 999999 999999 999999 999999 999999 999999 999999 999999 999999 999999 999999 999999 999999 999999 999999 999999 999999 999999 999999 999999 999999 999999 999999 999999 999999 999999 999999 999999 999999 999999 999999 999999 999999 999999 999999 999999 999999 999999 999999 999999 999999 999999 999999 999999 999999 999999 999999 999999 999999 999999 999999 999999 999999 999999 999999 999999 999999 999999 999999 999999 999999 999999 999999 999999 999999 999999 999999 999999 999999 999999 999999 999999 999999 999999 999999 999999 999999 999999 999999 999999 999999 999999 999999 999999 999999 999999 999999 999999 999999 999999 999999 999999 999999 999999 999999 999999 999999 999999 999999 999999 999999 999999 999999 999999 999999 999999 999999 999999 999999 999999 999999 999999 999999 999999 999999 999999 999999 999999 999999 999999 999999 999999 999999 999999 999999 999999 999999 999999 999999 999999 999999 999999 999999 999999 999999 999999 999999 999999 999999 999999 999999 999999 999999 999999 999999 999999 999999 999999 999999 999999 999999 0
EOF