NAME: GR_1x2x25_KH_5x10_Run_3
TYPE: TSP
COMMENT: BTSP instance |A|=50 GR nodes |B|=50 KH nodes depot=0.0 end=0.0.0
DIMENSION: 102
EDGE_WEIGHT_TYPE: EXPLICIT
EDGE_WEIGHT_FORMAT: FULL_MATRIX
NODE_COORD_TYPE: NO_COORDS
EDGE_WEIGHT_SECTION
0 5423 12818 10436 10997 14041 14647 13289 9581 8387 10902 6569 9995 10156 6563 12644 6696 12996 10944 11233 10204 5504 10077 11538 6564 5273 8886 9675 8138 12542 8163 6259 12352 11059 13944 12089 5834 9631 8938 7583 10262 12291 8890 9266 14144 12066 11312 14098 14837 12677 5178 999999 999999 999999 999999 999999 999999 999999 999999 999999 999999 999999 999999 999999 999999 999999 999999 999999 999999 999999 999999 999999 999999 999999 999999 999999 999999 999999 999999 999999 999999 999999 999999 999999 999999 999999 999999 999999 999999 999999 999999 999999 999999 999999 999999 999999 999999 999999 999999 999999 999999 999999
999999 0 999999 999999 999999 999999 999999 999999 999999 999999 999999 999999 999999 999999 999999 999999 999999 999999 999999 999999 999999 999999 999999 999999 999999 999999 999999 999999 999999 999999 999999 999999 999999 999999 999999 999999 999999 999999 999999 999999 999999 999999 999999 999999 999999 999999 999999 999999 999999 999999 999999 14701 16363 16337 19308 19036 16453 10489 19180 16995 17699 17725 16281 15854 11034 10269 12657 10945 18307 14778 11860 15054 10659 14059 15759 11658 19383 15344 10123 15915 12863 13557 15100 17905 19831 11856 15455 11229 18226 17502 19854 17369 18038 15992 12871 16402 11032 19781 13033 11785 11565 999999
999999 999999 0 999999 999999 999999 999999 999999 999999 999999 999999 999999 999999 999999 999999 999999 999999 999999 999999 999999 999999 999999 999999 999999 999999 999999 999999 999999 999999 999999 999999 999999 999999 999999 999999 999999 999999 999999 999999 999999 999999 999999 999999 999999 999999 999999 999999 999999 999999 999999 999999 16308 19495 10483 14649 16656 12400 11653 10199 16073 13272 11027 19460 19264 19246 13400 10807 16786 10101 18939 19149 10944 16175 16110 19965 14746 11903 17376 19254 10808 12548 11784 19762 12548 15850 13627 13861 15396 12941 14832 17669 15640 13161 16250 14488 14914 13232 19690 11780 19815 10993 999999
999999 999999 999999 0 999999 999999 999999 999999 999999 999999 999999 999999 999999 999999 999999 999999 999999 999999 999999 999999 999999 999999 999999 999999 999999 999999 999999 999999 999999 999999 999999 999999 999999 999999 999999 999999 999999 999999 999999 999999 999999 999999 999999 999999 999999 999999 999999 999999 999999 999999 999999 14905 13008 16833 11414 13099 13432 17950 12190 10441 14883 15250 14865 17473 11250 16188 13930 15625 14561 14934 19670 18450 17405 10823 10315 16171 17693 10119 10168 11126 13740 16870 14256 19690 19717 10743 19561 18381 18993 16330 12746 17772 11451 15454 12350 11608 12346 17271 17353 11691 15140 999999
999999 999999 999999 999999 0 999999 999999 999999 999999 999999 999999 999999 999999 999999 999999 999999 999999 999999 999999 999999 999999 999999 999999 999999 999999 999999 999999 999999 999999 999999 999999 999999 999999 999999 999999 999999 999999 999999 999999 999999 999999 999999 999999 999999 999999 999999 999999 999999 999999 999999 999999 18721 13300 18239 19451 15617 15697 14543 17055 14400 14295 18420 12160 13632 10367 14760 17240 19391 17537 18757 11114 13930 16392 15166 15123 15671 19470 19102 10181 10502 12178 10762 12644 14746 10818 15975 16114 18775 12467 13366 16569 14649 19151 13840 19474 16178 14120 15073 12831 18999 14651 999999
999999 999999 999999 999999 999999 0 999999 999999 999999 999999 999999 999999 999999 999999 999999 999999 999999 999999 999999 999999 999999 999999 999999 999999 999999 999999 999999 999999 999999 999999 999999 999999 999999 999999 999999 999999 999999 999999 999999 999999 999999 999999 999999 999999 999999 999999 999999 999999 999999 999999 999999 13642 12445 17077 17828 14595 16251 18402 19149 11739 18837 16846 10828 19174 19658 11188 10060 15823 13998 17411 10652 17756 11105 16176 16801 12807 12497 18852 14504 12081 14770 10571 16389 17804 19958 14084 15620 11975 15051 14120 13232 16351 12599 15210 10781 17601 16300 11814 19537 17458 17800 999999
999999 999999 999999 999999 999999 999999 0 999999 999999 999999 999999 999999 999999 999999 999999 999999 999999 999999 999999 999999 999999 999999 999999 999999 999999 999999 999999 999999 999999 999999 999999 999999 999999 999999 999999 999999 999999 999999 999999 999999 999999 999999 999999 999999 999999 999999 999999 999999 999999 999999 999999 14081 18922 10442 13419 11520 15109 10969 13209 14805 16807 10176 10378 19498 19131 19573 13324 14653 16787 16708 14085 14881 11442 16913 18207 15763 17638 10171 13953 10153 15118 11107 15450 13104 17748 19161 19874 15740 17394 11496 19703 19903 14431 17124 13276 17012 19957 14485 10855 19102 14610 999999
999999 999999 999999 999999 999999 999999 999999 0 999999 999999 999999 999999 999999 999999 999999 999999 999999 999999 999999 999999 999999 999999 999999 999999 999999 999999 999999 999999 999999 999999 999999 999999 999999 999999 999999 999999 999999 999999 999999 999999 999999 999999 999999 999999 999999 999999 999999 999999 999999 999999 999999 18331 19586 18668 12140 16130 14127 16470 13163 15668 19413 17199 12733 19612 12073 15224 17189 11659 12105 11234 10171 13444 12458 16446 13748 16075 15371 19435 14808 17703 17854 14059 10420 14360 15163 13393 18866 11551 15666 19699 13107 13021 16956 17003 15275 10529 13017 19904 19942 19855 13860 999999
999999 999999 999999 999999 999999 999999 999999 999999 0 999999 999999 999999 999999 999999 999999 999999 999999 999999 999999 999999 999999 999999 999999 999999 999999 999999 999999 999999 999999 999999 999999 999999 999999 999999 999999 999999 999999 999999 999999 999999 999999 999999 999999 999999 999999 999999 999999 999999 999999 999999 999999 16125 15601 15597 18059 18503 15930 15180 10207 19946 13656 18421 13510 15650 16723 16252 18416 15591 13534 10570 15555 19063 11702 12284 13414 18342 12354 12390 11614 11785 13073 15380 17808 13393 19101 16074 14098 14676 19996 11801 18468 17874 17722 10485 10100 15830 12734 14329 15821 14025 14110 999999
999999 999999 999999 999999 999999 999999 999999 999999 999999 0 999999 999999 999999 999999 999999 999999 999999 999999 999999 999999 999999 999999 999999 999999 999999 999999 999999 999999 999999 999999 999999 999999 999999 999999 999999 999999 999999 999999 999999 999999 999999 999999 999999 999999 999999 999999 999999 999999 999999 999999 999999 10651 13563 17482 13818 12290 17757 15148 11084 15558 19759 16859 19832 10592 12574 17955 16347 10857 10201 15352 17936 17416 10711 19662 12013 12656 16163 15124 13675 14511 17333 12058 11141 12362 10486 18310 11251 15683 18622 12835 15857 12148 18879 11610 17198 12845 16996 13944 18098 13058 19431 999999
999999 999999 999999 999999 999999 999999 999999 999999 999999 999999 0 999999 999999 999999 999999 999999 999999 999999 999999 999999 999999 999999 999999 999999 999999 999999 999999 999999 999999 999999 999999 999999 999999 999999 999999 999999 999999 999999 999999 999999 999999 999999 999999 999999 999999 999999 999999 999999 999999 999999 999999 17387 13691 11623 16363 17008 16529 19690 12142 10942 17987 19041 13987 19371 18349 14562 18003 11493 19923 18815 18013 17017 17573 11226 10468 16610 17549 10491 11888 13175 14637 14472 14875 19248 13516 17361 12802 18318 11268 15326 16877 19016 15156 18415 10117 12449 15597 12887 18548 10789 19716 999999
999999 999999 999999 999999 999999 999999 999999 999999 999999 999999 999999 0 999999 999999 999999 999999 999999 999999 999999 999999 999999 999999 999999 999999 999999 999999 999999 999999 999999 999999 999999 999999 999999 999999 999999 999999 999999 999999 999999 999999 999999 999999 999999 999999 999999 999999 999999 999999 999999 999999 999999 12522 14491 16670 12823 18412 19827 10148 17026 14124 11936 15126 19967 11743 17736 13835 16982 12603 15816 18975 18036 16932 16608 16713 19164 10846 13469 15856 11469 18360 17205 18455 17061 19204 10460 17167 19465 11527 16842 17197 13235 19766 18086 18868 14300 12602 18316 11022 10905 12256 19439 999999
999999 999999 999999 999999 999999 999999 999999 999999 999999 999999 999999 999999 0 999999 999999 999999 999999 999999 999999 999999 999999 999999 999999 999999 999999 999999 999999 999999 999999 999999 999999 999999 999999 999999 999999 999999 999999 999999 999999 999999 999999 999999 999999 999999 999999 999999 999999 999999 999999 999999 999999 11317 13073 18385 14902 12135 16601 10445 10128 16689 10300 12195 15242 17802 18220 18445 18295 11905 12786 11786 12832 17852 10447 14411 16470 11453 12443 15919 19141 11486 13509 12723 17227 10400 12920 13313 16959 14771 13725 13779 18885 16436 14243 19062 12091 11248 16554 13170 17149 16722 17461 999999
999999 999999 999999 999999 999999 999999 999999 999999 999999 999999 999999 999999 999999 0 999999 999999 999999 999999 999999 999999 999999 999999 999999 999999 999999 999999 999999 999999 999999 999999 999999 999999 999999 999999 999999 999999 999999 999999 999999 999999 999999 999999 999999 999999 999999 999999 999999 999999 999999 999999 999999 13000 12490 10048 19158 11448 11593 13829 16898 15281 19637 14254 11199 15327 14370 19883 12143 14725 12988 15775 19823 11903 16891 15030 18965 18070 13855 18571 17326 14951 18639 11728 14394 19489 10174 15744 10376 10084 15964 12122 14859 15885 16122 11202 15458 14334 17316 18069 15215 11302 18638 999999
999999 999999 999999 999999 999999 999999 999999 999999 999999 999999 999999 999999 999999 999999 0 999999 999999 999999 999999 999999 999999 999999 999999 999999 999999 999999 999999 999999 999999 999999 999999 999999 999999 999999 999999 999999 999999 999999 999999 999999 999999 999999 999999 999999 999999 999999 999999 999999 999999 999999 999999 19143 18511 15044 17914 14273 13525 18244 13023 12334 14924 16941 18671 13025 13345 17142 14472 11336 17607 10103 12334 16004 13938 17967 17952 14742 14786 12090 13236 16816 18698 13823 15769 17266 19428 19565 18577 11678 12792 19332 10141 18990 19771 13646 12995 13548 10443 10411 15753 13622 16652 999999
999999 999999 999999 999999 999999 999999 999999 999999 999999 999999 999999 999999 999999 999999 999999 0 999999 999999 999999 999999 999999 999999 999999 999999 999999 999999 999999 999999 999999 999999 999999 999999 999999 999999 999999 999999 999999 999999 999999 999999 999999 999999 999999 999999 999999 999999 999999 999999 999999 999999 999999 14441 16533 18235 13072 16460 10328 15827 19645 12851 14840 15812 12654 13281 19525 13687 17194 15362 17750 13632 18039 14121 15822 16371 13844 18221 12480 11758 17705 17659 13662 18354 19705 18964 17475 11679 10946 10984 10896 15243 17057 12753 10753 19186 12246 10620 11452 17957 13371 13301 12582 999999
999999 999999 999999 999999 999999 999999 999999 999999 999999 999999 999999 999999 999999 999999 999999 999999 0 999999 999999 999999 999999 999999 999999 999999 999999 999999 999999 999999 999999 999999 999999 999999 999999 999999 999999 999999 999999 999999 999999 999999 999999 999999 999999 999999 999999 999999 999999 999999 999999 999999 999999 13124 19963 11695 11865 10626 11310 15002 15957 17922 13324 12847 14181 18614 17414 17280 10302 15464 16486 19382 12527 15999 19489 11355 12692 18432 10699 11526 18117 19567 19557 16124 16405 11079 19337 10567 17278 14150 14918 18285 19768 11659 11040 15661 17149 17160 17117 15627 13651 11107 15751 999999
999999 999999 999999 999999 999999 999999 999999 999999 999999 999999 999999 999999 999999 999999 999999 999999 999999 0 999999 999999 999999 999999 999999 999999 999999 999999 999999 999999 999999 999999 999999 999999 999999 999999 999999 999999 999999 999999 999999 999999 999999 999999 999999 999999 999999 999999 999999 999999 999999 999999 999999 15082 17225 12212 18741 14691 15895 13580 10012 11200 11006 11559 11158 10348 14691 12256 13873 15190 11575 15167 15786 10499 19858 15043 17941 11415 17401 18807 14021 13431 13949 19611 13142 15264 13385 11052 13694 12516 18009 19933 12379 16480 15236 12561 14032 10927 10129 14846 13402 10213 17046 999999
999999 999999 999999 999999 999999 999999 999999 999999 999999 999999 999999 999999 999999 999999 999999 999999 999999 999999 0 999999 999999 999999 999999 999999 999999 999999 999999 999999 999999 999999 999999 999999 999999 999999 999999 999999 999999 999999 999999 999999 999999 999999 999999 999999 999999 999999 999999 999999 999999 999999 999999 10100 15934 18575 11419 16448 17347 14982 18377 13982 10985 13730 15129 11665 11362 16613 16898 12646 18942 16134 14967 15656 19760 18965 10938 17151 10561 13489 17996 13774 12950 15560 11882 12358 19758 13860 17418 15588 16254 15418 12614 15776 10586 17934 12454 15235 16638 11713 13962 18568 13689 999999
999999 999999 999999 999999 999999 999999 999999 999999 999999 999999 999999 999999 999999 999999 999999 999999 999999 999999 999999 0 999999 999999 999999 999999 999999 999999 999999 999999 999999 999999 999999 999999 999999 999999 999999 999999 999999 999999 999999 999999 999999 999999 999999 999999 999999 999999 999999 999999 999999 999999 999999 11802 19202 18809 18853 13559 18505 10763 11539 18419 11655 10238 16025 13256 15100 18240 12654 18837 16542 19456 10343 13487 15174 17955 18355 14243 10938 15590 13337 14501 18951 17901 17897 19675 14280 10709 11151 18207 17394 10020 16940 14838 10921 15578 18124 14407 14427 11426 16544 16276 17397 999999
999999 999999 999999 999999 999999 999999 999999 999999 999999 999999 999999 999999 999999 999999 999999 999999 999999 999999 999999 999999 0 999999 999999 999999 999999 999999 999999 999999 999999 999999 999999 999999 999999 999999 999999 999999 999999 999999 999999 999999 999999 999999 999999 999999 999999 999999 999999 999999 999999 999999 999999 14245 13328 15500 13179 15519 12241 16615 11075 19089 15077 16071 14321 17610 11761 18550 13039 17190 16175 13890 15832 12935 18235 14558 17254 12490 12192 18443 10459 12437 11964 18849 15951 13253 11156 19537 14519 12628 14459 11888 10239 15517 11392 11903 14977 17458 17595 16007 18058 16925 14984 999999
999999 999999 999999 999999 999999 999999 999999 999999 999999 999999 999999 999999 999999 999999 999999 999999 999999 999999 999999 999999 999999 0 999999 999999 999999 999999 999999 999999 999999 999999 999999 999999 999999 999999 999999 999999 999999 999999 999999 999999 999999 999999 999999 999999 999999 999999 999999 999999 999999 999999 999999 17949 17257 16813 12319 10543 14043 12324 12589 19338 16034 13274 13731 16227 17784 12730 19905 16808 11887 10597 15381 10490 16501 14278 18732 19269 16881 13273 17395 19628 10122 17637 15349 10573 17997 15402 17338 12879 19758 12849 10967 15034 12769 10585 18114 10087 15088 18178 18786 12680 15161 999999
999999 999999 999999 999999 999999 999999 999999 999999 999999 999999 999999 999999 999999 999999 999999 999999 999999 999999 999999 999999 999999 999999 0 999999 999999 999999 999999 999999 999999 999999 999999 999999 999999 999999 999999 999999 999999 999999 999999 999999 999999 999999 999999 999999 999999 999999 999999 999999 999999 999999 999999 15008 12509 18628 19336 17546 13341 13250 13220 12215 11114 14163 17729 14685 19589 12252 15276 13320 12797 11865 15245 10714 10954 16339 14656 14638 18738 11533 16311 12836 13691 11301 16201 12968 13955 19307 14685 15972 13758 13460 11527 16365 10359 15144 16847 11912 15815 13489 19200 17582 17036 999999
999999 999999 999999 999999 999999 999999 999999 999999 999999 999999 999999 999999 999999 999999 999999 999999 999999 999999 999999 999999 999999 999999 999999 0 999999 999999 999999 999999 999999 999999 999999 999999 999999 999999 999999 999999 999999 999999 999999 999999 999999 999999 999999 999999 999999 999999 999999 999999 999999 999999 999999 15113 13168 14718 15963 12782 15750 14805 15434 18468 14880 11321 16585 13989 10130 19014 13285 16876 11139 17093 16076 14860 13944 19295 10366 10120 15835 14326 15832 12748 10464 18296 11671 14947 13763 10205 13756 14738 12354 19998 11827 19800 13674 11677 11360 18427 10209 16542 10075 18779 12346 999999
999999 999999 999999 999999 999999 999999 999999 999999 999999 999999 999999 999999 999999 999999 999999 999999 999999 999999 999999 999999 999999 999999 999999 999999 0 999999 999999 999999 999999 999999 999999 999999 999999 999999 999999 999999 999999 999999 999999 999999 999999 999999 999999 999999 999999 999999 999999 999999 999999 999999 999999 19546 18962 10636 17895 18081 10674 16328 15880 12439 13232 14531 11167 11054 19808 14056 10370 11582 15703 10574 11381 11750 12357 14316 11336 12174 16988 13478 13167 12167 10039 11674 10110 14292 19518 19162 11626 11211 16975 16095 19291 13712 14018 17203 17445 15246 19884 12562 18960 11812 12430 999999
999999 999999 999999 999999 999999 999999 999999 999999 999999 999999 999999 999999 999999 999999 999999 999999 999999 999999 999999 999999 999999 999999 999999 999999 999999 0 999999 999999 999999 999999 999999 999999 999999 999999 999999 999999 999999 999999 999999 999999 999999 999999 999999 999999 999999 999999 999999 999999 999999 999999 999999 11784 12370 10178 13406 18485 19059 19134 10401 18966 10791 12308 10016 18688 15270 14491 16443 14866 13153 17006 19661 18595 15611 19843 11059 18232 14789 11015 19975 12375 14425 19901 12763 15021 17065 18201 19083 10668 11813 12510 18737 13464 10111 18056 11630 17609 13859 16628 10493 13647 16031 999999
999999 999999 999999 999999 999999 999999 999999 999999 999999 999999 999999 999999 999999 999999 999999 999999 999999 999999 999999 999999 999999 999999 999999 999999 999999 999999 0 999999 999999 999999 999999 999999 999999 999999 999999 999999 999999 999999 999999 999999 999999 999999 999999 999999 999999 999999 999999 999999 999999 999999 999999 15478 10904 15246 10062 17817 17206 15837 19433 17941 12102 13212 19771 14729 19884 13100 17668 18313 11061 13509 17364 12501 12249 16916 14615 18140 17114 10250 17494 18485 12232 16505 14733 12737 16533 10656 12167 19004 13953 12697 10800 16306 15172 17464 12147 14546 13233 15964 14749 16325 16200 999999
999999 999999 999999 999999 999999 999999 999999 999999 999999 999999 999999 999999 999999 999999 999999 999999 999999 999999 999999 999999 999999 999999 999999 999999 999999 999999 999999 0 999999 999999 999999 999999 999999 999999 999999 999999 999999 999999 999999 999999 999999 999999 999999 999999 999999 999999 999999 999999 999999 999999 999999 14320 18913 11671 16247 11124 19525 14396 13490 18127 18827 18941 16880 11230 14478 12586 16582 14806 13975 17260 10349 17641 19652 12897 11486 11781 19125 16850 14077 19289 10760 16550 13073 17346 10687 15791 13701 11507 12361 19123 10291 13715 10215 19432 12330 10706 11397 18512 17112 10247 11350 999999
999999 999999 999999 999999 999999 999999 999999 999999 999999 999999 999999 999999 999999 999999 999999 999999 999999 999999 999999 999999 999999 999999 999999 999999 999999 999999 999999 999999 0 999999 999999 999999 999999 999999 999999 999999 999999 999999 999999 999999 999999 999999 999999 999999 999999 999999 999999 999999 999999 999999 999999 13836 15106 15615 12686 17494 15624 16057 14739 18478 18409 11922 13274 17432 15072 17033 13647 15663 15013 14215 14440 10649 15047 15443 17046 10162 10104 17305 10583 11428 14598 17212 19413 13358 13484 13889 10807 10774 12432 10878 17549 14398 11189 12353 15900 14059 19836 19992 10452 11924 18139 999999
999999 999999 999999 999999 999999 999999 999999 999999 999999 999999 999999 999999 999999 999999 999999 999999 999999 999999 999999 999999 999999 999999 999999 999999 999999 999999 999999 999999 999999 0 999999 999999 999999 999999 999999 999999 999999 999999 999999 999999 999999 999999 999999 999999 999999 999999 999999 999999 999999 999999 999999 12470 11299 19377 10675 10349 10619 14987 11088 14995 10331 12689 14550 11823 12897 11867 13875 18447 10958 10628 13177 11475 12095 15985 11436 16650 10446 14661 16266 13090 10822 11996 11933 17561 18856 14499 14217 17895 19873 13779 13135 18285 17916 10250 16257 13926 10075 14996 18939 11124 13260 999999
999999 999999 999999 999999 999999 999999 999999 999999 999999 999999 999999 999999 999999 999999 999999 999999 999999 999999 999999 999999 999999 999999 999999 999999 999999 999999 999999 999999 999999 999999 0 999999 999999 999999 999999 999999 999999 999999 999999 999999 999999 999999 999999 999999 999999 999999 999999 999999 999999 999999 999999 12930 14209 11398 13356 12641 13254 11839 17905 12543 12117 14426 18296 18780 15796 19071 14482 10754 13858 12859 14045 16124 13115 10991 10762 16291 12891 18554 17413 18904 19564 11885 10432 19548 16329 19274 16792 10427 15791 17490 17791 16179 14334 12141 11410 11906 15623 19913 17224 13135 13577 999999
999999 999999 999999 999999 999999 999999 999999 999999 999999 999999 999999 999999 999999 999999 999999 999999 999999 999999 999999 999999 999999 999999 999999 999999 999999 999999 999999 999999 999999 999999 999999 0 999999 999999 999999 999999 999999 999999 999999 999999 999999 999999 999999 999999 999999 999999 999999 999999 999999 999999 999999 12447 10041 11555 16713 17719 11832 18887 11802 15310 11577 17662 15766 12803 13786 12648 13382 12937 10228 18180 10797 10118 10278 17019 12698 13463 12496 10824 14476 18478 18381 19173 14471 15191 15522 17780 16753 18446 11681 10031 18582 11055 19247 12237 14599 14670 11290 13535 14764 18849 10468 999999
999999 999999 999999 999999 999999 999999 999999 999999 999999 999999 999999 999999 999999 999999 999999 999999 999999 999999 999999 999999 999999 999999 999999 999999 999999 999999 999999 999999 999999 999999 999999 999999 0 999999 999999 999999 999999 999999 999999 999999 999999 999999 999999 999999 999999 999999 999999 999999 999999 999999 999999 17534 14388 10235 14973 13223 11411 19098 15896 10245 16085 14269 11547 18885 10178 10615 11765 19485 18049 19360 18847 10058 12108 11618 11132 13273 16465 10802 15939 11572 19779 17594 15399 13611 19684 11756 17785 10703 16085 18973 15919 11759 12069 11430 17320 11241 10532 18296 16322 14593 19100 999999
999999 999999 999999 999999 999999 999999 999999 999999 999999 999999 999999 999999 999999 999999 999999 999999 999999 999999 999999 999999 999999 999999 999999 999999 999999 999999 999999 999999 999999 999999 999999 999999 999999 0 999999 999999 999999 999999 999999 999999 999999 999999 999999 999999 999999 999999 999999 999999 999999 999999 999999 13315 13290 12634 17286 10923 18034 12664 18783 11906 17445 10314 16267 14088 14199 15410 19662 16020 12525 19426 14815 17517 12759 16715 10078 18215 18325 13147 14619 16827 19941 19107 13879 16217 14729 17138 18856 19570 16311 10660 19571 12060 13347 11869 12416 17625 13035 19120 11415 12418 11086 999999
999999 999999 999999 999999 999999 999999 999999 999999 999999 999999 999999 999999 999999 999999 999999 999999 999999 999999 999999 999999 999999 999999 999999 999999 999999 999999 999999 999999 999999 999999 999999 999999 999999 999999 0 999999 999999 999999 999999 999999 999999 999999 999999 999999 999999 999999 999999 999999 999999 999999 999999 19427 13134 13465 16389 17293 16790 14030 19356 10896 14468 16410 12040 15187 15495 16532 11309 12059 10581 16461 12088 15549 16142 16604 18089 11728 17355 19776 16312 16732 13562 16258 12042 17586 17230 19823 13321 15137 11871 10201 12169 14314 15445 13328 16417 13283 11074 13659 17634 17198 18531 999999
999999 999999 999999 999999 999999 999999 999999 999999 999999 999999 999999 999999 999999 999999 999999 999999 999999 999999 999999 999999 999999 999999 999999 999999 999999 999999 999999 999999 999999 999999 999999 999999 999999 999999 999999 0 999999 999999 999999 999999 999999 999999 999999 999999 999999 999999 999999 999999 999999 999999 999999 19320 19924 13906 15404 14189 10983 16742 19204 10785 14793 10095 15197 10121 13926 16778 12622 15343 19542 13201 18339 14715 11498 15354 13503 19451 15738 12312 18968 11946 17064 19566 15284 18381 14530 11051 13369 15670 16844 19988 11519 15734 13454 10509 12134 11897 12630 18478 11523 15705 13525 999999
999999 999999 999999 999999 999999 999999 999999 999999 999999 999999 999999 999999 999999 999999 999999 999999 999999 999999 999999 999999 999999 999999 999999 999999 999999 999999 999999 999999 999999 999999 999999 999999 999999 999999 999999 999999 0 999999 999999 999999 999999 999999 999999 999999 999999 999999 999999 999999 999999 999999 999999 10370 15063 12193 14272 17099 17207 11650 17978 14311 10137 19179 13556 16785 13731 19907 18364 10866 13216 15991 11483 13485 10453 16917 14256 10718 18791 11352 18640 19096 10889 15503 13150 19662 18185 14121 19556 14289 12799 15667 14963 18034 13022 19606 17375 19083 10717 19450 17806 14572 18647 999999
999999 999999 999999 999999 999999 999999 999999 999999 999999 999999 999999 999999 999999 999999 999999 999999 999999 999999 999999 999999 999999 999999 999999 999999 999999 999999 999999 999999 999999 999999 999999 999999 999999 999999 999999 999999 999999 0 999999 999999 999999 999999 999999 999999 999999 999999 999999 999999 999999 999999 999999 15316 16264 14363 15141 19113 11497 14269 18182 14732 11057 18977 17956 14007 14808 10968 14103 14611 15011 16017 17698 19194 19715 10607 16859 15500 10617 17958 10752 10275 17619 13193 16800 12324 13432 12213 19689 13632 10874 11281 18092 10299 12378 17666 18022 13809 19410 11656 12261 13358 10686 999999
999999 999999 999999 999999 999999 999999 999999 999999 999999 999999 999999 999999 999999 999999 999999 999999 999999 999999 999999 999999 999999 999999 999999 999999 999999 999999 999999 999999 999999 999999 999999 999999 999999 999999 999999 999999 999999 999999 0 999999 999999 999999 999999 999999 999999 999999 999999 999999 999999 999999 999999 13898 11951 13434 10894 10132 13263 15074 14240 10186 13201 12797 19544 13207 18673 14129 17910 11571 16078 11024 19514 13088 13103 15034 14346 12178 11338 17373 14537 13999 13216 13359 12989 16225 12173 10853 16630 12856 14881 18735 11577 13111 19632 10704 19143 14116 17389 16812 12624 12779 14616 999999
999999 999999 999999 999999 999999 999999 999999 999999 999999 999999 999999 999999 999999 999999 999999 999999 999999 999999 999999 999999 999999 999999 999999 999999 999999 999999 999999 999999 999999 999999 999999 999999 999999 999999 999999 999999 999999 999999 999999 0 999999 999999 999999 999999 999999 999999 999999 999999 999999 999999 999999 19079 13752 16799 18942 18026 15170 15942 15021 11978 10603 13057 17660 10114 17194 18789 16459 12544 13348 18447 19751 19400 12603 13915 11301 10970 19258 13673 10159 15447 16712 10114 15528 19575 11618 13047 15512 19374 13937 11141 13948 17968 18400 13244 10183 16627 13185 17989 10797 10400 16863 999999
999999 999999 999999 999999 999999 999999 999999 999999 999999 999999 999999 999999 999999 999999 999999 999999 999999 999999 999999 999999 999999 999999 999999 999999 999999 999999 999999 999999 999999 999999 999999 999999 999999 999999 999999 999999 999999 999999 999999 999999 0 999999 999999 999999 999999 999999 999999 999999 999999 999999 999999 13187 14269 18686 17149 12386 18063 11993 18447 19617 18173 13573 17637 13324 11014 17320 12202 14709 10663 15555 16300 13931 15145 14731 12842 17634 12410 10751 15928 12361 13391 15902 19372 16971 14757 11371 19471 12116 12529 10705 17050 13252 17522 19111 11320 18399 19087 12383 19106 19379 14206 999999
999999 999999 999999 999999 999999 999999 999999 999999 999999 999999 999999 999999 999999 999999 999999 999999 999999 999999 999999 999999 999999 999999 999999 999999 999999 999999 999999 999999 999999 999999 999999 999999 999999 999999 999999 999999 999999 999999 999999 999999 999999 0 999999 999999 999999 999999 999999 999999 999999 999999 999999 10888 18507 10183 15664 19543 18505 19588 17892 13196 10314 13906 13530 16856 14003 19721 12579 19664 16063 13677 18756 12824 12549 10548 17340 14111 16357 13711 15231 15186 13714 17287 18582 11163 18531 10120 16399 19259 16143 14383 16292 15023 14368 19463 14737 10053 15935 17024 16280 18054 17925 999999
999999 999999 999999 999999 999999 999999 999999 999999 999999 999999 999999 999999 999999 999999 999999 999999 999999 999999 999999 999999 999999 999999 999999 999999 999999 999999 999999 999999 999999 999999 999999 999999 999999 999999 999999 999999 999999 999999 999999 999999 999999 999999 0 999999 999999 999999 999999 999999 999999 999999 999999 11638 10382 17973 14118 11698 19333 10889 11466 19810 16733 16271 10709 15615 15349 16809 11004 17853 11532 19310 18626 19383 12761 17647 18231 17994 17947 10027 10444 11328 13076 13483 17836 15125 10367 11954 14100 16365 11919 15787 17168 15751 18302 13667 17240 16095 17656 19911 16229 10384 17708 999999
999999 999999 999999 999999 999999 999999 999999 999999 999999 999999 999999 999999 999999 999999 999999 999999 999999 999999 999999 999999 999999 999999 999999 999999 999999 999999 999999 999999 999999 999999 999999 999999 999999 999999 999999 999999 999999 999999 999999 999999 999999 999999 999999 0 999999 999999 999999 999999 999999 999999 999999 11900 16854 19000 19589 11899 14126 14690 14076 11852 17505 12943 13277 11136 15827 18149 17775 16792 11755 14401 15766 12250 11721 15762 18377 12211 19293 12720 11586 14136 15379 14409 19665 16403 19638 19306 12199 15850 10805 15255 12854 16790 10128 16098 14776 16420 18670 16769 17218 14602 14594 999999
999999 999999 999999 999999 999999 999999 999999 999999 999999 999999 999999 999999 999999 999999 999999 999999 999999 999999 999999 999999 999999 999999 999999 999999 999999 999999 999999 999999 999999 999999 999999 999999 999999 999999 999999 999999 999999 999999 999999 999999 999999 999999 999999 999999 0 999999 999999 999999 999999 999999 999999 16307 15783 12839 16481 14216 19441 16704 14043 16812 13023 15261 15581 19831 12402 14598 17102 14874 14656 16059 15524 16291 12817 15237 13369 14533 14148 17292 11990 10473 18376 18842 11424 15291 17482 18578 10361 13993 15190 10988 11557 15951 18649 16142 14706 12781 10418 14259 13701 11404 12376 999999
999999 999999 999999 999999 999999 999999 999999 999999 999999 999999 999999 999999 999999 999999 999999 999999 999999 999999 999999 999999 999999 999999 999999 999999 999999 999999 999999 999999 999999 999999 999999 999999 999999 999999 999999 999999 999999 999999 999999 999999 999999 999999 999999 999999 999999 0 999999 999999 999999 999999 999999 14934 14157 10469 19770 17518 16197 16167 19958 17302 16451 11395 12998 18543 10573 16637 12162 17502 13495 11529 17389 19762 15935 19931 15280 18577 17187 12862 18792 14798 14894 17601 11537 16317 19558 12936 16121 10696 13295 13715 17919 10714 19800 11179 12371 11821 11548 19543 15910 17455 19136 999999
999999 999999 999999 999999 999999 999999 999999 999999 999999 999999 999999 999999 999999 999999 999999 999999 999999 999999 999999 999999 999999 999999 999999 999999 999999 999999 999999 999999 999999 999999 999999 999999 999999 999999 999999 999999 999999 999999 999999 999999 999999 999999 999999 999999 999999 999999 0 999999 999999 999999 999999 11797 12073 14635 12248 13357 15949 16394 18959 12008 14116 15843 14337 18312 11631 16044 11330 19942 13095 18441 14680 13142 14710 11534 12270 18031 10989 14683 12246 16304 16415 17543 12498 14044 15348 17782 19158 15299 14855 16525 13704 18643 11619 13516 13151 15638 12705 14611 19742 19008 19034 999999
999999 999999 999999 999999 999999 999999 999999 999999 999999 999999 999999 999999 999999 999999 999999 999999 999999 999999 999999 999999 999999 999999 999999 999999 999999 999999 999999 999999 999999 999999 999999 999999 999999 999999 999999 999999 999999 999999 999999 999999 999999 999999 999999 999999 999999 999999 999999 0 999999 999999 999999 13368 12275 14304 10476 19349 16918 19201 12681 12740 17693 18437 17909 11961 13034 11333 13488 17753 17011 11437 15426 15672 14455 16717 11968 19592 15690 19277 16476 19352 11654 10277 17825 14680 13832 15048 19524 11856 16679 14200 10947 17984 18797 13561 11682 11481 11312 16807 16556 15981 12596 999999
999999 999999 999999 999999 999999 999999 999999 999999 999999 999999 999999 999999 999999 999999 999999 999999 999999 999999 999999 999999 999999 999999 999999 999999 999999 999999 999999 999999 999999 999999 999999 999999 999999 999999 999999 999999 999999 999999 999999 999999 999999 999999 999999 999999 999999 999999 999999 999999 0 999999 999999 19126 14218 19467 10774 14532 12382 19936 14617 17674 19242 11906 19323 15585 16467 18241 10220 13804 13662 12543 19855 19468 16136 10292 12377 13354 12637 13029 13381 15320 17835 17629 13420 10474 11161 11525 19826 16733 10778 12442 17001 18324 14215 14480 17664 11139 19452 11396 15536 18631 18759 999999
999999 999999 999999 999999 999999 999999 999999 999999 999999 999999 999999 999999 999999 999999 999999 999999 999999 999999 999999 999999 999999 999999 999999 999999 999999 999999 999999 999999 999999 999999 999999 999999 999999 999999 999999 999999 999999 999999 999999 999999 999999 999999 999999 999999 999999 999999 999999 999999 999999 0 999999 15466 13738 18685 13823 12341 19928 13439 19747 11799 13041 10670 12408 16261 16558 11135 10357 13053 12748 16765 12747 17882 10858 14896 17280 11872 17915 19727 17442 12606 19258 13747 14821 12513 16294 16952 16693 11627 11665 16767 15301 17605 17231 10003 19281 16759 11116 16737 13581 18415 15809 999999
999999 999999 999999 999999 999999 999999 999999 999999 999999 999999 999999 999999 999999 999999 999999 999999 999999 999999 999999 999999 999999 999999 999999 999999 999999 999999 999999 999999 999999 999999 999999 999999 999999 999999 999999 999999 999999 999999 999999 999999 999999 999999 999999 999999 999999 999999 999999 999999 999999 999999 0 11086 19792 10049 16510 19774 13734 15108 18378 12692 19042 16241 10591 17687 12388 15902 19170 15072 10488 14776 18650 19295 12097 10024 13702 12762 14069 14481 16924 17338 17726 19078 15657 13230 15334 19469 19305 18494 13226 13038 19437 18481 11733 19213 18804 11722 10017 19210 13619 18593 15917 999999
999999 14701 16308 14905 18721 13642 14081 18331 16125 10651 17387 12522 11317 13000 19143 14441 13124 15082 10100 11802 14245 17949 15008 15113 19546 11784 15478 14320 13836 12470 12930 12447 17534 13315 19427 19320 10370 15316 13898 19079 13187 10888 11638 11900 16307 14934 11797 13368 19126 15466 11086 0 999999 999999 999999 999999 999999 999999 999999 999999 999999 999999 999999 999999 999999 999999 999999 999999 999999 999999 999999 999999 999999 999999 999999 999999 999999 999999 999999 999999 999999 999999 999999 999999 999999 999999 999999 999999 999999 999999 999999 999999 999999 999999 999999 999999 999999 999999 999999 999999 999999 8980
999999 16363 19495 13008 13300 12445 18922 19586 15601 13563 13691 14491 13073 12490 18511 16533 19963 17225 15934 19202 13328 17257 12509 13168 18962 12370 10904 18913 15106 11299 14209 10041 14388 13290 13134 19924 15063 16264 11951 13752 14269 18507 10382 16854 15783 14157 12073 12275 14218 13738 19792 999999 0 999999 999999 999999 999999 999999 999999 999999 999999 999999 999999 999999 999999 999999 999999 999999 999999 999999 999999 999999 999999 999999 999999 999999 999999 999999 999999 999999 999999 999999 999999 999999 999999 999999 999999 999999 999999 999999 999999 999999 999999 999999 999999 999999 999999 999999 999999 999999 999999 5104
999999 16337 10483 16833 18239 17077 10442 18668 15597 17482 11623 16670 18385 10048 15044 18235 11695 12212 18575 18809 15500 16813 18628 14718 10636 10178 15246 11671 15615 19377 11398 11555 10235 12634 13465 13906 12193 14363 13434 16799 18686 10183 17973 19000 12839 10469 14635 14304 19467 18685 10049 999999 999999 0 999999 999999 999999 999999 999999 999999 999999 999999 999999 999999 999999 999999 999999 999999 999999 999999 999999 999999 999999 999999 999999 999999 999999 999999 999999 999999 999999 999999 999999 999999 999999 999999 999999 999999 999999 999999 999999 999999 999999 999999 999999 999999 999999 999999 999999 999999 999999 12157
999999 19308 14649 11414 19451 17828 13419 12140 18059 13818 16363 12823 14902 19158 17914 13072 11865 18741 11419 18853 13179 12319 19336 15963 17895 13406 10062 16247 12686 10675 13356 16713 14973 17286 16389 15404 14272 15141 10894 18942 17149 15664 14118 19589 16481 19770 12248 10476 10774 13823 16510 999999 999999 999999 0 999999 999999 999999 999999 999999 999999 999999 999999 999999 999999 999999 999999 999999 999999 999999 999999 999999 999999 999999 999999 999999 999999 999999 999999 999999 999999 999999 999999 999999 999999 999999 999999 999999 999999 999999 999999 999999 999999 999999 999999 999999 999999 999999 999999 999999 999999 13515
999999 19036 16656 13099 15617 14595 11520 16130 18503 12290 17008 18412 12135 11448 14273 16460 10626 14691 16448 13559 15519 10543 17546 12782 18081 18485 17817 11124 17494 10349 12641 17719 13223 10923 17293 14189 17099 19113 10132 18026 12386 19543 11698 11899 14216 17518 13357 19349 14532 12341 19774 999999 999999 999999 999999 0 999999 999999 999999 999999 999999 999999 999999 999999 999999 999999 999999 999999 999999 999999 999999 999999 999999 999999 999999 999999 999999 999999 999999 999999 999999 999999 999999 999999 999999 999999 999999 999999 999999 999999 999999 999999 999999 999999 999999 999999 999999 999999 999999 999999 999999 13216
999999 16453 12400 13432 15697 16251 15109 14127 15930 17757 16529 19827 16601 11593 13525 10328 11310 15895 17347 18505 12241 14043 13341 15750 10674 19059 17206 19525 15624 10619 13254 11832 11411 18034 16790 10983 17207 11497 13263 15170 18063 18505 19333 14126 19441 16197 15949 16918 12382 19928 13734 999999 999999 999999 999999 999999 0 999999 999999 999999 999999 999999 999999 999999 999999 999999 999999 999999 999999 999999 999999 999999 999999 999999 999999 999999 999999 999999 999999 999999 999999 999999 999999 999999 999999 999999 999999 999999 999999 999999 999999 999999 999999 999999 999999 999999 999999 999999 999999 999999 999999 13755
999999 10489 11653 17950 14543 18402 10969 16470 15180 15148 19690 10148 10445 13829 18244 15827 15002 13580 14982 10763 16615 12324 13250 14805 16328 19134 15837 14396 16057 14987 11839 18887 19098 12664 14030 16742 11650 14269 15074 15942 11993 19588 10889 14690 16704 16167 16394 19201 19936 13439 15108 999999 999999 999999 999999 999999 999999 0 999999 999999 999999 999999 999999 999999 999999 999999 999999 999999 999999 999999 999999 999999 999999 999999 999999 999999 999999 999999 999999 999999 999999 999999 999999 999999 999999 999999 999999 999999 999999 999999 999999 999999 999999 999999 999999 999999 999999 999999 999999 999999 999999 9415
999999 19180 10199 12190 17055 19149 13209 13163 10207 11084 12142 17026 10128 16898 13023 19645 15957 10012 18377 11539 11075 12589 13220 15434 15880 10401 19433 13490 14739 11088 17905 11802 15896 18783 19356 19204 17978 18182 14240 15021 18447 17892 11466 14076 14043 19958 18959 12681 14617 19747 18378 999999 999999 999999 999999 999999 999999 999999 0 999999 999999 999999 999999 999999 999999 999999 999999 999999 999999 999999 999999 999999 999999 999999 999999 999999 999999 999999 999999 999999 999999 999999 999999 999999 999999 999999 999999 999999 999999 999999 999999 999999 999999 999999 999999 999999 999999 999999 999999 999999 999999 7964
999999 16995 16073 10441 14400 11739 14805 15668 19946 15558 10942 14124 16689 15281 12334 12851 17922 11200 13982 18419 19089 19338 12215 18468 12439 18966 17941 18127 18478 14995 12543 15310 10245 11906 10896 10785 14311 14732 10186 11978 19617 13196 19810 11852 16812 17302 12008 12740 17674 11799 12692 999999 999999 999999 999999 999999 999999 999999 999999 0 999999 999999 999999 999999 999999 999999 999999 999999 999999 999999 999999 999999 999999 999999 999999 999999 999999 999999 999999 999999 999999 999999 999999 999999 999999 999999 999999 999999 999999 999999 999999 999999 999999 999999 999999 999999 999999 999999 999999 999999 999999 6388
999999 17699 13272 14883 14295 18837 16807 19413 13656 19759 17987 11936 10300 19637 14924 14840 13324 11006 10985 11655 15077 16034 11114 14880 13232 10791 12102 18827 18409 10331 12117 11577 16085 17445 14468 14793 10137 11057 13201 10603 18173 10314 16733 17505 13023 16451 14116 17693 19242 13041 19042 999999 999999 999999 999999 999999 999999 999999 999999 999999 0 999999 999999 999999 999999 999999 999999 999999 999999 999999 999999 999999 999999 999999 999999 999999 999999 999999 999999 999999 999999 999999 999999 999999 999999 999999 999999 999999 999999 999999 999999 999999 999999 999999 999999 999999 999999 999999 999999 999999 999999 12210
999999 17725 11027 15250 18420 16846 10176 17199 18421 16859 19041 15126 12195 14254 16941 15812 12847 11559 13730 10238 16071 13274 14163 11321 14531 12308 13212 18941 11922 12689 14426 17662 14269 10314 16410 10095 19179 18977 12797 13057 13573 13906 16271 12943 15261 11395 15843 18437 11906 10670 16241 999999 999999 999999 999999 999999 999999 999999 999999 999999 999999 0 999999 999999 999999 999999 999999 999999 999999 999999 999999 999999 999999 999999 999999 999999 999999 999999 999999 999999 999999 999999 999999 999999 999999 999999 999999 999999 999999 999999 999999 999999 999999 999999 999999 999999 999999 999999 999999 999999 999999 9455
999999 16281 19460 14865 12160 10828 10378 12733 13510 19832 13987 19967 15242 11199 18671 12654 14181 11158 15129 16025 14321 13731 17729 16585 11167 10016 19771 16880 13274 14550 18296 15766 11547 16267 12040 15197 13556 17956 19544 17660 17637 13530 10709 13277 15581 12998 14337 17909 19323 12408 10591 999999 999999 999999 999999 999999 999999 999999 999999 999999 999999 999999 0 999999 999999 999999 999999 999999 999999 999999 999999 999999 999999 999999 999999 999999 999999 999999 999999 999999 999999 999999 999999 999999 999999 999999 999999 999999 999999 999999 999999 999999 999999 999999 999999 999999 999999 999999 999999 999999 999999 12305
999999 15854 19264 17473 13632 19174 19498 19612 15650 10592 19371 11743 17802 15327 13025 13281 18614 10348 11665 13256 17610 16227 14685 13989 11054 18688 14729 11230 17432 11823 18780 12803 18885 14088 15187 10121 16785 14007 13207 10114 13324 16856 15615 11136 19831 18543 18312 11961 15585 16261 17687 999999 999999 999999 999999 999999 999999 999999 999999 999999 999999 999999 999999 0 999999 999999 999999 999999 999999 999999 999999 999999 999999 999999 999999 999999 999999 999999 999999 999999 999999 999999 999999 999999 999999 999999 999999 999999 999999 999999 999999 999999 999999 999999 999999 999999 999999 999999 999999 999999 999999 7915
999999 11034 19246 11250 10367 19658 19131 12073 16723 12574 18349 17736 18220 14370 13345 19525 17414 14691 11362 15100 11761 17784 19589 10130 19808 15270 19884 14478 15072 12897 15796 13786 10178 14199 15495 13926 13731 14808 18673 17194 11014 14003 15349 15827 12402 10573 11631 13034 16467 16558 12388 999999 999999 999999 999999 999999 999999 999999 999999 999999 999999 999999 999999 999999 0 999999 999999 999999 999999 999999 999999 999999 999999 999999 999999 999999 999999 999999 999999 999999 999999 999999 999999 999999 999999 999999 999999 999999 999999 999999 999999 999999 999999 999999 999999 999999 999999 999999 999999 999999 999999 12030
999999 10269 13400 16188 14760 11188 19573 15224 16252 17955 14562 13835 18445 19883 17142 13687 17280 12256 16613 18240 18550 12730 12252 19014 14056 14491 13100 12586 17033 11867 19071 12648 10615 15410 16532 16778 19907 10968 14129 18789 17320 19721 16809 18149 14598 16637 16044 11333 18241 11135 15902 999999 999999 999999 999999 999999 999999 999999 999999 999999 999999 999999 999999 999999 999999 0 999999 999999 999999 999999 999999 999999 999999 999999 999999 999999 999999 999999 999999 999999 999999 999999 999999 999999 999999 999999 999999 999999 999999 999999 999999 999999 999999 999999 999999 999999 999999 999999 999999 999999 999999 10092
999999 12657 10807 13930 17240 10060 13324 17189 18416 16347 18003 16982 18295 12143 14472 17194 10302 13873 16898 12654 13039 19905 15276 13285 10370 16443 17668 16582 13647 13875 14482 13382 11765 19662 11309 12622 18364 14103 17910 16459 12202 12579 11004 17775 17102 12162 11330 13488 10220 10357 19170 999999 999999 999999 999999 999999 999999 999999 999999 999999 999999 999999 999999 999999 999999 999999 0 999999 999999 999999 999999 999999 999999 999999 999999 999999 999999 999999 999999 999999 999999 999999 999999 999999 999999 999999 999999 999999 999999 999999 999999 999999 999999 999999 999999 999999 999999 999999 999999 999999 999999 7872
999999 10945 16786 15625 19391 15823 14653 11659 15591 10857 11493 12603 11905 14725 11336 15362 15464 15190 12646 18837 17190 16808 13320 16876 11582 14866 18313 14806 15663 18447 10754 12937 19485 16020 12059 15343 10866 14611 11571 12544 14709 19664 17853 16792 14874 17502 19942 17753 13804 13053 15072 999999 999999 999999 999999 999999 999999 999999 999999 999999 999999 999999 999999 999999 999999 999999 999999 0 999999 999999 999999 999999 999999 999999 999999 999999 999999 999999 999999 999999 999999 999999 999999 999999 999999 999999 999999 999999 999999 999999 999999 999999 999999 999999 999999 999999 999999 999999 999999 999999 999999 9261
999999 18307 10101 14561 17537 13998 16787 12105 13534 10201 19923 15816 12786 12988 17607 17750 16486 11575 18942 16542 16175 11887 12797 11139 15703 13153 11061 13975 15013 10958 13858 10228 18049 12525 10581 19542 13216 15011 16078 13348 10663 16063 11532 11755 14656 13495 13095 17011 13662 12748 10488 999999 999999 999999 999999 999999 999999 999999 999999 999999 999999 999999 999999 999999 999999 999999 999999 999999 0 999999 999999 999999 999999 999999 999999 999999 999999 999999 999999 999999 999999 999999 999999 999999 999999 999999 999999 999999 999999 999999 999999 999999 999999 999999 999999 999999 999999 999999 999999 999999 999999 7884
999999 14778 18939 14934 18757 17411 16708 11234 10570 15352 18815 18975 11786 15775 10103 13632 19382 15167 16134 19456 13890 10597 11865 17093 10574 17006 13509 17260 14215 10628 12859 18180 19360 19426 16461 13201 15991 16017 11024 18447 15555 13677 19310 14401 16059 11529 18441 11437 12543 16765 14776 999999 999999 999999 999999 999999 999999 999999 999999 999999 999999 999999 999999 999999 999999 999999 999999 999999 999999 0 999999 999999 999999 999999 999999 999999 999999 999999 999999 999999 999999 999999 999999 999999 999999 999999 999999 999999 999999 999999 999999 999999 999999 999999 999999 999999 999999 999999 999999 999999 999999 11137
999999 11860 19149 19670 11114 10652 14085 10171 15555 17936 18013 18036 12832 19823 12334 18039 12527 15786 14967 10343 15832 15381 15245 16076 11381 19661 17364 10349 14440 13177 14045 10797 18847 14815 12088 18339 11483 17698 19514 19751 16300 18756 18626 15766 15524 17389 14680 15426 19855 12747 18650 999999 999999 999999 999999 999999 999999 999999 999999 999999 999999 999999 999999 999999 999999 999999 999999 999999 999999 999999 0 999999 999999 999999 999999 999999 999999 999999 999999 999999 999999 999999 999999 999999 999999 999999 999999 999999 999999 999999 999999 999999 999999 999999 999999 999999 999999 999999 999999 999999 999999 8625
999999 15054 10944 18450 13930 17756 14881 13444 19063 17416 17017 16932 17852 11903 16004 14121 15999 10499 15656 13487 12935 10490 10714 14860 11750 18595 12501 17641 10649 11475 16124 10118 10058 17517 15549 14715 13485 19194 13088 19400 13931 12824 19383 12250 16291 19762 13142 15672 19468 17882 19295 999999 999999 999999 999999 999999 999999 999999 999999 999999 999999 999999 999999 999999 999999 999999 999999 999999 999999 999999 999999 0 999999 999999 999999 999999 999999 999999 999999 999999 999999 999999 999999 999999 999999 999999 999999 999999 999999 999999 999999 999999 999999 999999 999999 999999 999999 999999 999999 999999 999999 5350
999999 10659 16175 17405 16392 11105 11442 12458 11702 10711 17573 16608 10447 16891 13938 15822 19489 19858 19760 15174 18235 16501 10954 13944 12357 15611 12249 19652 15047 12095 13115 10278 12108 12759 16142 11498 10453 19715 13103 12603 15145 12549 12761 11721 12817 15935 14710 14455 16136 10858 12097 999999 999999 999999 999999 999999 999999 999999 999999 999999 999999 999999 999999 999999 999999 999999 999999 999999 999999 999999 999999 999999 0 999999 999999 999999 999999 999999 999999 999999 999999 999999 999999 999999 999999 999999 999999 999999 999999 999999 999999 999999 999999 999999 999999 999999 999999 999999 999999 999999 999999 10725
999999 14059 16110 10823 15166 16176 16913 16446 12284 19662 11226 16713 14411 15030 17967 16371 11355 15043 18965 17955 14558 14278 16339 19295 14316 19843 16916 12897 15443 15985 10991 17019 11618 16715 16604 15354 16917 10607 15034 13915 14731 10548 17647 15762 15237 19931 11534 16717 10292 14896 10024 999999 999999 999999 999999 999999 999999 999999 999999 999999 999999 999999 999999 999999 999999 999999 999999 999999 999999 999999 999999 999999 999999 0 999999 999999 999999 999999 999999 999999 999999 999999 999999 999999 999999 999999 999999 999999 999999 999999 999999 999999 999999 999999 999999 999999 999999 999999 999999 999999 999999 5908
999999 15759 19965 10315 15123 16801 18207 13748 13414 12013 10468 19164 16470 18965 17952 13844 12692 17941 10938 18355 17254 18732 14656 10366 11336 11059 14615 11486 17046 11436 10762 12698 11132 10078 18089 13503 14256 16859 14346 11301 12842 17340 18231 18377 13369 15280 12270 11968 12377 17280 13702 999999 999999 999999 999999 999999 999999 999999 999999 999999 999999 999999 999999 999999 999999 999999 999999 999999 999999 999999 999999 999999 999999 999999 0 999999 999999 999999 999999 999999 999999 999999 999999 999999 999999 999999 999999 999999 999999 999999 999999 999999 999999 999999 999999 999999 999999 999999 999999 999999 999999 8873
999999 11658 14746 16171 15671 12807 15763 16075 18342 12656 16610 10846 11453 18070 14742 18221 18432 11415 17151 14243 12490 19269 14638 10120 12174 18232 18140 11781 10162 16650 16291 13463 13273 18215 11728 19451 10718 15500 12178 10970 17634 14111 17994 12211 14533 18577 18031 19592 13354 11872 12762 999999 999999 999999 999999 999999 999999 999999 999999 999999 999999 999999 999999 999999 999999 999999 999999 999999 999999 999999 999999 999999 999999 999999 999999 0 999999 999999 999999 999999 999999 999999 999999 999999 999999 999999 999999 999999 999999 999999 999999 999999 999999 999999 999999 999999 999999 999999 999999 999999 999999 11579
999999 19383 11903 17693 19470 12497 17638 15371 12354 16163 17549 13469 12443 13855 14786 12480 10699 17401 10561 10938 12192 16881 18738 15835 16988 14789 17114 19125 10104 10446 12891 12496 16465 18325 17355 15738 18791 10617 11338 19258 12410 16357 17947 19293 14148 17187 10989 15690 12637 17915 14069 999999 999999 999999 999999 999999 999999 999999 999999 999999 999999 999999 999999 999999 999999 999999 999999 999999 999999 999999 999999 999999 999999 999999 999999 999999 0 999999 999999 999999 999999 999999 999999 999999 999999 999999 999999 999999 999999 999999 999999 999999 999999 999999 999999 999999 999999 999999 999999 999999 999999 11194
999999 15344 17376 10119 19102 18852 10171 19435 12390 15124 10491 15856 15919 18571 12090 11758 11526 18807 13489 15590 18443 13273 11533 14326 13478 11015 10250 16850 17305 14661 18554 10824 10802 13147 19776 12312 11352 17958 17373 13673 10751 13711 10027 12720 17292 12862 14683 19277 13029 19727 14481 999999 999999 999999 999999 999999 999999 999999 999999 999999 999999 999999 999999 999999 999999 999999 999999 999999 999999 999999 999999 999999 999999 999999 999999 999999 999999 0 999999 999999 999999 999999 999999 999999 999999 999999 999999 999999 999999 999999 999999 999999 999999 999999 999999 999999 999999 999999 999999 999999 999999 13451
999999 10123 19254 10168 10181 14504 13953 14808 11614 13675 11888 11469 19141 17326 13236 17705 18117 14021 17996 13337 10459 17395 16311 15832 13167 19975 17494 14077 10583 16266 17413 14476 15939 14619 16312 18968 18640 10752 14537 10159 15928 15231 10444 11586 11990 18792 12246 16476 13381 17442 16924 999999 999999 999999 999999 999999 999999 999999 999999 999999 999999 999999 999999 999999 999999 999999 999999 999999 999999 999999 999999 999999 999999 999999 999999 999999 999999 999999 0 999999 999999 999999 999999 999999 999999 999999 999999 999999 999999 999999 999999 999999 999999 999999 999999 999999 999999 999999 999999 999999 999999 13410
999999 15915 10808 11126 10502 12081 10153 17703 11785 14511 13175 18360 11486 14951 16816 17659 19567 13431 13774 14501 12437 19628 12836 12748 12167 12375 18485 19289 11428 13090 18904 18478 11572 16827 16732 11946 19096 10275 13999 15447 12361 15186 11328 14136 10473 14798 16304 19352 15320 12606 17338 999999 999999 999999 999999 999999 999999 999999 999999 999999 999999 999999 999999 999999 999999 999999 999999 999999 999999 999999 999999 999999 999999 999999 999999 999999 999999 999999 999999 0 999999 999999 999999 999999 999999 999999 999999 999999 999999 999999 999999 999999 999999 999999 999999 999999 999999 999999 999999 999999 999999 13769
999999 12863 12548 13740 12178 14770 15118 17854 13073 17333 14637 17205 13509 18639 18698 13662 19557 13949 12950 18951 11964 10122 13691 10464 10039 14425 12232 10760 14598 10822 19564 18381 19779 19941 13562 17064 10889 17619 13216 16712 13391 13714 13076 15379 18376 14894 16415 11654 17835 19258 17726 999999 999999 999999 999999 999999 999999 999999 999999 999999 999999 999999 999999 999999 999999 999999 999999 999999 999999 999999 999999 999999 999999 999999 999999 999999 999999 999999 999999 999999 0 999999 999999 999999 999999 999999 999999 999999 999999 999999 999999 999999 999999 999999 999999 999999 999999 999999 999999 999999 999999 12398
999999 13557 11784 16870 10762 10571 11107 14059 15380 12058 14472 18455 12723 11728 13823 18354 16124 19611 15560 17901 18849 17637 11301 18296 11674 19901 16505 16550 17212 11996 11885 19173 17594 19107 16258 19566 15503 13193 13359 10114 15902 17287 13483 14409 18842 17601 17543 10277 17629 13747 19078 999999 999999 999999 999999 999999 999999 999999 999999 999999 999999 999999 999999 999999 999999 999999 999999 999999 999999 999999 999999 999999 999999 999999 999999 999999 999999 999999 999999 999999 999999 0 999999 999999 999999 999999 999999 999999 999999 999999 999999 999999 999999 999999 999999 999999 999999 999999 999999 999999 999999 14465
999999 15100 19762 14256 12644 16389 15450 10420 17808 11141 14875 17061 17227 14394 15769 19705 16405 13142 11882 17897 15951 15349 16201 11671 10110 12763 14733 13073 19413 11933 10432 14471 15399 13879 12042 15284 13150 16800 12989 15528 19372 18582 17836 19665 11424 11537 12498 17825 13420 14821 15657 999999 999999 999999 999999 999999 999999 999999 999999 999999 999999 999999 999999 999999 999999 999999 999999 999999 999999 999999 999999 999999 999999 999999 999999 999999 999999 999999 999999 999999 999999 999999 0 999999 999999 999999 999999 999999 999999 999999 999999 999999 999999 999999 999999 999999 999999 999999 999999 999999 999999 5565
999999 17905 12548 19690 14746 17804 13104 14360 13393 12362 19248 19204 10400 19489 17266 18964 11079 15264 12358 19675 13253 10573 12968 14947 14292 15021 12737 17346 13358 17561 19548 15191 13611 16217 17586 18381 19662 12324 16225 19575 16971 11163 15125 16403 15291 16317 14044 14680 10474 12513 13230 999999 999999 999999 999999 999999 999999 999999 999999 999999 999999 999999 999999 999999 999999 999999 999999 999999 999999 999999 999999 999999 999999 999999 999999 999999 999999 999999 999999 999999 999999 999999 999999 0 999999 999999 999999 999999 999999 999999 999999 999999 999999 999999 999999 999999 999999 999999 999999 999999 999999 6053
999999 19831 15850 19717 10818 19958 17748 15163 19101 10486 13516 10460 12920 10174 19428 17475 19337 13385 19758 14280 11156 17997 13955 13763 19518 17065 16533 10687 13484 18856 16329 15522 19684 14729 17230 14530 18185 13432 12173 11618 14757 18531 10367 19638 17482 19558 15348 13832 11161 16294 15334 999999 999999 999999 999999 999999 999999 999999 999999 999999 999999 999999 999999 999999 999999 999999 999999 999999 999999 999999 999999 999999 999999 999999 999999 999999 999999 999999 999999 999999 999999 999999 999999 999999 0 999999 999999 999999 999999 999999 999999 999999 999999 999999 999999 999999 999999 999999 999999 999999 999999 9986
999999 11856 13627 10743 15975 14084 19161 13393 16074 18310 17361 17167 13313 15744 19565 11679 10567 11052 13860 10709 19537 15402 19307 10205 19162 18201 10656 15791 13889 14499 19274 17780 11756 17138 19823 11051 14121 12213 10853 13047 11371 10120 11954 19306 18578 12936 17782 15048 11525 16952 19469 999999 999999 999999 999999 999999 999999 999999 999999 999999 999999 999999 999999 999999 999999 999999 999999 999999 999999 999999 999999 999999 999999 999999 999999 999999 999999 999999 999999 999999 999999 999999 999999 999999 999999 0 999999 999999 999999 999999 999999 999999 999999 999999 999999 999999 999999 999999 999999 999999 999999 13604
999999 15455 13861 19561 16114 15620 19874 18866 14098 11251 12802 19465 16959 10376 18577 10946 17278 13694 17418 11151 14519 17338 14685 13756 11626 19083 12167 13701 10807 14217 16792 16753 17785 18856 13321 13369 19556 19689 16630 15512 19471 16399 14100 12199 10361 16121 19158 19524 19826 16693 19305 999999 999999 999999 999999 999999 999999 999999 999999 999999 999999 999999 999999 999999 999999 999999 999999 999999 999999 999999 999999 999999 999999 999999 999999 999999 999999 999999 999999 999999 999999 999999 999999 999999 999999 999999 0 999999 999999 999999 999999 999999 999999 999999 999999 999999 999999 999999 999999 999999 999999 8517
999999 11229 15396 18381 18775 11975 15740 11551 14676 15683 18318 11527 14771 10084 11678 10984 14150 12516 15588 18207 12628 12879 15972 14738 11211 10668 19004 11507 10774 17895 10427 18446 10703 19570 15137 15670 14289 13632 12856 19374 12116 19259 16365 15850 13993 10696 15299 11856 16733 11627 18494 999999 999999 999999 999999 999999 999999 999999 999999 999999 999999 999999 999999 999999 999999 999999 999999 999999 999999 999999 999999 999999 999999 999999 999999 999999 999999 999999 999999 999999 999999 999999 999999 999999 999999 999999 999999 0 999999 999999 999999 999999 999999 999999 999999 999999 999999 999999 999999 999999 999999 12390
999999 18226 12941 18993 12467 15051 17394 15666 19996 18622 11268 16842 13725 15964 12792 10896 14918 18009 16254 17394 14459 19758 13758 12354 16975 11813 13953 12361 12432 19873 15791 11681 16085 16311 11871 16844 12799 10874 14881 13937 12529 16143 11919 10805 15190 13295 14855 16679 10778 11665 13226 999999 999999 999999 999999 999999 999999 999999 999999 999999 999999 999999 999999 999999 999999 999999 999999 999999 999999 999999 999999 999999 999999 999999 999999 999999 999999 999999 999999 999999 999999 999999 999999 999999 999999 999999 999999 999999 0 999999 999999 999999 999999 999999 999999 999999 999999 999999 999999 999999 999999 10846
999999 17502 14832 16330 13366 14120 11496 19699 11801 12835 15326 17197 13779 12122 19332 15243 18285 19933 15418 10020 11888 12849 13460 19998 16095 12510 12697 19123 10878 13779 17490 10031 18973 10660 10201 19988 15667 11281 18735 11141 10705 14383 15787 15255 10988 13715 16525 14200 12442 16767 13038 999999 999999 999999 999999 999999 999999 999999 999999 999999 999999 999999 999999 999999 999999 999999 999999 999999 999999 999999 999999 999999 999999 999999 999999 999999 999999 999999 999999 999999 999999 999999 999999 999999 999999 999999 999999 999999 999999 0 999999 999999 999999 999999 999999 999999 999999 999999 999999 999999 999999 11231
999999 19854 17669 12746 16569 13232 19703 13107 18468 15857 16877 13235 18885 14859 10141 17057 19768 12379 12614 16940 10239 10967 11527 11827 19291 18737 10800 10291 17549 13135 17791 18582 15919 19571 12169 11519 14963 18092 11577 13948 17050 16292 17168 12854 11557 17919 13704 10947 17001 15301 19437 999999 999999 999999 999999 999999 999999 999999 999999 999999 999999 999999 999999 999999 999999 999999 999999 999999 999999 999999 999999 999999 999999 999999 999999 999999 999999 999999 999999 999999 999999 999999 999999 999999 999999 999999 999999 999999 999999 999999 0 999999 999999 999999 999999 999999 999999 999999 999999 999999 999999 11528
999999 17369 15640 17772 14649 16351 19903 13021 17874 12148 19016 19766 16436 15885 18990 12753 11659 16480 15776 14838 15517 15034 16365 19800 13712 13464 16306 13715 14398 18285 16179 11055 11759 12060 14314 15734 18034 10299 13111 17968 13252 15023 15751 16790 15951 10714 18643 17984 18324 17605 18481 999999 999999 999999 999999 999999 999999 999999 999999 999999 999999 999999 999999 999999 999999 999999 999999 999999 999999 999999 999999 999999 999999 999999 999999 999999 999999 999999 999999 999999 999999 999999 999999 999999 999999 999999 999999 999999 999999 999999 999999 0 999999 999999 999999 999999 999999 999999 999999 999999 999999 5993
999999 18038 13161 11451 19151 12599 14431 16956 17722 18879 15156 18086 14243 16122 19771 10753 11040 15236 10586 10921 11392 12769 10359 13674 14018 10111 15172 10215 11189 17916 14334 19247 12069 13347 15445 13454 13022 12378 19632 18400 17522 14368 18302 10128 18649 19800 11619 18797 14215 17231 11733 999999 999999 999999 999999 999999 999999 999999 999999 999999 999999 999999 999999 999999 999999 999999 999999 999999 999999 999999 999999 999999 999999 999999 999999 999999 999999 999999 999999 999999 999999 999999 999999 999999 999999 999999 999999 999999 999999 999999 999999 999999 0 999999 999999 999999 999999 999999 999999 999999 999999 9035
999999 15992 16250 15454 13840 15210 17124 17003 10485 11610 18415 18868 19062 11202 13646 19186 15661 12561 17934 15578 11903 10585 15144 11677 17203 18056 17464 19432 12353 10250 12141 12237 11430 11869 13328 10509 19606 17666 10704 13244 19111 19463 13667 16098 16142 11179 13516 13561 14480 10003 19213 999999 999999 999999 999999 999999 999999 999999 999999 999999 999999 999999 999999 999999 999999 999999 999999 999999 999999 999999 999999 999999 999999 999999 999999 999999 999999 999999 999999 999999 999999 999999 999999 999999 999999 999999 999999 999999 999999 999999 999999 999999 999999 0 999999 999999 999999 999999 999999 999999 999999 14700
999999 12871 14488 12350 19474 10781 13276 15275 10100 17198 10117 14300 12091 15458 12995 12246 17149 14032 12454 18124 14977 18114 16847 11360 17445 11630 12147 12330 15900 16257 11410 14599 17320 12416 16417 12134 17375 18022 19143 10183 11320 14737 17240 14776 14706 12371 13151 11682 17664 19281 18804 999999 999999 999999 999999 999999 999999 999999 999999 999999 999999 999999 999999 999999 999999 999999 999999 999999 999999 999999 999999 999999 999999 999999 999999 999999 999999 999999 999999 999999 999999 999999 999999 999999 999999 999999 999999 999999 999999 999999 999999 999999 999999 999999 0 999999 999999 999999 999999 999999 999999 9695
999999 16402 14914 11608 16178 17601 17012 10529 15830 12845 12449 12602 11248 14334 13548 10620 17160 10927 15235 14407 17458 10087 11912 18427 15246 17609 14546 10706 14059 13926 11906 14670 11241 17625 13283 11897 19083 13809 14116 16627 18399 10053 16095 16420 12781 11821 15638 11481 11139 16759 11722 999999 999999 999999 999999 999999 999999 999999 999999 999999 999999 999999 999999 999999 999999 999999 999999 999999 999999 999999 999999 999999 999999 999999 999999 999999 999999 999999 999999 999999 999999 999999 999999 999999 999999 999999 999999 999999 999999 999999 999999 999999 999999 999999 999999 0 999999 999999 999999 999999 999999 10479
999999 11032 13232 12346 14120 16300 19957 13017 12734 16996 15597 18316 16554 17316 10443 11452 17117 10129 16638 14427 17595 15088 15815 10209 19884 13859 13233 11397 19836 10075 15623 11290 10532 13035 11074 12630 10717 19410 17389 13185 19087 15935 17656 18670 10418 11548 12705 11312 19452 11116 10017 999999 999999 999999 999999 999999 999999 999999 999999 999999 999999 999999 999999 999999 999999 999999 999999 999999 999999 999999 999999 999999 999999 999999 999999 999999 999999 999999 999999 999999 999999 999999 999999 999999 999999 999999 999999 999999 999999 999999 999999 999999 999999 999999 999999 999999 0 999999 999999 999999 999999 12935
999999 19781 19690 17271 15073 11814 14485 19904 14329 13944 12887 11022 13170 18069 10411 17957 15627 14846 11713 11426 16007 18178 13489 16542 12562 16628 15964 18512 19992 14996 19913 13535 18296 19120 13659 18478 19450 11656 16812 17989 12383 17024 19911 16769 14259 19543 14611 16807 11396 16737 19210 999999 999999 999999 999999 999999 999999 999999 999999 999999 999999 999999 999999 999999 999999 999999 999999 999999 999999 999999 999999 999999 999999 999999 999999 999999 999999 999999 999999 999999 999999 999999 999999 999999 999999 999999 999999 999999 999999 999999 999999 999999 999999 999999 999999 999999 999999 0 999999 999999 999999 6965
999999 13033 11780 17353 12831 19537 10855 19942 15821 18098 18548 10905 17149 15215 15753 13371 13651 13402 13962 16544 18058 18786 19200 10075 18960 10493 14749 17112 10452 18939 17224 14764 16322 11415 17634 11523 17806 12261 12624 10797 19106 16280 16229 17218 13701 15910 19742 16556 15536 13581 13619 999999 999999 999999 999999 999999 999999 999999 999999 999999 999999 999999 999999 999999 999999 999999 999999 999999 999999 999999 999999 999999 999999 999999 999999 999999 999999 999999 999999 999999 999999 999999 999999 999999 999999 999999 999999 999999 999999 999999 999999 999999 999999 999999 999999 999999 999999 999999 0 999999 999999 6912
999999 11785 19815 11691 18999 17458 19102 19855 14025 13058 10789 12256 16722 11302 13622 13301 11107 10213 18568 16276 16925 12680 17582 18779 11812 13647 16325 10247 11924 11124 13135 18849 14593 12418 17198 15705 14572 13358 12779 10400 19379 18054 10384 14602 11404 17455 19008 15981 18631 18415 18593 999999 999999 999999 999999 999999 999999 999999 999999 999999 999999 999999 999999 999999 999999 999999 999999 999999 999999 999999 999999 999999 999999 999999 999999 999999 999999 999999 999999 999999 999999 999999 999999 999999 999999 999999 999999 999999 999999 999999 999999 999999 999999 999999 999999 999999 999999 999999 999999 0 999999 5189
999999 11565 10993 15140 14651 17800 14610 13860 14110 19431 19716 19439 17461 18638 16652 12582 15751 17046 13689 17397 14984 15161 17036 12346 12430 16031 16200 11350 18139 13260 13577 10468 19100 11086 18531 13525 18647 10686 14616 16863 14206 17925 17708 14594 12376 19136 19034 12596 18759 15809 15917 999999 999999 999999 999999 999999 999999 999999 999999 999999 999999 999999 999999 999999 999999 999999 999999 999999 999999 999999 999999 999999 999999 999999 999999 999999 999999 999999 999999 999999 999999 999999 999999 999999 999999 999999 999999 999999 999999 999999 999999 999999 999999 999999 999999 999999 999999 999999 999999 999999 0 7165
1 999999 999999 999999 999999 999999 999999 999999 999999 999999 999999 999999 999999 999999 999999 999999 999999 999999 999999 999999 999999 999999 999999 999999 999999 999999 999999 999999 999999 999999 999999 999999 999999 999999 999999 999999 999999 999999 999999 999999 999999 999999 999999 999999 999999 999999 999999 999999 999999 999999 999999 999999 999999 999999 999999 999999 999999 999999 999999 999999 999999 999999 999999 999999 999999 999999 999999 999999 999999 999999 999999 999999 999999 999999 999999 999999 999999 999999 999999 999999 999999 999999 999999 999999 999999 999999 999999 999999 999999 999999 999999 999999 999999 999999 999999 999999 999999 999999 999999 999999 999999 0
EOF