NAME: GR_1x2x5_KH_2x5_Run_10
TYPE: TSP
COMMENT: BTSP instance |A|=10 GR nodes |B|=10 KH nodes depot=0.0 end=0.0.0
DIMENSION: 22
EDGE_WEIGHT_TYPE: EXPLICIT
EDGE_WEIGHT_FORMAT: FULL_MATRIX
NODE_COORD_TYPE: NO_COORDS
EDGE_WEIGHT_SECTION
0 7426 11474 9880 12133 13293 8481 14944 8716 8752 7706 999999 999999 999999 999999 999999 999999 999999 999999 999999 999999 999999
999999 0 999999 999999 999999 999999 999999 999999 999999 999999 999999 18800 999999 999999 999999 999999 999999 999999 999999 999999 999999 999999
999999 999999 0 999999 999999 999999 999999 999999 999999 999999 999999 999999 14927 999999 999999 999999 999999 999999 999999 999999 999999 999999
999999 999999 999999 0 999999 999999 999999 999999 999999 999999 999999 999999 999999 12451 999999 999999 999999 999999 999999 999999 999999 999999
999999 999999 999999 999999 0 999999 999999 999999 999999 999999 999999 999999 999999 999999 19894 999999 999999 999999 999999 999999 999999 999999
999999 999999 999999 999999 999999 0 999999 999999 999999 999999 999999 999999 999999 999999 999999 15382 999999 999999 999999 999999 999999 999999
999999 999999 999999 999999 999999 999999 0 999999 999999 999999 999999 999999 999999 999999 999999 999999 19492 999999 999999 999999 999999 999999
999999 999999 999999 999999 999999 999999 999999 0 999999 999999 999999 999999 999999 999999 999999 999999 999999 12859 999999 999999 999999 999999
999999 999999 999999 999999 999999 999999 999999 999999 0 999999 999999 999999 999999 999999 999999 999999 999999 999999 19932 999999 999999 999999
999999 999999 999999 999999 999999 999999 999999 999999 999999 0 999999 999999 999999 999999 999999 999999 999999 999999 999999 16680 999999 999999
999999 999999 999999 999999 999999 999999 999999 999999 999999 999999 0 999999 999999 999999 999999 999999 999999 999999 999999 999999 14184 999999
999999 18800 10256 16588 17560 19121 19532 10833 11960 15680 14248 0 999999 999999 999999 999999 999999 999999 999999 999999 999999 10580
999999 15875 14927 17991 16790 12147 13331 19184 12823 12190 18292 999999 0 999999 999999 999999 999999 999999 999999 999999 999999 10745
999999 17906 18312 12451 16221 12349 17020 17499 14200 15012 19503 999999 999999 0 999999 999999 999999 999999 999999 999999 999999 5351
999999 12103 10985 13364 19894 15105 14148 15027 13276 11632 18617 999999 999999 999999 0 999999 999999 999999 999999 999999 999999 10280
999999 14587 13080 17777 14072 15382 11852 15725 14128 12154 11270 999999 999999 999999 999999 0 999999 999999 999999 999999 999999 9688
999999 10447 13259 19647 11235 16548 19492 13089 10170 19273 13772 999999 999999 999999 999999 999999 0 999999 999999 999999 999999 10500
999999 17729 19378 13977 12241 15205 15694 12859 14722 13662 19507 999999 999999 999999 999999 999999 999999 0 999999 999999 999999 12632
999999 14478 18493 19340 13765 13128 14425 19375 19932 15942 18462 999999 999999 999999 999999 999999 999999 999999 0 999999 999999 11184
999999 16701 14478 10346 12693 17410 15774 14845 12538 16680 14287 999999 999999 999999 999999 999999 999999 999999 999999 0 999999 14023
999999 12395 10969 19793 11444 18260 16730 11118 11226 17352 14184 999999 999999 999999 999999 999999 999999 999999 999999 999999 0 5482
1 999999 999999 999999 999999 999999 999999 999999 999999 999999 999999 999999 999999 999999 999999 999999 999999 999999 999999 999999 999999 0
EOF