NAME: GR_1x2x10_KH_2x10_Run_10
TYPE: TSP
COMMENT: BTSP instance |A|=20 GR nodes |B|=20 KH nodes depot=0.0 end=0.0.0
DIMENSION: 42
EDGE_WEIGHT_TYPE: EXPLICIT
EDGE_WEIGHT_FORMAT: FULL_MATRIX
NODE_COORD_TYPE: NO_COORDS
EDGE_WEIGHT_SECTION
0 13301 11049 12638 9386 9645 8066 11951 13500 10493 8609 5499 5776 12648 13560 13535 5218 8783 12494 9979 5108 999999 999999 999999 999999 999999 999999 999999 999999 999999 999999 999999 999999 999999 999999 999999 999999 999999 999999 999999 999999 999999
999999 0 999999 999999 999999 999999 999999 999999 999999 999999 999999 999999 999999 999999 999999 999999 999999 999999 999999 999999 999999 18160 13857 999999 19369 999999 999999 14467 15358 999999 18100 999999 999999 999999 999999 999999 14216 17497 999999 12252 15268 999999
999999 999999 0 999999 999999 999999 999999 999999 999999 999999 999999 999999 999999 999999 999999 999999 999999 999999 999999 999999 999999 13106 12397 999999 16356 999999 999999 13748 15968 999999 16608 999999 999999 999999 999999 999999 16749 16764 999999 11474 12069 999999
999999 999999 999999 0 999999 999999 999999 999999 999999 999999 999999 999999 999999 999999 999999 999999 999999 999999 999999 999999 999999 13714 17108 999999 18091 999999 999999 14938 10503 999999 12632 999999 999999 999999 999999 999999 17060 17368 999999 13130 18405 999999
999999 999999 999999 999999 0 999999 999999 999999 999999 999999 999999 999999 999999 999999 999999 999999 999999 999999 999999 999999 999999 14505 16624 999999 12113 999999 999999 10270 18641 999999 19095 999999 999999 999999 999999 999999 13821 19333 999999 14509 19806 999999
999999 999999 999999 999999 999999 0 999999 999999 999999 999999 999999 999999 999999 999999 999999 999999 999999 999999 999999 999999 999999 16302 13667 999999 17050 999999 999999 12314 12806 999999 15686 999999 999999 999999 999999 999999 13299 16175 999999 17632 19534 999999
999999 999999 999999 999999 999999 999999 0 999999 999999 999999 999999 999999 999999 999999 999999 999999 999999 999999 999999 999999 999999 14206 16925 999999 14551 999999 999999 10805 15711 999999 11723 999999 999999 999999 999999 999999 11997 10382 999999 19233 19131 999999
999999 999999 999999 999999 999999 999999 999999 0 999999 999999 999999 999999 999999 999999 999999 999999 999999 999999 999999 999999 999999 15812 15969 999999 18181 999999 999999 17279 17507 999999 18815 999999 999999 999999 999999 999999 11418 12098 999999 12864 11935 999999
999999 999999 999999 999999 999999 999999 999999 999999 0 999999 999999 999999 999999 999999 999999 999999 999999 999999 999999 999999 999999 12276 10227 999999 12471 999999 999999 10540 17907 999999 10846 999999 999999 999999 999999 999999 19081 18436 999999 14460 13444 999999
999999 999999 999999 999999 999999 999999 999999 999999 999999 0 999999 999999 999999 999999 999999 999999 999999 999999 999999 999999 999999 19826 13380 999999 17690 999999 999999 12534 11793 999999 14642 999999 999999 999999 999999 999999 19423 12767 999999 12216 19823 999999
999999 999999 999999 999999 999999 999999 999999 999999 999999 999999 0 999999 999999 999999 999999 999999 999999 999999 999999 999999 999999 18964 19085 999999 11932 999999 999999 12877 18438 999999 17748 999999 999999 999999 999999 999999 17564 13356 999999 14329 14670 999999
999999 999999 999999 999999 999999 999999 999999 999999 999999 999999 999999 0 999999 999999 999999 999999 999999 999999 999999 999999 999999 999999 999999 19115 999999 19120 11393 999999 999999 11349 999999 12884 11389 18294 17447 18730 999999 999999 18878 999999 999999 999999
999999 999999 999999 999999 999999 999999 999999 999999 999999 999999 999999 999999 0 999999 999999 999999 999999 999999 999999 999999 999999 999999 999999 12871 999999 14098 18343 999999 999999 14507 999999 14663 11651 10007 12566 16437 999999 999999 13754 999999 999999 999999
999999 999999 999999 999999 999999 999999 999999 999999 999999 999999 999999 999999 999999 0 999999 999999 999999 999999 999999 999999 999999 999999 999999 18425 999999 15685 19471 999999 999999 13804 999999 16818 19466 10498 18417 11620 999999 999999 19085 999999 999999 999999
999999 999999 999999 999999 999999 999999 999999 999999 999999 999999 999999 999999 999999 999999 0 999999 999999 999999 999999 999999 999999 999999 999999 15442 999999 15368 19038 999999 999999 14799 999999 17802 18790 16668 16240 17599 999999 999999 12155 999999 999999 999999
999999 999999 999999 999999 999999 999999 999999 999999 999999 999999 999999 999999 999999 999999 999999 0 999999 999999 999999 999999 999999 999999 999999 11431 999999 14722 13065 999999 999999 15497 999999 17087 19726 19918 15377 14075 999999 999999 18021 999999 999999 999999
999999 999999 999999 999999 999999 999999 999999 999999 999999 999999 999999 999999 999999 999999 999999 999999 0 999999 999999 999999 999999 999999 999999 11418 999999 17556 19716 999999 999999 15175 999999 13757 17445 17031 16538 18631 999999 999999 12345 999999 999999 999999
999999 999999 999999 999999 999999 999999 999999 999999 999999 999999 999999 999999 999999 999999 999999 999999 999999 0 999999 999999 999999 999999 999999 10875 999999 18468 17780 999999 999999 18808 999999 18731 11951 13026 10855 16108 999999 999999 12923 999999 999999 999999
999999 999999 999999 999999 999999 999999 999999 999999 999999 999999 999999 999999 999999 999999 999999 999999 999999 999999 0 999999 999999 999999 999999 16002 999999 10119 17177 999999 999999 13469 999999 11291 17647 19106 15030 12627 999999 999999 16067 999999 999999 999999
999999 999999 999999 999999 999999 999999 999999 999999 999999 999999 999999 999999 999999 999999 999999 999999 999999 999999 999999 0 999999 999999 999999 18161 999999 17374 15725 999999 999999 16953 999999 17892 11483 14384 17988 18939 999999 999999 13881 999999 999999 999999
999999 999999 999999 999999 999999 999999 999999 999999 999999 999999 999999 999999 999999 999999 999999 999999 999999 999999 999999 999999 0 999999 999999 15156 999999 11705 19850 999999 999999 11331 999999 18026 10187 18508 12747 19248 999999 999999 18532 999999 999999 999999
999999 18160 13106 13714 14505 16302 14206 15812 12276 19826 18964 12850 18344 15450 10920 16897 19753 18169 16400 16836 12917 0 999999 999999 999999 999999 999999 999999 999999 999999 999999 999999 999999 999999 999999 999999 999999 999999 999999 999999 999999 11215
999999 13857 12397 17108 16624 13667 16925 15969 10227 13380 19085 13727 11726 16030 15467 16404 17233 18904 16937 14534 10404 999999 0 999999 999999 999999 999999 999999 999999 999999 999999 999999 999999 999999 999999 999999 999999 999999 999999 999999 999999 6860
999999 14482 17603 17457 10591 16719 16643 19856 14858 19413 18984 19115 12871 18425 15442 11431 11418 10875 16002 18161 15156 999999 999999 0 999999 999999 999999 999999 999999 999999 999999 999999 999999 999999 999999 999999 999999 999999 999999 999999 999999 12946
999999 19369 16356 18091 12113 17050 14551 18181 12471 17690 11932 14253 15520 18901 18755 18744 10185 19434 10716 14322 19848 999999 999999 999999 0 999999 999999 999999 999999 999999 999999 999999 999999 999999 999999 999999 999999 999999 999999 999999 999999 14490
999999 16815 18232 12350 14671 13439 13894 14945 15227 10860 16801 19120 14098 15685 15368 14722 17556 18468 10119 17374 11705 999999 999999 999999 999999 0 999999 999999 999999 999999 999999 999999 999999 999999 999999 999999 999999 999999 999999 999999 999999 5426
999999 13924 13970 13032 17620 19362 12581 16752 12799 17756 10950 11393 18343 19471 19038 13065 19716 17780 17177 15725 19850 999999 999999 999999 999999 999999 0 999999 999999 999999 999999 999999 999999 999999 999999 999999 999999 999999 999999 999999 999999 12468
999999 14467 13748 14938 10270 12314 10805 17279 10540 12534 12877 16322 15922 13180 15702 13269 12804 11298 18759 16783 18797 999999 999999 999999 999999 999999 999999 0 999999 999999 999999 999999 999999 999999 999999 999999 999999 999999 999999 999999 999999 7059
999999 15358 15968 10503 18641 12806 15711 17507 17907 11793 18438 17597 15955 16418 16761 13707 13507 10227 18057 14687 10251 999999 999999 999999 999999 999999 999999 999999 0 999999 999999 999999 999999 999999 999999 999999 999999 999999 999999 999999 999999 12355
999999 11748 16565 17646 13803 11365 12271 14742 16251 15235 11577 11349 14507 13804 14799 15497 15175 18808 13469 16953 11331 999999 999999 999999 999999 999999 999999 999999 999999 0 999999 999999 999999 999999 999999 999999 999999 999999 999999 999999 999999 8534
999999 18100 16608 12632 19095 15686 11723 18815 10846 14642 17748 11045 18926 18877 18490 14606 16969 18736 12984 12987 17491 999999 999999 999999 999999 999999 999999 999999 999999 999999 0 999999 999999 999999 999999 999999 999999 999999 999999 999999 999999 7258
999999 14974 12209 19726 11618 13627 14223 15349 14897 19934 14724 12884 14663 16818 17802 17087 13757 18731 11291 17892 18026 999999 999999 999999 999999 999999 999999 999999 999999 999999 999999 0 999999 999999 999999 999999 999999 999999 999999 999999 999999 8922
999999 12965 11357 16372 14731 18492 18492 17772 14306 11359 11323 11389 11651 19466 18790 19726 17445 11951 17647 11483 10187 999999 999999 999999 999999 999999 999999 999999 999999 999999 999999 999999 0 999999 999999 999999 999999 999999 999999 999999 999999 8032
999999 11253 17035 10352 13239 17510 15876 13474 18225 15402 12727 18294 10007 10498 16668 19918 17031 13026 19106 14384 18508 999999 999999 999999 999999 999999 999999 999999 999999 999999 999999 999999 999999 0 999999 999999 999999 999999 999999 999999 999999 13376
999999 13545 13975 11976 19349 19547 18660 16682 17434 11985 13177 17447 12566 18417 16240 15377 16538 10855 15030 17988 12747 999999 999999 999999 999999 999999 999999 999999 999999 999999 999999 999999 999999 999999 0 999999 999999 999999 999999 999999 999999 9768
999999 17441 12604 18479 14052 12265 18864 10048 17485 18500 12422 18730 16437 11620 17599 14075 18631 16108 12627 18939 19248 999999 999999 999999 999999 999999 999999 999999 999999 999999 999999 999999 999999 999999 999999 0 999999 999999 999999 999999 999999 14493
999999 14216 16749 17060 13821 13299 11997 11418 19081 19423 17564 10575 13078 14774 17212 19813 16680 11995 11923 14375 14797 999999 999999 999999 999999 999999 999999 999999 999999 999999 999999 999999 999999 999999 999999 999999 0 999999 999999 999999 999999 13139
999999 17497 16764 17368 19333 16175 10382 12098 18436 12767 13356 10003 15861 18645 11370 13328 15699 13533 12622 16518 13843 999999 999999 999999 999999 999999 999999 999999 999999 999999 999999 999999 999999 999999 999999 999999 999999 0 999999 999999 999999 5329
999999 10445 15764 16972 14161 12949 15454 11011 12989 10710 16783 18878 13754 19085 12155 18021 12345 12923 16067 13881 18532 999999 999999 999999 999999 999999 999999 999999 999999 999999 999999 999999 999999 999999 999999 999999 999999 999999 0 999999 999999 6769
999999 12252 11474 13130 14509 17632 19233 12864 14460 12216 14329 18299 11983 19194 13574 16290 13742 15987 18377 10548 16220 999999 999999 999999 999999 999999 999999 999999 999999 999999 999999 999999 999999 999999 999999 999999 999999 999999 999999 0 999999 7115
999999 15268 12069 18405 19806 19534 19131 11935 13444 19823 14670 13215 11007 19257 15771 10195 10140 12685 16265 12971 14448 999999 999999 999999 999999 999999 999999 999999 999999 999999 999999 999999 999999 999999 999999 999999 999999 999999 999999 999999 0 12121
1 999999 999999 999999 999999 999999 999999 999999 999999 999999 999999 999999 999999 999999 999999 999999 999999 999999 999999 999999 999999 999999 999999 999999 999999 999999 999999 999999 999999 999999 999999 999999 999999 999999 999999 999999 999999 999999 999999 999999 999999 0
EOF