NAME: GR_1x5x6_KH_5x6_Run_4
TYPE: TSP
COMMENT: BTSP instance |A|=30 GR nodes |B|=30 KH nodes depot=0.0 end=0.0.0
DIMENSION: 62
EDGE_WEIGHT_TYPE: EXPLICIT
EDGE_WEIGHT_FORMAT: FULL_MATRIX
NODE_COORD_TYPE: NO_COORDS
EDGE_WEIGHT_SECTION
0 8417 10838 14399 6996 13314 9693 12804 13974 9987 12928 12636 13330 7578 7725 11382 12178 10261 12167 12981 6006 11173 9785 9742 5827 8351 13460 12508 10320 12723 7101 999999 999999 999999 999999 999999 999999 999999 999999 999999 999999 999999 999999 999999 999999 999999 999999 999999 999999 999999 999999 999999 999999 999999 999999 999999 999999 999999 999999 999999 999999 999999
999999 0 999999 999999 999999 999999 999999 999999 999999 999999 999999 999999 999999 999999 999999 999999 999999 999999 999999 999999 999999 999999 999999 999999 999999 999999 999999 999999 999999 999999 999999 999999 16909 999999 999999 999999 999999 999999 999999 999999 18471 14691 999999 999999 999999 999999 999999 999999 17805 999999 10869 999999 999999 999999 999999 999999 999999 11322 999999 999999 999999 999999
999999 999999 0 999999 999999 999999 999999 999999 999999 999999 999999 999999 999999 999999 999999 999999 999999 999999 999999 999999 999999 999999 999999 999999 999999 999999 999999 999999 999999 999999 999999 999999 11336 999999 999999 999999 999999 999999 999999 999999 10040 14754 999999 999999 999999 999999 999999 999999 11592 999999 15813 999999 999999 999999 999999 999999 999999 16489 999999 999999 999999 999999
999999 999999 999999 0 999999 999999 999999 999999 999999 999999 999999 999999 999999 999999 999999 999999 999999 999999 999999 999999 999999 999999 999999 999999 999999 999999 999999 999999 999999 999999 999999 999999 15630 999999 999999 999999 999999 999999 999999 999999 11410 18363 999999 999999 999999 999999 999999 999999 14829 999999 12009 999999 999999 999999 999999 999999 999999 13956 999999 999999 999999 999999
999999 999999 999999 999999 0 999999 999999 999999 999999 999999 999999 999999 999999 999999 999999 999999 999999 999999 999999 999999 999999 999999 999999 999999 999999 999999 999999 999999 999999 999999 999999 999999 12724 999999 999999 999999 999999 999999 999999 999999 14417 16458 999999 999999 999999 999999 999999 999999 14289 999999 15754 999999 999999 999999 999999 999999 999999 15197 999999 999999 999999 999999
999999 999999 999999 999999 999999 0 999999 999999 999999 999999 999999 999999 999999 999999 999999 999999 999999 999999 999999 999999 999999 999999 999999 999999 999999 999999 999999 999999 999999 999999 999999 999999 11597 999999 999999 999999 999999 999999 999999 999999 14555 15596 999999 999999 999999 999999 999999 999999 19842 999999 19315 999999 999999 999999 999999 999999 999999 13276 999999 999999 999999 999999
999999 999999 999999 999999 999999 999999 0 999999 999999 999999 999999 999999 999999 999999 999999 999999 999999 999999 999999 999999 999999 999999 999999 999999 999999 999999 999999 999999 999999 999999 999999 999999 15040 999999 999999 999999 999999 999999 999999 999999 13530 19695 999999 999999 999999 999999 999999 999999 17312 999999 17736 999999 999999 999999 999999 999999 999999 10610 999999 999999 999999 999999
999999 999999 999999 999999 999999 999999 999999 0 999999 999999 999999 999999 999999 999999 999999 999999 999999 999999 999999 999999 999999 999999 999999 999999 999999 999999 999999 999999 999999 999999 999999 19733 999999 14775 999999 999999 999999 999999 10867 999999 999999 999999 12514 999999 999999 999999 999999 999999 999999 999999 999999 999999 14839 999999 999999 999999 999999 999999 999999 999999 13818 999999
999999 999999 999999 999999 999999 999999 999999 999999 0 999999 999999 999999 999999 999999 999999 999999 999999 999999 999999 999999 999999 999999 999999 999999 999999 999999 999999 999999 999999 999999 999999 16302 999999 11772 999999 999999 999999 999999 18851 999999 999999 999999 19409 999999 999999 999999 999999 999999 999999 999999 999999 999999 19488 999999 999999 999999 999999 999999 999999 999999 10771 999999
999999 999999 999999 999999 999999 999999 999999 999999 999999 0 999999 999999 999999 999999 999999 999999 999999 999999 999999 999999 999999 999999 999999 999999 999999 999999 999999 999999 999999 999999 999999 10422 999999 10395 999999 999999 999999 999999 10476 999999 999999 999999 10322 999999 999999 999999 999999 999999 999999 999999 999999 999999 11834 999999 999999 999999 999999 999999 999999 999999 10451 999999
999999 999999 999999 999999 999999 999999 999999 999999 999999 999999 0 999999 999999 999999 999999 999999 999999 999999 999999 999999 999999 999999 999999 999999 999999 999999 999999 999999 999999 999999 999999 18845 999999 16445 999999 999999 999999 999999 18215 999999 999999 999999 13606 999999 999999 999999 999999 999999 999999 999999 999999 999999 14814 999999 999999 999999 999999 999999 999999 999999 12166 999999
999999 999999 999999 999999 999999 999999 999999 999999 999999 999999 999999 0 999999 999999 999999 999999 999999 999999 999999 999999 999999 999999 999999 999999 999999 999999 999999 999999 999999 999999 999999 18940 999999 19835 999999 999999 999999 999999 14735 999999 999999 999999 12439 999999 999999 999999 999999 999999 999999 999999 999999 999999 16599 999999 999999 999999 999999 999999 999999 999999 15498 999999
999999 999999 999999 999999 999999 999999 999999 999999 999999 999999 999999 999999 0 999999 999999 999999 999999 999999 999999 999999 999999 999999 999999 999999 999999 999999 999999 999999 999999 999999 999999 13012 999999 15721 999999 999999 999999 999999 10035 999999 999999 999999 15211 999999 999999 999999 999999 999999 999999 999999 999999 999999 14013 999999 999999 999999 999999 999999 999999 999999 18691 999999
999999 999999 999999 999999 999999 999999 999999 999999 999999 999999 999999 999999 999999 0 999999 999999 999999 999999 999999 999999 999999 999999 999999 999999 999999 999999 999999 999999 999999 999999 999999 999999 999999 999999 999999 999999 999999 15696 999999 999999 999999 999999 999999 999999 999999 10589 10957 999999 999999 999999 999999 999999 999999 999999 999999 11462 999999 999999 18177 11275 999999 999999
999999 999999 999999 999999 999999 999999 999999 999999 999999 999999 999999 999999 999999 999999 0 999999 999999 999999 999999 999999 999999 999999 999999 999999 999999 999999 999999 999999 999999 999999 999999 999999 999999 999999 999999 999999 999999 18052 999999 999999 999999 999999 999999 999999 999999 16961 15946 999999 999999 999999 999999 999999 999999 999999 999999 19026 999999 999999 19513 19385 999999 999999
999999 999999 999999 999999 999999 999999 999999 999999 999999 999999 999999 999999 999999 999999 999999 0 999999 999999 999999 999999 999999 999999 999999 999999 999999 999999 999999 999999 999999 999999 999999 999999 999999 999999 999999 999999 999999 18881 999999 999999 999999 999999 999999 999999 999999 11023 10960 999999 999999 999999 999999 999999 999999 999999 999999 18275 999999 999999 12718 17047 999999 999999
999999 999999 999999 999999 999999 999999 999999 999999 999999 999999 999999 999999 999999 999999 999999 999999 0 999999 999999 999999 999999 999999 999999 999999 999999 999999 999999 999999 999999 999999 999999 999999 999999 999999 999999 999999 999999 15262 999999 999999 999999 999999 999999 999999 999999 13887 19995 999999 999999 999999 999999 999999 999999 999999 999999 15035 999999 999999 18055 16103 999999 999999
999999 999999 999999 999999 999999 999999 999999 999999 999999 999999 999999 999999 999999 999999 999999 999999 999999 0 999999 999999 999999 999999 999999 999999 999999 999999 999999 999999 999999 999999 999999 999999 999999 999999 999999 999999 999999 13672 999999 999999 999999 999999 999999 999999 999999 14496 17077 999999 999999 999999 999999 999999 999999 999999 999999 13993 999999 999999 14028 15589 999999 999999
999999 999999 999999 999999 999999 999999 999999 999999 999999 999999 999999 999999 999999 999999 999999 999999 999999 999999 0 999999 999999 999999 999999 999999 999999 999999 999999 999999 999999 999999 999999 999999 999999 999999 999999 999999 999999 12192 999999 999999 999999 999999 999999 999999 999999 14964 10237 999999 999999 999999 999999 999999 999999 999999 999999 17855 999999 999999 18171 11527 999999 999999
999999 999999 999999 999999 999999 999999 999999 999999 999999 999999 999999 999999 999999 999999 999999 999999 999999 999999 999999 0 999999 999999 999999 999999 999999 999999 999999 999999 999999 999999 999999 999999 999999 999999 999999 999999 999999 999999 999999 999999 999999 999999 999999 13294 999999 999999 999999 17741 999999 16746 999999 11730 999999 13066 17507 999999 999999 999999 999999 999999 999999 999999
999999 999999 999999 999999 999999 999999 999999 999999 999999 999999 999999 999999 999999 999999 999999 999999 999999 999999 999999 999999 0 999999 999999 999999 999999 999999 999999 999999 999999 999999 999999 999999 999999 999999 999999 999999 999999 999999 999999 999999 999999 999999 999999 19782 999999 999999 999999 17405 999999 12282 999999 11493 999999 15864 11350 999999 999999 999999 999999 999999 999999 999999
999999 999999 999999 999999 999999 999999 999999 999999 999999 999999 999999 999999 999999 999999 999999 999999 999999 999999 999999 999999 999999 0 999999 999999 999999 999999 999999 999999 999999 999999 999999 999999 999999 999999 999999 999999 999999 999999 999999 999999 999999 999999 999999 19124 999999 999999 999999 13395 999999 12824 999999 18041 999999 10666 17085 999999 999999 999999 999999 999999 999999 999999
999999 999999 999999 999999 999999 999999 999999 999999 999999 999999 999999 999999 999999 999999 999999 999999 999999 999999 999999 999999 999999 999999 0 999999 999999 999999 999999 999999 999999 999999 999999 999999 999999 999999 999999 999999 999999 999999 999999 999999 999999 999999 999999 13653 999999 999999 999999 13008 999999 11116 999999 10245 999999 16892 16933 999999 999999 999999 999999 999999 999999 999999
999999 999999 999999 999999 999999 999999 999999 999999 999999 999999 999999 999999 999999 999999 999999 999999 999999 999999 999999 999999 999999 999999 999999 0 999999 999999 999999 999999 999999 999999 999999 999999 999999 999999 999999 999999 999999 999999 999999 999999 999999 999999 999999 14909 999999 999999 999999 16859 999999 11611 999999 12836 999999 15190 16930 999999 999999 999999 999999 999999 999999 999999
999999 999999 999999 999999 999999 999999 999999 999999 999999 999999 999999 999999 999999 999999 999999 999999 999999 999999 999999 999999 999999 999999 999999 999999 0 999999 999999 999999 999999 999999 999999 999999 999999 999999 999999 999999 999999 999999 999999 999999 999999 999999 999999 13777 999999 999999 999999 10487 999999 14632 999999 10794 999999 12792 14487 999999 999999 999999 999999 999999 999999 999999
999999 999999 999999 999999 999999 999999 999999 999999 999999 999999 999999 999999 999999 999999 999999 999999 999999 999999 999999 999999 999999 999999 999999 999999 999999 0 999999 999999 999999 999999 999999 999999 999999 999999 14245 15187 18744 999999 999999 14604 999999 999999 999999 999999 10063 999999 999999 999999 999999 999999 999999 999999 999999 999999 999999 999999 15270 999999 999999 999999 999999 999999
999999 999999 999999 999999 999999 999999 999999 999999 999999 999999 999999 999999 999999 999999 999999 999999 999999 999999 999999 999999 999999 999999 999999 999999 999999 999999 0 999999 999999 999999 999999 999999 999999 999999 13701 19911 16723 999999 999999 11860 999999 999999 999999 999999 18259 999999 999999 999999 999999 999999 999999 999999 999999 999999 999999 999999 11295 999999 999999 999999 999999 999999
999999 999999 999999 999999 999999 999999 999999 999999 999999 999999 999999 999999 999999 999999 999999 999999 999999 999999 999999 999999 999999 999999 999999 999999 999999 999999 999999 0 999999 999999 999999 999999 999999 999999 11153 15406 10975 999999 999999 16947 999999 999999 999999 999999 14739 999999 999999 999999 999999 999999 999999 999999 999999 999999 999999 999999 15711 999999 999999 999999 999999 999999
999999 999999 999999 999999 999999 999999 999999 999999 999999 999999 999999 999999 999999 999999 999999 999999 999999 999999 999999 999999 999999 999999 999999 999999 999999 999999 999999 999999 0 999999 999999 999999 999999 999999 12976 13532 16775 999999 999999 14774 999999 999999 999999 999999 19600 999999 999999 999999 999999 999999 999999 999999 999999 999999 999999 999999 11862 999999 999999 999999 999999 999999
999999 999999 999999 999999 999999 999999 999999 999999 999999 999999 999999 999999 999999 999999 999999 999999 999999 999999 999999 999999 999999 999999 999999 999999 999999 999999 999999 999999 999999 0 999999 999999 999999 999999 13807 19227 19561 999999 999999 14739 999999 999999 999999 999999 17704 999999 999999 999999 999999 999999 999999 999999 999999 999999 999999 999999 15032 999999 999999 999999 999999 999999
999999 999999 999999 999999 999999 999999 999999 999999 999999 999999 999999 999999 999999 999999 999999 999999 999999 999999 999999 999999 999999 999999 999999 999999 999999 999999 999999 999999 999999 999999 0 999999 999999 999999 17015 18203 12108 999999 999999 17478 999999 999999 999999 999999 13613 999999 999999 999999 999999 999999 999999 999999 999999 999999 999999 999999 19261 999999 999999 999999 999999 999999
999999 14831 16297 14765 18698 13609 14571 19733 16302 10422 18845 18940 13012 14341 18153 12228 14865 16289 15797 14080 16806 17393 18182 17971 10046 14999 10586 10516 11647 10343 17011 0 999999 999999 999999 999999 999999 999999 999999 999999 999999 999999 999999 999999 999999 999999 999999 999999 999999 999999 999999 999999 999999 999999 999999 999999 999999 999999 999999 999999 999999 10239
999999 16909 11336 15630 12724 11597 15040 12397 15766 18652 16364 17843 13083 18743 10103 13954 14089 19230 16274 16766 16942 19969 10109 12435 17834 12632 16668 15284 14641 19706 11279 999999 0 999999 999999 999999 999999 999999 999999 999999 999999 999999 999999 999999 999999 999999 999999 999999 999999 999999 999999 999999 999999 999999 999999 999999 999999 999999 999999 999999 999999 8400
999999 16746 14961 10264 17088 12925 17251 14775 11772 10395 16445 19835 15721 15678 14572 16999 19338 18497 11058 11957 19435 14753 13671 17023 18527 12359 14646 15932 12349 10474 12720 999999 999999 0 999999 999999 999999 999999 999999 999999 999999 999999 999999 999999 999999 999999 999999 999999 999999 999999 999999 999999 999999 999999 999999 999999 999999 999999 999999 999999 999999 7803
999999 18896 10739 18583 19586 13226 11913 17371 10509 13883 17952 17293 18686 13017 14367 15619 17894 14377 10356 19073 14958 16802 17000 13159 11736 14245 13701 11153 12976 13807 17015 999999 999999 999999 0 999999 999999 999999 999999 999999 999999 999999 999999 999999 999999 999999 999999 999999 999999 999999 999999 999999 999999 999999 999999 999999 999999 999999 999999 999999 999999 6166
999999 11144 10717 17988 13184 17184 17973 13351 19379 15915 14052 19123 10953 11994 13673 14841 18500 16665 19321 17473 17485 17386 19258 14164 10097 15187 19911 15406 13532 19227 18203 999999 999999 999999 999999 0 999999 999999 999999 999999 999999 999999 999999 999999 999999 999999 999999 999999 999999 999999 999999 999999 999999 999999 999999 999999 999999 999999 999999 999999 999999 8878
999999 18468 10553 16677 16384 17020 14143 14222 18810 15420 19183 13583 16308 13556 13778 16886 15305 14720 16485 10957 18919 12675 17128 18885 13479 18744 16723 10975 16775 19561 12108 999999 999999 999999 999999 999999 0 999999 999999 999999 999999 999999 999999 999999 999999 999999 999999 999999 999999 999999 999999 999999 999999 999999 999999 999999 999999 999999 999999 999999 999999 10422
999999 18259 14536 15559 13839 16504 14079 19795 19121 17618 17835 13116 14449 15696 18052 18881 15262 13672 12192 14337 11847 14411 11086 10184 10910 19055 18920 19107 14305 11811 14420 999999 999999 999999 999999 999999 999999 0 999999 999999 999999 999999 999999 999999 999999 999999 999999 999999 999999 999999 999999 999999 999999 999999 999999 999999 999999 999999 999999 999999 999999 13860
999999 11995 16353 13144 10946 12769 12471 10867 18851 10476 18215 14735 10035 18923 14783 15194 14714 19439 11090 13748 19390 12992 11404 10087 12730 13322 11908 13000 15401 16466 15374 999999 999999 999999 999999 999999 999999 999999 0 999999 999999 999999 999999 999999 999999 999999 999999 999999 999999 999999 999999 999999 999999 999999 999999 999999 999999 999999 999999 999999 999999 6755
999999 11982 14613 16595 12542 18660 10396 18685 19652 12350 19323 11384 16976 12330 10123 19646 13036 18703 10754 10678 10765 12116 18722 17015 17821 14604 11860 16947 14774 14739 17478 999999 999999 999999 999999 999999 999999 999999 999999 0 999999 999999 999999 999999 999999 999999 999999 999999 999999 999999 999999 999999 999999 999999 999999 999999 999999 999999 999999 999999 999999 14681
999999 18471 10040 11410 14417 14555 13530 12403 12866 15615 10456 19246 15856 17342 16055 16720 14431 13336 18663 16115 19609 12707 11668 13880 10636 19987 12099 12907 14479 11610 15929 999999 999999 999999 999999 999999 999999 999999 999999 999999 0 999999 999999 999999 999999 999999 999999 999999 999999 999999 999999 999999 999999 999999 999999 999999 999999 999999 999999 999999 999999 8542
999999 14691 14754 18363 16458 15596 19695 17266 17571 12221 18494 17245 13043 15699 12311 13081 15413 19764 17223 18808 17592 11825 18294 19872 11902 16550 14469 10483 10974 17753 19588 999999 999999 999999 999999 999999 999999 999999 999999 999999 999999 0 999999 999999 999999 999999 999999 999999 999999 999999 999999 999999 999999 999999 999999 999999 999999 999999 999999 999999 999999 5986
999999 10254 10028 18614 15646 17154 10061 12514 19409 10322 13606 12439 15211 10287 14141 13350 11608 14278 18561 14988 11691 14465 15370 10513 16754 13821 19481 10604 18325 13225 15265 999999 999999 999999 999999 999999 999999 999999 999999 999999 999999 999999 0 999999 999999 999999 999999 999999 999999 999999 999999 999999 999999 999999 999999 999999 999999 999999 999999 999999 999999 10269
999999 11869 19418 18314 12523 16069 18099 14962 11659 14733 10010 16621 19961 17871 13946 16287 14215 14610 17258 13294 19782 19124 13653 14909 13777 14407 12855 19845 10772 16195 17440 999999 999999 999999 999999 999999 999999 999999 999999 999999 999999 999999 999999 0 999999 999999 999999 999999 999999 999999 999999 999999 999999 999999 999999 999999 999999 999999 999999 999999 999999 5510
999999 10317 11489 15334 10094 13048 11961 18480 17569 12945 13391 12388 10416 15154 16454 14389 17097 17701 19408 10498 17927 13344 16307 15835 19883 10063 18259 14739 19600 17704 13613 999999 999999 999999 999999 999999 999999 999999 999999 999999 999999 999999 999999 999999 0 999999 999999 999999 999999 999999 999999 999999 999999 999999 999999 999999 999999 999999 999999 999999 999999 14018
999999 13958 14516 11585 14621 11594 18821 12634 18426 13760 12599 18353 10063 10589 16961 11023 13887 14496 14964 18050 13339 15629 15741 15738 17589 16769 14822 17217 18637 17187 13624 999999 999999 999999 999999 999999 999999 999999 999999 999999 999999 999999 999999 999999 999999 0 999999 999999 999999 999999 999999 999999 999999 999999 999999 999999 999999 999999 999999 999999 999999 13512
999999 13409 16996 19322 10441 17652 13614 11892 19209 14570 16125 14710 13986 10957 15946 10960 19995 17077 10237 18250 18791 12248 15132 10235 13461 18721 10545 10962 12987 17741 15201 999999 999999 999999 999999 999999 999999 999999 999999 999999 999999 999999 999999 999999 999999 999999 0 999999 999999 999999 999999 999999 999999 999999 999999 999999 999999 999999 999999 999999 999999 5839
999999 16227 13959 19463 10748 14571 15131 12395 18096 10049 10515 15050 12841 11749 14454 13693 17222 17174 11763 17741 17405 13395 13008 16859 10487 16826 13626 15549 14320 10981 18174 999999 999999 999999 999999 999999 999999 999999 999999 999999 999999 999999 999999 999999 999999 999999 999999 0 999999 999999 999999 999999 999999 999999 999999 999999 999999 999999 999999 999999 999999 7705
999999 17805 11592 14829 14289 19842 17312 16776 19800 17382 11749 19275 10882 19673 16301 11159 15288 13452 11754 11809 14518 13683 11608 15414 18032 16199 11159 12198 17170 14249 15590 999999 999999 999999 999999 999999 999999 999999 999999 999999 999999 999999 999999 999999 999999 999999 999999 999999 0 999999 999999 999999 999999 999999 999999 999999 999999 999999 999999 999999 999999 5620
999999 12768 16831 11388 19005 10473 19553 18261 19089 15764 16805 13434 15508 14476 19082 19853 18871 17787 14472 16746 12282 12824 11116 11611 14632 13043 15977 12037 15501 17431 15554 999999 999999 999999 999999 999999 999999 999999 999999 999999 999999 999999 999999 999999 999999 999999 999999 999999 999999 0 999999 999999 999999 999999 999999 999999 999999 999999 999999 999999 999999 12754
999999 10869 15813 12009 15754 19315 17736 18992 18218 10289 11761 19576 17787 15335 17557 11395 16099 16984 11941 14141 12755 10331 15267 14390 13879 19778 13474 19848 11745 14467 12580 999999 999999 999999 999999 999999 999999 999999 999999 999999 999999 999999 999999 999999 999999 999999 999999 999999 999999 999999 0 999999 999999 999999 999999 999999 999999 999999 999999 999999 999999 7151
999999 12235 15870 15712 14989 10350 13646 16332 16074 13705 11066 14348 17883 13711 12627 13974 19061 15860 15230 11730 11493 18041 10245 12836 10794 15478 11359 14429 16034 13072 14171 999999 999999 999999 999999 999999 999999 999999 999999 999999 999999 999999 999999 999999 999999 999999 999999 999999 999999 999999 999999 0 999999 999999 999999 999999 999999 999999 999999 999999 999999 5876
999999 18095 16892 17487 13619 18711 18239 14839 19488 11834 14814 16599 14013 16958 14549 15345 14052 12351 11717 18190 18902 19103 18444 15629 12787 15368 14497 19947 10234 17641 15467 999999 999999 999999 999999 999999 999999 999999 999999 999999 999999 999999 999999 999999 999999 999999 999999 999999 999999 999999 999999 999999 0 999999 999999 999999 999999 999999 999999 999999 999999 11226
999999 17185 11475 13018 18911 11395 10975 15664 13167 10527 10129 11098 19427 12261 11798 17580 18587 16050 13979 13066 15864 10666 16892 15190 12792 18400 17657 16432 11959 12157 18049 999999 999999 999999 999999 999999 999999 999999 999999 999999 999999 999999 999999 999999 999999 999999 999999 999999 999999 999999 999999 999999 999999 0 999999 999999 999999 999999 999999 999999 999999 9775
999999 12229 19544 10808 17112 11751 14337 12234 14742 11842 12644 11746 18853 12535 15997 10079 13306 10490 18857 17507 11350 17085 16933 16930 14487 16016 12117 10913 12590 15405 18164 999999 999999 999999 999999 999999 999999 999999 999999 999999 999999 999999 999999 999999 999999 999999 999999 999999 999999 999999 999999 999999 999999 999999 0 999999 999999 999999 999999 999999 999999 7024
999999 16437 16786 17022 17547 13553 17177 16766 14073 18365 13226 13098 10412 11462 19026 18275 15035 13993 17855 12601 12304 18816 15731 13789 15610 15544 18752 12749 19236 15830 13303 999999 999999 999999 999999 999999 999999 999999 999999 999999 999999 999999 999999 999999 999999 999999 999999 999999 999999 999999 999999 999999 999999 999999 999999 0 999999 999999 999999 999999 999999 5879
999999 14321 16063 18255 16295 17545 15799 10947 17167 18231 18309 10743 12176 11121 11546 18884 17436 14908 16747 12243 10345 11734 18700 19414 10205 15270 11295 15711 11862 15032 19261 999999 999999 999999 999999 999999 999999 999999 999999 999999 999999 999999 999999 999999 999999 999999 999999 999999 999999 999999 999999 999999 999999 999999 999999 999999 0 999999 999999 999999 999999 7718
999999 11322 16489 13956 15197 13276 10610 14306 11318 16721 19532 10213 11059 15661 14210 19689 17141 11081 18626 14797 16514 19496 12204 18010 18658 12375 11961 14555 11681 11930 11631 999999 999999 999999 999999 999999 999999 999999 999999 999999 999999 999999 999999 999999 999999 999999 999999 999999 999999 999999 999999 999999 999999 999999 999999 999999 999999 0 999999 999999 999999 6624
999999 15702 18596 13737 13520 13525 16747 16296 13845 14776 19061 13686 13976 18177 19513 12718 18055 14028 18171 18919 11112 15554 12263 17378 15159 18622 15839 12221 18843 10642 13021 999999 999999 999999 999999 999999 999999 999999 999999 999999 999999 999999 999999 999999 999999 999999 999999 999999 999999 999999 999999 999999 999999 999999 999999 999999 999999 999999 0 999999 999999 6984
999999 15979 19434 18971 16054 13725 19532 13872 17172 13404 11841 15891 10403 11275 19385 17047 16103 15589 11527 12322 14136 15319 14077 12754 18953 12968 12601 10312 19004 10638 11366 999999 999999 999999 999999 999999 999999 999999 999999 999999 999999 999999 999999 999999 999999 999999 999999 999999 999999 999999 999999 999999 999999 999999 999999 999999 999999 999999 999999 0 999999 9732
999999 12286 18092 18701 13161 15899 18720 13818 10771 10451 12166 15498 18691 10586 14309 12095 16157 14320 18257 12310 13178 14055 11712 13697 19575 16064 13413 13530 10241 18954 17846 999999 999999 999999 999999 999999 999999 999999 999999 999999 999999 999999 999999 999999 999999 999999 999999 999999 999999 999999 999999 999999 999999 999999 999999 999999 999999 999999 999999 999999 0 14269
1 999999 999999 999999 999999 999999 999999 999999 999999 999999 999999 999999 999999 999999 999999 999999 999999 999999 999999 999999 999999 999999 999999 999999 999999 999999 999999 999999 999999 999999 999999 999999 999999 999999 999999 999999 999999 999999 999999 999999 999999 999999 999999 999999 999999 999999 999999 999999 999999 999999 999999 999999 999999 999999 999999 999999 999999 999999 999999 999999 999999 0
EOF