NAME: GR_1x2x5_KH_2x5_Run_7
TYPE: TSP
COMMENT: BTSP instance |A|=10 GR nodes |B|=10 KH nodes depot=0.0 end=0.0.0
DIMENSION: 22
EDGE_WEIGHT_TYPE: EXPLICIT
EDGE_WEIGHT_FORMAT: FULL_MATRIX
NODE_COORD_TYPE: NO_COORDS
EDGE_WEIGHT_SECTION
0 12212 8740 7470 10255 9855 13587 9587 5082 11798 11024 999999 999999 999999 999999 999999 999999 999999 999999 999999 999999 999999
999999 0 999999 999999 999999 999999 999999 999999 999999 999999 999999 16132 11271 13010 14371 15446 16644 14508 14579 10098 12757 999999
999999 999999 0 999999 999999 999999 999999 999999 999999 999999 999999 19198 18937 11718 18381 10563 17263 19397 10896 11155 16601 999999
999999 999999 999999 0 999999 999999 999999 999999 999999 999999 999999 19138 18002 11633 14671 16779 18618 11936 19390 11687 19525 999999
999999 999999 999999 999999 0 999999 999999 999999 999999 999999 999999 17610 13915 15719 13826 17485 17309 11880 14272 15969 18027 999999
999999 999999 999999 999999 999999 0 999999 999999 999999 999999 999999 19781 14072 13135 14318 14541 19014 13445 14402 17247 10401 999999
999999 999999 999999 999999 999999 999999 0 999999 999999 999999 999999 14886 18534 19560 16627 16529 14194 14733 17010 11329 16058 999999
999999 999999 999999 999999 999999 999999 999999 0 999999 999999 999999 13360 17987 15107 18575 16967 18711 11416 13356 18160 11199 999999
999999 999999 999999 999999 999999 999999 999999 999999 0 999999 999999 10053 12511 17883 16846 12801 19888 13073 15985 10901 10840 999999
999999 999999 999999 999999 999999 999999 999999 999999 999999 0 999999 16208 15368 18105 19841 10544 11556 16216 15284 15867 13871 999999
999999 999999 999999 999999 999999 999999 999999 999999 999999 999999 0 15392 19326 14452 15418 16316 15986 13423 14414 10116 10449 999999
999999 16132 19198 19138 17610 19781 14886 13360 10053 16208 15392 0 999999 999999 999999 999999 999999 999999 999999 999999 999999 6072
999999 11271 18937 18002 13915 14072 18534 17987 12511 15368 19326 999999 0 999999 999999 999999 999999 999999 999999 999999 999999 9304
999999 13010 11718 11633 15719 13135 19560 15107 17883 18105 14452 999999 999999 0 999999 999999 999999 999999 999999 999999 999999 8805
999999 14371 18381 14671 13826 14318 16627 18575 16846 19841 15418 999999 999999 999999 0 999999 999999 999999 999999 999999 999999 5279
999999 15446 10563 16779 17485 14541 16529 16967 12801 10544 16316 999999 999999 999999 999999 0 999999 999999 999999 999999 999999 12241
999999 16644 17263 18618 17309 19014 14194 18711 19888 11556 15986 999999 999999 999999 999999 999999 0 999999 999999 999999 999999 5739
999999 14508 19397 11936 11880 13445 14733 11416 13073 16216 13423 999999 999999 999999 999999 999999 999999 0 999999 999999 999999 13861
999999 14579 10896 19390 14272 14402 17010 13356 15985 15284 14414 999999 999999 999999 999999 999999 999999 999999 0 999999 999999 6318
999999 10098 11155 11687 15969 17247 11329 18160 10901 15867 10116 999999 999999 999999 999999 999999 999999 999999 999999 0 999999 7734
999999 12757 16601 19525 18027 10401 16058 11199 10840 13871 10449 999999 999999 999999 999999 999999 999999 999999 999999 999999 0 14527
1 999999 999999 999999 999999 999999 999999 999999 999999 999999 999999 999999 999999 999999 999999 999999 999999 999999 999999 999999 999999 0
EOF