NAME: GR_1x5x16_KH_5x16_Run_1
TYPE: TSP
COMMENT: BTSP instance |A|=80 GR nodes |B|=80 KH nodes depot=0.0 end=0.0.0
DIMENSION: 162
EDGE_WEIGHT_TYPE: EXPLICIT
EDGE_WEIGHT_FORMAT: FULL_MATRIX
NODE_COORD_TYPE: NO_COORDS
EDGE_WEIGHT_SECTION
0 12662 12623 10707 12092 14667 6574 6102 14589 5805 11559 13575 6915 13891 10670 12698 13175 11642 11447 13738 6219 11821 7422 11165 9471 6129 8634 14731 14075 8015 11136 10184 10544 14951 13751 6588 6517 14730 7334 8250 10298 8105 14104 11733 5925 10539 14273 14261 5495 7634 13894 8428 13548 12989 5107 5092 11330 7109 12542 7634 13254 6878 12425 5631 5525 6222 10552 14435 11555 7201 8802 13485 6717 7512 10298 7727 14201 8211 13670 7211 6170 999999 999999 999999 999999 999999 999999 999999 999999 999999 999999 999999 999999 999999 999999 999999 999999 999999 999999 999999 999999 999999 999999 999999 999999 999999 999999 999999 999999 999999 999999 999999 999999 999999 999999 999999 999999 999999 999999 999999 999999 999999 999999 999999 999999 999999 999999 999999 999999 999999 999999 999999 999999 999999 999999 999999 999999 999999 999999 999999 999999 999999 999999 999999 999999 999999 999999 999999 999999 999999 999999 999999 999999 999999 999999 999999 999999 999999 999999 999999 999999 999999
999999 0 999999 999999 999999 999999 999999 999999 999999 999999 999999 999999 999999 999999 999999 999999 999999 999999 999999 999999 999999 999999 999999 999999 999999 999999 999999 999999 999999 999999 999999 999999 999999 999999 999999 999999 999999 999999 999999 999999 999999 999999 999999 999999 999999 999999 999999 999999 999999 999999 999999 999999 999999 999999 999999 999999 999999 999999 999999 999999 999999 999999 999999 999999 999999 999999 999999 999999 999999 999999 999999 999999 999999 999999 999999 999999 999999 999999 999999 999999 999999 999999 999999 999999 999999 999999 16362 999999 14139 999999 999999 13693 11302 999999 19548 17177 999999 999999 13622 17537 999999 999999 999999 999999 12377 999999 999999 999999 999999 999999 999999 13163 999999 12437 999999 999999 999999 999999 999999 999999 999999 999999 999999 19620 999999 999999 999999 999999 999999 999999 999999 999999 999999 999999 999999 14757 999999 999999 999999 999999 999999 999999 14773 999999 999999 999999 999999 999999 999999 999999 15117 999999 999999 999999 999999 999999 999999 999999 999999 999999 10765 999999
999999 999999 0 999999 999999 999999 999999 999999 999999 999999 999999 999999 999999 999999 999999 999999 999999 999999 999999 999999 999999 999999 999999 999999 999999 999999 999999 999999 999999 999999 999999 999999 999999 999999 999999 999999 999999 999999 999999 999999 999999 999999 999999 999999 999999 999999 999999 999999 999999 999999 999999 999999 999999 999999 999999 999999 999999 999999 999999 999999 999999 999999 999999 999999 999999 999999 999999 999999 999999 999999 999999 999999 999999 999999 999999 999999 999999 999999 999999 999999 999999 999999 999999 999999 999999 999999 19252 999999 11170 999999 999999 19129 18532 999999 16721 10081 999999 999999 14697 12897 999999 999999 999999 999999 16587 999999 999999 999999 999999 999999 999999 14083 999999 13876 999999 999999 999999 999999 999999 999999 999999 999999 999999 18718 999999 999999 999999 999999 999999 999999 999999 999999 999999 999999 999999 17981 999999 999999 999999 999999 999999 999999 13603 999999 999999 999999 999999 999999 999999 999999 19609 999999 999999 999999 999999 999999 999999 999999 999999 999999 14745 999999
999999 999999 999999 0 999999 999999 999999 999999 999999 999999 999999 999999 999999 999999 999999 999999 999999 999999 999999 999999 999999 999999 999999 999999 999999 999999 999999 999999 999999 999999 999999 999999 999999 999999 999999 999999 999999 999999 999999 999999 999999 999999 999999 999999 999999 999999 999999 999999 999999 999999 999999 999999 999999 999999 999999 999999 999999 999999 999999 999999 999999 999999 999999 999999 999999 999999 999999 999999 999999 999999 999999 999999 999999 999999 999999 999999 999999 999999 999999 999999 999999 999999 999999 999999 999999 999999 19202 999999 18505 999999 999999 14025 19089 999999 19455 18878 999999 999999 12599 16490 999999 999999 999999 999999 14048 999999 999999 999999 999999 999999 999999 18083 999999 18075 999999 999999 999999 999999 999999 999999 999999 999999 999999 13822 999999 999999 999999 999999 999999 999999 999999 999999 999999 999999 999999 18540 999999 999999 999999 999999 999999 999999 15673 999999 999999 999999 999999 999999 999999 999999 15647 999999 999999 999999 999999 999999 999999 999999 999999 999999 15326 999999
999999 999999 999999 999999 0 999999 999999 999999 999999 999999 999999 999999 999999 999999 999999 999999 999999 999999 999999 999999 999999 999999 999999 999999 999999 999999 999999 999999 999999 999999 999999 999999 999999 999999 999999 999999 999999 999999 999999 999999 999999 999999 999999 999999 999999 999999 999999 999999 999999 999999 999999 999999 999999 999999 999999 999999 999999 999999 999999 999999 999999 999999 999999 999999 999999 999999 999999 999999 999999 999999 999999 999999 999999 999999 999999 999999 999999 999999 999999 999999 999999 999999 999999 999999 999999 999999 19188 999999 10593 999999 999999 12624 19669 999999 13052 11978 999999 999999 18903 11061 999999 999999 999999 999999 14094 999999 999999 999999 999999 999999 999999 14192 999999 19907 999999 999999 999999 999999 999999 999999 999999 999999 999999 14594 999999 999999 999999 999999 999999 999999 999999 999999 999999 999999 999999 16511 999999 999999 999999 999999 999999 999999 12578 999999 999999 999999 999999 999999 999999 999999 17011 999999 999999 999999 999999 999999 999999 999999 999999 999999 17325 999999
999999 999999 999999 999999 999999 0 999999 999999 999999 999999 999999 999999 999999 999999 999999 999999 999999 999999 999999 999999 999999 999999 999999 999999 999999 999999 999999 999999 999999 999999 999999 999999 999999 999999 999999 999999 999999 999999 999999 999999 999999 999999 999999 999999 999999 999999 999999 999999 999999 999999 999999 999999 999999 999999 999999 999999 999999 999999 999999 999999 999999 999999 999999 999999 999999 999999 999999 999999 999999 999999 999999 999999 999999 999999 999999 999999 999999 999999 999999 999999 999999 999999 999999 999999 999999 999999 18607 999999 19551 999999 999999 12418 10780 999999 19865 13395 999999 999999 18097 17582 999999 999999 999999 999999 17175 999999 999999 999999 999999 999999 999999 12260 999999 17997 999999 999999 999999 999999 999999 999999 999999 999999 999999 18323 999999 999999 999999 999999 999999 999999 999999 999999 999999 999999 999999 12161 999999 999999 999999 999999 999999 999999 12866 999999 999999 999999 999999 999999 999999 999999 15506 999999 999999 999999 999999 999999 999999 999999 999999 999999 13049 999999
999999 999999 999999 999999 999999 999999 0 999999 999999 999999 999999 999999 999999 999999 999999 999999 999999 999999 999999 999999 999999 999999 999999 999999 999999 999999 999999 999999 999999 999999 999999 999999 999999 999999 999999 999999 999999 999999 999999 999999 999999 999999 999999 999999 999999 999999 999999 999999 999999 999999 999999 999999 999999 999999 999999 999999 999999 999999 999999 999999 999999 999999 999999 999999 999999 999999 999999 999999 999999 999999 999999 999999 999999 999999 999999 999999 999999 999999 999999 999999 999999 999999 999999 999999 999999 999999 13116 999999 19811 999999 999999 12677 12146 999999 13378 16243 999999 999999 11450 10016 999999 999999 999999 999999 10360 999999 999999 999999 999999 999999 999999 19427 999999 18273 999999 999999 999999 999999 999999 999999 999999 999999 999999 14851 999999 999999 999999 999999 999999 999999 999999 999999 999999 999999 999999 16478 999999 999999 999999 999999 999999 999999 10363 999999 999999 999999 999999 999999 999999 999999 17794 999999 999999 999999 999999 999999 999999 999999 999999 999999 14454 999999
999999 999999 999999 999999 999999 999999 999999 0 999999 999999 999999 999999 999999 999999 999999 999999 999999 999999 999999 999999 999999 999999 999999 999999 999999 999999 999999 999999 999999 999999 999999 999999 999999 999999 999999 999999 999999 999999 999999 999999 999999 999999 999999 999999 999999 999999 999999 999999 999999 999999 999999 999999 999999 999999 999999 999999 999999 999999 999999 999999 999999 999999 999999 999999 999999 999999 999999 999999 999999 999999 999999 999999 999999 999999 999999 999999 999999 999999 999999 999999 999999 999999 999999 999999 999999 999999 15711 999999 14504 999999 999999 19851 18004 999999 15401 16755 999999 999999 16289 12753 999999 999999 999999 999999 14150 999999 999999 999999 999999 999999 999999 16218 999999 12670 999999 999999 999999 999999 999999 999999 999999 999999 999999 16896 999999 999999 999999 999999 999999 999999 999999 999999 999999 999999 999999 14450 999999 999999 999999 999999 999999 999999 17088 999999 999999 999999 999999 999999 999999 999999 16569 999999 999999 999999 999999 999999 999999 999999 999999 999999 11480 999999
999999 999999 999999 999999 999999 999999 999999 999999 0 999999 999999 999999 999999 999999 999999 999999 999999 999999 999999 999999 999999 999999 999999 999999 999999 999999 999999 999999 999999 999999 999999 999999 999999 999999 999999 999999 999999 999999 999999 999999 999999 999999 999999 999999 999999 999999 999999 999999 999999 999999 999999 999999 999999 999999 999999 999999 999999 999999 999999 999999 999999 999999 999999 999999 999999 999999 999999 999999 999999 999999 999999 999999 999999 999999 999999 999999 999999 999999 999999 999999 999999 999999 999999 999999 999999 999999 17610 999999 11250 999999 999999 17169 11820 999999 10021 14073 999999 999999 13546 18540 999999 999999 999999 999999 17476 999999 999999 999999 999999 999999 999999 16023 999999 14170 999999 999999 999999 999999 999999 999999 999999 999999 999999 12063 999999 999999 999999 999999 999999 999999 999999 999999 999999 999999 999999 10456 999999 999999 999999 999999 999999 999999 13944 999999 999999 999999 999999 999999 999999 999999 17724 999999 999999 999999 999999 999999 999999 999999 999999 999999 19499 999999
999999 999999 999999 999999 999999 999999 999999 999999 999999 0 999999 999999 999999 999999 999999 999999 999999 999999 999999 999999 999999 999999 999999 999999 999999 999999 999999 999999 999999 999999 999999 999999 999999 999999 999999 999999 999999 999999 999999 999999 999999 999999 999999 999999 999999 999999 999999 999999 999999 999999 999999 999999 999999 999999 999999 999999 999999 999999 999999 999999 999999 999999 999999 999999 999999 999999 999999 999999 999999 999999 999999 999999 999999 999999 999999 999999 999999 999999 999999 999999 999999 999999 999999 999999 999999 999999 19700 999999 12552 999999 999999 19049 10866 999999 12233 11248 999999 999999 14080 17265 999999 999999 999999 999999 15840 999999 999999 999999 999999 999999 999999 12147 999999 15163 999999 999999 999999 999999 999999 999999 999999 999999 999999 12030 999999 999999 999999 999999 999999 999999 999999 999999 999999 999999 999999 14568 999999 999999 999999 999999 999999 999999 16691 999999 999999 999999 999999 999999 999999 999999 18168 999999 999999 999999 999999 999999 999999 999999 999999 999999 11623 999999
999999 999999 999999 999999 999999 999999 999999 999999 999999 999999 0 999999 999999 999999 999999 999999 999999 999999 999999 999999 999999 999999 999999 999999 999999 999999 999999 999999 999999 999999 999999 999999 999999 999999 999999 999999 999999 999999 999999 999999 999999 999999 999999 999999 999999 999999 999999 999999 999999 999999 999999 999999 999999 999999 999999 999999 999999 999999 999999 999999 999999 999999 999999 999999 999999 999999 999999 999999 999999 999999 999999 999999 999999 999999 999999 999999 999999 999999 999999 999999 999999 999999 999999 999999 999999 999999 11522 999999 10061 999999 999999 12264 13914 999999 19928 16954 999999 999999 13406 16821 999999 999999 999999 999999 18122 999999 999999 999999 999999 999999 999999 17589 999999 14184 999999 999999 999999 999999 999999 999999 999999 999999 999999 14580 999999 999999 999999 999999 999999 999999 999999 999999 999999 999999 999999 19282 999999 999999 999999 999999 999999 999999 19719 999999 999999 999999 999999 999999 999999 999999 10275 999999 999999 999999 999999 999999 999999 999999 999999 999999 17825 999999
999999 999999 999999 999999 999999 999999 999999 999999 999999 999999 999999 0 999999 999999 999999 999999 999999 999999 999999 999999 999999 999999 999999 999999 999999 999999 999999 999999 999999 999999 999999 999999 999999 999999 999999 999999 999999 999999 999999 999999 999999 999999 999999 999999 999999 999999 999999 999999 999999 999999 999999 999999 999999 999999 999999 999999 999999 999999 999999 999999 999999 999999 999999 999999 999999 999999 999999 999999 999999 999999 999999 999999 999999 999999 999999 999999 999999 999999 999999 999999 999999 999999 999999 999999 999999 999999 13715 999999 15634 999999 999999 18019 18463 999999 17563 18551 999999 999999 16343 12554 999999 999999 999999 999999 12364 999999 999999 999999 999999 999999 999999 19328 999999 19205 999999 999999 999999 999999 999999 999999 999999 999999 999999 14045 999999 999999 999999 999999 999999 999999 999999 999999 999999 999999 999999 19497 999999 999999 999999 999999 999999 999999 10789 999999 999999 999999 999999 999999 999999 999999 18545 999999 999999 999999 999999 999999 999999 999999 999999 999999 17148 999999
999999 999999 999999 999999 999999 999999 999999 999999 999999 999999 999999 999999 0 999999 999999 999999 999999 999999 999999 999999 999999 999999 999999 999999 999999 999999 999999 999999 999999 999999 999999 999999 999999 999999 999999 999999 999999 999999 999999 999999 999999 999999 999999 999999 999999 999999 999999 999999 999999 999999 999999 999999 999999 999999 999999 999999 999999 999999 999999 999999 999999 999999 999999 999999 999999 999999 999999 999999 999999 999999 999999 999999 999999 999999 999999 999999 999999 999999 999999 999999 999999 999999 999999 999999 999999 999999 16207 999999 10685 999999 999999 11593 18279 999999 17280 16275 999999 999999 15084 16432 999999 999999 999999 999999 19375 999999 999999 999999 999999 999999 999999 15264 999999 14392 999999 999999 999999 999999 999999 999999 999999 999999 999999 15418 999999 999999 999999 999999 999999 999999 999999 999999 999999 999999 999999 15911 999999 999999 999999 999999 999999 999999 14132 999999 999999 999999 999999 999999 999999 999999 18938 999999 999999 999999 999999 999999 999999 999999 999999 999999 15769 999999
999999 999999 999999 999999 999999 999999 999999 999999 999999 999999 999999 999999 999999 0 999999 999999 999999 999999 999999 999999 999999 999999 999999 999999 999999 999999 999999 999999 999999 999999 999999 999999 999999 999999 999999 999999 999999 999999 999999 999999 999999 999999 999999 999999 999999 999999 999999 999999 999999 999999 999999 999999 999999 999999 999999 999999 999999 999999 999999 999999 999999 999999 999999 999999 999999 999999 999999 999999 999999 999999 999999 999999 999999 999999 999999 999999 999999 999999 999999 999999 999999 999999 999999 999999 999999 999999 13120 999999 12588 999999 999999 16569 13275 999999 19078 19153 999999 999999 17873 12347 999999 999999 999999 999999 16085 999999 999999 999999 999999 999999 999999 10388 999999 14929 999999 999999 999999 999999 999999 999999 999999 999999 999999 13487 999999 999999 999999 999999 999999 999999 999999 999999 999999 999999 999999 13199 999999 999999 999999 999999 999999 999999 15089 999999 999999 999999 999999 999999 999999 999999 12779 999999 999999 999999 999999 999999 999999 999999 999999 999999 13618 999999
999999 999999 999999 999999 999999 999999 999999 999999 999999 999999 999999 999999 999999 999999 0 999999 999999 999999 999999 999999 999999 999999 999999 999999 999999 999999 999999 999999 999999 999999 999999 999999 999999 999999 999999 999999 999999 999999 999999 999999 999999 999999 999999 999999 999999 999999 999999 999999 999999 999999 999999 999999 999999 999999 999999 999999 999999 999999 999999 999999 999999 999999 999999 999999 999999 999999 999999 999999 999999 999999 999999 999999 999999 999999 999999 999999 999999 999999 999999 999999 999999 999999 999999 999999 999999 999999 16438 999999 12762 999999 999999 17074 10276 999999 14078 15990 999999 999999 17081 10658 999999 999999 999999 999999 13935 999999 999999 999999 999999 999999 999999 16363 999999 19923 999999 999999 999999 999999 999999 999999 999999 999999 999999 11851 999999 999999 999999 999999 999999 999999 999999 999999 999999 999999 999999 15438 999999 999999 999999 999999 999999 999999 15185 999999 999999 999999 999999 999999 999999 999999 18891 999999 999999 999999 999999 999999 999999 999999 999999 999999 17245 999999
999999 999999 999999 999999 999999 999999 999999 999999 999999 999999 999999 999999 999999 999999 999999 0 999999 999999 999999 999999 999999 999999 999999 999999 999999 999999 999999 999999 999999 999999 999999 999999 999999 999999 999999 999999 999999 999999 999999 999999 999999 999999 999999 999999 999999 999999 999999 999999 999999 999999 999999 999999 999999 999999 999999 999999 999999 999999 999999 999999 999999 999999 999999 999999 999999 999999 999999 999999 999999 999999 999999 999999 999999 999999 999999 999999 999999 999999 999999 999999 999999 999999 999999 999999 999999 999999 18803 999999 12502 999999 999999 14399 10195 999999 10672 18501 999999 999999 19574 17598 999999 999999 999999 999999 17137 999999 999999 999999 999999 999999 999999 19911 999999 19074 999999 999999 999999 999999 999999 999999 999999 999999 999999 13081 999999 999999 999999 999999 999999 999999 999999 999999 999999 999999 999999 12282 999999 999999 999999 999999 999999 999999 13421 999999 999999 999999 999999 999999 999999 999999 14117 999999 999999 999999 999999 999999 999999 999999 999999 999999 12830 999999
999999 999999 999999 999999 999999 999999 999999 999999 999999 999999 999999 999999 999999 999999 999999 999999 0 999999 999999 999999 999999 999999 999999 999999 999999 999999 999999 999999 999999 999999 999999 999999 999999 999999 999999 999999 999999 999999 999999 999999 999999 999999 999999 999999 999999 999999 999999 999999 999999 999999 999999 999999 999999 999999 999999 999999 999999 999999 999999 999999 999999 999999 999999 999999 999999 999999 999999 999999 999999 999999 999999 999999 999999 999999 999999 999999 999999 999999 999999 999999 999999 999999 999999 999999 999999 999999 13289 999999 16248 999999 999999 17622 15365 999999 11892 11448 999999 999999 13208 15262 999999 999999 999999 999999 11187 999999 999999 999999 999999 999999 999999 16669 999999 16369 999999 999999 999999 999999 999999 999999 999999 999999 999999 15564 999999 999999 999999 999999 999999 999999 999999 999999 999999 999999 999999 16305 999999 999999 999999 999999 999999 999999 16549 999999 999999 999999 999999 999999 999999 999999 18062 999999 999999 999999 999999 999999 999999 999999 999999 999999 12801 999999
999999 999999 999999 999999 999999 999999 999999 999999 999999 999999 999999 999999 999999 999999 999999 999999 999999 0 999999 999999 999999 999999 999999 999999 999999 999999 999999 999999 999999 999999 999999 999999 999999 999999 999999 999999 999999 999999 999999 999999 999999 999999 999999 999999 999999 999999 999999 999999 999999 999999 999999 999999 999999 999999 999999 999999 999999 999999 999999 999999 999999 999999 999999 999999 999999 999999 999999 999999 999999 999999 999999 999999 999999 999999 999999 999999 999999 999999 999999 999999 999999 999999 14318 999999 999999 14568 999999 999999 999999 15813 999999 999999 999999 999999 999999 999999 999999 999999 999999 999999 999999 999999 999999 999999 999999 16162 11489 999999 11405 999999 17124 999999 13484 999999 15025 999999 999999 999999 999999 999999 999999 999999 999999 999999 999999 999999 999999 999999 17398 999999 999999 999999 999999 999999 999999 999999 19361 999999 999999 19798 999999 999999 999999 999999 999999 999999 17045 999999 13711 999999 999999 999999 17816 17373 999999 999999 999999 999999 999999 999999 999999 999999
999999 999999 999999 999999 999999 999999 999999 999999 999999 999999 999999 999999 999999 999999 999999 999999 999999 999999 0 999999 999999 999999 999999 999999 999999 999999 999999 999999 999999 999999 999999 999999 999999 999999 999999 999999 999999 999999 999999 999999 999999 999999 999999 999999 999999 999999 999999 999999 999999 999999 999999 999999 999999 999999 999999 999999 999999 999999 999999 999999 999999 999999 999999 999999 999999 999999 999999 999999 999999 999999 999999 999999 999999 999999 999999 999999 999999 999999 999999 999999 999999 999999 18889 999999 999999 16573 999999 999999 999999 11860 999999 999999 999999 999999 999999 999999 999999 999999 999999 999999 999999 999999 999999 999999 999999 11600 16429 999999 16577 999999 17652 999999 12664 999999 12037 999999 999999 999999 999999 999999 999999 999999 999999 999999 999999 999999 999999 999999 10547 999999 999999 999999 999999 999999 999999 999999 10413 999999 999999 18514 999999 999999 999999 999999 999999 999999 10684 999999 15398 999999 999999 999999 17954 19753 999999 999999 999999 999999 999999 999999 999999 999999
999999 999999 999999 999999 999999 999999 999999 999999 999999 999999 999999 999999 999999 999999 999999 999999 999999 999999 999999 0 999999 999999 999999 999999 999999 999999 999999 999999 999999 999999 999999 999999 999999 999999 999999 999999 999999 999999 999999 999999 999999 999999 999999 999999 999999 999999 999999 999999 999999 999999 999999 999999 999999 999999 999999 999999 999999 999999 999999 999999 999999 999999 999999 999999 999999 999999 999999 999999 999999 999999 999999 999999 999999 999999 999999 999999 999999 999999 999999 999999 999999 999999 12164 999999 999999 17627 999999 999999 999999 17599 999999 999999 999999 999999 999999 999999 999999 999999 999999 999999 999999 999999 999999 999999 999999 15255 18563 999999 14726 999999 17416 999999 10803 999999 10992 999999 999999 999999 999999 999999 999999 999999 999999 999999 999999 999999 999999 999999 11296 999999 999999 999999 999999 999999 999999 999999 17527 999999 999999 17548 999999 999999 999999 999999 999999 999999 19655 999999 17122 999999 999999 999999 14502 13093 999999 999999 999999 999999 999999 999999 999999 999999
999999 999999 999999 999999 999999 999999 999999 999999 999999 999999 999999 999999 999999 999999 999999 999999 999999 999999 999999 999999 0 999999 999999 999999 999999 999999 999999 999999 999999 999999 999999 999999 999999 999999 999999 999999 999999 999999 999999 999999 999999 999999 999999 999999 999999 999999 999999 999999 999999 999999 999999 999999 999999 999999 999999 999999 999999 999999 999999 999999 999999 999999 999999 999999 999999 999999 999999 999999 999999 999999 999999 999999 999999 999999 999999 999999 999999 999999 999999 999999 999999 999999 11200 999999 999999 13418 999999 999999 999999 16219 999999 999999 999999 999999 999999 999999 999999 999999 999999 999999 999999 999999 999999 999999 999999 19175 18767 999999 15002 999999 16873 999999 12644 999999 14913 999999 999999 999999 999999 999999 999999 999999 999999 999999 999999 999999 999999 999999 13025 999999 999999 999999 999999 999999 999999 999999 11169 999999 999999 18667 999999 999999 999999 999999 999999 999999 17665 999999 15869 999999 999999 999999 13632 12235 999999 999999 999999 999999 999999 999999 999999 999999
999999 999999 999999 999999 999999 999999 999999 999999 999999 999999 999999 999999 999999 999999 999999 999999 999999 999999 999999 999999 999999 0 999999 999999 999999 999999 999999 999999 999999 999999 999999 999999 999999 999999 999999 999999 999999 999999 999999 999999 999999 999999 999999 999999 999999 999999 999999 999999 999999 999999 999999 999999 999999 999999 999999 999999 999999 999999 999999 999999 999999 999999 999999 999999 999999 999999 999999 999999 999999 999999 999999 999999 999999 999999 999999 999999 999999 999999 999999 999999 999999 999999 11649 999999 999999 11509 999999 999999 999999 11052 999999 999999 999999 999999 999999 999999 999999 999999 999999 999999 999999 999999 999999 999999 999999 12683 18700 999999 16429 999999 18724 999999 10852 999999 11697 999999 999999 999999 999999 999999 999999 999999 999999 999999 999999 999999 999999 999999 17962 999999 999999 999999 999999 999999 999999 999999 15623 999999 999999 15924 999999 999999 999999 999999 999999 999999 15752 999999 12854 999999 999999 999999 10560 15993 999999 999999 999999 999999 999999 999999 999999 999999
999999 999999 999999 999999 999999 999999 999999 999999 999999 999999 999999 999999 999999 999999 999999 999999 999999 999999 999999 999999 999999 999999 0 999999 999999 999999 999999 999999 999999 999999 999999 999999 999999 999999 999999 999999 999999 999999 999999 999999 999999 999999 999999 999999 999999 999999 999999 999999 999999 999999 999999 999999 999999 999999 999999 999999 999999 999999 999999 999999 999999 999999 999999 999999 999999 999999 999999 999999 999999 999999 999999 999999 999999 999999 999999 999999 999999 999999 999999 999999 999999 999999 15628 999999 999999 14894 999999 999999 999999 14798 999999 999999 999999 999999 999999 999999 999999 999999 999999 999999 999999 999999 999999 999999 999999 13095 12185 999999 12097 999999 17929 999999 17096 999999 14712 999999 999999 999999 999999 999999 999999 999999 999999 999999 999999 999999 999999 999999 17012 999999 999999 999999 999999 999999 999999 999999 13640 999999 999999 18732 999999 999999 999999 999999 999999 999999 16502 999999 15209 999999 999999 999999 17424 13769 999999 999999 999999 999999 999999 999999 999999 999999
999999 999999 999999 999999 999999 999999 999999 999999 999999 999999 999999 999999 999999 999999 999999 999999 999999 999999 999999 999999 999999 999999 999999 0 999999 999999 999999 999999 999999 999999 999999 999999 999999 999999 999999 999999 999999 999999 999999 999999 999999 999999 999999 999999 999999 999999 999999 999999 999999 999999 999999 999999 999999 999999 999999 999999 999999 999999 999999 999999 999999 999999 999999 999999 999999 999999 999999 999999 999999 999999 999999 999999 999999 999999 999999 999999 999999 999999 999999 999999 999999 999999 18187 999999 999999 18306 999999 999999 999999 17076 999999 999999 999999 999999 999999 999999 999999 999999 999999 999999 999999 999999 999999 999999 999999 12552 15266 999999 14693 999999 12325 999999 17225 999999 12618 999999 999999 999999 999999 999999 999999 999999 999999 999999 999999 999999 999999 999999 17910 999999 999999 999999 999999 999999 999999 999999 14278 999999 999999 12147 999999 999999 999999 999999 999999 999999 16965 999999 11972 999999 999999 999999 17539 11478 999999 999999 999999 999999 999999 999999 999999 999999
999999 999999 999999 999999 999999 999999 999999 999999 999999 999999 999999 999999 999999 999999 999999 999999 999999 999999 999999 999999 999999 999999 999999 999999 0 999999 999999 999999 999999 999999 999999 999999 999999 999999 999999 999999 999999 999999 999999 999999 999999 999999 999999 999999 999999 999999 999999 999999 999999 999999 999999 999999 999999 999999 999999 999999 999999 999999 999999 999999 999999 999999 999999 999999 999999 999999 999999 999999 999999 999999 999999 999999 999999 999999 999999 999999 999999 999999 999999 999999 999999 999999 10916 999999 999999 18980 999999 999999 999999 18010 999999 999999 999999 999999 999999 999999 999999 999999 999999 999999 999999 999999 999999 999999 999999 10335 17978 999999 12456 999999 19301 999999 12175 999999 11620 999999 999999 999999 999999 999999 999999 999999 999999 999999 999999 999999 999999 999999 16301 999999 999999 999999 999999 999999 999999 999999 11682 999999 999999 17862 999999 999999 999999 999999 999999 999999 12473 999999 12396 999999 999999 999999 15041 14708 999999 999999 999999 999999 999999 999999 999999 999999
999999 999999 999999 999999 999999 999999 999999 999999 999999 999999 999999 999999 999999 999999 999999 999999 999999 999999 999999 999999 999999 999999 999999 999999 999999 0 999999 999999 999999 999999 999999 999999 999999 999999 999999 999999 999999 999999 999999 999999 999999 999999 999999 999999 999999 999999 999999 999999 999999 999999 999999 999999 999999 999999 999999 999999 999999 999999 999999 999999 999999 999999 999999 999999 999999 999999 999999 999999 999999 999999 999999 999999 999999 999999 999999 999999 999999 999999 999999 999999 999999 999999 15577 999999 999999 17722 999999 999999 999999 14876 999999 999999 999999 999999 999999 999999 999999 999999 999999 999999 999999 999999 999999 999999 999999 19474 18420 999999 18791 999999 14005 999999 16805 999999 15864 999999 999999 999999 999999 999999 999999 999999 999999 999999 999999 999999 999999 999999 16834 999999 999999 999999 999999 999999 999999 999999 11240 999999 999999 11287 999999 999999 999999 999999 999999 999999 11788 999999 19245 999999 999999 999999 12443 10809 999999 999999 999999 999999 999999 999999 999999 999999
999999 999999 999999 999999 999999 999999 999999 999999 999999 999999 999999 999999 999999 999999 999999 999999 999999 999999 999999 999999 999999 999999 999999 999999 999999 999999 0 999999 999999 999999 999999 999999 999999 999999 999999 999999 999999 999999 999999 999999 999999 999999 999999 999999 999999 999999 999999 999999 999999 999999 999999 999999 999999 999999 999999 999999 999999 999999 999999 999999 999999 999999 999999 999999 999999 999999 999999 999999 999999 999999 999999 999999 999999 999999 999999 999999 999999 999999 999999 999999 999999 999999 11143 999999 999999 15167 999999 999999 999999 15581 999999 999999 999999 999999 999999 999999 999999 999999 999999 999999 999999 999999 999999 999999 999999 18814 15216 999999 17986 999999 12520 999999 16419 999999 19522 999999 999999 999999 999999 999999 999999 999999 999999 999999 999999 999999 999999 999999 12004 999999 999999 999999 999999 999999 999999 999999 15354 999999 999999 16017 999999 999999 999999 999999 999999 999999 19322 999999 10023 999999 999999 999999 11373 13695 999999 999999 999999 999999 999999 999999 999999 999999
999999 999999 999999 999999 999999 999999 999999 999999 999999 999999 999999 999999 999999 999999 999999 999999 999999 999999 999999 999999 999999 999999 999999 999999 999999 999999 999999 0 999999 999999 999999 999999 999999 999999 999999 999999 999999 999999 999999 999999 999999 999999 999999 999999 999999 999999 999999 999999 999999 999999 999999 999999 999999 999999 999999 999999 999999 999999 999999 999999 999999 999999 999999 999999 999999 999999 999999 999999 999999 999999 999999 999999 999999 999999 999999 999999 999999 999999 999999 999999 999999 999999 11670 999999 999999 12411 999999 999999 999999 12731 999999 999999 999999 999999 999999 999999 999999 999999 999999 999999 999999 999999 999999 999999 999999 18798 16200 999999 14909 999999 18341 999999 10645 999999 19722 999999 999999 999999 999999 999999 999999 999999 999999 999999 999999 999999 999999 999999 19451 999999 999999 999999 999999 999999 999999 999999 19639 999999 999999 19018 999999 999999 999999 999999 999999 999999 19104 999999 19556 999999 999999 999999 13487 15832 999999 999999 999999 999999 999999 999999 999999 999999
999999 999999 999999 999999 999999 999999 999999 999999 999999 999999 999999 999999 999999 999999 999999 999999 999999 999999 999999 999999 999999 999999 999999 999999 999999 999999 999999 999999 0 999999 999999 999999 999999 999999 999999 999999 999999 999999 999999 999999 999999 999999 999999 999999 999999 999999 999999 999999 999999 999999 999999 999999 999999 999999 999999 999999 999999 999999 999999 999999 999999 999999 999999 999999 999999 999999 999999 999999 999999 999999 999999 999999 999999 999999 999999 999999 999999 999999 999999 999999 999999 999999 18688 999999 999999 19737 999999 999999 999999 14117 999999 999999 999999 999999 999999 999999 999999 999999 999999 999999 999999 999999 999999 999999 999999 11675 14447 999999 15164 999999 15418 999999 11707 999999 17428 999999 999999 999999 999999 999999 999999 999999 999999 999999 999999 999999 999999 999999 18402 999999 999999 999999 999999 999999 999999 999999 12501 999999 999999 11258 999999 999999 999999 999999 999999 999999 13381 999999 11452 999999 999999 999999 15566 17074 999999 999999 999999 999999 999999 999999 999999 999999
999999 999999 999999 999999 999999 999999 999999 999999 999999 999999 999999 999999 999999 999999 999999 999999 999999 999999 999999 999999 999999 999999 999999 999999 999999 999999 999999 999999 999999 0 999999 999999 999999 999999 999999 999999 999999 999999 999999 999999 999999 999999 999999 999999 999999 999999 999999 999999 999999 999999 999999 999999 999999 999999 999999 999999 999999 999999 999999 999999 999999 999999 999999 999999 999999 999999 999999 999999 999999 999999 999999 999999 999999 999999 999999 999999 999999 999999 999999 999999 999999 999999 10512 999999 999999 12207 999999 999999 999999 14989 999999 999999 999999 999999 999999 999999 999999 999999 999999 999999 999999 999999 999999 999999 999999 15786 12013 999999 12307 999999 12945 999999 17991 999999 13719 999999 999999 999999 999999 999999 999999 999999 999999 999999 999999 999999 999999 999999 15973 999999 999999 999999 999999 999999 999999 999999 10759 999999 999999 11153 999999 999999 999999 999999 999999 999999 16520 999999 16821 999999 999999 999999 18924 19582 999999 999999 999999 999999 999999 999999 999999 999999
999999 999999 999999 999999 999999 999999 999999 999999 999999 999999 999999 999999 999999 999999 999999 999999 999999 999999 999999 999999 999999 999999 999999 999999 999999 999999 999999 999999 999999 999999 0 999999 999999 999999 999999 999999 999999 999999 999999 999999 999999 999999 999999 999999 999999 999999 999999 999999 999999 999999 999999 999999 999999 999999 999999 999999 999999 999999 999999 999999 999999 999999 999999 999999 999999 999999 999999 999999 999999 999999 999999 999999 999999 999999 999999 999999 999999 999999 999999 999999 999999 999999 14275 999999 999999 17046 999999 999999 999999 12936 999999 999999 999999 999999 999999 999999 999999 999999 999999 999999 999999 999999 999999 999999 999999 16238 16765 999999 10295 999999 10762 999999 19795 999999 11894 999999 999999 999999 999999 999999 999999 999999 999999 999999 999999 999999 999999 999999 12913 999999 999999 999999 999999 999999 999999 999999 14194 999999 999999 14947 999999 999999 999999 999999 999999 999999 19056 999999 19157 999999 999999 999999 14662 17102 999999 999999 999999 999999 999999 999999 999999 999999
999999 999999 999999 999999 999999 999999 999999 999999 999999 999999 999999 999999 999999 999999 999999 999999 999999 999999 999999 999999 999999 999999 999999 999999 999999 999999 999999 999999 999999 999999 999999 0 999999 999999 999999 999999 999999 999999 999999 999999 999999 999999 999999 999999 999999 999999 999999 999999 999999 999999 999999 999999 999999 999999 999999 999999 999999 999999 999999 999999 999999 999999 999999 999999 999999 999999 999999 999999 999999 999999 999999 999999 999999 999999 999999 999999 999999 999999 999999 999999 999999 999999 13363 999999 999999 18845 999999 999999 999999 13191 999999 999999 999999 999999 999999 999999 999999 999999 999999 999999 999999 999999 999999 999999 999999 11226 13434 999999 19693 999999 12361 999999 12271 999999 18756 999999 999999 999999 999999 999999 999999 999999 999999 999999 999999 999999 999999 999999 12682 999999 999999 999999 999999 999999 999999 999999 19373 999999 999999 16754 999999 999999 999999 999999 999999 999999 11863 999999 15575 999999 999999 999999 13913 13045 999999 999999 999999 999999 999999 999999 999999 999999
999999 999999 999999 999999 999999 999999 999999 999999 999999 999999 999999 999999 999999 999999 999999 999999 999999 999999 999999 999999 999999 999999 999999 999999 999999 999999 999999 999999 999999 999999 999999 999999 0 999999 999999 999999 999999 999999 999999 999999 999999 999999 999999 999999 999999 999999 999999 999999 999999 999999 999999 999999 999999 999999 999999 999999 999999 999999 999999 999999 999999 999999 999999 999999 999999 999999 999999 999999 999999 999999 999999 999999 999999 999999 999999 999999 999999 999999 999999 999999 999999 999999 12144 999999 999999 17791 999999 999999 999999 14892 999999 999999 999999 999999 999999 999999 999999 999999 999999 999999 999999 999999 999999 999999 999999 16341 12717 999999 13083 999999 19659 999999 17735 999999 12864 999999 999999 999999 999999 999999 999999 999999 999999 999999 999999 999999 999999 999999 13199 999999 999999 999999 999999 999999 999999 999999 16783 999999 999999 11468 999999 999999 999999 999999 999999 999999 18367 999999 12707 999999 999999 999999 18824 12777 999999 999999 999999 999999 999999 999999 999999 999999
999999 999999 999999 999999 999999 999999 999999 999999 999999 999999 999999 999999 999999 999999 999999 999999 999999 999999 999999 999999 999999 999999 999999 999999 999999 999999 999999 999999 999999 999999 999999 999999 999999 0 999999 999999 999999 999999 999999 999999 999999 999999 999999 999999 999999 999999 999999 999999 999999 999999 999999 999999 999999 999999 999999 999999 999999 999999 999999 999999 999999 999999 999999 999999 999999 999999 999999 999999 999999 999999 999999 999999 999999 999999 999999 999999 999999 999999 999999 999999 999999 13538 999999 14035 999999 999999 999999 12095 999999 999999 999999 999999 999999 999999 999999 999999 999999 14764 999999 999999 15034 999999 17374 999999 999999 999999 999999 999999 999999 999999 999999 999999 999999 999999 999999 999999 14549 999999 999999 999999 999999 10528 999999 999999 999999 999999 999999 999999 999999 11992 999999 999999 999999 999999 999999 999999 999999 999999 15270 999999 18373 999999 999999 10595 999999 12299 999999 999999 999999 999999 999999 999999 999999 999999 11244 999999 10349 17800 999999 999999 999999 999999
999999 999999 999999 999999 999999 999999 999999 999999 999999 999999 999999 999999 999999 999999 999999 999999 999999 999999 999999 999999 999999 999999 999999 999999 999999 999999 999999 999999 999999 999999 999999 999999 999999 999999 0 999999 999999 999999 999999 999999 999999 999999 999999 999999 999999 999999 999999 999999 999999 999999 999999 999999 999999 999999 999999 999999 999999 999999 999999 999999 999999 999999 999999 999999 999999 999999 999999 999999 999999 999999 999999 999999 999999 999999 999999 999999 999999 999999 999999 999999 999999 15782 999999 17815 999999 999999 999999 19589 999999 999999 999999 999999 999999 999999 999999 999999 999999 15988 999999 999999 10844 999999 11699 999999 999999 999999 999999 999999 999999 999999 999999 999999 999999 999999 999999 999999 15498 999999 999999 999999 999999 15455 999999 999999 999999 999999 999999 999999 999999 12202 999999 999999 999999 999999 999999 999999 999999 999999 19215 999999 12285 999999 999999 18349 999999 14329 999999 999999 999999 999999 999999 999999 999999 999999 15852 999999 12753 10887 999999 999999 999999 999999
999999 999999 999999 999999 999999 999999 999999 999999 999999 999999 999999 999999 999999 999999 999999 999999 999999 999999 999999 999999 999999 999999 999999 999999 999999 999999 999999 999999 999999 999999 999999 999999 999999 999999 999999 0 999999 999999 999999 999999 999999 999999 999999 999999 999999 999999 999999 999999 999999 999999 999999 999999 999999 999999 999999 999999 999999 999999 999999 999999 999999 999999 999999 999999 999999 999999 999999 999999 999999 999999 999999 999999 999999 999999 999999 999999 999999 999999 999999 999999 999999 12958 999999 12452 999999 999999 999999 17571 999999 999999 999999 999999 999999 999999 999999 999999 999999 19453 999999 999999 17842 999999 15670 999999 999999 999999 999999 999999 999999 999999 999999 999999 999999 999999 999999 999999 14842 999999 999999 999999 999999 15131 999999 999999 999999 999999 999999 999999 999999 12125 999999 999999 999999 999999 999999 999999 999999 999999 12541 999999 10757 999999 999999 14444 999999 13778 999999 999999 999999 999999 999999 999999 999999 999999 19551 999999 17138 10383 999999 999999 999999 999999
999999 999999 999999 999999 999999 999999 999999 999999 999999 999999 999999 999999 999999 999999 999999 999999 999999 999999 999999 999999 999999 999999 999999 999999 999999 999999 999999 999999 999999 999999 999999 999999 999999 999999 999999 999999 0 999999 999999 999999 999999 999999 999999 999999 999999 999999 999999 999999 999999 999999 999999 999999 999999 999999 999999 999999 999999 999999 999999 999999 999999 999999 999999 999999 999999 999999 999999 999999 999999 999999 999999 999999 999999 999999 999999 999999 999999 999999 999999 999999 999999 12595 999999 19093 999999 999999 999999 16562 999999 999999 999999 999999 999999 999999 999999 999999 999999 19176 999999 999999 13106 999999 16695 999999 999999 999999 999999 999999 999999 999999 999999 999999 999999 999999 999999 999999 12256 999999 999999 999999 999999 16981 999999 999999 999999 999999 999999 999999 999999 19246 999999 999999 999999 999999 999999 999999 999999 999999 10981 999999 17551 999999 999999 12749 999999 12246 999999 999999 999999 999999 999999 999999 999999 999999 13076 999999 17306 17304 999999 999999 999999 999999
999999 999999 999999 999999 999999 999999 999999 999999 999999 999999 999999 999999 999999 999999 999999 999999 999999 999999 999999 999999 999999 999999 999999 999999 999999 999999 999999 999999 999999 999999 999999 999999 999999 999999 999999 999999 999999 0 999999 999999 999999 999999 999999 999999 999999 999999 999999 999999 999999 999999 999999 999999 999999 999999 999999 999999 999999 999999 999999 999999 999999 999999 999999 999999 999999 999999 999999 999999 999999 999999 999999 999999 999999 999999 999999 999999 999999 999999 999999 999999 999999 10625 999999 15164 999999 999999 999999 19791 999999 999999 999999 999999 999999 999999 999999 999999 999999 15429 999999 999999 14550 999999 19896 999999 999999 999999 999999 999999 999999 999999 999999 999999 999999 999999 999999 999999 11263 999999 999999 999999 999999 13061 999999 999999 999999 999999 999999 999999 999999 17871 999999 999999 999999 999999 999999 999999 999999 999999 18661 999999 18775 999999 999999 17942 999999 11000 999999 999999 999999 999999 999999 999999 999999 999999 11278 999999 11646 10803 999999 999999 999999 999999
999999 999999 999999 999999 999999 999999 999999 999999 999999 999999 999999 999999 999999 999999 999999 999999 999999 999999 999999 999999 999999 999999 999999 999999 999999 999999 999999 999999 999999 999999 999999 999999 999999 999999 999999 999999 999999 999999 0 999999 999999 999999 999999 999999 999999 999999 999999 999999 999999 999999 999999 999999 999999 999999 999999 999999 999999 999999 999999 999999 999999 999999 999999 999999 999999 999999 999999 999999 999999 999999 999999 999999 999999 999999 999999 999999 999999 999999 999999 999999 999999 15160 999999 10900 999999 999999 999999 13245 999999 999999 999999 999999 999999 999999 999999 999999 999999 12683 999999 999999 19985 999999 17460 999999 999999 999999 999999 999999 999999 999999 999999 999999 999999 999999 999999 999999 15056 999999 999999 999999 999999 17195 999999 999999 999999 999999 999999 999999 999999 17372 999999 999999 999999 999999 999999 999999 999999 999999 15852 999999 13831 999999 999999 19927 999999 17853 999999 999999 999999 999999 999999 999999 999999 999999 15766 999999 16821 10558 999999 999999 999999 999999
999999 999999 999999 999999 999999 999999 999999 999999 999999 999999 999999 999999 999999 999999 999999 999999 999999 999999 999999 999999 999999 999999 999999 999999 999999 999999 999999 999999 999999 999999 999999 999999 999999 999999 999999 999999 999999 999999 999999 0 999999 999999 999999 999999 999999 999999 999999 999999 999999 999999 999999 999999 999999 999999 999999 999999 999999 999999 999999 999999 999999 999999 999999 999999 999999 999999 999999 999999 999999 999999 999999 999999 999999 999999 999999 999999 999999 999999 999999 999999 999999 11606 999999 17156 999999 999999 999999 15776 999999 999999 999999 999999 999999 999999 999999 999999 999999 10840 999999 999999 11483 999999 12566 999999 999999 999999 999999 999999 999999 999999 999999 999999 999999 999999 999999 999999 17474 999999 999999 999999 999999 11347 999999 999999 999999 999999 999999 999999 999999 12646 999999 999999 999999 999999 999999 999999 999999 999999 16980 999999 14702 999999 999999 17612 999999 16065 999999 999999 999999 999999 999999 999999 999999 999999 18307 999999 16373 17642 999999 999999 999999 999999
999999 999999 999999 999999 999999 999999 999999 999999 999999 999999 999999 999999 999999 999999 999999 999999 999999 999999 999999 999999 999999 999999 999999 999999 999999 999999 999999 999999 999999 999999 999999 999999 999999 999999 999999 999999 999999 999999 999999 999999 0 999999 999999 999999 999999 999999 999999 999999 999999 999999 999999 999999 999999 999999 999999 999999 999999 999999 999999 999999 999999 999999 999999 999999 999999 999999 999999 999999 999999 999999 999999 999999 999999 999999 999999 999999 999999 999999 999999 999999 999999 14873 999999 10676 999999 999999 999999 10352 999999 999999 999999 999999 999999 999999 999999 999999 999999 19149 999999 999999 11921 999999 14889 999999 999999 999999 999999 999999 999999 999999 999999 999999 999999 999999 999999 999999 19570 999999 999999 999999 999999 19917 999999 999999 999999 999999 999999 999999 999999 17312 999999 999999 999999 999999 999999 999999 999999 999999 13751 999999 15829 999999 999999 13196 999999 19509 999999 999999 999999 999999 999999 999999 999999 999999 18144 999999 18332 15900 999999 999999 999999 999999
999999 999999 999999 999999 999999 999999 999999 999999 999999 999999 999999 999999 999999 999999 999999 999999 999999 999999 999999 999999 999999 999999 999999 999999 999999 999999 999999 999999 999999 999999 999999 999999 999999 999999 999999 999999 999999 999999 999999 999999 999999 0 999999 999999 999999 999999 999999 999999 999999 999999 999999 999999 999999 999999 999999 999999 999999 999999 999999 999999 999999 999999 999999 999999 999999 999999 999999 999999 999999 999999 999999 999999 999999 999999 999999 999999 999999 999999 999999 999999 999999 16840 999999 18311 999999 999999 999999 17444 999999 999999 999999 999999 999999 999999 999999 999999 999999 15015 999999 999999 11666 999999 14086 999999 999999 999999 999999 999999 999999 999999 999999 999999 999999 999999 999999 999999 14053 999999 999999 999999 999999 18841 999999 999999 999999 999999 999999 999999 999999 17938 999999 999999 999999 999999 999999 999999 999999 999999 18492 999999 14576 999999 999999 12061 999999 11784 999999 999999 999999 999999 999999 999999 999999 999999 11855 999999 11844 13415 999999 999999 999999 999999
999999 999999 999999 999999 999999 999999 999999 999999 999999 999999 999999 999999 999999 999999 999999 999999 999999 999999 999999 999999 999999 999999 999999 999999 999999 999999 999999 999999 999999 999999 999999 999999 999999 999999 999999 999999 999999 999999 999999 999999 999999 999999 0 999999 999999 999999 999999 999999 999999 999999 999999 999999 999999 999999 999999 999999 999999 999999 999999 999999 999999 999999 999999 999999 999999 999999 999999 999999 999999 999999 999999 999999 999999 999999 999999 999999 999999 999999 999999 999999 999999 15074 999999 10898 999999 999999 999999 19954 999999 999999 999999 999999 999999 999999 999999 999999 999999 14973 999999 999999 15678 999999 15876 999999 999999 999999 999999 999999 999999 999999 999999 999999 999999 999999 999999 999999 13670 999999 999999 999999 999999 18077 999999 999999 999999 999999 999999 999999 999999 18229 999999 999999 999999 999999 999999 999999 999999 999999 14776 999999 12541 999999 999999 14726 999999 18178 999999 999999 999999 999999 999999 999999 999999 999999 15852 999999 19952 12508 999999 999999 999999 999999
999999 999999 999999 999999 999999 999999 999999 999999 999999 999999 999999 999999 999999 999999 999999 999999 999999 999999 999999 999999 999999 999999 999999 999999 999999 999999 999999 999999 999999 999999 999999 999999 999999 999999 999999 999999 999999 999999 999999 999999 999999 999999 999999 0 999999 999999 999999 999999 999999 999999 999999 999999 999999 999999 999999 999999 999999 999999 999999 999999 999999 999999 999999 999999 999999 999999 999999 999999 999999 999999 999999 999999 999999 999999 999999 999999 999999 999999 999999 999999 999999 11780 999999 15252 999999 999999 999999 11233 999999 999999 999999 999999 999999 999999 999999 999999 999999 19782 999999 999999 14300 999999 13276 999999 999999 999999 999999 999999 999999 999999 999999 999999 999999 999999 999999 999999 12040 999999 999999 999999 999999 16665 999999 999999 999999 999999 999999 999999 999999 13926 999999 999999 999999 999999 999999 999999 999999 999999 14578 999999 14140 999999 999999 12448 999999 15671 999999 999999 999999 999999 999999 999999 999999 999999 12891 999999 12883 16869 999999 999999 999999 999999
999999 999999 999999 999999 999999 999999 999999 999999 999999 999999 999999 999999 999999 999999 999999 999999 999999 999999 999999 999999 999999 999999 999999 999999 999999 999999 999999 999999 999999 999999 999999 999999 999999 999999 999999 999999 999999 999999 999999 999999 999999 999999 999999 999999 0 999999 999999 999999 999999 999999 999999 999999 999999 999999 999999 999999 999999 999999 999999 999999 999999 999999 999999 999999 999999 999999 999999 999999 999999 999999 999999 999999 999999 999999 999999 999999 999999 999999 999999 999999 999999 17629 999999 17497 999999 999999 999999 15431 999999 999999 999999 999999 999999 999999 999999 999999 999999 12700 999999 999999 14081 999999 12694 999999 999999 999999 999999 999999 999999 999999 999999 999999 999999 999999 999999 999999 13823 999999 999999 999999 999999 19753 999999 999999 999999 999999 999999 999999 999999 16564 999999 999999 999999 999999 999999 999999 999999 999999 15080 999999 19937 999999 999999 17660 999999 17498 999999 999999 999999 999999 999999 999999 999999 999999 12485 999999 19525 14353 999999 999999 999999 999999
999999 999999 999999 999999 999999 999999 999999 999999 999999 999999 999999 999999 999999 999999 999999 999999 999999 999999 999999 999999 999999 999999 999999 999999 999999 999999 999999 999999 999999 999999 999999 999999 999999 999999 999999 999999 999999 999999 999999 999999 999999 999999 999999 999999 999999 0 999999 999999 999999 999999 999999 999999 999999 999999 999999 999999 999999 999999 999999 999999 999999 999999 999999 999999 999999 999999 999999 999999 999999 999999 999999 999999 999999 999999 999999 999999 999999 999999 999999 999999 999999 18588 999999 18350 999999 999999 999999 19888 999999 999999 999999 999999 999999 999999 999999 999999 999999 10976 999999 999999 14990 999999 16946 999999 999999 999999 999999 999999 999999 999999 999999 999999 999999 999999 999999 999999 19901 999999 999999 999999 999999 19552 999999 999999 999999 999999 999999 999999 999999 15568 999999 999999 999999 999999 999999 999999 999999 999999 13612 999999 18697 999999 999999 18613 999999 11430 999999 999999 999999 999999 999999 999999 999999 999999 19227 999999 12768 15639 999999 999999 999999 999999
999999 999999 999999 999999 999999 999999 999999 999999 999999 999999 999999 999999 999999 999999 999999 999999 999999 999999 999999 999999 999999 999999 999999 999999 999999 999999 999999 999999 999999 999999 999999 999999 999999 999999 999999 999999 999999 999999 999999 999999 999999 999999 999999 999999 999999 999999 0 999999 999999 999999 999999 999999 999999 999999 999999 999999 999999 999999 999999 999999 999999 999999 999999 999999 999999 999999 999999 999999 999999 999999 999999 999999 999999 999999 999999 999999 999999 999999 999999 999999 999999 10764 999999 12747 999999 999999 999999 19867 999999 999999 999999 999999 999999 999999 999999 999999 999999 16841 999999 999999 12533 999999 13845 999999 999999 999999 999999 999999 999999 999999 999999 999999 999999 999999 999999 999999 10794 999999 999999 999999 999999 15269 999999 999999 999999 999999 999999 999999 999999 13942 999999 999999 999999 999999 999999 999999 999999 999999 19965 999999 11597 999999 999999 11053 999999 17917 999999 999999 999999 999999 999999 999999 999999 999999 15928 999999 18219 17141 999999 999999 999999 999999
999999 999999 999999 999999 999999 999999 999999 999999 999999 999999 999999 999999 999999 999999 999999 999999 999999 999999 999999 999999 999999 999999 999999 999999 999999 999999 999999 999999 999999 999999 999999 999999 999999 999999 999999 999999 999999 999999 999999 999999 999999 999999 999999 999999 999999 999999 999999 0 999999 999999 999999 999999 999999 999999 999999 999999 999999 999999 999999 999999 999999 999999 999999 999999 999999 999999 999999 999999 999999 999999 999999 999999 999999 999999 999999 999999 999999 999999 999999 999999 999999 15875 999999 10339 999999 999999 999999 16953 999999 999999 999999 999999 999999 999999 999999 999999 999999 19578 999999 999999 12561 999999 11743 999999 999999 999999 999999 999999 999999 999999 999999 999999 999999 999999 999999 999999 14357 999999 999999 999999 999999 16349 999999 999999 999999 999999 999999 999999 999999 19405 999999 999999 999999 999999 999999 999999 999999 999999 15995 999999 10322 999999 999999 14600 999999 16844 999999 999999 999999 999999 999999 999999 999999 999999 19653 999999 14517 17944 999999 999999 999999 999999
999999 999999 999999 999999 999999 999999 999999 999999 999999 999999 999999 999999 999999 999999 999999 999999 999999 999999 999999 999999 999999 999999 999999 999999 999999 999999 999999 999999 999999 999999 999999 999999 999999 999999 999999 999999 999999 999999 999999 999999 999999 999999 999999 999999 999999 999999 999999 999999 0 999999 999999 999999 999999 999999 999999 999999 999999 999999 999999 999999 999999 999999 999999 999999 999999 999999 999999 999999 999999 999999 999999 999999 999999 999999 999999 999999 999999 999999 999999 999999 999999 11817 999999 15654 999999 999999 999999 12303 999999 999999 999999 999999 999999 999999 999999 999999 999999 15925 999999 999999 12496 999999 16436 999999 999999 999999 999999 999999 999999 999999 999999 999999 999999 999999 999999 999999 17358 999999 999999 999999 999999 18507 999999 999999 999999 999999 999999 999999 999999 15068 999999 999999 999999 999999 999999 999999 999999 999999 12763 999999 18582 999999 999999 13840 999999 12815 999999 999999 999999 999999 999999 999999 999999 999999 13941 999999 16045 11801 999999 999999 999999 999999
999999 999999 999999 999999 999999 999999 999999 999999 999999 999999 999999 999999 999999 999999 999999 999999 999999 999999 999999 999999 999999 999999 999999 999999 999999 999999 999999 999999 999999 999999 999999 999999 999999 999999 999999 999999 999999 999999 999999 999999 999999 999999 999999 999999 999999 999999 999999 999999 999999 0 999999 999999 999999 999999 999999 999999 999999 999999 999999 999999 999999 999999 999999 999999 999999 999999 999999 999999 999999 999999 999999 999999 999999 999999 999999 999999 999999 999999 999999 999999 999999 999999 999999 999999 10213 999999 999999 999999 999999 999999 999999 999999 999999 13834 999999 999999 999999 999999 999999 999999 999999 19561 999999 17341 999999 999999 999999 999999 999999 18994 999999 999999 999999 999999 999999 999999 999999 999999 12349 13990 999999 999999 999999 999999 12434 16254 999999 15221 999999 999999 999999 999999 999999 999999 12531 999999 999999 999999 999999 999999 999999 13820 999999 999999 15446 999999 999999 999999 999999 10605 999999 999999 999999 999999 999999 11870 999999 999999 10909 999999 999999 999999
999999 999999 999999 999999 999999 999999 999999 999999 999999 999999 999999 999999 999999 999999 999999 999999 999999 999999 999999 999999 999999 999999 999999 999999 999999 999999 999999 999999 999999 999999 999999 999999 999999 999999 999999 999999 999999 999999 999999 999999 999999 999999 999999 999999 999999 999999 999999 999999 999999 999999 0 999999 999999 999999 999999 999999 999999 999999 999999 999999 999999 999999 999999 999999 999999 999999 999999 999999 999999 999999 999999 999999 999999 999999 999999 999999 999999 999999 999999 999999 999999 999999 999999 999999 19961 999999 999999 999999 999999 999999 999999 999999 999999 13229 999999 999999 999999 999999 999999 999999 999999 15371 999999 13660 999999 999999 999999 999999 999999 16537 999999 999999 999999 999999 999999 999999 999999 999999 16672 10754 999999 999999 999999 999999 18504 19348 999999 19764 999999 999999 999999 999999 999999 999999 11003 999999 999999 999999 999999 999999 999999 12191 999999 999999 18918 999999 999999 999999 999999 17993 999999 999999 999999 999999 999999 15742 999999 999999 13648 999999 999999 999999
999999 999999 999999 999999 999999 999999 999999 999999 999999 999999 999999 999999 999999 999999 999999 999999 999999 999999 999999 999999 999999 999999 999999 999999 999999 999999 999999 999999 999999 999999 999999 999999 999999 999999 999999 999999 999999 999999 999999 999999 999999 999999 999999 999999 999999 999999 999999 999999 999999 999999 999999 0 999999 999999 999999 999999 999999 999999 999999 999999 999999 999999 999999 999999 999999 999999 999999 999999 999999 999999 999999 999999 999999 999999 999999 999999 999999 999999 999999 999999 999999 999999 999999 999999 12066 999999 999999 999999 999999 999999 999999 999999 999999 13796 999999 999999 999999 999999 999999 999999 999999 18638 999999 10861 999999 999999 999999 999999 999999 14786 999999 999999 999999 999999 999999 999999 999999 999999 12649 16756 999999 999999 999999 999999 17374 13059 999999 14814 999999 999999 999999 999999 999999 999999 10448 999999 999999 999999 999999 999999 999999 16220 999999 999999 13414 999999 999999 999999 999999 16926 999999 999999 999999 999999 999999 10079 999999 999999 10318 999999 999999 999999
999999 999999 999999 999999 999999 999999 999999 999999 999999 999999 999999 999999 999999 999999 999999 999999 999999 999999 999999 999999 999999 999999 999999 999999 999999 999999 999999 999999 999999 999999 999999 999999 999999 999999 999999 999999 999999 999999 999999 999999 999999 999999 999999 999999 999999 999999 999999 999999 999999 999999 999999 999999 0 999999 999999 999999 999999 999999 999999 999999 999999 999999 999999 999999 999999 999999 999999 999999 999999 999999 999999 999999 999999 999999 999999 999999 999999 999999 999999 999999 999999 999999 999999 999999 17327 999999 999999 999999 999999 999999 999999 999999 999999 17051 999999 999999 999999 999999 999999 999999 999999 13271 999999 10784 999999 999999 999999 999999 999999 16825 999999 999999 999999 999999 999999 999999 999999 999999 12383 10354 999999 999999 999999 999999 11540 17284 999999 10951 999999 999999 999999 999999 999999 999999 11295 999999 999999 999999 999999 999999 999999 19165 999999 999999 17821 999999 999999 999999 999999 11661 999999 999999 999999 999999 999999 19916 999999 999999 19639 999999 999999 999999
999999 999999 999999 999999 999999 999999 999999 999999 999999 999999 999999 999999 999999 999999 999999 999999 999999 999999 999999 999999 999999 999999 999999 999999 999999 999999 999999 999999 999999 999999 999999 999999 999999 999999 999999 999999 999999 999999 999999 999999 999999 999999 999999 999999 999999 999999 999999 999999 999999 999999 999999 999999 999999 0 999999 999999 999999 999999 999999 999999 999999 999999 999999 999999 999999 999999 999999 999999 999999 999999 999999 999999 999999 999999 999999 999999 999999 999999 999999 999999 999999 999999 999999 999999 10115 999999 999999 999999 999999 999999 999999 999999 999999 13417 999999 999999 999999 999999 999999 999999 999999 16974 999999 13573 999999 999999 999999 999999 999999 12874 999999 999999 999999 999999 999999 999999 999999 999999 14186 13080 999999 999999 999999 999999 16316 15819 999999 18474 999999 999999 999999 999999 999999 999999 19570 999999 999999 999999 999999 999999 999999 15916 999999 999999 19458 999999 999999 999999 999999 16105 999999 999999 999999 999999 999999 12098 999999 999999 14762 999999 999999 999999
999999 999999 999999 999999 999999 999999 999999 999999 999999 999999 999999 999999 999999 999999 999999 999999 999999 999999 999999 999999 999999 999999 999999 999999 999999 999999 999999 999999 999999 999999 999999 999999 999999 999999 999999 999999 999999 999999 999999 999999 999999 999999 999999 999999 999999 999999 999999 999999 999999 999999 999999 999999 999999 999999 0 999999 999999 999999 999999 999999 999999 999999 999999 999999 999999 999999 999999 999999 999999 999999 999999 999999 999999 999999 999999 999999 999999 999999 999999 999999 999999 999999 999999 999999 14714 999999 999999 999999 999999 999999 999999 999999 999999 11428 999999 999999 999999 999999 999999 999999 999999 16977 999999 19450 999999 999999 999999 999999 999999 18731 999999 999999 999999 999999 999999 999999 999999 999999 19332 12875 999999 999999 999999 999999 18589 15567 999999 15997 999999 999999 999999 999999 999999 999999 19498 999999 999999 999999 999999 999999 999999 12121 999999 999999 16395 999999 999999 999999 999999 15637 999999 999999 999999 999999 999999 17141 999999 999999 11950 999999 999999 999999
999999 999999 999999 999999 999999 999999 999999 999999 999999 999999 999999 999999 999999 999999 999999 999999 999999 999999 999999 999999 999999 999999 999999 999999 999999 999999 999999 999999 999999 999999 999999 999999 999999 999999 999999 999999 999999 999999 999999 999999 999999 999999 999999 999999 999999 999999 999999 999999 999999 999999 999999 999999 999999 999999 999999 0 999999 999999 999999 999999 999999 999999 999999 999999 999999 999999 999999 999999 999999 999999 999999 999999 999999 999999 999999 999999 999999 999999 999999 999999 999999 999999 999999 999999 10664 999999 999999 999999 999999 999999 999999 999999 999999 17968 999999 999999 999999 999999 999999 999999 999999 19378 999999 15174 999999 999999 999999 999999 999999 14237 999999 999999 999999 999999 999999 999999 999999 999999 14977 14907 999999 999999 999999 999999 14170 14111 999999 12916 999999 999999 999999 999999 999999 999999 18183 999999 999999 999999 999999 999999 999999 11177 999999 999999 10181 999999 999999 999999 999999 18912 999999 999999 999999 999999 999999 13546 999999 999999 15734 999999 999999 999999
999999 999999 999999 999999 999999 999999 999999 999999 999999 999999 999999 999999 999999 999999 999999 999999 999999 999999 999999 999999 999999 999999 999999 999999 999999 999999 999999 999999 999999 999999 999999 999999 999999 999999 999999 999999 999999 999999 999999 999999 999999 999999 999999 999999 999999 999999 999999 999999 999999 999999 999999 999999 999999 999999 999999 999999 0 999999 999999 999999 999999 999999 999999 999999 999999 999999 999999 999999 999999 999999 999999 999999 999999 999999 999999 999999 999999 999999 999999 999999 999999 999999 999999 999999 11461 999999 999999 999999 999999 999999 999999 999999 999999 18738 999999 999999 999999 999999 999999 999999 999999 16812 999999 15731 999999 999999 999999 999999 999999 19368 999999 999999 999999 999999 999999 999999 999999 999999 19789 17560 999999 999999 999999 999999 10804 18958 999999 12956 999999 999999 999999 999999 999999 999999 13123 999999 999999 999999 999999 999999 999999 17404 999999 999999 13741 999999 999999 999999 999999 17604 999999 999999 999999 999999 999999 19130 999999 999999 13793 999999 999999 999999
999999 999999 999999 999999 999999 999999 999999 999999 999999 999999 999999 999999 999999 999999 999999 999999 999999 999999 999999 999999 999999 999999 999999 999999 999999 999999 999999 999999 999999 999999 999999 999999 999999 999999 999999 999999 999999 999999 999999 999999 999999 999999 999999 999999 999999 999999 999999 999999 999999 999999 999999 999999 999999 999999 999999 999999 999999 0 999999 999999 999999 999999 999999 999999 999999 999999 999999 999999 999999 999999 999999 999999 999999 999999 999999 999999 999999 999999 999999 999999 999999 999999 999999 999999 13451 999999 999999 999999 999999 999999 999999 999999 999999 16848 999999 999999 999999 999999 999999 999999 999999 15853 999999 10452 999999 999999 999999 999999 999999 15603 999999 999999 999999 999999 999999 999999 999999 999999 11426 17182 999999 999999 999999 999999 14302 11069 999999 14050 999999 999999 999999 999999 999999 999999 19899 999999 999999 999999 999999 999999 999999 10056 999999 999999 17627 999999 999999 999999 999999 19557 999999 999999 999999 999999 999999 16039 999999 999999 19039 999999 999999 999999
999999 999999 999999 999999 999999 999999 999999 999999 999999 999999 999999 999999 999999 999999 999999 999999 999999 999999 999999 999999 999999 999999 999999 999999 999999 999999 999999 999999 999999 999999 999999 999999 999999 999999 999999 999999 999999 999999 999999 999999 999999 999999 999999 999999 999999 999999 999999 999999 999999 999999 999999 999999 999999 999999 999999 999999 999999 999999 0 999999 999999 999999 999999 999999 999999 999999 999999 999999 999999 999999 999999 999999 999999 999999 999999 999999 999999 999999 999999 999999 999999 999999 999999 999999 16951 999999 999999 999999 999999 999999 999999 999999 999999 15024 999999 999999 999999 999999 999999 999999 999999 18121 999999 12696 999999 999999 999999 999999 999999 12936 999999 999999 999999 999999 999999 999999 999999 999999 19196 12855 999999 999999 999999 999999 10185 15291 999999 18341 999999 999999 999999 999999 999999 999999 11187 999999 999999 999999 999999 999999 999999 12679 999999 999999 13571 999999 999999 999999 999999 15360 999999 999999 999999 999999 999999 10086 999999 999999 12648 999999 999999 999999
999999 999999 999999 999999 999999 999999 999999 999999 999999 999999 999999 999999 999999 999999 999999 999999 999999 999999 999999 999999 999999 999999 999999 999999 999999 999999 999999 999999 999999 999999 999999 999999 999999 999999 999999 999999 999999 999999 999999 999999 999999 999999 999999 999999 999999 999999 999999 999999 999999 999999 999999 999999 999999 999999 999999 999999 999999 999999 999999 0 999999 999999 999999 999999 999999 999999 999999 999999 999999 999999 999999 999999 999999 999999 999999 999999 999999 999999 999999 999999 999999 999999 999999 999999 13873 999999 999999 999999 999999 999999 999999 999999 999999 17889 999999 999999 999999 999999 999999 999999 999999 19537 999999 13908 999999 999999 999999 999999 999999 11219 999999 999999 999999 999999 999999 999999 999999 999999 14166 12919 999999 999999 999999 999999 15792 19879 999999 12775 999999 999999 999999 999999 999999 999999 14633 999999 999999 999999 999999 999999 999999 16352 999999 999999 16891 999999 999999 999999 999999 14668 999999 999999 999999 999999 999999 16627 999999 999999 12475 999999 999999 999999
999999 999999 999999 999999 999999 999999 999999 999999 999999 999999 999999 999999 999999 999999 999999 999999 999999 999999 999999 999999 999999 999999 999999 999999 999999 999999 999999 999999 999999 999999 999999 999999 999999 999999 999999 999999 999999 999999 999999 999999 999999 999999 999999 999999 999999 999999 999999 999999 999999 999999 999999 999999 999999 999999 999999 999999 999999 999999 999999 999999 0 999999 999999 999999 999999 999999 999999 999999 999999 999999 999999 999999 999999 999999 999999 999999 999999 999999 999999 999999 999999 999999 999999 999999 13756 999999 999999 999999 999999 999999 999999 999999 999999 16849 999999 999999 999999 999999 999999 999999 999999 15291 999999 11423 999999 999999 999999 999999 999999 14254 999999 999999 999999 999999 999999 999999 999999 999999 17100 10794 999999 999999 999999 999999 17204 11896 999999 11427 999999 999999 999999 999999 999999 999999 13833 999999 999999 999999 999999 999999 999999 17123 999999 999999 16796 999999 999999 999999 999999 12845 999999 999999 999999 999999 999999 10780 999999 999999 15291 999999 999999 999999
999999 999999 999999 999999 999999 999999 999999 999999 999999 999999 999999 999999 999999 999999 999999 999999 999999 999999 999999 999999 999999 999999 999999 999999 999999 999999 999999 999999 999999 999999 999999 999999 999999 999999 999999 999999 999999 999999 999999 999999 999999 999999 999999 999999 999999 999999 999999 999999 999999 999999 999999 999999 999999 999999 999999 999999 999999 999999 999999 999999 999999 0 999999 999999 999999 999999 999999 999999 999999 999999 999999 999999 999999 999999 999999 999999 999999 999999 999999 999999 999999 999999 999999 999999 18284 999999 999999 999999 999999 999999 999999 999999 999999 13821 999999 999999 999999 999999 999999 999999 999999 10043 999999 19630 999999 999999 999999 999999 999999 11348 999999 999999 999999 999999 999999 999999 999999 999999 19105 13460 999999 999999 999999 999999 12446 19008 999999 18276 999999 999999 999999 999999 999999 999999 15229 999999 999999 999999 999999 999999 999999 16088 999999 999999 15848 999999 999999 999999 999999 16126 999999 999999 999999 999999 999999 18975 999999 999999 12115 999999 999999 999999
999999 999999 999999 999999 999999 999999 999999 999999 999999 999999 999999 999999 999999 999999 999999 999999 999999 999999 999999 999999 999999 999999 999999 999999 999999 999999 999999 999999 999999 999999 999999 999999 999999 999999 999999 999999 999999 999999 999999 999999 999999 999999 999999 999999 999999 999999 999999 999999 999999 999999 999999 999999 999999 999999 999999 999999 999999 999999 999999 999999 999999 999999 0 999999 999999 999999 999999 999999 999999 999999 999999 999999 999999 999999 999999 999999 999999 999999 999999 999999 999999 999999 999999 999999 13805 999999 999999 999999 999999 999999 999999 999999 999999 16540 999999 999999 999999 999999 999999 999999 999999 15730 999999 13717 999999 999999 999999 999999 999999 18393 999999 999999 999999 999999 999999 999999 999999 999999 18180 16652 999999 999999 999999 999999 18572 15302 999999 13736 999999 999999 999999 999999 999999 999999 11282 999999 999999 999999 999999 999999 999999 12024 999999 999999 16981 999999 999999 999999 999999 14569 999999 999999 999999 999999 999999 10885 999999 999999 14885 999999 999999 999999
999999 999999 999999 999999 999999 999999 999999 999999 999999 999999 999999 999999 999999 999999 999999 999999 999999 999999 999999 999999 999999 999999 999999 999999 999999 999999 999999 999999 999999 999999 999999 999999 999999 999999 999999 999999 999999 999999 999999 999999 999999 999999 999999 999999 999999 999999 999999 999999 999999 999999 999999 999999 999999 999999 999999 999999 999999 999999 999999 999999 999999 999999 999999 0 999999 999999 999999 999999 999999 999999 999999 999999 999999 999999 999999 999999 999999 999999 999999 999999 999999 999999 999999 999999 12410 999999 999999 999999 999999 999999 999999 999999 999999 11279 999999 999999 999999 999999 999999 999999 999999 19497 999999 13808 999999 999999 999999 999999 999999 16528 999999 999999 999999 999999 999999 999999 999999 999999 17141 17592 999999 999999 999999 999999 10221 11480 999999 15583 999999 999999 999999 999999 999999 999999 17343 999999 999999 999999 999999 999999 999999 17350 999999 999999 16722 999999 999999 999999 999999 18556 999999 999999 999999 999999 999999 13727 999999 999999 16976 999999 999999 999999
999999 999999 999999 999999 999999 999999 999999 999999 999999 999999 999999 999999 999999 999999 999999 999999 999999 999999 999999 999999 999999 999999 999999 999999 999999 999999 999999 999999 999999 999999 999999 999999 999999 999999 999999 999999 999999 999999 999999 999999 999999 999999 999999 999999 999999 999999 999999 999999 999999 999999 999999 999999 999999 999999 999999 999999 999999 999999 999999 999999 999999 999999 999999 999999 0 999999 999999 999999 999999 999999 999999 999999 999999 999999 999999 999999 999999 999999 999999 999999 999999 999999 999999 999999 11708 999999 999999 999999 999999 999999 999999 999999 999999 15135 999999 999999 999999 999999 999999 999999 999999 18219 999999 18859 999999 999999 999999 999999 999999 10987 999999 999999 999999 999999 999999 999999 999999 999999 12094 12279 999999 999999 999999 999999 16474 12059 999999 17425 999999 999999 999999 999999 999999 999999 11050 999999 999999 999999 999999 999999 999999 10981 999999 999999 17095 999999 999999 999999 999999 13396 999999 999999 999999 999999 999999 13719 999999 999999 13301 999999 999999 999999
999999 999999 999999 999999 999999 999999 999999 999999 999999 999999 999999 999999 999999 999999 999999 999999 999999 999999 999999 999999 999999 999999 999999 999999 999999 999999 999999 999999 999999 999999 999999 999999 999999 999999 999999 999999 999999 999999 999999 999999 999999 999999 999999 999999 999999 999999 999999 999999 999999 999999 999999 999999 999999 999999 999999 999999 999999 999999 999999 999999 999999 999999 999999 999999 999999 0 999999 999999 999999 999999 999999 999999 999999 999999 999999 999999 999999 999999 999999 999999 999999 999999 999999 999999 999999 999999 999999 999999 999999 999999 11733 999999 999999 999999 999999 999999 12497 999999 999999 999999 999999 999999 999999 999999 999999 999999 999999 11427 999999 999999 999999 999999 999999 999999 999999 12356 999999 13841 999999 999999 11098 999999 11712 999999 999999 999999 12977 999999 999999 999999 12466 14711 16475 16394 999999 999999 999999 16970 999999 999999 999999 999999 999999 999999 999999 999999 999999 19499 999999 999999 999999 11714 999999 999999 999999 999999 999999 999999 999999 16305 999999 999999
999999 999999 999999 999999 999999 999999 999999 999999 999999 999999 999999 999999 999999 999999 999999 999999 999999 999999 999999 999999 999999 999999 999999 999999 999999 999999 999999 999999 999999 999999 999999 999999 999999 999999 999999 999999 999999 999999 999999 999999 999999 999999 999999 999999 999999 999999 999999 999999 999999 999999 999999 999999 999999 999999 999999 999999 999999 999999 999999 999999 999999 999999 999999 999999 999999 999999 0 999999 999999 999999 999999 999999 999999 999999 999999 999999 999999 999999 999999 999999 999999 999999 999999 999999 999999 999999 999999 999999 999999 999999 15643 999999 999999 999999 999999 999999 19209 999999 999999 999999 999999 999999 999999 999999 999999 999999 999999 16414 999999 999999 999999 999999 999999 999999 999999 12136 999999 12733 999999 999999 18544 999999 11244 999999 999999 999999 12175 999999 999999 999999 14596 11406 12996 10563 999999 999999 999999 12438 999999 999999 999999 999999 999999 999999 999999 999999 999999 16378 999999 999999 999999 15216 999999 999999 999999 999999 999999 999999 999999 19518 999999 999999
999999 999999 999999 999999 999999 999999 999999 999999 999999 999999 999999 999999 999999 999999 999999 999999 999999 999999 999999 999999 999999 999999 999999 999999 999999 999999 999999 999999 999999 999999 999999 999999 999999 999999 999999 999999 999999 999999 999999 999999 999999 999999 999999 999999 999999 999999 999999 999999 999999 999999 999999 999999 999999 999999 999999 999999 999999 999999 999999 999999 999999 999999 999999 999999 999999 999999 999999 0 999999 999999 999999 999999 999999 999999 999999 999999 999999 999999 999999 999999 999999 999999 999999 999999 999999 999999 999999 999999 999999 999999 12490 999999 999999 999999 999999 999999 14175 999999 999999 999999 999999 999999 999999 999999 999999 999999 999999 15358 999999 999999 999999 999999 999999 999999 999999 13789 999999 13578 999999 999999 15432 999999 15263 999999 999999 999999 19429 999999 999999 999999 13610 14391 11974 14447 999999 999999 999999 19371 999999 999999 999999 999999 999999 999999 999999 999999 999999 10447 999999 999999 999999 12765 999999 999999 999999 999999 999999 999999 999999 10960 999999 999999
999999 999999 999999 999999 999999 999999 999999 999999 999999 999999 999999 999999 999999 999999 999999 999999 999999 999999 999999 999999 999999 999999 999999 999999 999999 999999 999999 999999 999999 999999 999999 999999 999999 999999 999999 999999 999999 999999 999999 999999 999999 999999 999999 999999 999999 999999 999999 999999 999999 999999 999999 999999 999999 999999 999999 999999 999999 999999 999999 999999 999999 999999 999999 999999 999999 999999 999999 999999 0 999999 999999 999999 999999 999999 999999 999999 999999 999999 999999 999999 999999 999999 999999 999999 999999 999999 999999 999999 999999 999999 17562 999999 999999 999999 999999 999999 19679 999999 999999 999999 999999 999999 999999 999999 999999 999999 999999 11510 999999 999999 999999 999999 999999 999999 999999 16626 999999 17713 999999 999999 15751 999999 10134 999999 999999 999999 10427 999999 999999 999999 18775 14443 15295 13779 999999 999999 999999 16446 999999 999999 999999 999999 999999 999999 999999 999999 999999 17131 999999 999999 999999 13278 999999 999999 999999 999999 999999 999999 999999 14005 999999 999999
999999 999999 999999 999999 999999 999999 999999 999999 999999 999999 999999 999999 999999 999999 999999 999999 999999 999999 999999 999999 999999 999999 999999 999999 999999 999999 999999 999999 999999 999999 999999 999999 999999 999999 999999 999999 999999 999999 999999 999999 999999 999999 999999 999999 999999 999999 999999 999999 999999 999999 999999 999999 999999 999999 999999 999999 999999 999999 999999 999999 999999 999999 999999 999999 999999 999999 999999 999999 999999 0 999999 999999 999999 999999 999999 999999 999999 999999 999999 999999 999999 999999 999999 999999 999999 999999 999999 999999 999999 999999 13593 999999 999999 999999 999999 999999 19944 999999 999999 999999 999999 999999 999999 999999 999999 999999 999999 17001 999999 999999 999999 999999 999999 999999 999999 13543 999999 15025 999999 999999 17439 999999 14882 999999 999999 999999 11497 999999 999999 999999 10897 10515 16687 17261 999999 999999 999999 18310 999999 999999 999999 999999 999999 999999 999999 999999 999999 13921 999999 999999 999999 11322 999999 999999 999999 999999 999999 999999 999999 14574 999999 999999
999999 999999 999999 999999 999999 999999 999999 999999 999999 999999 999999 999999 999999 999999 999999 999999 999999 999999 999999 999999 999999 999999 999999 999999 999999 999999 999999 999999 999999 999999 999999 999999 999999 999999 999999 999999 999999 999999 999999 999999 999999 999999 999999 999999 999999 999999 999999 999999 999999 999999 999999 999999 999999 999999 999999 999999 999999 999999 999999 999999 999999 999999 999999 999999 999999 999999 999999 999999 999999 999999 0 999999 999999 999999 999999 999999 999999 999999 999999 999999 999999 999999 999999 999999 999999 999999 999999 999999 999999 999999 10489 999999 999999 999999 999999 999999 16393 999999 999999 999999 999999 999999 999999 999999 999999 999999 999999 15889 999999 999999 999999 999999 999999 999999 999999 17624 999999 18929 999999 999999 12884 999999 17443 999999 999999 999999 12834 999999 999999 999999 10203 11306 10415 18514 999999 999999 999999 15742 999999 999999 999999 999999 999999 999999 999999 999999 999999 19741 999999 999999 999999 12661 999999 999999 999999 999999 999999 999999 999999 16055 999999 999999
999999 999999 999999 999999 999999 999999 999999 999999 999999 999999 999999 999999 999999 999999 999999 999999 999999 999999 999999 999999 999999 999999 999999 999999 999999 999999 999999 999999 999999 999999 999999 999999 999999 999999 999999 999999 999999 999999 999999 999999 999999 999999 999999 999999 999999 999999 999999 999999 999999 999999 999999 999999 999999 999999 999999 999999 999999 999999 999999 999999 999999 999999 999999 999999 999999 999999 999999 999999 999999 999999 999999 0 999999 999999 999999 999999 999999 999999 999999 999999 999999 999999 999999 999999 999999 999999 999999 999999 999999 999999 13503 999999 999999 999999 999999 999999 13879 999999 999999 999999 999999 999999 999999 999999 999999 999999 999999 18064 999999 999999 999999 999999 999999 999999 999999 15427 999999 17434 999999 999999 17761 999999 17538 999999 999999 999999 14747 999999 999999 999999 17185 19257 14155 16484 999999 999999 999999 13736 999999 999999 999999 999999 999999 999999 999999 999999 999999 18779 999999 999999 999999 18484 999999 999999 999999 999999 999999 999999 999999 18654 999999 999999
999999 999999 999999 999999 999999 999999 999999 999999 999999 999999 999999 999999 999999 999999 999999 999999 999999 999999 999999 999999 999999 999999 999999 999999 999999 999999 999999 999999 999999 999999 999999 999999 999999 999999 999999 999999 999999 999999 999999 999999 999999 999999 999999 999999 999999 999999 999999 999999 999999 999999 999999 999999 999999 999999 999999 999999 999999 999999 999999 999999 999999 999999 999999 999999 999999 999999 999999 999999 999999 999999 999999 999999 0 999999 999999 999999 999999 999999 999999 999999 999999 999999 999999 999999 999999 999999 999999 999999 999999 999999 11847 999999 999999 999999 999999 999999 19428 999999 999999 999999 999999 999999 999999 999999 999999 999999 999999 11009 999999 999999 999999 999999 999999 999999 999999 13082 999999 11519 999999 999999 14206 999999 15766 999999 999999 999999 15974 999999 999999 999999 10165 18289 10971 12689 999999 999999 999999 18147 999999 999999 999999 999999 999999 999999 999999 999999 999999 17340 999999 999999 999999 17478 999999 999999 999999 999999 999999 999999 999999 14930 999999 999999
999999 999999 999999 999999 999999 999999 999999 999999 999999 999999 999999 999999 999999 999999 999999 999999 999999 999999 999999 999999 999999 999999 999999 999999 999999 999999 999999 999999 999999 999999 999999 999999 999999 999999 999999 999999 999999 999999 999999 999999 999999 999999 999999 999999 999999 999999 999999 999999 999999 999999 999999 999999 999999 999999 999999 999999 999999 999999 999999 999999 999999 999999 999999 999999 999999 999999 999999 999999 999999 999999 999999 999999 999999 0 999999 999999 999999 999999 999999 999999 999999 999999 999999 999999 999999 999999 999999 999999 999999 999999 13983 999999 999999 999999 999999 999999 18135 999999 999999 999999 999999 999999 999999 999999 999999 999999 999999 15646 999999 999999 999999 999999 999999 999999 999999 16561 999999 18940 999999 999999 10065 999999 18347 999999 999999 999999 13154 999999 999999 999999 11125 18077 13576 18637 999999 999999 999999 19789 999999 999999 999999 999999 999999 999999 999999 999999 999999 13640 999999 999999 999999 10380 999999 999999 999999 999999 999999 999999 999999 10158 999999 999999
999999 999999 999999 999999 999999 999999 999999 999999 999999 999999 999999 999999 999999 999999 999999 999999 999999 999999 999999 999999 999999 999999 999999 999999 999999 999999 999999 999999 999999 999999 999999 999999 999999 999999 999999 999999 999999 999999 999999 999999 999999 999999 999999 999999 999999 999999 999999 999999 999999 999999 999999 999999 999999 999999 999999 999999 999999 999999 999999 999999 999999 999999 999999 999999 999999 999999 999999 999999 999999 999999 999999 999999 999999 999999 0 999999 999999 999999 999999 999999 999999 999999 999999 999999 999999 999999 999999 999999 999999 999999 11341 999999 999999 999999 999999 999999 13972 999999 999999 999999 999999 999999 999999 999999 999999 999999 999999 10645 999999 999999 999999 999999 999999 999999 999999 14068 999999 10783 999999 999999 15697 999999 13504 999999 999999 999999 10093 999999 999999 999999 15261 13097 17056 11799 999999 999999 999999 13090 999999 999999 999999 999999 999999 999999 999999 999999 999999 18256 999999 999999 999999 15068 999999 999999 999999 999999 999999 999999 999999 18053 999999 999999
999999 999999 999999 999999 999999 999999 999999 999999 999999 999999 999999 999999 999999 999999 999999 999999 999999 999999 999999 999999 999999 999999 999999 999999 999999 999999 999999 999999 999999 999999 999999 999999 999999 999999 999999 999999 999999 999999 999999 999999 999999 999999 999999 999999 999999 999999 999999 999999 999999 999999 999999 999999 999999 999999 999999 999999 999999 999999 999999 999999 999999 999999 999999 999999 999999 999999 999999 999999 999999 999999 999999 999999 999999 999999 999999 0 999999 999999 999999 999999 999999 999999 999999 999999 999999 999999 999999 999999 999999 999999 15583 999999 999999 999999 999999 999999 12570 999999 999999 999999 999999 999999 999999 999999 999999 999999 999999 17284 999999 999999 999999 999999 999999 999999 999999 19902 999999 17722 999999 999999 14777 999999 13295 999999 999999 999999 12725 999999 999999 999999 13959 12434 12050 15344 999999 999999 999999 11547 999999 999999 999999 999999 999999 999999 999999 999999 999999 10296 999999 999999 999999 14028 999999 999999 999999 999999 999999 999999 999999 14783 999999 999999
999999 999999 999999 999999 999999 999999 999999 999999 999999 999999 999999 999999 999999 999999 999999 999999 999999 999999 999999 999999 999999 999999 999999 999999 999999 999999 999999 999999 999999 999999 999999 999999 999999 999999 999999 999999 999999 999999 999999 999999 999999 999999 999999 999999 999999 999999 999999 999999 999999 999999 999999 999999 999999 999999 999999 999999 999999 999999 999999 999999 999999 999999 999999 999999 999999 999999 999999 999999 999999 999999 999999 999999 999999 999999 999999 999999 0 999999 999999 999999 999999 999999 999999 999999 999999 999999 999999 999999 999999 999999 18172 999999 999999 999999 999999 999999 19954 999999 999999 999999 999999 999999 999999 999999 999999 999999 999999 11342 999999 999999 999999 999999 999999 999999 999999 14571 999999 19375 999999 999999 14480 999999 12612 999999 999999 999999 18511 999999 999999 999999 15462 11136 10700 14025 999999 999999 999999 11483 999999 999999 999999 999999 999999 999999 999999 999999 999999 19383 999999 999999 999999 13743 999999 999999 999999 999999 999999 999999 999999 11365 999999 999999
999999 999999 999999 999999 999999 999999 999999 999999 999999 999999 999999 999999 999999 999999 999999 999999 999999 999999 999999 999999 999999 999999 999999 999999 999999 999999 999999 999999 999999 999999 999999 999999 999999 999999 999999 999999 999999 999999 999999 999999 999999 999999 999999 999999 999999 999999 999999 999999 999999 999999 999999 999999 999999 999999 999999 999999 999999 999999 999999 999999 999999 999999 999999 999999 999999 999999 999999 999999 999999 999999 999999 999999 999999 999999 999999 999999 999999 0 999999 999999 999999 999999 999999 999999 999999 999999 999999 999999 999999 999999 13073 999999 999999 999999 999999 999999 11643 999999 999999 999999 999999 999999 999999 999999 999999 999999 999999 19812 999999 999999 999999 999999 999999 999999 999999 19743 999999 16249 999999 999999 12786 999999 10722 999999 999999 999999 14893 999999 999999 999999 13084 12934 14756 12342 999999 999999 999999 12203 999999 999999 999999 999999 999999 999999 999999 999999 999999 16558 999999 999999 999999 18569 999999 999999 999999 999999 999999 999999 999999 17701 999999 999999
999999 999999 999999 999999 999999 999999 999999 999999 999999 999999 999999 999999 999999 999999 999999 999999 999999 999999 999999 999999 999999 999999 999999 999999 999999 999999 999999 999999 999999 999999 999999 999999 999999 999999 999999 999999 999999 999999 999999 999999 999999 999999 999999 999999 999999 999999 999999 999999 999999 999999 999999 999999 999999 999999 999999 999999 999999 999999 999999 999999 999999 999999 999999 999999 999999 999999 999999 999999 999999 999999 999999 999999 999999 999999 999999 999999 999999 999999 0 999999 999999 999999 999999 999999 999999 999999 999999 999999 999999 999999 19552 999999 999999 999999 999999 999999 12603 999999 999999 999999 999999 999999 999999 999999 999999 999999 999999 19406 999999 999999 999999 999999 999999 999999 999999 14078 999999 10105 999999 999999 10626 999999 12469 999999 999999 999999 17615 999999 999999 999999 10708 18636 19158 14331 999999 999999 999999 14716 999999 999999 999999 999999 999999 999999 999999 999999 999999 15198 999999 999999 999999 16782 999999 999999 999999 999999 999999 999999 999999 17861 999999 999999
999999 999999 999999 999999 999999 999999 999999 999999 999999 999999 999999 999999 999999 999999 999999 999999 999999 999999 999999 999999 999999 999999 999999 999999 999999 999999 999999 999999 999999 999999 999999 999999 999999 999999 999999 999999 999999 999999 999999 999999 999999 999999 999999 999999 999999 999999 999999 999999 999999 999999 999999 999999 999999 999999 999999 999999 999999 999999 999999 999999 999999 999999 999999 999999 999999 999999 999999 999999 999999 999999 999999 999999 999999 999999 999999 999999 999999 999999 999999 0 999999 999999 999999 999999 999999 999999 999999 999999 999999 999999 13169 999999 999999 999999 999999 999999 16137 999999 999999 999999 999999 999999 999999 999999 999999 999999 999999 11016 999999 999999 999999 999999 999999 999999 999999 16505 999999 18976 999999 999999 15761 999999 16768 999999 999999 999999 10648 999999 999999 999999 11174 17223 18397 13207 999999 999999 999999 10754 999999 999999 999999 999999 999999 999999 999999 999999 999999 13243 999999 999999 999999 10579 999999 999999 999999 999999 999999 999999 999999 16973 999999 999999
999999 999999 999999 999999 999999 999999 999999 999999 999999 999999 999999 999999 999999 999999 999999 999999 999999 999999 999999 999999 999999 999999 999999 999999 999999 999999 999999 999999 999999 999999 999999 999999 999999 999999 999999 999999 999999 999999 999999 999999 999999 999999 999999 999999 999999 999999 999999 999999 999999 999999 999999 999999 999999 999999 999999 999999 999999 999999 999999 999999 999999 999999 999999 999999 999999 999999 999999 999999 999999 999999 999999 999999 999999 999999 999999 999999 999999 999999 999999 999999 0 999999 999999 999999 999999 999999 999999 999999 999999 999999 17579 999999 999999 999999 999999 999999 11955 999999 999999 999999 999999 999999 999999 999999 999999 999999 999999 19924 999999 999999 999999 999999 999999 999999 999999 18466 999999 17250 999999 999999 15452 999999 17974 999999 999999 999999 17017 999999 999999 999999 15518 10651 19041 18314 999999 999999 999999 18701 999999 999999 999999 999999 999999 999999 999999 999999 999999 18906 999999 999999 999999 14912 999999 999999 999999 999999 999999 999999 999999 12150 999999 999999
999999 14432 13321 12235 18829 17194 15240 10703 16428 14319 18164 10017 11985 13565 18076 11173 15295 17082 15246 14474 11681 11957 10660 16672 11293 13079 16642 14229 14744 11160 15402 15987 19397 13538 15782 12958 12595 10625 15160 11606 14873 16840 15074 11780 17629 18588 10764 15875 11817 15618 10751 19206 19962 15143 16268 12766 18390 10678 19132 12008 19193 17800 13581 19942 18347 18631 19146 10513 17613 13237 14517 16842 10579 14281 12710 18572 17961 17904 16694 17408 12763 0 999999 999999 999999 999999 999999 999999 999999 999999 999999 999999 999999 999999 999999 999999 999999 999999 999999 999999 999999 999999 999999 999999 999999 999999 999999 999999 999999 999999 999999 999999 999999 999999 999999 999999 999999 999999 999999 999999 999999 999999 999999 999999 999999 999999 999999 999999 999999 999999 999999 999999 999999 999999 999999 999999 999999 999999 999999 999999 999999 999999 999999 999999 999999 999999 999999 999999 999999 999999 999999 999999 999999 999999 999999 999999 999999 999999 999999 999999 999999 7127
999999 12142 16999 16299 17769 14649 15256 16724 10828 11029 15710 18225 14557 14279 14226 16367 11485 14318 18889 12164 11200 11649 15628 18187 10916 15577 11143 11670 18688 10512 14275 13363 12144 18825 16096 15166 14881 15791 12782 18561 19233 11561 13343 14208 13493 10300 17478 15025 19685 19663 12813 15792 19962 12325 16429 10287 10857 16086 18762 12190 15729 10497 15173 14323 14483 15952 16948 13950 19813 10438 13607 16721 18898 19304 14918 19376 17385 13573 19164 12049 19561 999999 0 999999 999999 999999 999999 999999 999999 999999 999999 999999 999999 999999 999999 999999 999999 999999 999999 999999 999999 999999 999999 999999 999999 999999 999999 999999 999999 999999 999999 999999 999999 999999 999999 999999 999999 999999 999999 999999 999999 999999 999999 999999 999999 999999 999999 999999 999999 999999 999999 999999 999999 999999 999999 999999 999999 999999 999999 999999 999999 999999 999999 999999 999999 999999 999999 999999 999999 999999 999999 999999 999999 999999 999999 999999 999999 999999 999999 999999 999999 5428
999999 18329 16435 10652 16293 13799 14002 13454 18409 10782 10445 15338 18221 16974 10432 11887 14463 17787 14467 14504 19332 11689 19662 12742 12821 13055 11258 11156 17322 12446 15669 11762 12575 14035 17815 12452 19093 15164 10900 17156 10676 18311 10898 15252 17497 18350 12747 10339 15654 10611 16930 15251 11370 18659 19205 19777 12365 18903 13259 15962 15888 10301 11331 10541 14953 17487 12995 17033 17711 10827 12949 13277 11676 10451 18290 18741 14327 17905 12190 18546 12485 999999 999999 0 999999 999999 999999 999999 999999 999999 999999 999999 999999 999999 999999 999999 999999 999999 999999 999999 999999 999999 999999 999999 999999 999999 999999 999999 999999 999999 999999 999999 999999 999999 999999 999999 999999 999999 999999 999999 999999 999999 999999 999999 999999 999999 999999 999999 999999 999999 999999 999999 999999 999999 999999 999999 999999 999999 999999 999999 999999 999999 999999 999999 999999 999999 999999 999999 999999 999999 999999 999999 999999 999999 999999 999999 999999 999999 999999 999999 999999 5601
999999 16398 18838 11949 19502 15483 19130 17953 13611 18796 16807 12946 15774 13260 14624 19483 14037 18300 16253 16385 14620 16611 18910 13487 19780 15475 10434 18238 17708 14960 14723 19524 15290 16719 19438 18895 17132 19094 18948 10201 12000 19392 18426 11703 11473 18441 13091 12101 14570 10213 19961 12066 17327 10115 14714 10664 11461 13451 16951 13873 13756 18284 13805 12410 11708 14559 12404 13959 16510 12683 10072 14103 12599 14565 10737 13280 10536 15365 13639 18787 13048 999999 999999 999999 0 999999 999999 999999 999999 999999 999999 999999 999999 999999 999999 999999 999999 999999 999999 999999 999999 999999 999999 999999 999999 999999 999999 999999 999999 999999 999999 999999 999999 999999 999999 999999 999999 999999 999999 999999 999999 999999 999999 999999 999999 999999 999999 999999 999999 999999 999999 999999 999999 999999 999999 999999 999999 999999 999999 999999 999999 999999 999999 999999 999999 999999 999999 999999 999999 999999 999999 999999 999999 999999 999999 999999 999999 999999 999999 999999 999999 14937
999999 11000 14827 11233 18819 18792 14313 18791 17943 19885 13394 11373 10755 14163 16819 15069 18993 14568 16573 17627 13418 11509 14894 18306 18980 17722 15167 12411 19737 12207 17046 18845 17791 19155 12378 10471 17372 18883 11357 17596 10690 11353 17859 13140 17904 10260 15003 12976 11329 14597 18555 18424 11726 17858 17434 13270 17451 18259 15446 15010 10520 19555 10927 15502 11126 18377 12861 13559 16115 17612 15274 19641 15339 16848 12801 16072 12737 11694 18394 14746 13801 999999 999999 999999 999999 0 999999 999999 999999 999999 999999 999999 999999 999999 999999 999999 999999 999999 999999 999999 999999 999999 999999 999999 999999 999999 999999 999999 999999 999999 999999 999999 999999 999999 999999 999999 999999 999999 999999 999999 999999 999999 999999 999999 999999 999999 999999 999999 999999 999999 999999 999999 999999 999999 999999 999999 999999 999999 999999 999999 999999 999999 999999 999999 999999 999999 999999 999999 999999 999999 999999 999999 999999 999999 999999 999999 999999 999999 999999 999999 999999 12690
999999 16362 19252 19202 19188 18607 13116 15711 17610 19700 11522 13715 16207 13120 16438 18803 13289 13340 16792 19715 19446 16206 16641 10361 15297 14764 17153 10623 14732 17683 16945 13068 16826 16623 17076 11780 18981 12787 13920 13882 19154 10307 17007 17637 11055 16189 14177 17816 18883 14246 10577 16683 15301 15943 18103 17815 12918 12787 12386 12261 14083 18941 11650 18178 12751 14257 11899 15565 12262 18957 16489 16973 17398 10361 18119 15176 13867 19272 13023 18993 15723 999999 999999 999999 999999 999999 0 999999 999999 999999 999999 999999 999999 999999 999999 999999 999999 999999 999999 999999 999999 999999 999999 999999 999999 999999 999999 999999 999999 999999 999999 999999 999999 999999 999999 999999 999999 999999 999999 999999 999999 999999 999999 999999 999999 999999 999999 999999 999999 999999 999999 999999 999999 999999 999999 999999 999999 999999 999999 999999 999999 999999 999999 999999 999999 999999 999999 999999 999999 999999 999999 999999 999999 999999 999999 999999 999999 999999 999999 999999 999999 11732
999999 12390 18693 14511 11385 18318 18594 19465 14885 19839 10707 18198 16940 16711 19831 11100 13004 18579 19704 11488 14191 19688 19463 13660 18117 18572 15395 19976 14688 19745 16344 10333 10384 12095 19589 17571 16562 19791 13245 15776 10352 17444 19954 11233 15431 19888 19867 16953 12303 16299 14457 18059 12461 10055 10097 14291 10267 13249 12162 11929 18718 11944 19680 17691 11253 13280 10548 18436 10881 12566 13146 12766 16513 17807 18219 18650 16033 10887 15374 16739 17471 999999 999999 999999 999999 999999 999999 0 999999 999999 999999 999999 999999 999999 999999 999999 999999 999999 999999 999999 999999 999999 999999 999999 999999 999999 999999 999999 999999 999999 999999 999999 999999 999999 999999 999999 999999 999999 999999 999999 999999 999999 999999 999999 999999 999999 999999 999999 999999 999999 999999 999999 999999 999999 999999 999999 999999 999999 999999 999999 999999 999999 999999 999999 999999 999999 999999 999999 999999 999999 999999 999999 999999 999999 999999 999999 999999 999999 999999 999999 999999 7238
999999 14139 11170 18505 10593 19551 19811 14504 11250 12552 10061 15634 10685 12588 12762 12502 16248 13711 10094 14033 14796 14096 11775 13439 13531 18278 12916 11397 10642 17096 12415 17653 10497 14804 18867 17932 13766 14889 15060 12898 11621 12662 19394 16888 16172 13742 15474 11670 13471 17783 16164 14530 13217 13718 16987 12250 19179 14381 16360 19971 10162 11222 11591 16497 16887 13103 12684 16627 13203 18996 10053 14236 19724 19294 18621 11960 16740 10458 16181 16501 19943 999999 999999 999999 999999 999999 999999 999999 0 999999 999999 999999 999999 999999 999999 999999 999999 999999 999999 999999 999999 999999 999999 999999 999999 999999 999999 999999 999999 999999 999999 999999 999999 999999 999999 999999 999999 999999 999999 999999 999999 999999 999999 999999 999999 999999 999999 999999 999999 999999 999999 999999 999999 999999 999999 999999 999999 999999 999999 999999 999999 999999 999999 999999 999999 999999 999999 999999 999999 999999 999999 999999 999999 999999 999999 999999 999999 999999 999999 999999 999999 8704
999999 16925 14663 16908 17411 16354 10665 16969 11027 19131 18514 10765 19622 14843 10932 19804 16979 15813 11860 17599 16219 11052 14798 17076 18010 14876 15581 12731 14117 14989 12936 13191 14892 11450 12456 12918 18559 13480 12088 18085 13293 19422 15183 11463 17597 16590 15270 18058 17701 12682 17467 10031 14331 12711 13037 11330 18294 19406 12503 16689 15499 18897 18066 13382 19200 12130 14837 17949 15120 18493 12802 10885 13098 11348 16542 19069 19366 16662 17491 10838 16995 999999 999999 999999 999999 999999 999999 999999 999999 0 999999 999999 999999 999999 999999 999999 999999 999999 999999 999999 999999 999999 999999 999999 999999 999999 999999 999999 999999 999999 999999 999999 999999 999999 999999 999999 999999 999999 999999 999999 999999 999999 999999 999999 999999 999999 999999 999999 999999 999999 999999 999999 999999 999999 999999 999999 999999 999999 999999 999999 999999 999999 999999 999999 999999 999999 999999 999999 999999 999999 999999 999999 999999 999999 999999 999999 999999 999999 999999 999999 999999 8125
999999 19084 12936 13493 12724 10463 19044 13121 16585 12591 19374 13307 17550 17462 17972 16896 18142 12277 10720 13094 17641 13547 19763 18925 10078 17051 11691 12717 19365 12606 19145 12699 17195 15594 10404 14823 10884 10465 18742 10634 11117 16378 17530 18128 11196 19258 16974 18924 16636 16123 18872 11940 11605 18293 15464 19867 19173 13093 19683 14292 16426 13743 14874 13967 19667 11733 15643 12490 17562 13593 10489 13503 11847 13983 11341 15583 18172 13073 19552 13169 17579 999999 999999 999999 999999 999999 999999 999999 999999 999999 0 999999 999999 999999 999999 999999 999999 999999 999999 999999 999999 999999 999999 999999 999999 999999 999999 999999 999999 999999 999999 999999 999999 999999 999999 999999 999999 999999 999999 999999 999999 999999 999999 999999 999999 999999 999999 999999 999999 999999 999999 999999 999999 999999 999999 999999 999999 999999 999999 999999 999999 999999 999999 999999 999999 999999 999999 999999 999999 999999 999999 999999 999999 999999 999999 999999 999999 999999 999999 999999 999999 9472
999999 13693 19129 14025 12624 12418 12677 19851 17169 19049 12264 18019 11593 16569 17074 14399 17622 12677 12444 16872 13473 11879 10143 10081 19880 16759 15103 14295 15331 17459 10323 19914 17507 10425 12380 10168 16893 19606 10569 11859 13462 13922 14236 12150 15409 15655 14669 17746 10273 19686 13201 15571 14045 19620 15816 15024 14884 14470 17864 15341 19715 16828 10240 10296 16724 18518 18029 18923 17731 15586 14413 11752 10808 18322 19741 16048 11200 18700 15942 13265 11517 999999 999999 999999 999999 999999 999999 999999 999999 999999 999999 0 999999 999999 999999 999999 999999 999999 999999 999999 999999 999999 999999 999999 999999 999999 999999 999999 999999 999999 999999 999999 999999 999999 999999 999999 999999 999999 999999 999999 999999 999999 999999 999999 999999 999999 999999 999999 999999 999999 999999 999999 999999 999999 999999 999999 999999 999999 999999 999999 999999 999999 999999 999999 999999 999999 999999 999999 999999 999999 999999 999999 999999 999999 999999 999999 999999 999999 999999 999999 999999 7781
999999 11302 18532 19089 19669 10780 12146 18004 11820 10866 13914 18463 18279 13275 10276 10195 15365 18901 19103 18109 15454 13273 14962 15859 17948 16490 14075 10988 11763 13590 16023 16085 10744 17653 18461 18334 18470 19085 17334 16004 19255 17140 12636 16798 18009 16974 13796 16543 11083 19448 10266 16113 13202 15995 13246 12265 17390 12685 15876 14003 17738 19386 14480 16421 18899 16163 19376 15629 10609 18164 12364 13961 11950 17543 16883 19251 14164 13442 13968 11214 14561 999999 999999 999999 999999 999999 999999 999999 999999 999999 999999 999999 0 999999 999999 999999 999999 999999 999999 999999 999999 999999 999999 999999 999999 999999 999999 999999 999999 999999 999999 999999 999999 999999 999999 999999 999999 999999 999999 999999 999999 999999 999999 999999 999999 999999 999999 999999 999999 999999 999999 999999 999999 999999 999999 999999 999999 999999 999999 999999 999999 999999 999999 999999 999999 999999 999999 999999 999999 999999 999999 999999 999999 999999 999999 999999 999999 999999 999999 999999 999999 14589
999999 15398 14914 19683 16059 10121 17314 18107 12319 13205 14278 18650 19130 13509 11919 12579 13423 17229 14983 13251 14937 15461 18833 12164 19733 19213 17071 16727 15425 11093 18660 13642 19232 13717 13032 13185 10471 12523 18679 15428 14495 14126 14015 17094 15711 16461 17818 11624 18472 13834 13229 13796 17051 13417 11428 17968 18738 16848 15024 17889 16849 13821 16540 11279 15135 13777 15921 17351 14683 11558 16427 17796 17736 19746 15473 10012 11683 11171 11926 15812 16052 999999 999999 999999 999999 999999 999999 999999 999999 999999 999999 999999 999999 0 999999 999999 999999 999999 999999 999999 999999 999999 999999 999999 999999 999999 999999 999999 999999 999999 999999 999999 999999 999999 999999 999999 999999 999999 999999 999999 999999 999999 999999 999999 999999 999999 999999 999999 999999 999999 999999 999999 999999 999999 999999 999999 999999 999999 999999 999999 999999 999999 999999 999999 999999 999999 999999 999999 999999 999999 999999 999999 999999 999999 999999 999999 999999 999999 999999 999999 999999 13136
999999 19548 16721 19455 13052 19865 13378 15401 10021 12233 19928 17563 17280 19078 14078 10672 11892 19144 17436 14425 13959 16124 14816 13121 10965 12418 16770 14105 14528 13739 10199 17109 10877 15344 17181 10176 14378 16735 12597 15912 12258 18029 10083 11465 12594 12184 16821 14717 12021 12908 19930 19979 17109 15240 10259 19632 14710 19310 11214 14494 15591 10144 11388 10255 18612 12276 10881 10378 11758 15807 15076 18557 12506 13652 17771 15430 19066 16909 19337 14517 19303 999999 999999 999999 999999 999999 999999 999999 999999 999999 999999 999999 999999 999999 0 999999 999999 999999 999999 999999 999999 999999 999999 999999 999999 999999 999999 999999 999999 999999 999999 999999 999999 999999 999999 999999 999999 999999 999999 999999 999999 999999 999999 999999 999999 999999 999999 999999 999999 999999 999999 999999 999999 999999 999999 999999 999999 999999 999999 999999 999999 999999 999999 999999 999999 999999 999999 999999 999999 999999 999999 999999 999999 999999 999999 999999 999999 999999 999999 999999 999999 13774
999999 17177 10081 18878 11978 13395 16243 16755 14073 11248 16954 18551 16275 19153 15990 18501 11448 14830 11666 15182 11582 12604 12807 18461 14265 13217 16942 13177 10881 10883 13276 10559 17396 19715 14488 14397 14117 14199 10667 12797 19785 13399 16233 13495 18438 15315 10803 17782 16303 17680 17722 16173 10280 17041 18717 14605 17839 10179 14606 18944 10499 11359 10896 11889 13006 11404 19411 16990 11409 18528 13987 11440 16493 15669 15272 16748 19386 12219 13279 15291 12600 999999 999999 999999 999999 999999 999999 999999 999999 999999 999999 999999 999999 999999 999999 0 999999 999999 999999 999999 999999 999999 999999 999999 999999 999999 999999 999999 999999 999999 999999 999999 999999 999999 999999 999999 999999 999999 999999 999999 999999 999999 999999 999999 999999 999999 999999 999999 999999 999999 999999 999999 999999 999999 999999 999999 999999 999999 999999 999999 999999 999999 999999 999999 999999 999999 999999 999999 999999 999999 999999 999999 999999 999999 999999 999999 999999 999999 999999 999999 999999 8456
999999 16816 12585 17822 18092 17698 13254 10674 11748 16132 13381 19190 14193 16567 16364 17614 19783 18766 16755 13030 17352 15906 16342 14550 17337 18770 18566 12763 16544 15008 17338 18503 10965 13307 13545 12969 19425 11468 17762 14133 12563 16546 13253 18417 12084 10316 18676 14754 13823 10731 14419 12202 19042 15866 19920 15725 17079 13353 16789 12199 11055 16633 14847 13018 14706 12497 19209 14175 19679 19944 16393 13879 19428 18135 13972 12570 19954 11643 12603 16137 11955 999999 999999 999999 999999 999999 999999 999999 999999 999999 999999 999999 999999 999999 999999 999999 0 999999 999999 999999 999999 999999 999999 999999 999999 999999 999999 999999 999999 999999 999999 999999 999999 999999 999999 999999 999999 999999 999999 999999 999999 999999 999999 999999 999999 999999 999999 999999 999999 999999 999999 999999 999999 999999 999999 999999 999999 999999 999999 999999 999999 999999 999999 999999 999999 999999 999999 999999 999999 999999 999999 999999 999999 999999 999999 999999 999999 999999 999999 999999 999999 12712
999999 14023 12086 19896 14754 11734 14865 19201 16537 18577 17502 13991 11606 17417 13272 17563 10706 10740 16166 13160 15976 17959 18028 17021 17145 18025 17073 16234 18795 19448 16900 15187 13034 14764 15988 19453 19176 15429 12683 10840 19149 15015 14973 19782 12700 10976 16841 19578 15925 19178 11770 10261 15760 16553 15457 19734 10075 10530 11434 15461 11572 14362 18306 16496 11215 19206 12621 15707 11049 13447 19596 19512 17355 19478 11335 18693 13748 10935 14214 10956 18148 999999 999999 999999 999999 999999 999999 999999 999999 999999 999999 999999 999999 999999 999999 999999 999999 0 999999 999999 999999 999999 999999 999999 999999 999999 999999 999999 999999 999999 999999 999999 999999 999999 999999 999999 999999 999999 999999 999999 999999 999999 999999 999999 999999 999999 999999 999999 999999 999999 999999 999999 999999 999999 999999 999999 999999 999999 999999 999999 999999 999999 999999 999999 999999 999999 999999 999999 999999 999999 999999 999999 999999 999999 999999 999999 999999 999999 999999 999999 999999 7184
999999 13622 14697 12599 18903 18097 11450 16289 13546 14080 13406 16343 15084 17873 17081 19574 13208 17793 13004 11892 12280 13525 12075 17309 19080 12268 15869 12118 16225 11382 15951 18732 10935 18312 16318 14936 16228 12811 13603 19059 10083 14460 14863 14999 19125 13667 19463 16627 16840 10602 18807 11649 17659 18384 17864 13930 11600 11761 15128 13246 10724 19449 12444 16746 14175 13429 11517 15931 17724 17640 12236 15516 12673 12132 19041 17652 16382 10890 10920 13236 11262 999999 999999 999999 999999 999999 999999 999999 999999 999999 999999 999999 999999 999999 999999 999999 999999 999999 0 999999 999999 999999 999999 999999 999999 999999 999999 999999 999999 999999 999999 999999 999999 999999 999999 999999 999999 999999 999999 999999 999999 999999 999999 999999 999999 999999 999999 999999 999999 999999 999999 999999 999999 999999 999999 999999 999999 999999 999999 999999 999999 999999 999999 999999 999999 999999 999999 999999 999999 999999 999999 999999 999999 999999 999999 999999 999999 999999 999999 999999 999999 6000
999999 17537 12897 16490 11061 17582 10016 12753 18540 17265 16821 12554 16432 12347 10658 17598 15262 14302 10976 11899 11265 17316 14507 13701 17849 17135 14410 15656 17789 12076 12545 18712 15308 19137 13414 12181 16761 17860 16637 17075 15243 14241 16693 19869 16087 15618 11599 17572 10820 17716 12712 17457 15785 13672 19049 18799 10909 13135 10728 16862 19171 18857 14210 15804 10206 17609 13546 14061 13429 10699 19494 15288 19916 13218 14368 19413 10827 18055 10708 17389 15045 999999 999999 999999 999999 999999 999999 999999 999999 999999 999999 999999 999999 999999 999999 999999 999999 999999 999999 0 999999 999999 999999 999999 999999 999999 999999 999999 999999 999999 999999 999999 999999 999999 999999 999999 999999 999999 999999 999999 999999 999999 999999 999999 999999 999999 999999 999999 999999 999999 999999 999999 999999 999999 999999 999999 999999 999999 999999 999999 999999 999999 999999 999999 999999 999999 999999 999999 999999 999999 999999 999999 999999 999999 999999 999999 999999 999999 999999 999999 999999 7348
999999 16339 19154 11691 11249 18785 14735 13568 13502 10152 15236 10955 18659 18383 15897 16984 11505 10170 16463 12836 13812 19013 14236 18747 17559 15710 18198 10750 15424 15397 12274 13673 15567 15034 10844 17842 13106 14550 19985 11483 11921 11666 15678 14300 14081 14990 12533 12561 12496 11187 17673 12775 11176 11588 12092 19794 17679 16349 10124 19418 18386 18257 15148 15307 17676 10042 17154 13624 11109 16723 12857 14711 19520 10090 13738 18064 18871 10792 10588 12305 12695 999999 999999 999999 999999 999999 999999 999999 999999 999999 999999 999999 999999 999999 999999 999999 999999 999999 999999 999999 0 999999 999999 999999 999999 999999 999999 999999 999999 999999 999999 999999 999999 999999 999999 999999 999999 999999 999999 999999 999999 999999 999999 999999 999999 999999 999999 999999 999999 999999 999999 999999 999999 999999 999999 999999 999999 999999 999999 999999 999999 999999 999999 999999 999999 999999 999999 999999 999999 999999 999999 999999 999999 999999 999999 999999 999999 999999 999999 999999 999999 9816
999999 11968 13091 12343 17725 14131 18571 15642 13607 18892 11569 17252 19063 15148 18940 10793 15343 16399 12530 17881 16315 17307 14282 13560 15091 14604 12114 17406 18566 14096 18956 14354 18892 12215 10245 19514 19929 13021 15238 10013 11433 12879 14471 14162 19663 13810 15249 13938 14687 19561 15371 18638 13271 16974 16977 19378 16812 15853 18121 19537 15291 10043 15730 19497 18219 13166 16504 17534 11301 10305 18682 14931 16005 10019 13778 14788 19676 12721 14671 12511 18932 999999 999999 999999 999999 999999 999999 999999 999999 999999 999999 999999 999999 999999 999999 999999 999999 999999 999999 999999 999999 0 999999 999999 999999 999999 999999 999999 999999 999999 999999 999999 999999 999999 999999 999999 999999 999999 999999 999999 999999 999999 999999 999999 999999 999999 999999 999999 999999 999999 999999 999999 999999 999999 999999 999999 999999 999999 999999 999999 999999 999999 999999 999999 999999 999999 999999 999999 999999 999999 999999 999999 999999 999999 999999 999999 999999 999999 999999 999999 999999 8905
999999 16130 10659 18481 11969 11426 12989 11345 10183 14427 16983 19708 12358 14056 10151 19140 10648 15718 10180 14558 10567 16939 15866 17515 10373 12769 18902 15640 14786 10890 14830 16192 13415 17374 11699 15670 16695 19896 17460 12566 14889 14086 15876 13276 12694 16946 13845 11743 16436 11345 18837 19534 14979 11956 12907 19491 16609 18482 16754 18551 12876 13001 19871 12084 12282 18456 17200 11659 13837 18702 11030 17833 17643 16377 15251 11243 10138 14555 19876 12892 19572 999999 999999 999999 999999 999999 999999 999999 999999 999999 999999 999999 999999 999999 999999 999999 999999 999999 999999 999999 999999 999999 0 999999 999999 999999 999999 999999 999999 999999 999999 999999 999999 999999 999999 999999 999999 999999 999999 999999 999999 999999 999999 999999 999999 999999 999999 999999 999999 999999 999999 999999 999999 999999 999999 999999 999999 999999 999999 999999 999999 999999 999999 999999 999999 999999 999999 999999 999999 999999 999999 999999 999999 999999 999999 999999 999999 999999 999999 999999 999999 12740
999999 14293 13784 12001 13601 17276 11435 11044 12573 10163 10833 16447 12673 14642 19825 14836 13895 18268 15813 10647 11719 10504 15497 15425 17457 14431 10793 13054 14753 10071 17864 11286 18899 16520 17379 12290 15822 13014 18999 16640 13458 12484 19423 19540 11037 10417 10261 19386 14837 17341 13660 10861 10784 13573 19450 15174 15731 10452 12696 13908 11423 19630 13717 13808 18859 19775 18033 17591 18692 19933 11992 18094 14370 13041 10675 16633 15158 12029 10866 13468 16080 999999 999999 999999 999999 999999 999999 999999 999999 999999 999999 999999 999999 999999 999999 999999 999999 999999 999999 999999 999999 999999 999999 0 999999 999999 999999 999999 999999 999999 999999 999999 999999 999999 999999 999999 999999 999999 999999 999999 999999 999999 999999 999999 999999 999999 999999 999999 999999 999999 999999 999999 999999 999999 999999 999999 999999 999999 999999 999999 999999 999999 999999 999999 999999 999999 999999 999999 999999 999999 999999 999999 999999 999999 999999 999999 999999 999999 999999 999999 999999 7561
999999 12377 16587 14048 14094 17175 10360 14150 17476 15840 18122 12364 19375 16085 13935 17137 11187 19899 12543 19303 12416 15830 11352 14299 15054 17287 15639 18470 14808 17785 15171 17773 19220 13571 18707 12435 19494 18537 19425 16067 12692 16184 10880 15772 13725 10007 13032 16303 16186 18603 15222 17444 12909 11553 11779 19675 18751 15201 18506 15570 18151 11178 12977 16098 13403 12563 14945 19270 10195 10233 18793 14636 16564 18716 14118 10557 18131 18396 10174 10522 16404 999999 999999 999999 999999 999999 999999 999999 999999 999999 999999 999999 999999 999999 999999 999999 999999 999999 999999 999999 999999 999999 999999 999999 0 999999 999999 999999 999999 999999 999999 999999 999999 999999 999999 999999 999999 999999 999999 999999 999999 999999 999999 999999 999999 999999 999999 999999 999999 999999 999999 999999 999999 999999 999999 999999 999999 999999 999999 999999 999999 999999 999999 999999 999999 999999 999999 999999 999999 999999 999999 999999 999999 999999 999999 999999 999999 999999 999999 999999 999999 10652
999999 11336 17713 10113 14517 14110 10357 17296 18105 15687 14487 12020 12228 19616 16086 10125 18207 16162 11600 15255 19175 12683 13095 12552 10335 19474 18814 18798 11675 15786 16238 11226 16341 15084 18451 11940 16237 12935 16064 13421 12946 13642 18249 17555 14932 17926 12135 10343 19408 18336 11549 14495 19561 11815 19775 10455 13824 15181 15585 10730 16564 17975 15993 17430 18621 11141 18357 14231 11324 19174 18491 16717 12706 18877 19785 16754 13837 10274 18594 17785 14214 999999 999999 999999 999999 999999 999999 999999 999999 999999 999999 999999 999999 999999 999999 999999 999999 999999 999999 999999 999999 999999 999999 999999 999999 0 999999 999999 999999 999999 999999 999999 999999 999999 999999 999999 999999 999999 999999 999999 999999 999999 999999 999999 999999 999999 999999 999999 999999 999999 999999 999999 999999 999999 999999 999999 999999 999999 999999 999999 999999 999999 999999 999999 999999 999999 999999 999999 999999 999999 999999 999999 999999 999999 999999 999999 999999 999999 999999 999999 999999 10561
999999 10661 11660 19625 15306 14173 13509 10925 19907 16109 10529 17761 15114 12295 14924 15564 11497 11489 16429 18563 18767 18700 12185 15266 17978 18420 15216 16200 14447 12013 16765 13434 12717 15213 16948 19018 18503 16908 18329 15389 18685 18863 18730 12603 17928 19469 14248 13190 13404 18574 19877 14880 10827 18397 12824 18300 14180 11792 14344 15199 13440 14063 13410 10353 16842 11341 14156 17056 10426 14670 15888 13313 15253 15140 13141 12738 13002 10059 13614 12961 10784 999999 999999 999999 999999 999999 999999 999999 999999 999999 999999 999999 999999 999999 999999 999999 999999 999999 999999 999999 999999 999999 999999 999999 999999 999999 0 999999 999999 999999 999999 999999 999999 999999 999999 999999 999999 999999 999999 999999 999999 999999 999999 999999 999999 999999 999999 999999 999999 999999 999999 999999 999999 999999 999999 999999 999999 999999 999999 999999 999999 999999 999999 999999 999999 999999 999999 999999 999999 999999 999999 999999 999999 999999 999999 999999 999999 999999 999999 999999 999999 11157
999999 13742 16639 11488 12607 18519 18032 16618 15869 19350 18844 19392 16078 19847 15658 12979 17628 16004 19860 12753 16055 16535 11441 17709 13525 11679 12487 12998 12879 17532 17192 15552 17072 16057 15531 14522 15700 18511 12666 11163 19757 15331 14047 12556 14227 18653 18371 19770 16835 15164 13203 12543 14568 12323 17193 15949 11493 15049 18435 12384 16172 15612 12701 10672 10235 11427 16414 15358 11510 17001 15889 18064 11009 15646 10645 17284 11342 19812 19406 11016 19924 999999 999999 999999 999999 999999 999999 999999 999999 999999 999999 999999 999999 999999 999999 999999 999999 999999 999999 999999 999999 999999 999999 999999 999999 999999 999999 0 999999 999999 999999 999999 999999 999999 999999 999999 999999 999999 999999 999999 999999 999999 999999 999999 999999 999999 999999 999999 999999 999999 999999 999999 999999 999999 999999 999999 999999 999999 999999 999999 999999 999999 999999 999999 999999 999999 999999 999999 999999 999999 999999 999999 999999 999999 999999 999999 999999 999999 999999 999999 999999 7025
999999 16220 13507 11817 18858 14789 10572 19555 19934 12742 13237 18741 19714 17727 16418 15425 15230 11405 16577 14726 15002 16429 12097 14693 12456 18791 17986 14909 15164 12307 10295 19693 13083 18236 10807 11433 19555 17006 15749 16680 19249 16193 12305 10073 15536 18722 18901 10955 17847 18625 11109 15449 16098 19681 18516 10291 19997 14654 17806 11610 17016 15382 16429 19007 12452 19192 16137 15621 17282 14278 11117 14605 10792 15270 11506 16101 18521 16124 17658 14548 18361 999999 999999 999999 999999 999999 999999 999999 999999 999999 999999 999999 999999 999999 999999 999999 999999 999999 999999 999999 999999 999999 999999 999999 999999 999999 999999 999999 0 999999 999999 999999 999999 999999 999999 999999 999999 999999 999999 999999 999999 999999 999999 999999 999999 999999 999999 999999 999999 999999 999999 999999 999999 999999 999999 999999 999999 999999 999999 999999 999999 999999 999999 999999 999999 999999 999999 999999 999999 999999 999999 999999 999999 999999 999999 999999 999999 999999 999999 999999 999999 9748
999999 16786 12682 13416 11522 16270 19217 13575 11910 15872 17140 11625 12266 11567 14356 19814 15839 10199 12773 11015 15320 18968 12276 10510 11434 10497 18957 17681 10729 14258 10473 10520 16357 13989 13430 16524 12547 16970 15808 12273 19012 10857 11065 19041 16535 14865 15465 10158 10621 18994 16537 14786 16825 12874 18731 14237 19368 15603 12936 11219 14254 11348 18393 16528 10987 12629 19360 13745 18388 17866 19155 15490 18024 13593 19924 18543 17617 11250 17177 14609 10702 999999 999999 999999 999999 999999 999999 999999 999999 999999 999999 999999 999999 999999 999999 999999 999999 999999 999999 999999 999999 999999 999999 999999 999999 999999 999999 999999 999999 0 999999 999999 999999 999999 999999 999999 999999 999999 999999 999999 999999 999999 999999 999999 999999 999999 999999 999999 999999 999999 999999 999999 999999 999999 999999 999999 999999 999999 999999 999999 999999 999999 999999 999999 999999 999999 999999 999999 999999 999999 999999 999999 999999 999999 999999 999999 999999 999999 999999 999999 999999 14682
999999 10019 19077 14834 17579 10307 18678 19448 14277 14940 18571 17386 13020 18800 19628 10562 19468 17124 17652 17416 16873 18724 17929 12325 19301 14005 12520 18341 15418 12945 10762 12361 19659 13137 13206 14253 18378 13064 10019 17221 10890 16047 14537 10261 18680 18562 16521 16077 15139 17618 18304 17063 11127 19454 12031 10842 17220 17578 13852 17936 16182 12998 14553 16773 14383 12665 13094 18367 14829 18709 18275 12921 12841 14763 15912 10258 13791 11011 14918 12362 14313 999999 999999 999999 999999 999999 999999 999999 999999 999999 999999 999999 999999 999999 999999 999999 999999 999999 999999 999999 999999 999999 999999 999999 999999 999999 999999 999999 999999 999999 0 999999 999999 999999 999999 999999 999999 999999 999999 999999 999999 999999 999999 999999 999999 999999 999999 999999 999999 999999 999999 999999 999999 999999 999999 999999 999999 999999 999999 999999 999999 999999 999999 999999 999999 999999 999999 999999 999999 999999 999999 999999 999999 999999 999999 999999 999999 999999 999999 999999 999999 8785
999999 13163 14083 18083 14192 12260 19427 16218 16023 12147 17589 19328 15264 10388 16363 19911 16669 19093 18231 11658 19141 13002 12409 17083 17328 16625 19887 11570 17189 19763 13764 11444 11499 15906 10500 14992 12514 12473 19814 12492 15192 19509 10789 10983 18268 13656 18989 19768 15134 12611 11979 17572 10478 17740 19272 13116 14547 14434 16463 13372 12447 19752 10646 18576 15539 14250 19072 11372 15407 15091 16876 11140 13178 14380 19217 13748 14024 10314 19644 14606 13031 999999 999999 999999 999999 999999 999999 999999 999999 999999 999999 999999 999999 999999 999999 999999 999999 999999 999999 999999 999999 999999 999999 999999 999999 999999 999999 999999 999999 999999 999999 0 999999 999999 999999 999999 999999 999999 999999 999999 999999 999999 999999 999999 999999 999999 999999 999999 999999 999999 999999 999999 999999 999999 999999 999999 999999 999999 999999 999999 999999 999999 999999 999999 999999 999999 999999 999999 999999 999999 999999 999999 999999 999999 999999 999999 999999 999999 999999 999999 999999 5712
999999 19797 17340 17529 18651 14743 15061 13876 14505 15327 17660 14634 17543 16266 11761 15119 13297 13484 12664 10803 12644 10852 17096 17225 12175 16805 16419 10645 11707 17991 19795 12271 17735 11306 18814 18440 19859 17738 14958 19462 13465 14353 17185 16064 17939 17396 12572 11042 12430 19287 15992 19846 17786 14958 15560 10091 10489 12702 17413 19674 16692 18853 13268 14847 16593 11067 15337 11599 15883 18851 10157 16724 16790 10407 13580 10134 16094 12431 16363 12830 10954 999999 999999 999999 999999 999999 999999 999999 999999 999999 999999 999999 999999 999999 999999 999999 999999 999999 999999 999999 999999 999999 999999 999999 999999 999999 999999 999999 999999 999999 999999 999999 0 999999 999999 999999 999999 999999 999999 999999 999999 999999 999999 999999 999999 999999 999999 999999 999999 999999 999999 999999 999999 999999 999999 999999 999999 999999 999999 999999 999999 999999 999999 999999 999999 999999 999999 999999 999999 999999 999999 999999 999999 999999 999999 999999 999999 999999 999999 999999 999999 7373
999999 12437 13876 18075 19907 17997 18273 12670 14170 15163 14184 19205 14392 14929 19923 19074 16369 13345 12018 18692 14199 15549 17099 19772 15637 14131 11097 13547 19788 12099 18163 15603 18125 17525 10234 14295 11986 12341 11581 12221 19852 14333 16793 10304 17185 19050 16481 16950 10772 18925 11873 19176 10949 19012 10370 18204 11815 10776 17310 10139 15595 11622 14933 14179 17222 16949 14603 10421 12988 16020 12555 10517 19735 13499 10867 11178 15840 13298 16536 16094 15593 999999 999999 999999 999999 999999 999999 999999 999999 999999 999999 999999 999999 999999 999999 999999 999999 999999 999999 999999 999999 999999 999999 999999 999999 999999 999999 999999 999999 999999 999999 999999 999999 0 999999 999999 999999 999999 999999 999999 999999 999999 999999 999999 999999 999999 999999 999999 999999 999999 999999 999999 999999 999999 999999 999999 999999 999999 999999 999999 999999 999999 999999 999999 999999 999999 999999 999999 999999 999999 999999 999999 999999 999999 999999 999999 999999 999999 999999 999999 999999 9815
999999 14696 10557 11680 12400 16957 17904 11832 13823 16493 10210 13247 10544 11908 12646 14666 12791 15025 12037 10992 14913 11697 14712 12618 11620 15864 19522 19722 17428 13719 11894 18756 12864 14169 19571 17569 14031 12167 13574 15093 13470 10423 14037 17973 18650 16044 11905 12747 18604 11664 13466 14495 11993 14691 15985 10373 11014 11276 16766 18828 16194 18602 14792 13596 17015 15715 12138 19619 12734 18122 16620 10449 16367 17051 12621 16085 10837 10084 13294 10267 19481 999999 999999 999999 999999 999999 999999 999999 999999 999999 999999 999999 999999 999999 999999 999999 999999 999999 999999 999999 999999 999999 999999 999999 999999 999999 999999 999999 999999 999999 999999 999999 999999 999999 0 999999 999999 999999 999999 999999 999999 999999 999999 999999 999999 999999 999999 999999 999999 999999 999999 999999 999999 999999 999999 999999 999999 999999 999999 999999 999999 999999 999999 999999 999999 999999 999999 999999 999999 999999 999999 999999 999999 999999 999999 999999 999999 999999 999999 999999 999999 13975
999999 10829 10545 12870 15944 17802 10490 19110 13371 16601 10742 19660 14969 14139 11244 18488 17096 14647 16587 18357 15120 13340 10103 18413 18980 17099 18976 16520 13032 14923 10725 19882 13007 14471 11951 14164 19849 16578 13900 10508 14155 17063 14626 11622 12051 16705 15434 13346 15088 19999 16481 14676 12504 13645 19615 12082 14675 12957 18846 16500 18333 16101 13291 12541 12530 12356 12136 13789 16626 13543 17624 15427 13082 16561 14068 19902 14571 19743 14078 16505 18466 999999 999999 999999 999999 999999 999999 999999 999999 999999 999999 999999 999999 999999 999999 999999 999999 999999 999999 999999 999999 999999 999999 999999 999999 999999 999999 999999 999999 999999 999999 999999 999999 999999 999999 0 999999 999999 999999 999999 999999 999999 999999 999999 999999 999999 999999 999999 999999 999999 999999 999999 999999 999999 999999 999999 999999 999999 999999 999999 999999 999999 999999 999999 999999 999999 999999 999999 999999 999999 999999 999999 999999 999999 999999 999999 999999 999999 999999 999999 999999 14004
999999 10765 17387 18705 10145 14607 16797 10027 10153 15332 16957 11377 12036 11094 15336 10642 15352 17359 17056 12046 10194 10498 18052 15589 12367 13523 15483 12875 13935 10764 16100 14332 13944 14549 15498 14842 12256 11263 15056 17474 19570 14053 13670 12040 13823 19901 10794 14357 17358 17626 11138 11173 19543 18620 17812 14346 10423 14791 10060 15932 18777 10525 11663 18768 15187 10498 19065 10756 16025 15986 19799 13735 18910 17848 10564 17645 14018 13557 11392 11706 13491 999999 999999 999999 999999 999999 999999 999999 999999 999999 999999 999999 999999 999999 999999 999999 999999 999999 999999 999999 999999 999999 999999 999999 999999 999999 999999 999999 999999 999999 999999 999999 999999 999999 999999 999999 0 999999 999999 999999 999999 999999 999999 999999 999999 999999 999999 999999 999999 999999 999999 999999 999999 999999 999999 999999 999999 999999 999999 999999 999999 999999 999999 999999 999999 999999 999999 999999 999999 999999 999999 999999 999999 999999 999999 999999 999999 999999 999999 999999 999999 13170
999999 18916 14071 12729 16548 19777 13930 13079 19572 17142 15962 15195 15508 15060 18889 15907 19810 14016 19444 18746 14409 18149 16438 12927 11526 11767 19195 10583 14292 15988 13625 11842 12226 18874 15861 11816 19610 11435 10251 10001 15410 13867 12279 12779 11630 10840 12331 19476 14486 18522 19489 16276 15248 17266 14302 15311 13987 13171 13346 18430 19945 18970 15119 18897 19966 13841 12733 13578 17713 15025 18929 17434 11519 18940 10783 17722 19375 16249 10105 18976 17250 999999 999999 999999 999999 999999 999999 999999 999999 999999 999999 999999 999999 999999 999999 999999 999999 999999 999999 999999 999999 999999 999999 999999 999999 999999 999999 999999 999999 999999 999999 999999 999999 999999 999999 999999 999999 0 999999 999999 999999 999999 999999 999999 999999 999999 999999 999999 999999 999999 999999 999999 999999 999999 999999 999999 999999 999999 999999 999999 999999 999999 999999 999999 999999 999999 999999 999999 999999 999999 999999 999999 999999 999999 999999 999999 999999 999999 999999 999999 999999 6286
999999 10517 17170 15780 12258 14360 19774 16427 14874 11258 16039 11438 15859 15277 18062 12216 16262 19315 11604 16405 16064 13882 10870 12908 19510 16798 14291 19407 15080 16203 12423 16786 13546 11717 17025 18652 14495 14175 10244 15191 13491 10857 13484 16923 13526 11492 18572 16889 18594 12349 16672 12649 12383 14186 19332 14977 19789 11426 19196 14166 17100 19105 18180 17141 12094 14106 19159 19722 10538 11843 14568 11857 16850 18716 15844 10084 18399 14478 10785 14618 17334 999999 999999 999999 999999 999999 999999 999999 999999 999999 999999 999999 999999 999999 999999 999999 999999 999999 999999 999999 999999 999999 999999 999999 999999 999999 999999 999999 999999 999999 999999 999999 999999 999999 999999 999999 999999 999999 0 999999 999999 999999 999999 999999 999999 999999 999999 999999 999999 999999 999999 999999 999999 999999 999999 999999 999999 999999 999999 999999 999999 999999 999999 999999 999999 999999 999999 999999 999999 999999 999999 999999 999999 999999 999999 999999 999999 999999 999999 999999 999999 7973
999999 10778 16004 17639 10750 18484 13708 11573 18740 15394 18435 18443 16140 16546 14547 19071 15323 13791 15488 13764 19761 14749 17625 16870 18252 12122 13428 17824 13922 17791 17450 11083 18911 19654 19010 14292 14458 14512 19589 13370 10610 18979 10018 19716 10803 12992 15460 19146 12423 13990 10754 16756 10354 13080 12875 14907 17560 17182 12855 12919 10794 13460 16652 17592 12279 13353 15310 11910 14441 10165 16324 11962 15883 18441 12438 14758 18506 19077 12305 12913 12796 999999 999999 999999 999999 999999 999999 999999 999999 999999 999999 999999 999999 999999 999999 999999 999999 999999 999999 999999 999999 999999 999999 999999 999999 999999 999999 999999 999999 999999 999999 999999 999999 999999 999999 999999 999999 999999 999999 0 999999 999999 999999 999999 999999 999999 999999 999999 999999 999999 999999 999999 999999 999999 999999 999999 999999 999999 999999 999999 999999 999999 999999 999999 999999 999999 999999 999999 999999 999999 999999 999999 999999 999999 999999 999999 999999 999999 999999 999999 999999 13943
999999 14262 15201 10793 10058 10460 13521 11978 13780 11425 16954 13897 13150 12272 15991 15907 17777 12189 18184 17018 11606 17597 13432 18398 14999 17237 16553 13515 16570 11790 16007 18332 11541 15419 16635 18752 13142 10805 10324 18351 10891 18545 10333 14699 18175 11830 19389 10929 12267 14231 16207 16561 19858 13233 19029 12703 13267 11713 18463 16494 17986 11340 15920 17597 13144 11098 18544 15432 15751 17439 12884 17761 14206 10065 15697 14777 14480 12786 10626 15761 15452 999999 999999 999999 999999 999999 999999 999999 999999 999999 999999 999999 999999 999999 999999 999999 999999 999999 999999 999999 999999 999999 999999 999999 999999 999999 999999 999999 999999 999999 999999 999999 999999 999999 999999 999999 999999 999999 999999 999999 0 999999 999999 999999 999999 999999 999999 999999 999999 999999 999999 999999 999999 999999 999999 999999 999999 999999 999999 999999 999999 999999 999999 999999 999999 999999 999999 999999 999999 999999 999999 999999 999999 999999 999999 999999 999999 999999 999999 999999 999999 10384
999999 16409 11994 18322 10207 13691 14011 16471 11158 17149 10701 19336 13061 17136 13816 11553 11182 19533 18217 13391 17478 14666 12096 18334 17784 10621 17193 18559 10451 13425 15376 17154 11580 10528 15455 15131 16981 13061 17195 11347 19917 18841 18077 16665 19753 19552 15269 16349 18507 12396 12864 13175 18650 19365 11244 13150 15976 17407 19590 10961 11670 11456 19923 14199 19149 15439 19549 18110 19606 10005 12597 18164 11060 12264 16939 19711 12802 18595 16771 13243 14901 999999 999999 999999 999999 999999 999999 999999 999999 999999 999999 999999 999999 999999 999999 999999 999999 999999 999999 999999 999999 999999 999999 999999 999999 999999 999999 999999 999999 999999 999999 999999 999999 999999 999999 999999 999999 999999 999999 999999 999999 0 999999 999999 999999 999999 999999 999999 999999 999999 999999 999999 999999 999999 999999 999999 999999 999999 999999 999999 999999 999999 999999 999999 999999 999999 999999 999999 999999 999999 999999 999999 999999 999999 999999 999999 999999 999999 999999 999999 999999 14338
999999 12096 13416 17517 11512 11814 10281 11829 13241 19943 11999 16064 10940 10317 11262 19641 14691 15601 11246 17268 14019 16269 10626 11878 10603 13398 17622 18761 16648 11441 12667 12859 18717 19480 13839 14597 16568 15693 10492 11906 16123 13394 19589 15671 14458 17550 15136 11540 14012 18759 13785 15602 16735 15640 12795 10755 11424 10135 13524 15343 13319 19765 16247 11033 13572 11712 11244 15263 10134 14882 17443 17538 15766 18347 13504 13295 12612 10722 12469 16768 17974 999999 999999 999999 999999 999999 999999 999999 999999 999999 999999 999999 999999 999999 999999 999999 999999 999999 999999 999999 999999 999999 999999 999999 999999 999999 999999 999999 999999 999999 999999 999999 999999 999999 999999 999999 999999 999999 999999 999999 999999 999999 0 999999 999999 999999 999999 999999 999999 999999 999999 999999 999999 999999 999999 999999 999999 999999 999999 999999 999999 999999 999999 999999 999999 999999 999999 999999 999999 999999 999999 999999 999999 999999 999999 999999 999999 999999 999999 999999 999999 9928
999999 19620 18718 13822 14594 18323 14851 16896 12063 12030 14580 14045 15418 13487 11851 13081 15564 12464 17858 10437 15567 18245 17847 15248 10786 18725 19424 17171 12686 10497 13684 18527 10505 13532 10415 11296 15251 14932 17597 11126 15524 16642 18456 14122 15063 15872 16489 17293 16222 16553 12085 18129 12321 16847 10113 13430 17109 12149 11819 18644 17246 17653 11186 11965 18774 10352 16528 13218 10101 19280 19141 13556 15744 12221 10091 13509 18535 15925 10630 18512 17447 999999 999999 999999 999999 999999 999999 999999 999999 999999 999999 999999 999999 999999 999999 999999 999999 999999 999999 999999 999999 999999 999999 999999 999999 999999 999999 999999 999999 999999 999999 999999 999999 999999 999999 999999 999999 999999 999999 999999 999999 999999 999999 0 999999 999999 999999 999999 999999 999999 999999 999999 999999 999999 999999 999999 999999 999999 999999 999999 999999 999999 999999 999999 999999 999999 999999 999999 999999 999999 999999 999999 999999 999999 999999 999999 999999 999999 999999 999999 999999 10293
999999 11747 16411 14791 11990 13311 12030 19066 17551 11714 10672 11308 16717 14125 15597 15825 19043 13941 18167 18077 14172 11869 12623 13229 13661 12427 15462 12392 18126 12932 13877 16684 18800 10567 11512 13921 17356 11962 14328 11524 16063 10702 18304 16618 19641 10411 12631 18694 15740 12434 18504 17374 11540 16316 18589 14170 10804 14302 10185 15792 17204 12446 18572 10221 16474 10717 16097 12340 10749 18263 17665 14378 13615 15772 12783 18979 11814 18710 17266 13111 11894 999999 999999 999999 999999 999999 999999 999999 999999 999999 999999 999999 999999 999999 999999 999999 999999 999999 999999 999999 999999 999999 999999 999999 999999 999999 999999 999999 999999 999999 999999 999999 999999 999999 999999 999999 999999 999999 999999 999999 999999 999999 999999 999999 0 999999 999999 999999 999999 999999 999999 999999 999999 999999 999999 999999 999999 999999 999999 999999 999999 999999 999999 999999 999999 999999 999999 999999 999999 999999 999999 999999 999999 999999 999999 999999 999999 999999 999999 999999 999999 10900
999999 15205 19329 13894 16670 12532 19838 18901 18126 11162 15862 16813 15323 17240 18195 18149 12645 10046 10025 13351 13937 12059 18900 13816 18405 13724 12472 10110 14947 12071 19942 13483 10487 18209 13103 14151 13884 13265 12427 18883 10921 13968 19450 14429 14532 14999 14516 10930 12231 16254 19348 13059 17284 15819 15567 14111 18958 11069 15291 19879 11896 19008 15302 11480 12059 15140 15683 14032 12488 16219 18913 10669 10112 12078 12647 17646 11571 10214 10327 19886 16314 999999 999999 999999 999999 999999 999999 999999 999999 999999 999999 999999 999999 999999 999999 999999 999999 999999 999999 999999 999999 999999 999999 999999 999999 999999 999999 999999 999999 999999 999999 999999 999999 999999 999999 999999 999999 999999 999999 999999 999999 999999 999999 999999 999999 0 999999 999999 999999 999999 999999 999999 999999 999999 999999 999999 999999 999999 999999 999999 999999 999999 999999 999999 999999 999999 999999 999999 999999 999999 999999 999999 999999 999999 999999 999999 999999 999999 999999 999999 999999 12135
999999 16616 17882 19555 19335 13121 12679 19265 18961 18228 14214 15438 13478 13145 17382 19220 13503 12241 19194 18471 12505 18207 15008 12507 12576 16365 12881 17402 14568 12223 14425 17661 18052 18270 16305 14211 17455 12560 13540 17977 15425 11653 11054 10129 18067 14958 19080 19473 13815 11199 17084 18780 12961 12929 13295 13865 18597 18587 10845 14814 16140 14256 11703 16837 13387 12977 12175 19429 10427 11497 12834 14747 15974 13154 10093 12725 18511 14893 17615 10648 17017 999999 999999 999999 999999 999999 999999 999999 999999 999999 999999 999999 999999 999999 999999 999999 999999 999999 999999 999999 999999 999999 999999 999999 999999 999999 999999 999999 999999 999999 999999 999999 999999 999999 999999 999999 999999 999999 999999 999999 999999 999999 999999 999999 999999 999999 0 999999 999999 999999 999999 999999 999999 999999 999999 999999 999999 999999 999999 999999 999999 999999 999999 999999 999999 999999 999999 999999 999999 999999 999999 999999 999999 999999 999999 999999 999999 999999 999999 999999 999999 10628
999999 16198 10547 12652 18998 10547 15455 11076 14305 19867 10968 12908 15268 10462 18490 13175 10996 14918 18250 18415 12776 15693 15190 14748 14895 10519 19192 17943 13598 19893 14443 10266 18002 12114 18852 14153 14960 13821 12537 16997 17435 13759 16908 16653 13466 16601 18477 12528 16519 15221 19764 14814 10951 18474 15997 12916 12956 14050 18341 12775 11427 18276 13736 15583 17425 13312 10279 19202 12350 12378 19779 14148 16322 18270 10548 16736 18706 15104 11394 12185 10087 999999 999999 999999 999999 999999 999999 999999 999999 999999 999999 999999 999999 999999 999999 999999 999999 999999 999999 999999 999999 999999 999999 999999 999999 999999 999999 999999 999999 999999 999999 999999 999999 999999 999999 999999 999999 999999 999999 999999 999999 999999 999999 999999 999999 999999 999999 0 999999 999999 999999 999999 999999 999999 999999 999999 999999 999999 999999 999999 999999 999999 999999 999999 999999 999999 999999 999999 999999 999999 999999 999999 999999 999999 999999 999999 999999 999999 999999 999999 999999 14717
999999 16749 19988 19478 14781 10855 12482 12575 17662 15234 16010 13278 10782 14566 18475 11878 19593 17398 10547 11296 13025 17962 17012 17910 16301 16834 12004 19451 18402 15973 12913 12682 13199 13983 19223 11599 10486 16988 19738 16536 15809 11133 16984 11800 18824 18468 17498 19516 10616 15091 15083 18939 11327 12404 10789 15541 11293 16649 10290 19589 13609 18121 16556 19962 12017 13622 13504 17924 10824 13826 10129 19980 13787 14759 17016 14354 13229 18808 17973 10310 12307 999999 999999 999999 999999 999999 999999 999999 999999 999999 999999 999999 999999 999999 999999 999999 999999 999999 999999 999999 999999 999999 999999 999999 999999 999999 999999 999999 999999 999999 999999 999999 999999 999999 999999 999999 999999 999999 999999 999999 999999 999999 999999 999999 999999 999999 999999 999999 0 999999 999999 999999 999999 999999 999999 999999 999999 999999 999999 999999 999999 999999 999999 999999 999999 999999 999999 999999 999999 999999 999999 999999 999999 999999 999999 999999 999999 999999 999999 999999 999999 11859
999999 11353 14447 19086 19883 17673 18219 11696 16427 13596 18574 18420 18194 12578 16677 11192 14749 13470 17607 19935 12459 17868 16811 14345 16416 15764 15689 13257 17344 19354 18763 13591 15276 11992 12202 12125 19246 17871 17372 12646 17312 17938 18229 13926 16564 15568 13942 19405 15068 14008 11611 18690 10517 14795 13213 12789 15761 12734 14430 15115 11577 18398 16268 18901 19738 15116 16259 10563 19040 16584 13014 15474 12089 19650 17755 12210 11679 12239 17575 16962 11335 999999 999999 999999 999999 999999 999999 999999 999999 999999 999999 999999 999999 999999 999999 999999 999999 999999 999999 999999 999999 999999 999999 999999 999999 999999 999999 999999 999999 999999 999999 999999 999999 999999 999999 999999 999999 999999 999999 999999 999999 999999 999999 999999 999999 999999 999999 999999 999999 0 999999 999999 999999 999999 999999 999999 999999 999999 999999 999999 999999 999999 999999 999999 999999 999999 999999 999999 999999 999999 999999 999999 999999 999999 999999 999999 999999 999999 999999 999999 999999 5136
999999 19566 10913 11109 18988 13633 15085 19547 17133 18684 10006 11029 15529 19941 14414 11762 15053 17467 14351 15526 16405 16187 15431 14190 15892 12950 15285 16796 14926 11909 18167 11700 12100 10648 16753 17568 17354 11966 19664 10204 15267 12062 11009 15133 17437 17749 14260 11950 13241 18890 10356 16758 16593 19595 13716 19968 14755 18280 10019 19903 12504 15001 10635 10388 17812 12466 14596 13610 18775 10897 10203 17185 10165 11125 15261 13959 15462 13084 10708 11174 15518 999999 999999 999999 999999 999999 999999 999999 999999 999999 999999 999999 999999 999999 999999 999999 999999 999999 999999 999999 999999 999999 999999 999999 999999 999999 999999 999999 999999 999999 999999 999999 999999 999999 999999 999999 999999 999999 999999 999999 999999 999999 999999 999999 999999 999999 999999 999999 999999 999999 0 999999 999999 999999 999999 999999 999999 999999 999999 999999 999999 999999 999999 999999 999999 999999 999999 999999 999999 999999 999999 999999 999999 999999 999999 999999 999999 999999 999999 999999 999999 8104
999999 19081 12708 19348 14466 13923 19112 16322 12583 12173 16230 15560 14788 17718 14483 11262 18725 15823 13254 12455 13486 19137 14431 12425 12036 10882 11953 17576 18724 14723 15091 14923 16224 18483 12014 10589 18737 12965 13961 19430 18720 16125 19967 16408 15416 13748 17849 14496 16027 19159 13502 16270 12427 12232 14206 13431 10824 17470 12068 19851 13718 18009 11147 16648 11269 14711 11406 14391 14443 10515 11306 19257 18289 18077 13097 12434 11136 12934 18636 17223 10651 999999 999999 999999 999999 999999 999999 999999 999999 999999 999999 999999 999999 999999 999999 999999 999999 999999 999999 999999 999999 999999 999999 999999 999999 999999 999999 999999 999999 999999 999999 999999 999999 999999 999999 999999 999999 999999 999999 999999 999999 999999 999999 999999 999999 999999 999999 999999 999999 999999 999999 0 999999 999999 999999 999999 999999 999999 999999 999999 999999 999999 999999 999999 999999 999999 999999 999999 999999 999999 999999 999999 999999 999999 999999 999999 999999 999999 999999 999999 999999 14439
999999 12492 19494 19377 14361 19233 19566 15629 12648 16204 17181 11534 18230 10552 12070 17273 16132 11283 13178 15003 18133 18761 15703 13259 10306 13250 19664 10781 14429 15788 16947 12943 12971 18279 16558 15016 18439 15493 12575 13016 17904 14709 16835 12653 17884 13850 17440 17279 12761 14594 15777 12494 12045 15287 12901 17822 13012 15609 16183 18860 14578 14385 18323 15243 17524 16475 12996 11974 15295 16687 10415 14155 10971 13576 17056 12050 10700 14756 19158 18397 19041 999999 999999 999999 999999 999999 999999 999999 999999 999999 999999 999999 999999 999999 999999 999999 999999 999999 999999 999999 999999 999999 999999 999999 999999 999999 999999 999999 999999 999999 999999 999999 999999 999999 999999 999999 999999 999999 999999 999999 999999 999999 999999 999999 999999 999999 999999 999999 999999 999999 999999 999999 0 999999 999999 999999 999999 999999 999999 999999 999999 999999 999999 999999 999999 999999 999999 999999 999999 999999 999999 999999 999999 999999 999999 999999 999999 999999 999999 999999 999999 11567
999999 15660 18835 13205 10686 17095 11556 17353 11692 18260 18766 11671 15822 10256 15515 12926 19411 18061 15773 18608 18056 15697 10861 18058 10463 18670 14594 14181 18567 12165 15937 10908 14290 12807 17975 15470 12921 12120 13445 15651 13398 11223 12856 10569 17401 16858 13743 14098 13057 15226 19551 12679 10076 17735 17236 14823 18191 10221 18565 12073 18664 12827 13493 19316 18268 16394 10563 14447 13779 17261 18514 16484 12689 18637 11799 15344 14025 12342 14331 13207 18314 999999 999999 999999 999999 999999 999999 999999 999999 999999 999999 999999 999999 999999 999999 999999 999999 999999 999999 999999 999999 999999 999999 999999 999999 999999 999999 999999 999999 999999 999999 999999 999999 999999 999999 999999 999999 999999 999999 999999 999999 999999 999999 999999 999999 999999 999999 999999 999999 999999 999999 999999 999999 0 999999 999999 999999 999999 999999 999999 999999 999999 999999 999999 999999 999999 999999 999999 999999 999999 999999 999999 999999 999999 999999 999999 999999 999999 999999 999999 999999 10117
999999 13059 14978 15250 15135 18046 19869 14063 19759 17181 16608 15312 15747 15326 12235 16858 15987 19109 14226 17085 15589 14821 18820 17458 19265 11714 19858 18467 17078 13572 11608 19109 17727 17976 18384 13651 12209 18693 10404 19021 19186 15412 12294 17846 14463 16294 13932 15280 12350 12531 11003 10448 11295 19570 19498 18183 13123 19899 11187 14633 13833 15229 11282 17343 11050 12250 10206 15529 14802 11561 11790 10387 13104 10727 11395 12903 16288 12190 18929 13866 11641 999999 999999 999999 999999 999999 999999 999999 999999 999999 999999 999999 999999 999999 999999 999999 999999 999999 999999 999999 999999 999999 999999 999999 999999 999999 999999 999999 999999 999999 999999 999999 999999 999999 999999 999999 999999 999999 999999 999999 999999 999999 999999 999999 999999 999999 999999 999999 999999 999999 999999 999999 999999 999999 0 999999 999999 999999 999999 999999 999999 999999 999999 999999 999999 999999 999999 999999 999999 999999 999999 999999 999999 999999 999999 999999 999999 999999 999999 999999 999999 7417
999999 14757 17981 18540 16511 12161 16478 14450 10456 14568 19282 19497 15911 13199 15438 12282 16305 13857 12806 13578 13782 18031 17960 14406 12977 16384 19071 16854 18664 10719 18768 10873 17575 12738 17143 11418 13428 17806 17103 17700 10746 10397 17325 16784 12666 16286 11420 15264 10875 16820 14315 14838 16454 17380 14032 14021 19907 14690 13550 12170 18144 17290 10257 14511 14583 19941 11810 17625 12234 16208 14036 14650 17370 19449 11572 15392 13934 13503 19870 13666 17346 999999 999999 999999 999999 999999 999999 999999 999999 999999 999999 999999 999999 999999 999999 999999 999999 999999 999999 999999 999999 999999 999999 999999 999999 999999 999999 999999 999999 999999 999999 999999 999999 999999 999999 999999 999999 999999 999999 999999 999999 999999 999999 999999 999999 999999 999999 999999 999999 999999 999999 999999 999999 999999 999999 0 999999 999999 999999 999999 999999 999999 999999 999999 999999 999999 999999 999999 999999 999999 999999 999999 999999 999999 999999 999999 999999 999999 999999 999999 999999 10837
999999 13543 18577 15351 11832 10845 14042 16200 19178 17904 10100 10447 10184 19039 17980 12573 14114 19361 10413 17527 11169 15623 13640 14278 11682 11240 15354 19639 12501 10759 14194 19373 16783 17325 11177 18076 14628 10612 12942 13365 17668 19254 17123 18940 15930 17656 13155 14891 17128 11167 12580 14769 12839 13637 10654 13828 12623 15141 11388 17783 18886 19953 16632 19438 14790 15794 19295 15655 10717 14488 17664 10299 10003 11243 18338 15055 12777 15245 12543 16135 18741 999999 999999 999999 999999 999999 999999 999999 999999 999999 999999 999999 999999 999999 999999 999999 999999 999999 999999 999999 999999 999999 999999 999999 999999 999999 999999 999999 999999 999999 999999 999999 999999 999999 999999 999999 999999 999999 999999 999999 999999 999999 999999 999999 999999 999999 999999 999999 999999 999999 999999 999999 999999 999999 999999 999999 0 999999 999999 999999 999999 999999 999999 999999 999999 999999 999999 999999 999999 999999 999999 999999 999999 999999 999999 999999 999999 999999 999999 999999 999999 14519
999999 12698 10796 15011 16119 14858 16583 18240 15071 16122 19989 15777 15199 18698 17301 16734 15292 18192 15974 14838 17198 15295 16221 15794 17818 19369 14185 10324 13269 17932 16717 18098 19806 17114 19412 11896 19689 17774 13952 16265 15919 15707 18113 13888 16000 10570 16404 13568 11854 11487 18440 17290 14059 14294 15323 18908 16421 10206 13509 18162 13760 10313 11630 15899 13369 16970 12438 19371 16446 18310 15742 13736 18147 19789 13090 11547 11483 12203 14716 10754 18701 999999 999999 999999 999999 999999 999999 999999 999999 999999 999999 999999 999999 999999 999999 999999 999999 999999 999999 999999 999999 999999 999999 999999 999999 999999 999999 999999 999999 999999 999999 999999 999999 999999 999999 999999 999999 999999 999999 999999 999999 999999 999999 999999 999999 999999 999999 999999 999999 999999 999999 999999 999999 999999 999999 999999 999999 0 999999 999999 999999 999999 999999 999999 999999 999999 999999 999999 999999 999999 999999 999999 999999 999999 999999 999999 999999 999999 999999 999999 999999 14204
999999 10661 18203 13750 13628 13792 11167 16003 10846 11195 14553 16894 19633 17610 18880 17800 11507 11725 14265 11800 19612 11378 13792 16125 15082 10412 15809 13398 10621 14452 15859 13489 13306 15270 19215 12541 10981 18661 15852 16980 13751 18492 14776 14578 15080 13612 19965 15995 12763 19887 16403 18530 14434 17099 16424 19961 18410 10514 19304 16511 13800 10206 13837 19149 16760 15439 11676 18782 13018 16151 14687 10470 11452 17848 10913 17958 17291 12370 13120 12105 14247 999999 999999 999999 999999 999999 999999 999999 999999 999999 999999 999999 999999 999999 999999 999999 999999 999999 999999 999999 999999 999999 999999 999999 999999 999999 999999 999999 999999 999999 999999 999999 999999 999999 999999 999999 999999 999999 999999 999999 999999 999999 999999 999999 999999 999999 999999 999999 999999 999999 999999 999999 999999 999999 999999 999999 999999 999999 0 999999 999999 999999 999999 999999 999999 999999 999999 999999 999999 999999 999999 999999 999999 999999 999999 999999 999999 999999 999999 999999 999999 5142
999999 14712 12909 14716 11923 19893 17082 16306 11611 12393 10238 18570 15523 15999 10215 13997 13568 19798 18514 17548 18667 15924 18732 12147 17862 11287 16017 19018 11258 11153 14947 16754 11468 19411 16947 11868 16665 17492 10597 18741 19905 10212 16439 11336 14139 19178 12077 11259 10133 14092 14334 15283 13998 10362 13694 19979 19084 17277 16132 11883 12676 14220 14865 16317 17959 10189 19257 14577 15550 15828 12082 13372 10609 19536 17551 19231 11342 12804 17224 14202 15913 999999 999999 999999 999999 999999 999999 999999 999999 999999 999999 999999 999999 999999 999999 999999 999999 999999 999999 999999 999999 999999 999999 999999 999999 999999 999999 999999 999999 999999 999999 999999 999999 999999 999999 999999 999999 999999 999999 999999 999999 999999 999999 999999 999999 999999 999999 999999 999999 999999 999999 999999 999999 999999 999999 999999 999999 999999 999999 0 999999 999999 999999 999999 999999 999999 999999 999999 999999 999999 999999 999999 999999 999999 999999 999999 999999 999999 999999 999999 999999 13443
999999 13619 19414 16201 19894 16914 12179 16187 18911 10175 11782 18995 10635 16965 14194 11188 11228 13443 15570 15981 13776 17776 17508 12404 14022 11968 15953 19650 13696 12699 14885 17118 12175 18373 12285 10757 17551 18775 13831 14702 15829 14576 12541 14140 19937 18697 11597 10322 18582 13140 15375 10661 12342 18999 11483 19730 12552 11860 19656 19367 16292 11971 15980 15988 16061 11735 13281 18289 11744 11741 19136 19982 12094 16897 16406 11230 11656 16193 19223 16736 14585 999999 999999 999999 999999 999999 999999 999999 999999 999999 999999 999999 999999 999999 999999 999999 999999 999999 999999 999999 999999 999999 999999 999999 999999 999999 999999 999999 999999 999999 999999 999999 999999 999999 999999 999999 999999 999999 999999 999999 999999 999999 999999 999999 999999 999999 999999 999999 999999 999999 999999 999999 999999 999999 999999 999999 999999 999999 999999 999999 0 999999 999999 999999 999999 999999 999999 999999 999999 999999 999999 999999 999999 999999 999999 999999 999999 999999 999999 999999 999999 10153
999999 13146 11278 12271 19884 18986 17001 11266 15700 17929 18837 13723 12358 10588 10501 18223 16055 15795 13117 10311 15623 12065 10984 15593 13324 15666 19864 18337 18522 17070 14613 11755 10912 15360 16884 11663 14373 10195 17266 18126 13700 12436 14885 15614 15254 17661 13342 11913 10481 13820 12191 16220 19165 15916 12121 11177 17404 10056 12679 16352 17123 16088 12024 17350 10981 11246 18298 13283 12025 15282 16435 11458 19096 10585 13613 14062 14734 18923 19338 13849 14740 999999 999999 999999 999999 999999 999999 999999 999999 999999 999999 999999 999999 999999 999999 999999 999999 999999 999999 999999 999999 999999 999999 999999 999999 999999 999999 999999 999999 999999 999999 999999 999999 999999 999999 999999 999999 999999 999999 999999 999999 999999 999999 999999 999999 999999 999999 999999 999999 999999 999999 999999 999999 999999 999999 999999 999999 999999 999999 999999 999999 0 999999 999999 999999 999999 999999 999999 999999 999999 999999 999999 999999 999999 999999 999999 999999 999999 999999 999999 999999 14211
999999 14773 13603 15673 12578 12866 10363 17088 13944 16691 19719 10789 14132 15089 15185 13421 16549 11384 13728 15287 17031 12295 18672 19601 19944 17829 15245 18786 19625 18160 15695 18721 19686 19157 19241 16353 16384 15828 19035 12284 19465 15062 16437 16709 12296 10719 10861 18153 18465 10356 16698 11566 17545 11173 18717 10732 15569 14228 14315 13301 16891 14017 10994 17065 19404 13389 12053 16385 19563 14704 13966 16536 14125 16835 11235 18378 19327 14823 11028 17833 13031 999999 999999 999999 999999 999999 999999 999999 999999 999999 999999 999999 999999 999999 999999 999999 999999 999999 999999 999999 999999 999999 999999 999999 999999 999999 999999 999999 999999 999999 999999 999999 999999 999999 999999 999999 999999 999999 999999 999999 999999 999999 999999 999999 999999 999999 999999 999999 999999 999999 999999 999999 999999 999999 999999 999999 999999 999999 999999 999999 999999 999999 0 999999 999999 999999 999999 999999 999999 999999 999999 999999 999999 999999 999999 999999 999999 999999 999999 999999 999999 10250
999999 19787 18649 18142 10062 12726 11353 14371 19720 17028 11876 12050 17345 14028 14588 13618 10601 15528 12216 12609 11641 19185 11373 14875 15756 17154 10115 13468 14481 13619 12776 19786 15569 10595 18349 14444 12749 17942 19927 17612 13196 12061 14726 12448 17660 18613 11053 14600 13840 19068 12995 16517 19059 10368 12156 16183 14129 10671 18091 14335 10933 19049 18906 12861 10218 16449 16121 18589 15358 10632 19466 10467 11038 17175 15534 14433 10976 14056 12200 12629 14853 999999 999999 999999 999999 999999 999999 999999 999999 999999 999999 999999 999999 999999 999999 999999 999999 999999 999999 999999 999999 999999 999999 999999 999999 999999 999999 999999 999999 999999 999999 999999 999999 999999 999999 999999 999999 999999 999999 999999 999999 999999 999999 999999 999999 999999 999999 999999 999999 999999 999999 999999 999999 999999 999999 999999 999999 999999 999999 999999 999999 999999 999999 0 999999 999999 999999 999999 999999 999999 999999 999999 999999 999999 999999 999999 999999 999999 999999 999999 999999 14467
999999 10065 10689 12875 10440 17736 18806 10227 13870 13457 11179 10980 19334 19568 11584 12582 11067 11520 17258 16844 11829 19882 15320 16143 15550 19785 18757 16347 17142 16714 17711 13867 14136 19816 17909 18474 10124 16293 12425 15418 16427 13972 14722 11022 16720 18696 13024 19289 18922 15446 18918 13414 17821 19458 16395 10181 13741 17627 13571 16891 16796 15848 16981 16722 17095 15412 16132 12243 18995 17141 18288 11124 10673 10569 11703 15884 12372 13348 16427 10796 19445 999999 999999 999999 999999 999999 999999 999999 999999 999999 999999 999999 999999 999999 999999 999999 999999 999999 999999 999999 999999 999999 999999 999999 999999 999999 999999 999999 999999 999999 999999 999999 999999 999999 999999 999999 999999 999999 999999 999999 999999 999999 999999 999999 999999 999999 999999 999999 999999 999999 999999 999999 999999 999999 999999 999999 999999 999999 999999 999999 999999 999999 999999 999999 0 999999 999999 999999 999999 999999 999999 999999 999999 999999 999999 999999 999999 999999 999999 999999 999999 8539
999999 17107 13459 12733 14207 18202 19546 10060 15843 18483 15648 10166 12195 13751 19183 18683 15177 15037 11523 19163 14243 14429 10206 13232 16768 11408 10265 15338 19822 18410 13959 12461 13848 12299 14329 13778 12246 11000 17853 16065 19509 11784 18178 15671 17498 11430 17917 16844 12815 17664 12558 12692 13212 19957 15151 18595 13389 10819 13793 14949 13960 18537 13498 10130 13719 15465 13329 15388 12503 16454 11321 18126 16733 17030 16750 14525 11260 16204 11516 16709 12273 999999 999999 999999 999999 999999 999999 999999 999999 999999 999999 999999 999999 999999 999999 999999 999999 999999 999999 999999 999999 999999 999999 999999 999999 999999 999999 999999 999999 999999 999999 999999 999999 999999 999999 999999 999999 999999 999999 999999 999999 999999 999999 999999 999999 999999 999999 999999 999999 999999 999999 999999 999999 999999 999999 999999 999999 999999 999999 999999 999999 999999 999999 999999 999999 0 999999 999999 999999 999999 999999 999999 999999 999999 999999 999999 999999 999999 999999 999999 999999 7586
999999 11252 17351 12637 17915 18726 12177 17878 14315 12796 10530 19118 19322 18637 10574 18669 15289 17045 10684 19655 17665 15752 16502 16965 12473 11788 19322 19104 13381 16520 19056 11863 18367 17997 18455 18459 18871 16367 19130 11881 14278 13757 10986 18582 11372 11806 11215 14879 19715 15581 12687 19248 12647 14791 13513 19544 13219 16626 17715 17512 19000 18277 16571 13611 17069 15308 15964 13386 18482 11959 10025 15781 19921 10805 11159 19036 11305 16857 13405 13041 12224 999999 999999 999999 999999 999999 999999 999999 999999 999999 999999 999999 999999 999999 999999 999999 999999 999999 999999 999999 999999 999999 999999 999999 999999 999999 999999 999999 999999 999999 999999 999999 999999 999999 999999 999999 999999 999999 999999 999999 999999 999999 999999 999999 999999 999999 999999 999999 999999 999999 999999 999999 999999 999999 999999 999999 999999 999999 999999 999999 999999 999999 999999 999999 999999 999999 0 999999 999999 999999 999999 999999 999999 999999 999999 999999 999999 999999 999999 999999 999999 14523
999999 16840 13470 17914 14421 19126 15459 19635 10691 16979 13914 19038 11521 18606 12946 18631 18500 13049 14534 10928 13833 19819 12893 19931 18535 11506 12524 17134 13991 19444 17540 11323 15026 14905 19951 11626 13997 19900 19396 18853 15826 16242 14252 13884 14932 16631 13130 14609 15016 13495 11014 12297 12168 18018 14739 18861 14505 17604 11591 11318 15606 10796 14626 17675 19760 19499 16378 10447 17131 13921 19741 18779 17340 13640 18256 10296 19383 16558 15198 13243 18906 999999 999999 999999 999999 999999 999999 999999 999999 999999 999999 999999 999999 999999 999999 999999 999999 999999 999999 999999 999999 999999 999999 999999 999999 999999 999999 999999 999999 999999 999999 999999 999999 999999 999999 999999 999999 999999 999999 999999 999999 999999 999999 999999 999999 999999 999999 999999 999999 999999 999999 999999 999999 999999 999999 999999 999999 999999 999999 999999 999999 999999 999999 999999 999999 999999 999999 0 999999 999999 999999 999999 999999 999999 999999 999999 999999 999999 999999 999999 999999 10543
999999 13559 11875 11718 18950 15678 12749 15688 19381 15588 16240 11544 13726 11246 14915 19999 16446 13711 15398 17122 15869 12854 15209 11972 12396 19245 10023 19556 11452 16821 19157 15575 12707 13010 16777 16043 11019 12218 10187 13857 13771 16580 16120 14076 15291 11719 13192 11273 19642 16652 12665 14002 14525 10868 17935 14364 17582 16924 13297 11592 16630 19721 11008 15087 14808 10011 18474 15499 17487 13357 14776 13028 12801 13577 18977 18441 16603 11720 15648 14268 17695 999999 999999 999999 999999 999999 999999 999999 999999 999999 999999 999999 999999 999999 999999 999999 999999 999999 999999 999999 999999 999999 999999 999999 999999 999999 999999 999999 999999 999999 999999 999999 999999 999999 999999 999999 999999 999999 999999 999999 999999 999999 999999 999999 999999 999999 999999 999999 999999 999999 999999 999999 999999 999999 999999 999999 999999 999999 999999 999999 999999 999999 999999 999999 999999 999999 999999 999999 0 999999 999999 999999 999999 999999 999999 999999 999999 999999 999999 999999 999999 9414
999999 10947 12040 10711 12151 10882 15093 11208 12499 13938 13926 11577 15956 14392 16033 11698 18798 18328 12270 10461 17883 17928 15745 19948 18867 15632 10675 14499 11019 11574 16263 11889 15531 16994 11529 17208 17991 13911 14948 11085 13537 19647 11992 17583 11924 12177 12379 19836 10457 10605 17993 16926 11661 16105 15637 18912 17604 19557 15360 14668 12845 16126 14569 18556 13396 17188 17869 16496 19968 12935 13540 11124 19747 16466 11004 14952 14942 15148 13005 19651 11121 999999 999999 999999 999999 999999 999999 999999 999999 999999 999999 999999 999999 999999 999999 999999 999999 999999 999999 999999 999999 999999 999999 999999 999999 999999 999999 999999 999999 999999 999999 999999 999999 999999 999999 999999 999999 999999 999999 999999 999999 999999 999999 999999 999999 999999 999999 999999 999999 999999 999999 999999 999999 999999 999999 999999 999999 999999 999999 999999 999999 999999 999999 999999 999999 999999 999999 999999 999999 0 999999 999999 999999 999999 999999 999999 999999 999999 999999 999999 999999 8344
999999 15117 19609 15647 17011 15506 17794 16569 17724 18168 10275 18545 18938 12779 18891 14117 18062 19501 19910 18993 17680 19464 13725 11368 15951 19354 18851 18795 10398 13836 19915 14519 10762 17574 11281 15319 18485 18166 13463 18887 15219 11760 19217 16902 13367 11830 12854 14389 18736 14689 10570 10370 11648 11088 18132 16896 12155 15618 10437 18958 18056 18957 16459 10176 19250 15666 14610 18892 11231 12957 17948 15759 10962 17279 15331 12995 15306 16609 18695 17323 16227 999999 999999 999999 999999 999999 999999 999999 999999 999999 999999 999999 999999 999999 999999 999999 999999 999999 999999 999999 999999 999999 999999 999999 999999 999999 999999 999999 999999 999999 999999 999999 999999 999999 999999 999999 999999 999999 999999 999999 999999 999999 999999 999999 999999 999999 999999 999999 999999 999999 999999 999999 999999 999999 999999 999999 999999 999999 999999 999999 999999 999999 999999 999999 999999 999999 999999 999999 999999 999999 0 999999 999999 999999 999999 999999 999999 999999 999999 999999 999999 11517
999999 18628 16096 15332 19589 13189 11807 14492 12871 10658 12266 12490 16382 14804 16297 11913 14763 14540 11609 17543 16637 11932 11806 10758 14807 17429 10701 17534 15607 18432 14227 15024 14589 13391 14717 13994 17385 17597 18976 16263 19352 13545 11761 10115 15529 14837 12693 12730 19610 11761 12027 10624 11807 12739 15108 18331 16345 18115 17479 10403 13258 13917 19047 19259 16964 11714 15216 12765 13278 11322 12661 18484 17478 10380 15068 14028 13743 18569 16782 10579 14912 999999 999999 999999 999999 999999 999999 999999 999999 999999 999999 999999 999999 999999 999999 999999 999999 999999 999999 999999 999999 999999 999999 999999 999999 999999 999999 999999 999999 999999 999999 999999 999999 999999 999999 999999 999999 999999 999999 999999 999999 999999 999999 999999 999999 999999 999999 999999 999999 999999 999999 999999 999999 999999 999999 999999 999999 999999 999999 999999 999999 999999 999999 999999 999999 999999 999999 999999 999999 999999 999999 0 999999 999999 999999 999999 999999 999999 999999 999999 999999 8954
999999 13866 12814 15205 12206 18736 16183 13536 14619 16561 13295 14053 10836 14931 15409 16072 13092 17816 17954 14502 13632 10560 17424 17539 15041 12443 11373 13487 15566 18924 14662 13913 18824 19921 10913 12631 10914 17682 14154 13064 11620 13847 12433 12728 15347 16793 11198 16289 18435 19708 12594 19300 11742 10758 17672 10296 10338 19198 12242 16578 14390 17529 17470 15015 14201 10626 17391 18586 13123 12842 10214 17832 17725 16213 12501 18888 15215 17161 17899 16958 15517 999999 999999 999999 999999 999999 999999 999999 999999 999999 999999 999999 999999 999999 999999 999999 999999 999999 999999 999999 999999 999999 999999 999999 999999 999999 999999 999999 999999 999999 999999 999999 999999 999999 999999 999999 999999 999999 999999 999999 999999 999999 999999 999999 999999 999999 999999 999999 999999 999999 999999 999999 999999 999999 999999 999999 999999 999999 999999 999999 999999 999999 999999 999999 999999 999999 999999 999999 999999 999999 999999 999999 0 999999 999999 999999 999999 999999 999999 999999 999999 7958
999999 10277 10347 12198 10226 14186 10609 14369 10330 10988 12620 11248 17300 17192 19186 19641 16539 17373 19753 13093 12235 15993 13769 11478 14708 10809 13695 15832 17074 19582 17102 13045 12777 14094 10530 15197 10788 16252 18740 16936 12828 15149 10807 17002 13821 16614 16498 18628 17758 12763 19148 18956 14312 19228 15822 11564 18832 19875 17482 10032 10271 11946 16073 19958 14738 13537 14017 16761 12305 18538 19831 15051 18121 13514 11625 14281 18277 17394 14907 19861 19473 999999 999999 999999 999999 999999 999999 999999 999999 999999 999999 999999 999999 999999 999999 999999 999999 999999 999999 999999 999999 999999 999999 999999 999999 999999 999999 999999 999999 999999 999999 999999 999999 999999 999999 999999 999999 999999 999999 999999 999999 999999 999999 999999 999999 999999 999999 999999 999999 999999 999999 999999 999999 999999 999999 999999 999999 999999 999999 999999 999999 999999 999999 999999 999999 999999 999999 999999 999999 999999 999999 999999 999999 0 999999 999999 999999 999999 999999 999999 999999 14816
999999 14121 13120 11930 16026 11862 13240 18010 14217 15434 11170 12269 18945 16910 16257 14247 10202 13374 14009 19026 14055 17100 19361 18467 11474 12027 13416 14653 15285 14489 14186 12578 19597 11244 15852 19551 13076 11278 15766 18307 18144 11855 15852 12891 12485 19227 15928 19653 13941 15163 18120 19595 19625 13142 12225 10079 19618 11633 14465 11688 18796 12535 14010 18367 16922 15147 15531 18981 18853 16357 10083 16807 19783 10832 10685 15294 19504 15775 13982 17867 13526 999999 999999 999999 999999 999999 999999 999999 999999 999999 999999 999999 999999 999999 999999 999999 999999 999999 999999 999999 999999 999999 999999 999999 999999 999999 999999 999999 999999 999999 999999 999999 999999 999999 999999 999999 999999 999999 999999 999999 999999 999999 999999 999999 999999 999999 999999 999999 999999 999999 999999 999999 999999 999999 999999 999999 999999 999999 999999 999999 999999 999999 999999 999999 999999 999999 999999 999999 999999 999999 999999 999999 999999 999999 0 999999 999999 999999 999999 999999 999999 8061
999999 17052 16371 13345 14810 13447 14172 10332 15518 17472 17217 17823 10095 16965 14475 12749 10862 15679 15297 13805 18621 18309 19821 16423 13659 10399 18741 19152 14144 18742 15845 13803 17649 17882 12586 14729 14954 16567 14137 15512 18575 15533 13309 10670 14233 19276 13855 15784 12768 11870 15742 10079 19916 12098 17141 13546 19130 16039 10086 16627 10780 18975 10885 13727 13719 13607 14192 18796 15211 17707 19639 15620 12129 16820 17356 17927 11849 10134 10455 11058 16590 999999 999999 999999 999999 999999 999999 999999 999999 999999 999999 999999 999999 999999 999999 999999 999999 999999 999999 999999 999999 999999 999999 999999 999999 999999 999999 999999 999999 999999 999999 999999 999999 999999 999999 999999 999999 999999 999999 999999 999999 999999 999999 999999 999999 999999 999999 999999 999999 999999 999999 999999 999999 999999 999999 999999 999999 999999 999999 999999 999999 999999 999999 999999 999999 999999 999999 999999 999999 999999 999999 999999 999999 999999 999999 0 999999 999999 999999 999999 999999 6605
999999 15917 13932 11002 18102 17534 19994 10122 17666 12667 12019 18840 16533 18643 19908 11487 10083 17431 10601 15929 14289 14486 19612 10926 18823 19294 10862 14284 15076 14327 16800 10237 14970 10349 12753 17138 17306 11646 16821 16373 18332 11844 19952 12883 19525 12768 18219 14517 16045 19329 15876 16082 17190 19799 16848 15840 12515 19798 11603 17915 19036 13934 15602 10611 11951 18629 19230 18853 13496 12677 16074 18633 15203 10069 15936 16284 19037 11616 14091 11330 10663 999999 999999 999999 999999 999999 999999 999999 999999 999999 999999 999999 999999 999999 999999 999999 999999 999999 999999 999999 999999 999999 999999 999999 999999 999999 999999 999999 999999 999999 999999 999999 999999 999999 999999 999999 999999 999999 999999 999999 999999 999999 999999 999999 999999 999999 999999 999999 999999 999999 999999 999999 999999 999999 999999 999999 999999 999999 999999 999999 999999 999999 999999 999999 999999 999999 999999 999999 999999 999999 999999 999999 999999 999999 999999 999999 0 999999 999999 999999 999999 9720
999999 13592 16536 13590 13072 15541 19691 14936 12238 16835 17641 14405 12004 16244 10849 12554 16081 16464 13248 16471 10388 19268 12141 10132 10065 18982 17003 11831 15315 17356 12991 16181 18112 17800 10887 10383 17304 10803 10558 17642 15900 13415 12508 16869 14353 15639 17141 17944 11801 16748 14004 17784 10280 13909 13137 19036 13430 10517 12823 17496 12420 15434 12347 17083 10202 17968 17951 18350 10664 14697 13860 10537 13649 17151 15528 15802 15070 13255 12507 11737 13240 999999 999999 999999 999999 999999 999999 999999 999999 999999 999999 999999 999999 999999 999999 999999 999999 999999 999999 999999 999999 999999 999999 999999 999999 999999 999999 999999 999999 999999 999999 999999 999999 999999 999999 999999 999999 999999 999999 999999 999999 999999 999999 999999 999999 999999 999999 999999 999999 999999 999999 999999 999999 999999 999999 999999 999999 999999 999999 999999 999999 999999 999999 999999 999999 999999 999999 999999 999999 999999 999999 999999 999999 999999 999999 999999 999999 0 999999 999999 999999 13620
999999 12347 11045 10978 16581 14778 11578 15668 18606 15599 19304 15534 17505 12887 15982 17242 11856 12735 17285 14758 10381 13978 12508 14135 16042 11499 14291 19605 18828 16649 16843 19626 16542 13469 19739 18150 19130 11323 15913 10513 10593 19695 16478 11196 13328 18082 14070 16633 13199 10909 13648 10318 19639 14762 11950 15734 13793 19039 12648 12475 15291 12115 14885 16976 13301 18057 17170 15135 15643 16582 16876 11259 14227 11156 11757 16717 18368 15556 13542 16321 17206 999999 999999 999999 999999 999999 999999 999999 999999 999999 999999 999999 999999 999999 999999 999999 999999 999999 999999 999999 999999 999999 999999 999999 999999 999999 999999 999999 999999 999999 999999 999999 999999 999999 999999 999999 999999 999999 999999 999999 999999 999999 999999 999999 999999 999999 999999 999999 999999 999999 999999 999999 999999 999999 999999 999999 999999 999999 999999 999999 999999 999999 999999 999999 999999 999999 999999 999999 999999 999999 999999 999999 999999 999999 999999 999999 999999 999999 0 999999 999999 5888
999999 11044 15074 14053 14792 13626 12900 12514 14878 14575 13233 17648 14175 18929 12382 19334 10807 11448 19302 14899 11736 19535 13255 12341 15416 10217 15961 10004 19288 11453 14932 16264 10558 10419 12792 13897 16906 15286 10162 18803 15135 19707 10149 10336 11738 17545 15522 16846 17549 18709 19870 16236 15064 18842 14689 11615 16487 17280 13895 19827 15704 19751 19188 15829 15902 16305 19518 10960 14005 14574 16055 18654 14930 10158 18053 14783 11365 17701 17861 16973 12150 999999 999999 999999 999999 999999 999999 999999 999999 999999 999999 999999 999999 999999 999999 999999 999999 999999 999999 999999 999999 999999 999999 999999 999999 999999 999999 999999 999999 999999 999999 999999 999999 999999 999999 999999 999999 999999 999999 999999 999999 999999 999999 999999 999999 999999 999999 999999 999999 999999 999999 999999 999999 999999 999999 999999 999999 999999 999999 999999 999999 999999 999999 999999 999999 999999 999999 999999 999999 999999 999999 999999 999999 999999 999999 999999 999999 999999 999999 0 999999 5248
999999 10765 14745 15326 17325 13049 14454 11480 19499 11623 17825 17148 15769 13618 17245 12830 12801 19189 11458 18053 11033 13106 18397 19456 19069 11994 14794 13054 11774 15106 17550 15646 11691 17757 14281 14714 18201 15612 12511 14642 16541 11924 18796 10106 19438 15300 10341 17725 18783 14882 16587 15859 15903 17540 18469 16879 15355 14366 17594 17427 18671 15106 15281 15199 16805 15631 19581 12851 12824 13599 18703 13496 18708 15048 18666 19332 16109 11996 10325 19635 12665 999999 999999 999999 999999 999999 999999 999999 999999 999999 999999 999999 999999 999999 999999 999999 999999 999999 999999 999999 999999 999999 999999 999999 999999 999999 999999 999999 999999 999999 999999 999999 999999 999999 999999 999999 999999 999999 999999 999999 999999 999999 999999 999999 999999 999999 999999 999999 999999 999999 999999 999999 999999 999999 999999 999999 999999 999999 999999 999999 999999 999999 999999 999999 999999 999999 999999 999999 999999 999999 999999 999999 999999 999999 999999 999999 999999 999999 999999 999999 0 13128
1 999999 999999 999999 999999 999999 999999 999999 999999 999999 999999 999999 999999 999999 999999 999999 999999 999999 999999 999999 999999 999999 999999 999999 999999 999999 999999 999999 999999 999999 999999 999999 999999 999999 999999 999999 999999 999999 999999 999999 999999 999999 999999 999999 999999 999999 999999 999999 999999 999999 999999 999999 999999 999999 999999 999999 999999 999999 999999 999999 999999 999999 999999 999999 999999 999999 999999 999999 999999 999999 999999 999999 999999 999999 999999 999999 999999 999999 999999 999999 999999 999999 999999 999999 999999 999999 999999 999999 999999 999999 999999 999999 999999 999999 999999 999999 999999 999999 999999 999999 999999 999999 999999 999999 999999 999999 999999 999999 999999 999999 999999 999999 999999 999999 999999 999999 999999 999999 999999 999999 999999 999999 999999 999999 999999 999999 999999 999999 999999 999999 999999 999999 999999 999999 999999 999999 999999 999999 999999 999999 999999 999999 999999 999999 999999 999999 999999 999999 999999 999999 999999 999999 999999 999999 999999 999999 999999 999999 999999 999999 999999 0
EOF