NAME: GR_1x5x6_KH_5x6_Run_7
TYPE: TSP
COMMENT: BTSP instance |A|=30 GR nodes |B|=30 KH nodes depot=0.0 end=0.0.0
DIMENSION: 62
EDGE_WEIGHT_TYPE: EXPLICIT
EDGE_WEIGHT_FORMAT: FULL_MATRIX
NODE_COORD_TYPE: NO_COORDS
EDGE_WEIGHT_SECTION
0 9292 8230 5927 5542 10192 13528 8509 8661 7119 8114 6024 14216 8363 12807 8992 10666 5718 10263 11230 6615 11884 7563 11363 5016 12466 14000 10819 7377 13298 9308 999999 999999 999999 999999 999999 999999 999999 999999 999999 999999 999999 999999 999999 999999 999999 999999 999999 999999 999999 999999 999999 999999 999999 999999 999999 999999 999999 999999 999999 999999 999999
999999 0 999999 999999 999999 999999 999999 999999 999999 999999 999999 999999 999999 999999 999999 999999 999999 999999 999999 999999 999999 999999 999999 999999 999999 999999 999999 999999 999999 999999 999999 13051 19265 15515 16041 10303 10331 12627 11076 18521 16577 15276 11425 12244 12004 15846 17474 10418 14835 14249 16252 10798 12160 13471 14836 12743 14525 11152 11096 10630 19884 999999
999999 999999 0 999999 999999 999999 999999 999999 999999 999999 999999 999999 999999 999999 999999 999999 999999 999999 999999 999999 999999 999999 999999 999999 999999 999999 999999 999999 999999 999999 999999 10377 13580 15345 10752 17091 11224 11860 14677 16634 14610 19952 15106 10981 17364 11949 18083 12073 14582 18656 14298 14603 16553 13064 19512 14980 19423 19257 11461 13518 18159 999999
999999 999999 999999 0 999999 999999 999999 999999 999999 999999 999999 999999 999999 999999 999999 999999 999999 999999 999999 999999 999999 999999 999999 999999 999999 999999 999999 999999 999999 999999 999999 16566 19241 18748 10892 17616 10218 19369 15712 14412 13847 18668 13658 17635 15708 11200 10408 10381 12788 18370 12093 17440 10129 14383 15073 14703 18493 12874 10567 10989 19240 999999
999999 999999 999999 999999 0 999999 999999 999999 999999 999999 999999 999999 999999 999999 999999 999999 999999 999999 999999 999999 999999 999999 999999 999999 999999 999999 999999 999999 999999 999999 999999 17823 15383 10010 12983 15982 19239 16368 19438 17559 18052 11825 15774 14889 19471 17582 14618 15797 17038 15859 13729 10718 13366 12609 19319 17247 11552 11431 14615 17003 14177 999999
999999 999999 999999 999999 999999 0 999999 999999 999999 999999 999999 999999 999999 999999 999999 999999 999999 999999 999999 999999 999999 999999 999999 999999 999999 999999 999999 999999 999999 999999 999999 13484 14732 14904 15753 15839 11469 16033 17048 11362 13291 14854 17344 14487 18611 18323 11685 12883 16781 19597 19218 10814 15626 12559 15638 15673 18104 13907 12242 10628 15504 999999
999999 999999 999999 999999 999999 999999 0 999999 999999 999999 999999 999999 999999 999999 999999 999999 999999 999999 999999 999999 999999 999999 999999 999999 999999 999999 999999 999999 999999 999999 999999 15490 10911 15573 12714 10577 14646 11002 16744 10307 19902 11662 15891 14255 15124 11127 17854 12778 10216 10912 10327 17493 11041 12545 19018 11103 14324 18553 18156 17887 10986 999999
999999 999999 999999 999999 999999 999999 999999 0 999999 999999 999999 999999 999999 999999 999999 999999 999999 999999 999999 999999 999999 999999 999999 999999 999999 999999 999999 999999 999999 999999 999999 10475 14872 12031 19625 11069 17002 17650 14255 19023 11549 18407 19523 18250 10858 19121 14536 10322 10282 12221 19743 16427 16999 19685 12431 18139 13733 16274 18781 14553 18446 999999
999999 999999 999999 999999 999999 999999 999999 999999 0 999999 999999 999999 999999 999999 999999 999999 999999 999999 999999 999999 999999 999999 999999 999999 999999 999999 999999 999999 999999 999999 999999 19119 15015 12887 16984 11582 13615 13105 19995 17351 14672 10949 14451 13142 10317 11535 15142 11340 19957 15402 19791 11475 10294 19061 16176 18428 10613 11152 19487 14009 15211 999999
999999 999999 999999 999999 999999 999999 999999 999999 999999 0 999999 999999 999999 999999 999999 999999 999999 999999 999999 999999 999999 999999 999999 999999 999999 999999 999999 999999 999999 999999 999999 15786 14744 10968 12233 15886 12076 12283 12553 10131 14220 11303 16773 19100 12487 12518 19142 19542 19201 18657 11350 11497 14047 18051 15765 19913 14473 16752 13459 11592 12004 999999
999999 999999 999999 999999 999999 999999 999999 999999 999999 999999 0 999999 999999 999999 999999 999999 999999 999999 999999 999999 999999 999999 999999 999999 999999 999999 999999 999999 999999 999999 999999 11643 13878 12843 17111 10694 14860 16845 14679 12633 19914 16813 17779 19434 13878 14186 15150 13784 10140 13591 14574 15931 13414 19854 15868 15986 11333 15710 19210 14274 10691 999999
999999 999999 999999 999999 999999 999999 999999 999999 999999 999999 999999 0 999999 999999 999999 999999 999999 999999 999999 999999 999999 999999 999999 999999 999999 999999 999999 999999 999999 999999 999999 18893 13166 16090 17155 15197 10704 15903 17214 19794 14575 16909 15658 17388 15265 11457 18695 15971 17011 19472 19932 13851 17993 14045 13349 15795 11842 10400 11363 18829 11220 999999
999999 999999 999999 999999 999999 999999 999999 999999 999999 999999 999999 999999 0 999999 999999 999999 999999 999999 999999 999999 999999 999999 999999 999999 999999 999999 999999 999999 999999 999999 999999 17094 17128 16452 13758 14628 11512 10417 10727 11615 13263 18380 16061 14013 15335 18737 10473 14234 11960 17127 10302 16180 16160 17114 11172 17248 19839 15794 14516 13876 10803 999999
999999 999999 999999 999999 999999 999999 999999 999999 999999 999999 999999 999999 999999 0 999999 999999 999999 999999 999999 999999 999999 999999 999999 999999 999999 999999 999999 999999 999999 999999 999999 10911 14029 13588 11088 15487 14360 15804 13078 17497 19875 19529 16495 14200 11089 16022 16207 19364 12689 14397 16353 10509 12989 19252 19314 14103 14453 15230 18450 15268 11758 999999
999999 999999 999999 999999 999999 999999 999999 999999 999999 999999 999999 999999 999999 999999 0 999999 999999 999999 999999 999999 999999 999999 999999 999999 999999 999999 999999 999999 999999 999999 999999 14995 19102 12402 16314 16997 12098 12143 14245 19417 10143 16826 13415 16622 10071 13524 12802 11828 16358 19950 10135 15535 17893 17079 12963 12525 14372 19418 14127 15166 10581 999999
999999 999999 999999 999999 999999 999999 999999 999999 999999 999999 999999 999999 999999 999999 999999 0 999999 999999 999999 999999 999999 999999 999999 999999 999999 999999 999999 999999 999999 999999 999999 18778 16913 10562 14275 16539 15147 16806 13046 16461 17317 18420 13078 11067 18050 14072 16471 11093 17306 17022 13546 19626 12762 12896 11702 19696 16230 16263 19258 10699 16564 999999
999999 999999 999999 999999 999999 999999 999999 999999 999999 999999 999999 999999 999999 999999 999999 999999 0 999999 999999 999999 999999 999999 999999 999999 999999 999999 999999 999999 999999 999999 999999 12194 12110 15392 17629 14946 12303 19437 13179 18861 17213 14200 11187 16951 16529 18009 11469 12461 18303 16637 11764 19310 13008 13431 18887 12392 16395 12299 18891 10801 17865 999999
999999 999999 999999 999999 999999 999999 999999 999999 999999 999999 999999 999999 999999 999999 999999 999999 999999 0 999999 999999 999999 999999 999999 999999 999999 999999 999999 999999 999999 999999 999999 19386 10073 10161 12697 16878 11109 11623 14171 12516 12231 12574 11576 10846 19322 15484 14985 14089 10651 11907 12254 10176 11035 13887 12812 15631 15642 12365 19217 14438 12401 999999
999999 999999 999999 999999 999999 999999 999999 999999 999999 999999 999999 999999 999999 999999 999999 999999 999999 999999 0 999999 999999 999999 999999 999999 999999 999999 999999 999999 999999 999999 999999 14830 13084 11549 19208 11561 13928 12795 12599 12012 12511 13603 18047 10391 18032 15946 11382 18569 16717 16756 10464 10611 15640 14323 10657 16804 14478 12635 16037 11092 17262 999999
999999 999999 999999 999999 999999 999999 999999 999999 999999 999999 999999 999999 999999 999999 999999 999999 999999 999999 999999 0 999999 999999 999999 999999 999999 999999 999999 999999 999999 999999 999999 10468 17396 14341 10162 11347 12237 10564 18503 19710 16841 15941 14905 18431 11101 15508 15352 10348 12844 12225 19740 18041 18898 12485 12312 17006 13613 17335 18416 10706 14856 999999
999999 999999 999999 999999 999999 999999 999999 999999 999999 999999 999999 999999 999999 999999 999999 999999 999999 999999 999999 999999 0 999999 999999 999999 999999 999999 999999 999999 999999 999999 999999 18224 18394 16645 14065 17997 10609 18576 13915 14217 15120 11186 10717 13217 10675 12708 18257 14320 11871 19868 17731 18152 19905 12707 11456 16197 16353 10981 18133 12020 17502 999999
999999 999999 999999 999999 999999 999999 999999 999999 999999 999999 999999 999999 999999 999999 999999 999999 999999 999999 999999 999999 999999 0 999999 999999 999999 999999 999999 999999 999999 999999 999999 12367 19584 18138 12832 17672 12583 15755 12104 13362 15333 12949 19776 14020 10022 19966 13999 17593 15034 18407 17870 16782 12101 16276 11551 14868 17519 17424 17042 18736 17235 999999
999999 999999 999999 999999 999999 999999 999999 999999 999999 999999 999999 999999 999999 999999 999999 999999 999999 999999 999999 999999 999999 999999 0 999999 999999 999999 999999 999999 999999 999999 999999 11809 15641 17960 13316 19428 15293 17728 11225 13341 18020 19247 11069 14377 10164 11688 17703 11402 17036 12483 12266 11963 17211 10704 10292 13849 13817 13822 13361 11252 12724 999999
999999 999999 999999 999999 999999 999999 999999 999999 999999 999999 999999 999999 999999 999999 999999 999999 999999 999999 999999 999999 999999 999999 999999 0 999999 999999 999999 999999 999999 999999 999999 11653 16420 10100 16969 10059 15603 10896 16100 14027 15851 19707 13046 16611 12839 10444 14129 14765 10819 12967 15678 14281 19927 14675 11807 12219 17039 16784 15069 19707 14364 999999
999999 999999 999999 999999 999999 999999 999999 999999 999999 999999 999999 999999 999999 999999 999999 999999 999999 999999 999999 999999 999999 999999 999999 999999 0 999999 999999 999999 999999 999999 999999 17816 18386 17542 17366 10538 11605 18192 19189 18509 15499 19594 13650 15664 17032 10134 18980 11510 12489 16478 14911 16328 17033 18570 16449 15331 12396 17825 10594 18477 13335 999999
999999 999999 999999 999999 999999 999999 999999 999999 999999 999999 999999 999999 999999 999999 999999 999999 999999 999999 999999 999999 999999 999999 999999 999999 999999 0 999999 999999 999999 999999 999999 19041 11448 12022 13739 13996 14546 12787 19419 12833 11748 10955 14106 18918 14047 16874 14913 11310 16926 14905 11331 11566 11086 12295 12250 11739 18327 12081 16804 12590 15626 999999
999999 999999 999999 999999 999999 999999 999999 999999 999999 999999 999999 999999 999999 999999 999999 999999 999999 999999 999999 999999 999999 999999 999999 999999 999999 999999 0 999999 999999 999999 999999 14901 13970 18543 17746 17988 19797 17443 13655 19090 18403 15929 11689 16871 15865 19227 19282 13501 10842 19754 16830 15406 18038 14796 14776 13743 18995 13320 19011 15485 16367 999999
999999 999999 999999 999999 999999 999999 999999 999999 999999 999999 999999 999999 999999 999999 999999 999999 999999 999999 999999 999999 999999 999999 999999 999999 999999 999999 999999 0 999999 999999 999999 19195 18008 11410 19069 15806 13137 12366 11044 10009 17956 16387 18975 11473 14071 10905 19191 17180 19379 16622 19351 16610 12615 16305 16436 19555 10844 17730 19211 19450 10773 999999
999999 999999 999999 999999 999999 999999 999999 999999 999999 999999 999999 999999 999999 999999 999999 999999 999999 999999 999999 999999 999999 999999 999999 999999 999999 999999 999999 999999 0 999999 999999 11073 15966 19875 10028 14683 17584 17459 17271 15547 18613 14565 12805 18239 17862 11152 17104 17579 18167 10240 16923 19328 16260 19238 17949 10292 10703 14108 13762 16426 17218 999999
999999 999999 999999 999999 999999 999999 999999 999999 999999 999999 999999 999999 999999 999999 999999 999999 999999 999999 999999 999999 999999 999999 999999 999999 999999 999999 999999 999999 999999 0 999999 18380 18691 10549 19635 15408 10719 19416 13770 16267 11649 10522 16903 10077 16994 12208 10803 15137 14807 18671 15278 18854 18940 17627 18860 13007 11910 17561 14777 11256 17155 999999
999999 999999 999999 999999 999999 999999 999999 999999 999999 999999 999999 999999 999999 999999 999999 999999 999999 999999 999999 999999 999999 999999 999999 999999 999999 999999 999999 999999 999999 999999 0 10992 10937 18616 10036 17074 10493 13810 12272 19753 18094 16686 16717 14652 13959 19344 12151 15612 17047 13873 10578 11873 16045 16748 12806 16619 10417 12191 14654 16342 15782 999999
999999 13051 10377 16566 17823 13484 15490 10475 19119 15786 11643 18893 17094 10911 14995 18778 12194 19386 14830 10468 18224 12367 11809 11653 17816 19041 14901 19195 11073 18380 10992 0 999999 999999 999999 999999 999999 999999 999999 999999 999999 999999 999999 999999 999999 999999 999999 999999 999999 999999 999999 999999 999999 999999 999999 999999 999999 999999 999999 999999 999999 14454
999999 19265 13580 19241 15383 14732 10911 14872 15015 14744 13878 13166 17128 14029 19102 16913 12110 10073 13084 17396 18394 19584 15641 16420 18386 11448 13970 18008 15966 18691 10937 999999 0 999999 999999 999999 999999 999999 999999 999999 999999 999999 999999 999999 999999 999999 999999 999999 999999 999999 999999 999999 999999 999999 999999 999999 999999 999999 999999 999999 999999 9041
999999 15515 15345 18748 10010 14904 15573 12031 12887 10968 12843 16090 16452 13588 12402 10562 15392 10161 11549 14341 16645 18138 17960 10100 17542 12022 18543 11410 19875 10549 18616 999999 999999 0 999999 999999 999999 999999 999999 999999 999999 999999 999999 999999 999999 999999 999999 999999 999999 999999 999999 999999 999999 999999 999999 999999 999999 999999 999999 999999 999999 10703
999999 16041 10752 10892 12983 15753 12714 19625 16984 12233 17111 17155 13758 11088 16314 14275 17629 12697 19208 10162 14065 12832 13316 16969 17366 13739 17746 19069 10028 19635 10036 999999 999999 999999 0 999999 999999 999999 999999 999999 999999 999999 999999 999999 999999 999999 999999 999999 999999 999999 999999 999999 999999 999999 999999 999999 999999 999999 999999 999999 999999 9358
999999 10303 17091 17616 15982 15839 10577 11069 11582 15886 10694 15197 14628 15487 16997 16539 14946 16878 11561 11347 17997 17672 19428 10059 10538 13996 17988 15806 14683 15408 17074 999999 999999 999999 999999 0 999999 999999 999999 999999 999999 999999 999999 999999 999999 999999 999999 999999 999999 999999 999999 999999 999999 999999 999999 999999 999999 999999 999999 999999 999999 8391
999999 10331 11224 10218 19239 11469 14646 17002 13615 12076 14860 10704 11512 14360 12098 15147 12303 11109 13928 12237 10609 12583 15293 15603 11605 14546 19797 13137 17584 10719 10493 999999 999999 999999 999999 999999 0 999999 999999 999999 999999 999999 999999 999999 999999 999999 999999 999999 999999 999999 999999 999999 999999 999999 999999 999999 999999 999999 999999 999999 999999 14407
999999 12627 11860 19369 16368 16033 11002 17650 13105 12283 16845 15903 10417 15804 12143 16806 19437 11623 12795 10564 18576 15755 17728 10896 18192 12787 17443 12366 17459 19416 13810 999999 999999 999999 999999 999999 999999 0 999999 999999 999999 999999 999999 999999 999999 999999 999999 999999 999999 999999 999999 999999 999999 999999 999999 999999 999999 999999 999999 999999 999999 10093
999999 11076 14677 15712 19438 17048 16744 14255 19995 12553 14679 17214 10727 13078 14245 13046 13179 14171 12599 18503 13915 12104 11225 16100 19189 19419 13655 11044 17271 13770 12272 999999 999999 999999 999999 999999 999999 999999 0 999999 999999 999999 999999 999999 999999 999999 999999 999999 999999 999999 999999 999999 999999 999999 999999 999999 999999 999999 999999 999999 999999 6332
999999 18521 16634 14412 17559 11362 10307 19023 17351 10131 12633 19794 11615 17497 19417 16461 18861 12516 12012 19710 14217 13362 13341 14027 18509 12833 19090 10009 15547 16267 19753 999999 999999 999999 999999 999999 999999 999999 999999 0 999999 999999 999999 999999 999999 999999 999999 999999 999999 999999 999999 999999 999999 999999 999999 999999 999999 999999 999999 999999 999999 5727
999999 16577 14610 13847 18052 13291 19902 11549 14672 14220 19914 14575 13263 19875 10143 17317 17213 12231 12511 16841 15120 15333 18020 15851 15499 11748 18403 17956 18613 11649 18094 999999 999999 999999 999999 999999 999999 999999 999999 999999 0 999999 999999 999999 999999 999999 999999 999999 999999 999999 999999 999999 999999 999999 999999 999999 999999 999999 999999 999999 999999 11149
999999 15276 19952 18668 11825 14854 11662 18407 10949 11303 16813 16909 18380 19529 16826 18420 14200 12574 13603 15941 11186 12949 19247 19707 19594 10955 15929 16387 14565 10522 16686 999999 999999 999999 999999 999999 999999 999999 999999 999999 999999 0 999999 999999 999999 999999 999999 999999 999999 999999 999999 999999 999999 999999 999999 999999 999999 999999 999999 999999 999999 11004
999999 11425 15106 13658 15774 17344 15891 19523 14451 16773 17779 15658 16061 16495 13415 13078 11187 11576 18047 14905 10717 19776 11069 13046 13650 14106 11689 18975 12805 16903 16717 999999 999999 999999 999999 999999 999999 999999 999999 999999 999999 999999 0 999999 999999 999999 999999 999999 999999 999999 999999 999999 999999 999999 999999 999999 999999 999999 999999 999999 999999 12611
999999 12244 10981 17635 14889 14487 14255 18250 13142 19100 19434 17388 14013 14200 16622 11067 16951 10846 10391 18431 13217 14020 14377 16611 15664 18918 16871 11473 18239 10077 14652 999999 999999 999999 999999 999999 999999 999999 999999 999999 999999 999999 999999 0 999999 999999 999999 999999 999999 999999 999999 999999 999999 999999 999999 999999 999999 999999 999999 999999 999999 14526
999999 12004 17364 15708 19471 18611 15124 10858 10317 12487 13878 15265 15335 11089 10071 18050 16529 19322 18032 11101 10675 10022 10164 12839 17032 14047 15865 14071 17862 16994 13959 999999 999999 999999 999999 999999 999999 999999 999999 999999 999999 999999 999999 999999 0 999999 999999 999999 999999 999999 999999 999999 999999 999999 999999 999999 999999 999999 999999 999999 999999 14118
999999 15846 11949 11200 17582 18323 11127 19121 11535 12518 14186 11457 18737 16022 13524 14072 18009 15484 15946 15508 12708 19966 11688 10444 10134 16874 19227 10905 11152 12208 19344 999999 999999 999999 999999 999999 999999 999999 999999 999999 999999 999999 999999 999999 999999 0 999999 999999 999999 999999 999999 999999 999999 999999 999999 999999 999999 999999 999999 999999 999999 10250
999999 17474 18083 10408 14618 11685 17854 14536 15142 19142 15150 18695 10473 16207 12802 16471 11469 14985 11382 15352 18257 13999 17703 14129 18980 14913 19282 19191 17104 10803 12151 999999 999999 999999 999999 999999 999999 999999 999999 999999 999999 999999 999999 999999 999999 999999 0 999999 999999 999999 999999 999999 999999 999999 999999 999999 999999 999999 999999 999999 999999 14883
999999 10418 12073 10381 15797 12883 12778 10322 11340 19542 13784 15971 14234 19364 11828 11093 12461 14089 18569 10348 14320 17593 11402 14765 11510 11310 13501 17180 17579 15137 15612 999999 999999 999999 999999 999999 999999 999999 999999 999999 999999 999999 999999 999999 999999 999999 999999 0 999999 999999 999999 999999 999999 999999 999999 999999 999999 999999 999999 999999 999999 10264
999999 14835 14582 12788 17038 16781 10216 10282 19957 19201 10140 17011 11960 12689 16358 17306 18303 10651 16717 12844 11871 15034 17036 10819 12489 16926 10842 19379 18167 14807 17047 999999 999999 999999 999999 999999 999999 999999 999999 999999 999999 999999 999999 999999 999999 999999 999999 999999 0 999999 999999 999999 999999 999999 999999 999999 999999 999999 999999 999999 999999 13740
999999 14249 18656 18370 15859 19597 10912 12221 15402 18657 13591 19472 17127 14397 19950 17022 16637 11907 16756 12225 19868 18407 12483 12967 16478 14905 19754 16622 10240 18671 13873 999999 999999 999999 999999 999999 999999 999999 999999 999999 999999 999999 999999 999999 999999 999999 999999 999999 999999 0 999999 999999 999999 999999 999999 999999 999999 999999 999999 999999 999999 7942
999999 16252 14298 12093 13729 19218 10327 19743 19791 11350 14574 19932 10302 16353 10135 13546 11764 12254 10464 19740 17731 17870 12266 15678 14911 11331 16830 19351 16923 15278 10578 999999 999999 999999 999999 999999 999999 999999 999999 999999 999999 999999 999999 999999 999999 999999 999999 999999 999999 999999 0 999999 999999 999999 999999 999999 999999 999999 999999 999999 999999 11860
999999 10798 14603 17440 10718 10814 17493 16427 11475 11497 15931 13851 16180 10509 15535 19626 19310 10176 10611 18041 18152 16782 11963 14281 16328 11566 15406 16610 19328 18854 11873 999999 999999 999999 999999 999999 999999 999999 999999 999999 999999 999999 999999 999999 999999 999999 999999 999999 999999 999999 999999 0 999999 999999 999999 999999 999999 999999 999999 999999 999999 11514
999999 12160 16553 10129 13366 15626 11041 16999 10294 14047 13414 17993 16160 12989 17893 12762 13008 11035 15640 18898 19905 12101 17211 19927 17033 11086 18038 12615 16260 18940 16045 999999 999999 999999 999999 999999 999999 999999 999999 999999 999999 999999 999999 999999 999999 999999 999999 999999 999999 999999 999999 999999 0 999999 999999 999999 999999 999999 999999 999999 999999 10830
999999 13471 13064 14383 12609 12559 12545 19685 19061 18051 19854 14045 17114 19252 17079 12896 13431 13887 14323 12485 12707 16276 10704 14675 18570 12295 14796 16305 19238 17627 16748 999999 999999 999999 999999 999999 999999 999999 999999 999999 999999 999999 999999 999999 999999 999999 999999 999999 999999 999999 999999 999999 999999 0 999999 999999 999999 999999 999999 999999 999999 9198
999999 14836 19512 15073 19319 15638 19018 12431 16176 15765 15868 13349 11172 19314 12963 11702 18887 12812 10657 12312 11456 11551 10292 11807 16449 12250 14776 16436 17949 18860 12806 999999 999999 999999 999999 999999 999999 999999 999999 999999 999999 999999 999999 999999 999999 999999 999999 999999 999999 999999 999999 999999 999999 999999 0 999999 999999 999999 999999 999999 999999 9570
999999 12743 14980 14703 17247 15673 11103 18139 18428 19913 15986 15795 17248 14103 12525 19696 12392 15631 16804 17006 16197 14868 13849 12219 15331 11739 13743 19555 10292 13007 16619 999999 999999 999999 999999 999999 999999 999999 999999 999999 999999 999999 999999 999999 999999 999999 999999 999999 999999 999999 999999 999999 999999 999999 999999 0 999999 999999 999999 999999 999999 12811
999999 14525 19423 18493 11552 18104 14324 13733 10613 14473 11333 11842 19839 14453 14372 16230 16395 15642 14478 13613 16353 17519 13817 17039 12396 18327 18995 10844 10703 11910 10417 999999 999999 999999 999999 999999 999999 999999 999999 999999 999999 999999 999999 999999 999999 999999 999999 999999 999999 999999 999999 999999 999999 999999 999999 999999 0 999999 999999 999999 999999 11577
999999 11152 19257 12874 11431 13907 18553 16274 11152 16752 15710 10400 15794 15230 19418 16263 12299 12365 12635 17335 10981 17424 13822 16784 17825 12081 13320 17730 14108 17561 12191 999999 999999 999999 999999 999999 999999 999999 999999 999999 999999 999999 999999 999999 999999 999999 999999 999999 999999 999999 999999 999999 999999 999999 999999 999999 999999 0 999999 999999 999999 12231
999999 11096 11461 10567 14615 12242 18156 18781 19487 13459 19210 11363 14516 18450 14127 19258 18891 19217 16037 18416 18133 17042 13361 15069 10594 16804 19011 19211 13762 14777 14654 999999 999999 999999 999999 999999 999999 999999 999999 999999 999999 999999 999999 999999 999999 999999 999999 999999 999999 999999 999999 999999 999999 999999 999999 999999 999999 999999 0 999999 999999 12051
999999 10630 13518 10989 17003 10628 17887 14553 14009 11592 14274 18829 13876 15268 15166 10699 10801 14438 11092 10706 12020 18736 11252 19707 18477 12590 15485 19450 16426 11256 16342 999999 999999 999999 999999 999999 999999 999999 999999 999999 999999 999999 999999 999999 999999 999999 999999 999999 999999 999999 999999 999999 999999 999999 999999 999999 999999 999999 999999 0 999999 8093
999999 19884 18159 19240 14177 15504 10986 18446 15211 12004 10691 11220 10803 11758 10581 16564 17865 12401 17262 14856 17502 17235 12724 14364 13335 15626 16367 10773 17218 17155 15782 999999 999999 999999 999999 999999 999999 999999 999999 999999 999999 999999 999999 999999 999999 999999 999999 999999 999999 999999 999999 999999 999999 999999 999999 999999 999999 999999 999999 999999 0 11673
1 999999 999999 999999 999999 999999 999999 999999 999999 999999 999999 999999 999999 999999 999999 999999 999999 999999 999999 999999 999999 999999 999999 999999 999999 999999 999999 999999 999999 999999 999999 999999 999999 999999 999999 999999 999999 999999 999999 999999 999999 999999 999999 999999 999999 999999 999999 999999 999999 999999 999999 999999 999999 999999 999999 999999 999999 999999 999999 999999 999999 0
EOF