NAME: GR_1x5x10_KH_5x10_Run_4
TYPE: TSP
COMMENT: BTSP instance |A|=50 GR nodes |B|=50 KH nodes depot=0.0 end=0.0.0
DIMENSION: 102
EDGE_WEIGHT_TYPE: EXPLICIT
EDGE_WEIGHT_FORMAT: FULL_MATRIX
NODE_COORD_TYPE: NO_COORDS
EDGE_WEIGHT_SECTION
0 5077 9933 10492 14268 7885 13395 13111 7111 8774 5260 9469 8466 12293 12446 13365 5635 12164 9311 9147 12326 7891 6450 12272 10508 8966 11494 7205 14020 11637 12437 11266 5478 10761 10523 10952 7817 8001 10511 10337 6909 5206 13196 9672 10971 9764 14967 14405 10168 14919 8681 999999 999999 999999 999999 999999 999999 999999 999999 999999 999999 999999 999999 999999 999999 999999 999999 999999 999999 999999 999999 999999 999999 999999 999999 999999 999999 999999 999999 999999 999999 999999 999999 999999 999999 999999 999999 999999 999999 999999 999999 999999 999999 999999 999999 999999 999999 999999 999999 999999 999999 999999
999999 0 999999 999999 999999 999999 999999 999999 999999 999999 999999 999999 999999 999999 999999 999999 999999 999999 999999 999999 999999 999999 999999 999999 999999 999999 999999 999999 999999 999999 999999 999999 999999 999999 999999 999999 999999 999999 999999 999999 999999 999999 999999 999999 999999 999999 999999 999999 999999 999999 999999 16347 17013 17281 15376 16015 16846 14927 13629 18752 18703 11790 16696 10856 14601 10624 16769 13805 18875 14297 12293 15119 18481 18164 18319 15812 18478 13598 19929 15846 11746 11317 11112 19553 11992 12419 12148 18015 17473 11339 13716 13300 16302 17424 18720 10540 11352 11228 13781 17538 15211 999999
999999 999999 0 999999 999999 999999 999999 999999 999999 999999 999999 999999 999999 999999 999999 999999 999999 999999 999999 999999 999999 999999 999999 999999 999999 999999 999999 999999 999999 999999 999999 999999 999999 999999 999999 999999 999999 999999 999999 999999 999999 999999 999999 999999 999999 999999 999999 999999 999999 999999 999999 16369 10882 18729 19148 17910 15518 19955 11840 15378 11735 10024 17918 14205 12568 15231 11135 10263 16376 12681 12156 10754 12620 13850 19613 17730 15931 15295 17258 16586 16091 12754 15065 17457 15954 16612 14362 11378 18713 15546 18342 12558 10441 11015 13870 13428 15999 14674 18472 17130 19260 999999
999999 999999 999999 0 999999 999999 999999 999999 999999 999999 999999 999999 999999 999999 999999 999999 999999 999999 999999 999999 999999 999999 999999 999999 999999 999999 999999 999999 999999 999999 999999 999999 999999 999999 999999 999999 999999 999999 999999 999999 999999 999999 999999 999999 999999 999999 999999 999999 999999 999999 999999 12881 12243 11334 16340 13692 18311 17618 15693 17233 14431 10516 14201 12986 13803 13297 18280 18547 17527 13111 10402 17214 14070 13778 17987 16769 11106 16879 15709 12796 14377 14054 19215 11296 16222 18013 15455 12796 16600 19592 17515 19829 18865 19520 16282 16978 13468 11381 17204 17398 12294 999999
999999 999999 999999 999999 0 999999 999999 999999 999999 999999 999999 999999 999999 999999 999999 999999 999999 999999 999999 999999 999999 999999 999999 999999 999999 999999 999999 999999 999999 999999 999999 999999 999999 999999 999999 999999 999999 999999 999999 999999 999999 999999 999999 999999 999999 999999 999999 999999 999999 999999 999999 11780 14258 17530 19709 15333 17908 14308 17785 19765 10830 19201 18401 14855 12483 10049 14617 18300 16910 19024 10930 11936 13608 18357 16136 19780 12785 16559 18845 19095 12837 15431 19125 11018 14992 18938 18598 19287 17970 18265 17748 19290 19458 10560 18415 19201 14665 18463 15089 15560 12030 999999
999999 999999 999999 999999 999999 0 999999 999999 999999 999999 999999 999999 999999 999999 999999 999999 999999 999999 999999 999999 999999 999999 999999 999999 999999 999999 999999 999999 999999 999999 999999 999999 999999 999999 999999 999999 999999 999999 999999 999999 999999 999999 999999 999999 999999 999999 999999 999999 999999 999999 999999 14661 19515 13242 12620 15267 10311 18045 16589 14435 10898 15170 12892 15683 17142 16614 16719 13851 10562 16001 14477 15693 17284 17320 16987 18228 18424 15997 19556 11370 16674 17099 10681 12673 12052 16570 19820 16430 13834 18740 18679 15996 14236 14145 11003 12711 12279 18584 12526 17983 10829 999999
999999 999999 999999 999999 999999 999999 0 999999 999999 999999 999999 999999 999999 999999 999999 999999 999999 999999 999999 999999 999999 999999 999999 999999 999999 999999 999999 999999 999999 999999 999999 999999 999999 999999 999999 999999 999999 999999 999999 999999 999999 999999 999999 999999 999999 999999 999999 999999 999999 999999 999999 12315 16721 15343 15561 15426 11876 15073 17751 14789 10787 12068 15842 10757 19523 15154 13865 11562 12235 15660 14228 17191 12769 18505 19789 14589 13164 17790 10598 10092 19690 17372 18102 17000 16685 16479 11677 18981 18422 17796 16262 18349 17847 13831 15529 11295 17500 17276 12825 15205 10799 999999
999999 999999 999999 999999 999999 999999 999999 0 999999 999999 999999 999999 999999 999999 999999 999999 999999 999999 999999 999999 999999 999999 999999 999999 999999 999999 999999 999999 999999 999999 999999 999999 999999 999999 999999 999999 999999 999999 999999 999999 999999 999999 999999 999999 999999 999999 999999 999999 999999 999999 999999 10641 16086 13201 18475 18900 11773 10360 16975 12916 11663 16145 13408 14766 13273 13765 16919 16140 19891 10201 17907 14318 12294 19016 15126 17643 11910 12648 17553 16242 11535 10328 12487 15646 15198 18448 18170 19179 10322 15691 13705 13261 11800 13486 18130 15105 17629 10986 17172 17626 16858 999999
999999 999999 999999 999999 999999 999999 999999 999999 0 999999 999999 999999 999999 999999 999999 999999 999999 999999 999999 999999 999999 999999 999999 999999 999999 999999 999999 999999 999999 999999 999999 999999 999999 999999 999999 999999 999999 999999 999999 999999 999999 999999 999999 999999 999999 999999 999999 999999 999999 999999 999999 10129 10239 12001 14288 18201 18915 14676 10774 11286 16590 13621 19046 18186 19413 16361 10163 15617 18529 15789 11259 10022 13431 12204 11596 10201 16014 15456 13956 13336 13429 18799 13279 13393 18471 18080 11050 14735 10133 16903 11378 18872 14695 14786 16259 11602 11842 15944 18692 12361 16994 999999
999999 999999 999999 999999 999999 999999 999999 999999 999999 0 999999 999999 999999 999999 999999 999999 999999 999999 999999 999999 999999 999999 999999 999999 999999 999999 999999 999999 999999 999999 999999 999999 999999 999999 999999 999999 999999 999999 999999 999999 999999 999999 999999 999999 999999 999999 999999 999999 999999 999999 999999 13488 11482 14570 14862 15021 15651 11448 11766 14954 12753 10128 14346 15710 10057 18632 15724 12204 15501 13139 10053 13638 19024 10416 18832 18671 17681 15984 16973 13204 17799 10918 12444 10051 11596 11801 12527 18079 13646 15214 12720 12568 10669 11022 19534 11916 12357 14840 16462 19673 16094 999999
999999 999999 999999 999999 999999 999999 999999 999999 999999 999999 0 999999 999999 999999 999999 999999 999999 999999 999999 999999 999999 999999 999999 999999 999999 999999 999999 999999 999999 999999 999999 999999 999999 999999 999999 999999 999999 999999 999999 999999 999999 999999 999999 999999 999999 999999 999999 999999 999999 999999 999999 11424 16077 14459 14107 18473 13689 18910 13585 12962 17433 11578 14244 15936 14053 12820 14312 11616 12529 16263 17225 13455 18511 17851 14296 14671 12892 14937 10662 14614 16946 11973 19903 16508 16267 15681 11103 12697 14444 17085 17751 18894 14388 14340 17367 15056 16487 11984 17899 10269 11854 999999
999999 999999 999999 999999 999999 999999 999999 999999 999999 999999 999999 0 999999 999999 999999 999999 999999 999999 999999 999999 999999 999999 999999 999999 999999 999999 999999 999999 999999 999999 999999 999999 999999 999999 999999 999999 999999 999999 999999 999999 999999 999999 999999 999999 999999 999999 999999 999999 999999 999999 999999 14262 14959 14052 14708 15338 11647 11296 14704 10545 15193 13487 18071 14691 14446 11298 17094 19260 10144 11313 11069 16004 14483 18921 12954 11160 13445 17529 13377 15723 12503 15142 15161 12858 12459 19418 15957 11454 17435 12286 12710 10649 19311 17252 16829 13958 11166 11440 10377 18777 15670 999999
999999 999999 999999 999999 999999 999999 999999 999999 999999 999999 999999 999999 0 999999 999999 999999 999999 999999 999999 999999 999999 999999 999999 999999 999999 999999 999999 999999 999999 999999 999999 999999 999999 999999 999999 999999 999999 999999 999999 999999 999999 999999 999999 999999 999999 999999 999999 999999 999999 999999 999999 17827 17596 10556 16054 14065 18769 12922 11316 17568 14868 19014 13600 13890 14669 13711 18366 11719 18931 14959 11393 10612 14341 16046 15741 17071 19763 12037 14750 16433 15445 14560 17689 12343 10120 19693 16289 14385 15704 12281 13142 19100 18118 16137 17806 10510 16721 16372 18453 18464 16621 999999
999999 999999 999999 999999 999999 999999 999999 999999 999999 999999 999999 999999 999999 0 999999 999999 999999 999999 999999 999999 999999 999999 999999 999999 999999 999999 999999 999999 999999 999999 999999 999999 999999 999999 999999 999999 999999 999999 999999 999999 999999 999999 999999 999999 999999 999999 999999 999999 999999 999999 999999 13941 10937 11902 12495 10741 18675 11667 16696 14704 16509 15274 19927 12979 14309 16318 12762 16589 19599 11699 13542 15073 11571 19667 17708 18244 19573 10461 18915 13608 17787 17382 11920 11244 15624 18994 16972 15800 19000 17137 11414 15176 15805 13119 13151 13701 17421 17387 16838 16338 10981 999999
999999 999999 999999 999999 999999 999999 999999 999999 999999 999999 999999 999999 999999 999999 0 999999 999999 999999 999999 999999 999999 999999 999999 999999 999999 999999 999999 999999 999999 999999 999999 999999 999999 999999 999999 999999 999999 999999 999999 999999 999999 999999 999999 999999 999999 999999 999999 999999 999999 999999 999999 12756 14676 18919 16894 19931 14835 16929 15024 13509 12678 12402 11360 18342 18214 13004 11773 17453 15618 17727 15919 17029 10957 12732 13002 13782 13315 13220 16573 10576 14085 12371 13618 11199 18012 14285 13377 18816 18936 18091 14854 11850 11924 19242 16560 16528 15258 19471 12292 16582 14845 999999
999999 999999 999999 999999 999999 999999 999999 999999 999999 999999 999999 999999 999999 999999 999999 0 999999 999999 999999 999999 999999 999999 999999 999999 999999 999999 999999 999999 999999 999999 999999 999999 999999 999999 999999 999999 999999 999999 999999 999999 999999 999999 999999 999999 999999 999999 999999 999999 999999 999999 999999 10940 13495 14646 13397 14731 17174 12008 18263 14078 11461 18774 16519 12652 14839 16973 13811 17197 13440 16455 14936 15619 18314 13573 17151 11367 17928 17018 14386 16063 15574 17487 14217 10529 12031 12410 18902 12677 13295 18156 12922 13812 17423 19546 10854 13662 18378 12882 12292 11426 10101 999999
999999 999999 999999 999999 999999 999999 999999 999999 999999 999999 999999 999999 999999 999999 999999 999999 0 999999 999999 999999 999999 999999 999999 999999 999999 999999 999999 999999 999999 999999 999999 999999 999999 999999 999999 999999 999999 999999 999999 999999 999999 999999 999999 999999 999999 999999 999999 999999 999999 999999 999999 11219 17179 18766 10880 10558 11784 18604 14014 15352 15746 18796 18584 13940 15822 13769 18580 15282 14477 11772 16718 14125 19763 16936 15175 12404 13133 19579 16161 10885 10481 12744 13565 16350 14682 19644 17040 19160 12265 10461 18447 17058 19604 14891 11180 10029 15026 18145 17294 10824 10714 999999
999999 999999 999999 999999 999999 999999 999999 999999 999999 999999 999999 999999 999999 999999 999999 999999 999999 0 999999 999999 999999 999999 999999 999999 999999 999999 999999 999999 999999 999999 999999 999999 999999 999999 999999 999999 999999 999999 999999 999999 999999 999999 999999 999999 999999 999999 999999 999999 999999 999999 999999 13707 14306 11551 13796 10584 13037 10413 11596 15766 18455 19626 16725 10739 14790 17870 12080 15161 16419 18735 11332 15272 15622 11125 11046 19595 13272 17496 10231 16514 14085 19251 10139 19113 16644 12100 19455 16227 17656 16637 15131 10272 17123 11331 17369 13755 10777 15639 11653 18392 13905 999999
999999 999999 999999 999999 999999 999999 999999 999999 999999 999999 999999 999999 999999 999999 999999 999999 999999 999999 0 999999 999999 999999 999999 999999 999999 999999 999999 999999 999999 999999 999999 999999 999999 999999 999999 999999 999999 999999 999999 999999 999999 999999 999999 999999 999999 999999 999999 999999 999999 999999 999999 17337 15042 17162 16462 16365 11423 15649 13912 13982 15324 17319 14929 18152 11385 14959 18004 15127 11629 14675 13786 15616 13343 15395 16064 19753 12688 18087 11377 18163 15625 14112 19982 11477 15326 14365 14429 19612 17754 19764 10035 17595 16038 15005 13639 16318 14569 14967 12617 11966 15432 999999
999999 999999 999999 999999 999999 999999 999999 999999 999999 999999 999999 999999 999999 999999 999999 999999 999999 999999 999999 0 999999 999999 999999 999999 999999 999999 999999 999999 999999 999999 999999 999999 999999 999999 999999 999999 999999 999999 999999 999999 999999 999999 999999 999999 999999 999999 999999 999999 999999 999999 999999 19940 11813 12391 17484 11498 15323 10324 15553 11743 16479 11694 13141 10916 10511 13382 12176 13126 17986 16305 13630 17897 19458 12753 18146 19726 13029 17809 19033 15498 17620 15741 12975 12868 10148 11605 13307 10621 17063 13927 18030 12522 13979 12356 19027 17988 18169 19213 12487 19696 17128 999999
999999 999999 999999 999999 999999 999999 999999 999999 999999 999999 999999 999999 999999 999999 999999 999999 999999 999999 999999 999999 0 999999 999999 999999 999999 999999 999999 999999 999999 999999 999999 999999 999999 999999 999999 999999 999999 999999 999999 999999 999999 999999 999999 999999 999999 999999 999999 999999 999999 999999 999999 11103 15239 16368 15448 18761 14931 16186 11556 16609 17800 18796 19454 18549 15421 16016 17208 18490 10260 13202 10181 13950 18275 13111 13086 16575 10665 15468 16419 10846 18371 19465 12402 14577 18883 14457 17901 13877 16545 13740 19593 13508 10452 15503 18105 18526 18081 17013 19986 11253 10923 999999
999999 999999 999999 999999 999999 999999 999999 999999 999999 999999 999999 999999 999999 999999 999999 999999 999999 999999 999999 999999 999999 0 999999 999999 999999 999999 999999 999999 999999 999999 999999 999999 999999 999999 999999 999999 999999 999999 999999 999999 999999 999999 999999 999999 999999 999999 999999 999999 999999 999999 999999 18460 19184 10500 12314 12312 19491 14371 14158 14520 13570 10301 13538 17209 12667 17635 11842 11922 17345 14074 11631 10101 16651 15930 17423 17772 19380 13080 18122 16660 13951 18834 17125 17765 17267 14434 19548 15103 10292 19118 17760 14373 15701 19157 15044 10621 14364 19038 16099 17669 11512 999999
999999 999999 999999 999999 999999 999999 999999 999999 999999 999999 999999 999999 999999 999999 999999 999999 999999 999999 999999 999999 999999 999999 0 999999 999999 999999 999999 999999 999999 999999 999999 999999 999999 999999 999999 999999 999999 999999 999999 999999 999999 999999 999999 999999 999999 999999 999999 999999 999999 999999 999999 15431 17447 10013 18016 13283 17630 15246 17272 10174 16951 15067 14329 15203 16141 11526 16621 18627 17935 11051 17437 11570 11640 19930 14258 11505 11890 14529 16880 16375 12994 17112 16270 16062 11433 19122 17114 19992 12519 16761 16379 12033 18474 17250 14163 17540 12143 16025 12281 13715 18699 999999
999999 999999 999999 999999 999999 999999 999999 999999 999999 999999 999999 999999 999999 999999 999999 999999 999999 999999 999999 999999 999999 999999 999999 0 999999 999999 999999 999999 999999 999999 999999 999999 999999 999999 999999 999999 999999 999999 999999 999999 999999 999999 999999 999999 999999 999999 999999 999999 999999 999999 999999 11430 10634 10469 13838 18496 17056 17876 19317 15638 12637 11869 17237 13024 16452 11223 18724 15439 19617 16422 11303 11307 15277 16248 10982 11688 13993 12266 19499 10091 16408 16528 13154 14898 15151 16144 11963 18702 17508 14071 10801 18155 11560 17197 17840 13045 13333 16883 14771 10398 16572 999999
999999 999999 999999 999999 999999 999999 999999 999999 999999 999999 999999 999999 999999 999999 999999 999999 999999 999999 999999 999999 999999 999999 999999 999999 0 999999 999999 999999 999999 999999 999999 999999 999999 999999 999999 999999 999999 999999 999999 999999 999999 999999 999999 999999 999999 999999 999999 999999 999999 999999 999999 15728 11436 19558 15557 10658 19626 14630 19387 15724 18709 15735 12432 10442 16231 12832 14602 15708 10894 14779 11551 15167 13132 13110 16891 19350 18086 16762 13526 15198 16611 13877 18231 13186 11268 12402 10695 10432 10666 11801 11317 15374 14536 13411 13563 16841 19810 17818 15479 19628 10536 999999
999999 999999 999999 999999 999999 999999 999999 999999 999999 999999 999999 999999 999999 999999 999999 999999 999999 999999 999999 999999 999999 999999 999999 999999 999999 0 999999 999999 999999 999999 999999 999999 999999 999999 999999 999999 999999 999999 999999 999999 999999 999999 999999 999999 999999 999999 999999 999999 999999 999999 999999 15751 16909 17422 11244 18821 13381 12903 17609 16642 19679 10532 11654 16076 10239 12751 16305 16059 19124 14562 14741 18615 19026 12675 11133 19480 10334 12693 12173 18039 17893 15497 13494 18453 12102 17721 18376 16735 15617 15184 18460 13526 17577 13087 14527 11738 15645 13554 10928 16566 12670 999999
999999 999999 999999 999999 999999 999999 999999 999999 999999 999999 999999 999999 999999 999999 999999 999999 999999 999999 999999 999999 999999 999999 999999 999999 999999 999999 0 999999 999999 999999 999999 999999 999999 999999 999999 999999 999999 999999 999999 999999 999999 999999 999999 999999 999999 999999 999999 999999 999999 999999 999999 13478 17026 12989 16055 11397 17746 10128 17492 18066 11133 10317 13006 15256 16727 13877 13424 13281 15285 19493 18127 18313 17527 15273 19901 17905 14639 12523 17013 19129 10216 16394 18795 18777 15084 11788 15690 17571 17638 15162 16350 12963 17382 10280 14262 12149 14786 17773 16135 13362 19071 999999
999999 999999 999999 999999 999999 999999 999999 999999 999999 999999 999999 999999 999999 999999 999999 999999 999999 999999 999999 999999 999999 999999 999999 999999 999999 999999 999999 0 999999 999999 999999 999999 999999 999999 999999 999999 999999 999999 999999 999999 999999 999999 999999 999999 999999 999999 999999 999999 999999 999999 999999 14964 12735 11902 15472 10517 19142 15926 14214 12452 16840 17651 12835 18943 13614 19341 10877 11278 11446 12144 10251 16795 18910 17378 14546 11830 17334 12300 12359 15126 14303 14896 18556 11815 17334 13262 10461 13773 19548 14466 17038 16499 19793 19030 10754 18715 16682 12703 11314 17746 11909 999999
999999 999999 999999 999999 999999 999999 999999 999999 999999 999999 999999 999999 999999 999999 999999 999999 999999 999999 999999 999999 999999 999999 999999 999999 999999 999999 999999 999999 0 999999 999999 999999 999999 999999 999999 999999 999999 999999 999999 999999 999999 999999 999999 999999 999999 999999 999999 999999 999999 999999 999999 17171 15431 15144 11481 18976 11263 14653 10011 11027 16267 10484 15756 10551 11853 18145 15602 19601 11140 15527 16308 18227 19829 11171 13742 11428 11507 15924 10903 15326 14296 15915 14578 17938 13326 10770 14584 17638 19138 10533 18330 11654 10583 16305 16992 10847 13480 19052 11442 19305 14950 999999
999999 999999 999999 999999 999999 999999 999999 999999 999999 999999 999999 999999 999999 999999 999999 999999 999999 999999 999999 999999 999999 999999 999999 999999 999999 999999 999999 999999 999999 0 999999 999999 999999 999999 999999 999999 999999 999999 999999 999999 999999 999999 999999 999999 999999 999999 999999 999999 999999 999999 999999 16609 13783 13655 16100 10572 15820 12783 12328 11848 15700 10781 15624 15494 16683 11825 13322 15348 19315 17910 17125 15839 16963 18778 19389 13816 16737 14317 15160 10966 16947 15346 14846 18265 16761 11474 17767 11147 13799 12466 16857 19929 10959 15218 16574 10981 14600 11024 13380 18928 19550 999999
999999 999999 999999 999999 999999 999999 999999 999999 999999 999999 999999 999999 999999 999999 999999 999999 999999 999999 999999 999999 999999 999999 999999 999999 999999 999999 999999 999999 999999 999999 0 999999 999999 999999 999999 999999 999999 999999 999999 999999 999999 999999 999999 999999 999999 999999 999999 999999 999999 999999 999999 15494 18735 13017 13467 16303 10312 10276 14092 17191 15757 13095 16038 18094 11380 10190 13586 19116 13321 13582 19908 11518 10033 17615 18359 11090 13484 17849 12070 12758 11596 11854 12744 19347 15466 14492 12973 15544 10732 13195 19811 17116 14997 10073 11824 15986 11144 15785 15271 10797 12660 999999
999999 999999 999999 999999 999999 999999 999999 999999 999999 999999 999999 999999 999999 999999 999999 999999 999999 999999 999999 999999 999999 999999 999999 999999 999999 999999 999999 999999 999999 999999 999999 0 999999 999999 999999 999999 999999 999999 999999 999999 999999 999999 999999 999999 999999 999999 999999 999999 999999 999999 999999 17012 15143 18377 19846 11366 14529 10427 17161 19499 13646 17279 13526 14922 13839 14289 13210 15830 18064 17816 11657 19429 12553 15087 12108 16058 14159 18648 10336 12743 12649 10680 19173 13524 10403 18566 18022 14038 16556 12023 13662 13333 14067 16561 14895 12086 16237 13208 14063 17541 13054 999999
999999 999999 999999 999999 999999 999999 999999 999999 999999 999999 999999 999999 999999 999999 999999 999999 999999 999999 999999 999999 999999 999999 999999 999999 999999 999999 999999 999999 999999 999999 999999 999999 0 999999 999999 999999 999999 999999 999999 999999 999999 999999 999999 999999 999999 999999 999999 999999 999999 999999 999999 19096 12677 16173 17640 19278 10538 12782 17116 18048 10583 19089 13681 14034 19984 12227 11931 10190 10715 15604 11134 11330 12280 13083 16054 11322 18451 16609 14275 19486 13179 18293 14752 12714 12419 13662 10523 16427 19847 19758 16806 19333 11711 12981 19872 13671 18571 19228 13925 19860 11739 999999
999999 999999 999999 999999 999999 999999 999999 999999 999999 999999 999999 999999 999999 999999 999999 999999 999999 999999 999999 999999 999999 999999 999999 999999 999999 999999 999999 999999 999999 999999 999999 999999 999999 0 999999 999999 999999 999999 999999 999999 999999 999999 999999 999999 999999 999999 999999 999999 999999 999999 999999 10352 12873 16947 11360 16121 16599 16250 15343 19309 11770 16034 12082 17263 12596 13715 17706 14777 19615 13976 11362 16768 19140 11573 11250 18775 13237 14242 19327 18306 13938 16329 11051 18436 13970 19837 11045 14624 13571 19186 16097 10099 15615 19147 13311 10201 14602 11089 19703 11117 19717 999999
999999 999999 999999 999999 999999 999999 999999 999999 999999 999999 999999 999999 999999 999999 999999 999999 999999 999999 999999 999999 999999 999999 999999 999999 999999 999999 999999 999999 999999 999999 999999 999999 999999 999999 0 999999 999999 999999 999999 999999 999999 999999 999999 999999 999999 999999 999999 999999 999999 999999 999999 17464 15590 10814 17765 14920 10389 11034 14820 11067 16577 19295 18017 11662 18121 13697 10877 16073 17196 13392 13866 11796 12747 15855 17176 11616 17066 13563 14536 16599 14395 13685 11303 15345 19711 16767 16572 12111 16769 19852 10431 16121 11590 18251 12585 18772 16445 12578 15349 11206 19668 999999
999999 999999 999999 999999 999999 999999 999999 999999 999999 999999 999999 999999 999999 999999 999999 999999 999999 999999 999999 999999 999999 999999 999999 999999 999999 999999 999999 999999 999999 999999 999999 999999 999999 999999 999999 0 999999 999999 999999 999999 999999 999999 999999 999999 999999 999999 999999 999999 999999 999999 999999 12681 11266 14392 15881 15192 16765 19722 14347 14356 16621 10247 11643 13512 11168 12529 11446 14439 11229 15767 18730 11848 15566 17868 16238 12389 12662 18496 19186 16450 19225 10571 19101 17684 11116 11925 17645 12311 10642 16235 18351 17349 13175 15851 19564 12755 11259 13735 19638 10920 14378 999999
999999 999999 999999 999999 999999 999999 999999 999999 999999 999999 999999 999999 999999 999999 999999 999999 999999 999999 999999 999999 999999 999999 999999 999999 999999 999999 999999 999999 999999 999999 999999 999999 999999 999999 999999 999999 0 999999 999999 999999 999999 999999 999999 999999 999999 999999 999999 999999 999999 999999 999999 13473 19425 17724 19241 15794 13549 17568 16354 19238 15973 18867 17988 14287 15806 14242 12763 18916 13567 17698 10565 12820 19214 18065 18224 13609 14717 10487 12668 10077 17592 12903 12886 18452 11624 14074 19886 16361 14557 18560 11000 10010 15011 15100 10221 15331 15605 14243 16094 11959 11465 999999
999999 999999 999999 999999 999999 999999 999999 999999 999999 999999 999999 999999 999999 999999 999999 999999 999999 999999 999999 999999 999999 999999 999999 999999 999999 999999 999999 999999 999999 999999 999999 999999 999999 999999 999999 999999 999999 0 999999 999999 999999 999999 999999 999999 999999 999999 999999 999999 999999 999999 999999 18082 19820 18243 15556 17878 19997 13219 14860 17343 11697 13138 18265 18204 11231 16398 12987 16710 17037 17856 15090 10674 11422 19918 13065 18461 10628 13701 10725 11080 10458 12473 14987 16324 13766 18164 15752 17080 15101 18967 17627 13112 16083 19408 17074 19694 16225 17908 10241 18757 13158 999999
999999 999999 999999 999999 999999 999999 999999 999999 999999 999999 999999 999999 999999 999999 999999 999999 999999 999999 999999 999999 999999 999999 999999 999999 999999 999999 999999 999999 999999 999999 999999 999999 999999 999999 999999 999999 999999 999999 0 999999 999999 999999 999999 999999 999999 999999 999999 999999 999999 999999 999999 11982 18521 13201 18015 19468 15869 15451 14046 11838 15748 11550 14066 17679 16845 15926 16618 19388 10378 13768 13152 15257 14911 10000 14728 16195 13655 12296 19380 11548 17953 15264 18866 17222 17166 19524 18307 13713 19283 17593 13536 15710 11832 19286 16249 15602 15573 17398 16529 16066 13003 999999
999999 999999 999999 999999 999999 999999 999999 999999 999999 999999 999999 999999 999999 999999 999999 999999 999999 999999 999999 999999 999999 999999 999999 999999 999999 999999 999999 999999 999999 999999 999999 999999 999999 999999 999999 999999 999999 999999 999999 0 999999 999999 999999 999999 999999 999999 999999 999999 999999 999999 999999 17073 16191 10679 18911 16978 12691 11049 18088 19936 19173 15835 15839 16448 10306 17751 19172 16510 13955 19300 17674 17490 13777 16378 16664 15677 11651 17992 13374 19524 10876 14509 19312 11819 17176 16239 10093 12593 19913 13124 13359 16574 11476 17834 12105 18667 13008 13929 10250 15800 12051 999999
999999 999999 999999 999999 999999 999999 999999 999999 999999 999999 999999 999999 999999 999999 999999 999999 999999 999999 999999 999999 999999 999999 999999 999999 999999 999999 999999 999999 999999 999999 999999 999999 999999 999999 999999 999999 999999 999999 999999 999999 0 999999 999999 999999 999999 999999 999999 999999 999999 999999 999999 10356 11149 14267 13156 10873 12327 11605 11137 10310 16708 11959 18907 16453 10811 17085 12588 12385 14206 10741 10295 16097 10377 12640 19204 13154 13247 10680 12823 10245 15558 13780 10872 16493 19178 17933 13384 17858 16915 19905 15019 15230 11758 14222 15702 12453 18043 16398 11753 14030 18289 999999
999999 999999 999999 999999 999999 999999 999999 999999 999999 999999 999999 999999 999999 999999 999999 999999 999999 999999 999999 999999 999999 999999 999999 999999 999999 999999 999999 999999 999999 999999 999999 999999 999999 999999 999999 999999 999999 999999 999999 999999 999999 0 999999 999999 999999 999999 999999 999999 999999 999999 999999 18531 10278 15705 11548 15279 11218 14334 19599 19816 14117 15154 17789 11405 10428 14974 10931 14860 18479 16951 11860 19550 13984 14185 14231 13104 11457 14981 13402 11949 19015 11384 10190 18179 13768 17717 16670 11893 16375 19435 19274 19368 10919 14408 16087 13816 11689 11293 19551 11792 10949 999999
999999 999999 999999 999999 999999 999999 999999 999999 999999 999999 999999 999999 999999 999999 999999 999999 999999 999999 999999 999999 999999 999999 999999 999999 999999 999999 999999 999999 999999 999999 999999 999999 999999 999999 999999 999999 999999 999999 999999 999999 999999 999999 0 999999 999999 999999 999999 999999 999999 999999 999999 10357 12785 18165 13362 12711 14869 13094 11235 18579 18855 13193 15317 18419 15080 14568 17034 16877 12435 17885 10072 15055 14100 19306 15493 12161 17568 16331 11759 13793 16597 16290 18828 11382 19912 13318 15517 15943 17362 16639 18922 10665 14917 13543 18205 18235 13281 15500 13487 18269 14259 999999
999999 999999 999999 999999 999999 999999 999999 999999 999999 999999 999999 999999 999999 999999 999999 999999 999999 999999 999999 999999 999999 999999 999999 999999 999999 999999 999999 999999 999999 999999 999999 999999 999999 999999 999999 999999 999999 999999 999999 999999 999999 999999 999999 0 999999 999999 999999 999999 999999 999999 999999 14395 10794 10032 11107 17525 15332 12552 10345 19943 12244 15584 14588 19237 13153 14152 10294 17946 15492 10225 14181 17269 11107 15242 10578 17271 14525 19724 11898 13279 14376 13761 11627 12247 17779 15994 13209 15169 17663 19517 13267 19101 19306 17522 17253 11940 19671 14290 15716 15714 11416 999999
999999 999999 999999 999999 999999 999999 999999 999999 999999 999999 999999 999999 999999 999999 999999 999999 999999 999999 999999 999999 999999 999999 999999 999999 999999 999999 999999 999999 999999 999999 999999 999999 999999 999999 999999 999999 999999 999999 999999 999999 999999 999999 999999 999999 0 999999 999999 999999 999999 999999 999999 19669 14545 16063 17964 15878 13362 16205 19047 10397 19499 13551 19435 19807 14621 19737 18000 13683 16707 17324 10217 17264 16502 11995 18411 12724 15964 15608 17755 18975 15337 13810 14507 18457 12530 17751 13140 17414 13156 14582 15724 16628 18751 17268 10650 12954 13300 15685 10568 11652 14035 999999
999999 999999 999999 999999 999999 999999 999999 999999 999999 999999 999999 999999 999999 999999 999999 999999 999999 999999 999999 999999 999999 999999 999999 999999 999999 999999 999999 999999 999999 999999 999999 999999 999999 999999 999999 999999 999999 999999 999999 999999 999999 999999 999999 999999 999999 0 999999 999999 999999 999999 999999 14817 13711 19096 13289 16468 12940 14474 19296 12788 15011 16561 11589 17559 19022 13688 12742 12604 14549 14682 19648 10257 12469 12350 10134 13554 11257 11510 15023 19329 16963 14665 14194 19046 14868 18401 17503 14578 10577 18758 18190 15207 12838 15393 11421 13057 15629 13936 15399 12247 11161 999999
999999 999999 999999 999999 999999 999999 999999 999999 999999 999999 999999 999999 999999 999999 999999 999999 999999 999999 999999 999999 999999 999999 999999 999999 999999 999999 999999 999999 999999 999999 999999 999999 999999 999999 999999 999999 999999 999999 999999 999999 999999 999999 999999 999999 999999 999999 0 999999 999999 999999 999999 16672 12646 19307 13710 13862 10365 16428 16297 12434 19910 11268 12833 16633 19442 15304 11197 12346 13830 18367 11057 16909 13257 18730 14016 12038 10821 16935 11584 11536 14673 18554 14715 10599 11764 18139 14373 10206 14918 14832 10636 10034 19097 17183 13761 10584 11386 15586 15019 12720 18544 999999
999999 999999 999999 999999 999999 999999 999999 999999 999999 999999 999999 999999 999999 999999 999999 999999 999999 999999 999999 999999 999999 999999 999999 999999 999999 999999 999999 999999 999999 999999 999999 999999 999999 999999 999999 999999 999999 999999 999999 999999 999999 999999 999999 999999 999999 999999 999999 0 999999 999999 999999 14151 14886 17669 18066 10244 14944 13251 16782 17229 10466 11893 18921 16021 14613 16047 16496 19438 10697 14900 17500 11775 14149 16893 19943 12928 18470 10705 14963 13261 16524 15400 18204 12977 18687 15360 16077 16142 10754 18096 12150 10817 11567 13253 15529 16917 10360 18220 13625 17551 13618 999999
999999 999999 999999 999999 999999 999999 999999 999999 999999 999999 999999 999999 999999 999999 999999 999999 999999 999999 999999 999999 999999 999999 999999 999999 999999 999999 999999 999999 999999 999999 999999 999999 999999 999999 999999 999999 999999 999999 999999 999999 999999 999999 999999 999999 999999 999999 999999 999999 0 999999 999999 17738 10094 14097 11688 13491 17859 11205 18947 10908 17954 11131 10675 14596 19587 14657 11502 19738 12747 11088 16538 11635 19782 15646 18831 17923 19310 10572 19958 12267 11712 14098 12340 19787 14229 18400 18762 15361 14635 19207 13063 14789 14383 17239 10580 11114 17484 16309 19571 16378 18896 999999
999999 999999 999999 999999 999999 999999 999999 999999 999999 999999 999999 999999 999999 999999 999999 999999 999999 999999 999999 999999 999999 999999 999999 999999 999999 999999 999999 999999 999999 999999 999999 999999 999999 999999 999999 999999 999999 999999 999999 999999 999999 999999 999999 999999 999999 999999 999999 999999 999999 0 999999 10033 10393 17592 17655 11262 12308 18575 18573 13704 15080 10360 12363 19770 17028 19024 16948 11269 19380 17655 16732 10866 11897 11451 18852 16763 18270 11349 14490 10537 16944 16006 19135 14399 12176 15483 15902 17976 12850 13889 16181 17389 12225 18555 14996 11000 13536 16727 19497 19952 19351 999999
999999 999999 999999 999999 999999 999999 999999 999999 999999 999999 999999 999999 999999 999999 999999 999999 999999 999999 999999 999999 999999 999999 999999 999999 999999 999999 999999 999999 999999 999999 999999 999999 999999 999999 999999 999999 999999 999999 999999 999999 999999 999999 999999 999999 999999 999999 999999 999999 999999 999999 0 16757 11586 11341 11370 17094 10512 12019 12231 10260 13130 10650 12625 10587 17842 10586 15694 11285 19773 19744 18188 19053 15895 16588 19430 13861 14769 15305 13543 17817 14081 13669 13162 11692 10210 10033 10477 16997 12267 13055 10575 19678 17525 16520 19573 12049 16656 12332 15918 13675 18278 999999
999999 16347 16369 12881 11780 14661 12315 10641 10129 13488 11424 14262 17827 13941 12756 10940 11219 13707 17337 19940 11103 18460 15431 11430 15728 15751 13478 14964 17171 16609 15494 17012 19096 10352 17464 12681 13473 18082 11982 17073 10356 18531 10357 14395 19669 14817 16672 14151 17738 10033 16757 0 999999 999999 999999 999999 999999 999999 999999 999999 999999 999999 999999 999999 999999 999999 999999 999999 999999 999999 999999 999999 999999 999999 999999 999999 999999 999999 999999 999999 999999 999999 999999 999999 999999 999999 999999 999999 999999 999999 999999 999999 999999 999999 999999 999999 999999 999999 999999 999999 999999 9722
999999 17013 10882 12243 14258 19515 16721 16086 10239 11482 16077 14959 17596 10937 14676 13495 17179 14306 15042 11813 15239 19184 17447 10634 11436 16909 17026 12735 15431 13783 18735 15143 12677 12873 15590 11266 19425 19820 18521 16191 11149 10278 12785 10794 14545 13711 12646 14886 10094 10393 11586 999999 0 999999 999999 999999 999999 999999 999999 999999 999999 999999 999999 999999 999999 999999 999999 999999 999999 999999 999999 999999 999999 999999 999999 999999 999999 999999 999999 999999 999999 999999 999999 999999 999999 999999 999999 999999 999999 999999 999999 999999 999999 999999 999999 999999 999999 999999 999999 999999 999999 6384
999999 17281 18729 11334 17530 13242 15343 13201 12001 14570 14459 14052 10556 11902 18919 14646 18766 11551 17162 12391 16368 10500 10013 10469 19558 17422 12989 11902 15144 13655 13017 18377 16173 16947 10814 14392 17724 18243 13201 10679 14267 15705 18165 10032 16063 19096 19307 17669 14097 17592 11341 999999 999999 0 999999 999999 999999 999999 999999 999999 999999 999999 999999 999999 999999 999999 999999 999999 999999 999999 999999 999999 999999 999999 999999 999999 999999 999999 999999 999999 999999 999999 999999 999999 999999 999999 999999 999999 999999 999999 999999 999999 999999 999999 999999 999999 999999 999999 999999 999999 999999 5799
999999 15376 19148 16340 19709 12620 15561 18475 14288 14862 14107 14708 16054 12495 16894 13397 10880 13796 16462 17484 15448 12314 18016 13838 15557 11244 16055 15472 11481 16100 13467 19846 17640 11360 17765 15881 19241 15556 18015 18911 13156 11548 13362 11107 17964 13289 13710 18066 11688 17655 11370 999999 999999 999999 0 999999 999999 999999 999999 999999 999999 999999 999999 999999 999999 999999 999999 999999 999999 999999 999999 999999 999999 999999 999999 999999 999999 999999 999999 999999 999999 999999 999999 999999 999999 999999 999999 999999 999999 999999 999999 999999 999999 999999 999999 999999 999999 999999 999999 999999 999999 6772
999999 16015 17910 13692 15333 15267 15426 18900 18201 15021 18473 15338 14065 10741 19931 14731 10558 10584 16365 11498 18761 12312 13283 18496 10658 18821 11397 10517 18976 10572 16303 11366 19278 16121 14920 15192 15794 17878 19468 16978 10873 15279 12711 17525 15878 16468 13862 10244 13491 11262 17094 999999 999999 999999 999999 0 999999 999999 999999 999999 999999 999999 999999 999999 999999 999999 999999 999999 999999 999999 999999 999999 999999 999999 999999 999999 999999 999999 999999 999999 999999 999999 999999 999999 999999 999999 999999 999999 999999 999999 999999 999999 999999 999999 999999 999999 999999 999999 999999 999999 999999 9235
999999 16846 15518 18311 17908 10311 11876 11773 18915 15651 13689 11647 18769 18675 14835 17174 11784 13037 11423 15323 14931 19491 17630 17056 19626 13381 17746 19142 11263 15820 10312 14529 10538 16599 10389 16765 13549 19997 15869 12691 12327 11218 14869 15332 13362 12940 10365 14944 17859 12308 10512 999999 999999 999999 999999 999999 0 999999 999999 999999 999999 999999 999999 999999 999999 999999 999999 999999 999999 999999 999999 999999 999999 999999 999999 999999 999999 999999 999999 999999 999999 999999 999999 999999 999999 999999 999999 999999 999999 999999 999999 999999 999999 999999 999999 999999 999999 999999 999999 999999 999999 14268
999999 14927 19955 17618 14308 18045 15073 10360 14676 11448 18910 11296 12922 11667 16929 12008 18604 10413 15649 10324 16186 14371 15246 17876 14630 12903 10128 15926 14653 12783 10276 10427 12782 16250 11034 19722 17568 13219 15451 11049 11605 14334 13094 12552 16205 14474 16428 13251 11205 18575 12019 999999 999999 999999 999999 999999 999999 0 999999 999999 999999 999999 999999 999999 999999 999999 999999 999999 999999 999999 999999 999999 999999 999999 999999 999999 999999 999999 999999 999999 999999 999999 999999 999999 999999 999999 999999 999999 999999 999999 999999 999999 999999 999999 999999 999999 999999 999999 999999 999999 999999 13946
999999 13629 11840 15693 17785 16589 17751 16975 10774 11766 13585 14704 11316 16696 15024 18263 14014 11596 13912 15553 11556 14158 17272 19317 19387 17609 17492 14214 10011 12328 14092 17161 17116 15343 14820 14347 16354 14860 14046 18088 11137 19599 11235 10345 19047 19296 16297 16782 18947 18573 12231 999999 999999 999999 999999 999999 999999 999999 0 999999 999999 999999 999999 999999 999999 999999 999999 999999 999999 999999 999999 999999 999999 999999 999999 999999 999999 999999 999999 999999 999999 999999 999999 999999 999999 999999 999999 999999 999999 999999 999999 999999 999999 999999 999999 999999 999999 999999 999999 999999 999999 11106
999999 18752 15378 17233 19765 14435 14789 12916 11286 14954 12962 10545 17568 14704 13509 14078 15352 15766 13982 11743 16609 14520 10174 15638 15724 16642 18066 12452 11027 11848 17191 19499 18048 19309 11067 14356 19238 17343 11838 19936 10310 19816 18579 19943 10397 12788 12434 17229 10908 13704 10260 999999 999999 999999 999999 999999 999999 999999 999999 0 999999 999999 999999 999999 999999 999999 999999 999999 999999 999999 999999 999999 999999 999999 999999 999999 999999 999999 999999 999999 999999 999999 999999 999999 999999 999999 999999 999999 999999 999999 999999 999999 999999 999999 999999 999999 999999 999999 999999 999999 999999 6479
999999 18703 11735 14431 10830 10898 10787 11663 16590 12753 17433 15193 14868 16509 12678 11461 15746 18455 15324 16479 17800 13570 16951 12637 18709 19679 11133 16840 16267 15700 15757 13646 10583 11770 16577 16621 15973 11697 15748 19173 16708 14117 18855 12244 19499 15011 19910 10466 17954 15080 13130 999999 999999 999999 999999 999999 999999 999999 999999 999999 0 999999 999999 999999 999999 999999 999999 999999 999999 999999 999999 999999 999999 999999 999999 999999 999999 999999 999999 999999 999999 999999 999999 999999 999999 999999 999999 999999 999999 999999 999999 999999 999999 999999 999999 999999 999999 999999 999999 999999 999999 11285
999999 11790 10024 10516 19201 15170 12068 16145 13621 10128 11578 13487 19014 15274 12402 18774 18796 19626 17319 11694 18796 10301 15067 11869 15735 10532 10317 17651 10484 10781 13095 17279 19089 16034 19295 10247 18867 13138 11550 15835 11959 15154 13193 15584 13551 16561 11268 11893 11131 10360 10650 999999 999999 999999 999999 999999 999999 999999 999999 999999 999999 0 999999 999999 999999 999999 999999 999999 999999 999999 999999 999999 999999 999999 999999 999999 999999 999999 999999 999999 999999 999999 999999 999999 999999 999999 999999 999999 999999 999999 999999 999999 999999 999999 999999 999999 999999 999999 999999 999999 999999 7922
999999 16696 17918 14201 18401 12892 15842 13408 19046 14346 14244 18071 13600 19927 11360 16519 18584 16725 14929 13141 19454 13538 14329 17237 12432 11654 13006 12835 15756 15624 16038 13526 13681 12082 18017 11643 17988 18265 14066 15839 18907 17789 15317 14588 19435 11589 12833 18921 10675 12363 12625 999999 999999 999999 999999 999999 999999 999999 999999 999999 999999 999999 0 999999 999999 999999 999999 999999 999999 999999 999999 999999 999999 999999 999999 999999 999999 999999 999999 999999 999999 999999 999999 999999 999999 999999 999999 999999 999999 999999 999999 999999 999999 999999 999999 999999 999999 999999 999999 999999 999999 7113
999999 10856 14205 12986 14855 15683 10757 14766 18186 15710 15936 14691 13890 12979 18342 12652 13940 10739 18152 10916 18549 17209 15203 13024 10442 16076 15256 18943 10551 15494 18094 14922 14034 17263 11662 13512 14287 18204 17679 16448 16453 11405 18419 19237 19807 17559 16633 16021 14596 19770 10587 999999 999999 999999 999999 999999 999999 999999 999999 999999 999999 999999 999999 0 999999 999999 999999 999999 999999 999999 999999 999999 999999 999999 999999 999999 999999 999999 999999 999999 999999 999999 999999 999999 999999 999999 999999 999999 999999 999999 999999 999999 999999 999999 999999 999999 999999 999999 999999 999999 999999 8083
999999 14601 12568 13803 12483 17142 19523 13273 19413 10057 14053 14446 14669 14309 18214 14839 15822 14790 11385 10511 15421 12667 16141 16452 16231 10239 16727 13614 11853 16683 11380 13839 19984 12596 18121 11168 15806 11231 16845 10306 10811 10428 15080 13153 14621 19022 19442 14613 19587 17028 17842 999999 999999 999999 999999 999999 999999 999999 999999 999999 999999 999999 999999 999999 0 999999 999999 999999 999999 999999 999999 999999 999999 999999 999999 999999 999999 999999 999999 999999 999999 999999 999999 999999 999999 999999 999999 999999 999999 999999 999999 999999 999999 999999 999999 999999 999999 999999 999999 999999 999999 7914
999999 10624 15231 13297 10049 16614 15154 13765 16361 18632 12820 11298 13711 16318 13004 16973 13769 17870 14959 13382 16016 17635 11526 11223 12832 12751 13877 19341 18145 11825 10190 14289 12227 13715 13697 12529 14242 16398 15926 17751 17085 14974 14568 14152 19737 13688 15304 16047 14657 19024 10586 999999 999999 999999 999999 999999 999999 999999 999999 999999 999999 999999 999999 999999 999999 0 999999 999999 999999 999999 999999 999999 999999 999999 999999 999999 999999 999999 999999 999999 999999 999999 999999 999999 999999 999999 999999 999999 999999 999999 999999 999999 999999 999999 999999 999999 999999 999999 999999 999999 999999 9940
999999 16769 11135 18280 14617 16719 13865 16919 10163 15724 14312 17094 18366 12762 11773 13811 18580 12080 18004 12176 17208 11842 16621 18724 14602 16305 13424 10877 15602 13322 13586 13210 11931 17706 10877 11446 12763 12987 16618 19172 12588 10931 17034 10294 18000 12742 11197 16496 11502 16948 15694 999999 999999 999999 999999 999999 999999 999999 999999 999999 999999 999999 999999 999999 999999 999999 0 999999 999999 999999 999999 999999 999999 999999 999999 999999 999999 999999 999999 999999 999999 999999 999999 999999 999999 999999 999999 999999 999999 999999 999999 999999 999999 999999 999999 999999 999999 999999 999999 999999 999999 11976
999999 13805 10263 18547 18300 13851 11562 16140 15617 12204 11616 19260 11719 16589 17453 17197 15282 15161 15127 13126 18490 11922 18627 15439 15708 16059 13281 11278 19601 15348 19116 15830 10190 14777 16073 14439 18916 16710 19388 16510 12385 14860 16877 17946 13683 12604 12346 19438 19738 11269 11285 999999 999999 999999 999999 999999 999999 999999 999999 999999 999999 999999 999999 999999 999999 999999 999999 0 999999 999999 999999 999999 999999 999999 999999 999999 999999 999999 999999 999999 999999 999999 999999 999999 999999 999999 999999 999999 999999 999999 999999 999999 999999 999999 999999 999999 999999 999999 999999 999999 999999 9486
999999 18875 16376 17527 16910 10562 12235 19891 18529 15501 12529 10144 18931 19599 15618 13440 14477 16419 11629 17986 10260 17345 17935 19617 10894 19124 15285 11446 11140 19315 13321 18064 10715 19615 17196 11229 13567 17037 10378 13955 14206 18479 12435 15492 16707 14549 13830 10697 12747 19380 19773 999999 999999 999999 999999 999999 999999 999999 999999 999999 999999 999999 999999 999999 999999 999999 999999 999999 0 999999 999999 999999 999999 999999 999999 999999 999999 999999 999999 999999 999999 999999 999999 999999 999999 999999 999999 999999 999999 999999 999999 999999 999999 999999 999999 999999 999999 999999 999999 999999 999999 13708
999999 14297 12681 13111 19024 16001 15660 10201 15789 13139 16263 11313 14959 11699 17727 16455 11772 18735 14675 16305 13202 14074 11051 16422 14779 14562 19493 12144 15527 17910 13582 17816 15604 13976 13392 15767 17698 17856 13768 19300 10741 16951 17885 10225 17324 14682 18367 14900 11088 17655 19744 999999 999999 999999 999999 999999 999999 999999 999999 999999 999999 999999 999999 999999 999999 999999 999999 999999 999999 0 999999 999999 999999 999999 999999 999999 999999 999999 999999 999999 999999 999999 999999 999999 999999 999999 999999 999999 999999 999999 999999 999999 999999 999999 999999 999999 999999 999999 999999 999999 999999 9975
999999 12293 12156 10402 10930 14477 14228 17907 11259 10053 17225 11069 11393 13542 15919 14936 16718 11332 13786 13630 10181 11631 17437 11303 11551 14741 18127 10251 16308 17125 19908 11657 11134 11362 13866 18730 10565 15090 13152 17674 10295 11860 10072 14181 10217 19648 11057 17500 16538 16732 18188 999999 999999 999999 999999 999999 999999 999999 999999 999999 999999 999999 999999 999999 999999 999999 999999 999999 999999 999999 0 999999 999999 999999 999999 999999 999999 999999 999999 999999 999999 999999 999999 999999 999999 999999 999999 999999 999999 999999 999999 999999 999999 999999 999999 999999 999999 999999 999999 999999 999999 9946
999999 15119 10754 17214 11936 15693 17191 14318 10022 13638 13455 16004 10612 15073 17029 15619 14125 15272 15616 17897 13950 10101 11570 11307 15167 18615 18313 16795 18227 15839 11518 19429 11330 16768 11796 11848 12820 10674 15257 17490 16097 19550 15055 17269 17264 10257 16909 11775 11635 10866 19053 999999 999999 999999 999999 999999 999999 999999 999999 999999 999999 999999 999999 999999 999999 999999 999999 999999 999999 999999 999999 0 999999 999999 999999 999999 999999 999999 999999 999999 999999 999999 999999 999999 999999 999999 999999 999999 999999 999999 999999 999999 999999 999999 999999 999999 999999 999999 999999 999999 999999 10030
999999 18481 12620 14070 13608 17284 12769 12294 13431 19024 18511 14483 14341 11571 10957 18314 19763 15622 13343 19458 18275 16651 11640 15277 13132 19026 17527 18910 19829 16963 10033 12553 12280 19140 12747 15566 19214 11422 14911 13777 10377 13984 14100 11107 16502 12469 13257 14149 19782 11897 15895 999999 999999 999999 999999 999999 999999 999999 999999 999999 999999 999999 999999 999999 999999 999999 999999 999999 999999 999999 999999 999999 0 999999 999999 999999 999999 999999 999999 999999 999999 999999 999999 999999 999999 999999 999999 999999 999999 999999 999999 999999 999999 999999 999999 999999 999999 999999 999999 999999 999999 7178
999999 18164 13850 13778 18357 17320 18505 19016 12204 10416 17851 18921 16046 19667 12732 13573 16936 11125 15395 12753 13111 15930 19930 16248 13110 12675 15273 17378 11171 18778 17615 15087 13083 11573 15855 17868 18065 19918 10000 16378 12640 14185 19306 15242 11995 12350 18730 16893 15646 11451 16588 999999 999999 999999 999999 999999 999999 999999 999999 999999 999999 999999 999999 999999 999999 999999 999999 999999 999999 999999 999999 999999 999999 0 999999 999999 999999 999999 999999 999999 999999 999999 999999 999999 999999 999999 999999 999999 999999 999999 999999 999999 999999 999999 999999 999999 999999 999999 999999 999999 999999 15000
999999 18319 19613 17987 16136 16987 19789 15126 11596 18832 14296 12954 15741 17708 13002 17151 15175 11046 16064 18146 13086 17423 14258 10982 16891 11133 19901 14546 13742 19389 18359 12108 16054 11250 17176 16238 18224 13065 14728 16664 19204 14231 15493 10578 18411 10134 14016 19943 18831 18852 19430 999999 999999 999999 999999 999999 999999 999999 999999 999999 999999 999999 999999 999999 999999 999999 999999 999999 999999 999999 999999 999999 999999 999999 0 999999 999999 999999 999999 999999 999999 999999 999999 999999 999999 999999 999999 999999 999999 999999 999999 999999 999999 999999 999999 999999 999999 999999 999999 999999 999999 11903
999999 15812 17730 16769 19780 18228 14589 17643 10201 18671 14671 11160 17071 18244 13782 11367 12404 19595 19753 19726 16575 17772 11505 11688 19350 19480 17905 11830 11428 13816 11090 16058 11322 18775 11616 12389 13609 18461 16195 15677 13154 13104 12161 17271 12724 13554 12038 12928 17923 16763 13861 999999 999999 999999 999999 999999 999999 999999 999999 999999 999999 999999 999999 999999 999999 999999 999999 999999 999999 999999 999999 999999 999999 999999 999999 0 999999 999999 999999 999999 999999 999999 999999 999999 999999 999999 999999 999999 999999 999999 999999 999999 999999 999999 999999 999999 999999 999999 999999 999999 999999 13760
999999 18478 15931 11106 12785 18424 13164 11910 16014 17681 12892 13445 19763 19573 13315 17928 13133 13272 12688 13029 10665 19380 11890 13993 18086 10334 14639 17334 11507 16737 13484 14159 18451 13237 17066 12662 14717 10628 13655 11651 13247 11457 17568 14525 15964 11257 10821 18470 19310 18270 14769 999999 999999 999999 999999 999999 999999 999999 999999 999999 999999 999999 999999 999999 999999 999999 999999 999999 999999 999999 999999 999999 999999 999999 999999 999999 0 999999 999999 999999 999999 999999 999999 999999 999999 999999 999999 999999 999999 999999 999999 999999 999999 999999 999999 999999 999999 999999 999999 999999 999999 9899
999999 13598 15295 16879 16559 15997 17790 12648 15456 15984 14937 17529 12037 10461 13220 17018 19579 17496 18087 17809 15468 13080 14529 12266 16762 12693 12523 12300 15924 14317 17849 18648 16609 14242 13563 18496 10487 13701 12296 17992 10680 14981 16331 19724 15608 11510 16935 10705 10572 11349 15305 999999 999999 999999 999999 999999 999999 999999 999999 999999 999999 999999 999999 999999 999999 999999 999999 999999 999999 999999 999999 999999 999999 999999 999999 999999 999999 0 999999 999999 999999 999999 999999 999999 999999 999999 999999 999999 999999 999999 999999 999999 999999 999999 999999 999999 999999 999999 999999 999999 999999 13290
999999 19929 17258 15709 18845 19556 10598 17553 13956 16973 10662 13377 14750 18915 16573 14386 16161 10231 11377 19033 16419 18122 16880 19499 13526 12173 17013 12359 10903 15160 12070 10336 14275 19327 14536 19186 12668 10725 19380 13374 12823 13402 11759 11898 17755 15023 11584 14963 19958 14490 13543 999999 999999 999999 999999 999999 999999 999999 999999 999999 999999 999999 999999 999999 999999 999999 999999 999999 999999 999999 999999 999999 999999 999999 999999 999999 999999 999999 0 999999 999999 999999 999999 999999 999999 999999 999999 999999 999999 999999 999999 999999 999999 999999 999999 999999 999999 999999 999999 999999 999999 12635
999999 15846 16586 12796 19095 11370 10092 16242 13336 13204 14614 15723 16433 13608 10576 16063 10885 16514 18163 15498 10846 16660 16375 10091 15198 18039 19129 15126 15326 10966 12758 12743 19486 18306 16599 16450 10077 11080 11548 19524 10245 11949 13793 13279 18975 19329 11536 13261 12267 10537 17817 999999 999999 999999 999999 999999 999999 999999 999999 999999 999999 999999 999999 999999 999999 999999 999999 999999 999999 999999 999999 999999 999999 999999 999999 999999 999999 999999 999999 0 999999 999999 999999 999999 999999 999999 999999 999999 999999 999999 999999 999999 999999 999999 999999 999999 999999 999999 999999 999999 999999 11132
999999 11746 16091 14377 12837 16674 19690 11535 13429 17799 16946 12503 15445 17787 14085 15574 10481 14085 15625 17620 18371 13951 12994 16408 16611 17893 10216 14303 14296 16947 11596 12649 13179 13938 14395 19225 17592 10458 17953 10876 15558 19015 16597 14376 15337 16963 14673 16524 11712 16944 14081 999999 999999 999999 999999 999999 999999 999999 999999 999999 999999 999999 999999 999999 999999 999999 999999 999999 999999 999999 999999 999999 999999 999999 999999 999999 999999 999999 999999 999999 0 999999 999999 999999 999999 999999 999999 999999 999999 999999 999999 999999 999999 999999 999999 999999 999999 999999 999999 999999 999999 14195
999999 11317 12754 14054 15431 17099 17372 10328 18799 10918 11973 15142 14560 17382 12371 17487 12744 19251 14112 15741 19465 18834 17112 16528 13877 15497 16394 14896 15915 15346 11854 10680 18293 16329 13685 10571 12903 12473 15264 14509 13780 11384 16290 13761 13810 14665 18554 15400 14098 16006 13669 999999 999999 999999 999999 999999 999999 999999 999999 999999 999999 999999 999999 999999 999999 999999 999999 999999 999999 999999 999999 999999 999999 999999 999999 999999 999999 999999 999999 999999 999999 0 999999 999999 999999 999999 999999 999999 999999 999999 999999 999999 999999 999999 999999 999999 999999 999999 999999 999999 999999 5467
999999 11112 15065 19215 19125 10681 18102 12487 13279 12444 19903 15161 17689 11920 13618 14217 13565 10139 19982 12975 12402 17125 16270 13154 18231 13494 18795 18556 14578 14846 12744 19173 14752 11051 11303 19101 12886 14987 18866 19312 10872 10190 18828 11627 14507 14194 14715 18204 12340 19135 13162 999999 999999 999999 999999 999999 999999 999999 999999 999999 999999 999999 999999 999999 999999 999999 999999 999999 999999 999999 999999 999999 999999 999999 999999 999999 999999 999999 999999 999999 999999 999999 0 999999 999999 999999 999999 999999 999999 999999 999999 999999 999999 999999 999999 999999 999999 999999 999999 999999 999999 12952
999999 19553 17457 11296 11018 12673 17000 15646 13393 10051 16508 12858 12343 11244 11199 10529 16350 19113 11477 12868 14577 17765 16062 14898 13186 18453 18777 11815 17938 18265 19347 13524 12714 18436 15345 17684 18452 16324 17222 11819 16493 18179 11382 12247 18457 19046 10599 12977 19787 14399 11692 999999 999999 999999 999999 999999 999999 999999 999999 999999 999999 999999 999999 999999 999999 999999 999999 999999 999999 999999 999999 999999 999999 999999 999999 999999 999999 999999 999999 999999 999999 999999 999999 0 999999 999999 999999 999999 999999 999999 999999 999999 999999 999999 999999 999999 999999 999999 999999 999999 999999 14570
999999 11992 15954 16222 14992 12052 16685 15198 18471 11596 16267 12459 10120 15624 18012 12031 14682 16644 15326 10148 18883 17267 11433 15151 11268 12102 15084 17334 13326 16761 15466 10403 12419 13970 19711 11116 11624 13766 17166 17176 19178 13768 19912 17779 12530 14868 11764 18687 14229 12176 10210 999999 999999 999999 999999 999999 999999 999999 999999 999999 999999 999999 999999 999999 999999 999999 999999 999999 999999 999999 999999 999999 999999 999999 999999 999999 999999 999999 999999 999999 999999 999999 999999 999999 0 999999 999999 999999 999999 999999 999999 999999 999999 999999 999999 999999 999999 999999 999999 999999 999999 6972
999999 12419 16612 18013 18938 16570 16479 18448 18080 11801 15681 19418 19693 18994 14285 12410 19644 12100 14365 11605 14457 14434 19122 16144 12402 17721 11788 13262 10770 11474 14492 18566 13662 19837 16767 11925 14074 18164 19524 16239 17933 17717 13318 15994 17751 18401 18139 15360 18400 15483 10033 999999 999999 999999 999999 999999 999999 999999 999999 999999 999999 999999 999999 999999 999999 999999 999999 999999 999999 999999 999999 999999 999999 999999 999999 999999 999999 999999 999999 999999 999999 999999 999999 999999 999999 0 999999 999999 999999 999999 999999 999999 999999 999999 999999 999999 999999 999999 999999 999999 999999 7748
999999 12148 14362 15455 18598 19820 11677 18170 11050 12527 11103 15957 16289 16972 13377 18902 17040 19455 14429 13307 17901 19548 17114 11963 10695 18376 15690 10461 14584 17767 12973 18022 10523 11045 16572 17645 19886 15752 18307 10093 13384 16670 15517 13209 13140 17503 14373 16077 18762 15902 10477 999999 999999 999999 999999 999999 999999 999999 999999 999999 999999 999999 999999 999999 999999 999999 999999 999999 999999 999999 999999 999999 999999 999999 999999 999999 999999 999999 999999 999999 999999 999999 999999 999999 999999 999999 0 999999 999999 999999 999999 999999 999999 999999 999999 999999 999999 999999 999999 999999 999999 5720
999999 18015 11378 12796 19287 16430 18981 19179 14735 18079 12697 11454 14385 15800 18816 12677 19160 16227 19612 10621 13877 15103 19992 18702 10432 16735 17571 13773 17638 11147 15544 14038 16427 14624 12111 12311 16361 17080 13713 12593 17858 11893 15943 15169 17414 14578 10206 16142 15361 17976 16997 999999 999999 999999 999999 999999 999999 999999 999999 999999 999999 999999 999999 999999 999999 999999 999999 999999 999999 999999 999999 999999 999999 999999 999999 999999 999999 999999 999999 999999 999999 999999 999999 999999 999999 999999 999999 0 999999 999999 999999 999999 999999 999999 999999 999999 999999 999999 999999 999999 999999 8426
999999 17473 18713 16600 17970 13834 18422 10322 10133 13646 14444 17435 15704 19000 18936 13295 12265 17656 17754 17063 16545 10292 12519 17508 10666 15617 17638 19548 19138 13799 10732 16556 19847 13571 16769 10642 14557 15101 19283 19913 16915 16375 17362 17663 13156 10577 14918 10754 14635 12850 12267 999999 999999 999999 999999 999999 999999 999999 999999 999999 999999 999999 999999 999999 999999 999999 999999 999999 999999 999999 999999 999999 999999 999999 999999 999999 999999 999999 999999 999999 999999 999999 999999 999999 999999 999999 999999 999999 0 999999 999999 999999 999999 999999 999999 999999 999999 999999 999999 999999 999999 10572
999999 11339 15546 19592 18265 18740 17796 15691 16903 15214 17085 12286 12281 17137 18091 18156 10461 16637 19764 13927 13740 19118 16761 14071 11801 15184 15162 14466 10533 12466 13195 12023 19758 19186 19852 16235 18560 18967 17593 13124 19905 19435 16639 19517 14582 18758 14832 18096 19207 13889 13055 999999 999999 999999 999999 999999 999999 999999 999999 999999 999999 999999 999999 999999 999999 999999 999999 999999 999999 999999 999999 999999 999999 999999 999999 999999 999999 999999 999999 999999 999999 999999 999999 999999 999999 999999 999999 999999 999999 0 999999 999999 999999 999999 999999 999999 999999 999999 999999 999999 999999 14175
999999 13716 18342 17515 17748 18679 16262 13705 11378 12720 17751 12710 13142 11414 14854 12922 18447 15131 10035 18030 19593 17760 16379 10801 11317 18460 16350 17038 18330 16857 19811 13662 16806 16097 10431 18351 11000 17627 13536 13359 15019 19274 18922 13267 15724 18190 10636 12150 13063 16181 10575 999999 999999 999999 999999 999999 999999 999999 999999 999999 999999 999999 999999 999999 999999 999999 999999 999999 999999 999999 999999 999999 999999 999999 999999 999999 999999 999999 999999 999999 999999 999999 999999 999999 999999 999999 999999 999999 999999 999999 0 999999 999999 999999 999999 999999 999999 999999 999999 999999 999999 5636
999999 13300 12558 19829 19290 15996 18349 13261 18872 12568 18894 10649 19100 15176 11850 13812 17058 10272 17595 12522 13508 14373 12033 18155 15374 13526 12963 16499 11654 19929 17116 13333 19333 10099 16121 17349 10010 13112 15710 16574 15230 19368 10665 19101 16628 15207 10034 10817 14789 17389 19678 999999 999999 999999 999999 999999 999999 999999 999999 999999 999999 999999 999999 999999 999999 999999 999999 999999 999999 999999 999999 999999 999999 999999 999999 999999 999999 999999 999999 999999 999999 999999 999999 999999 999999 999999 999999 999999 999999 999999 999999 0 999999 999999 999999 999999 999999 999999 999999 999999 999999 14182
999999 16302 10441 18865 19458 14236 17847 11800 14695 10669 14388 19311 18118 15805 11924 17423 19604 17123 16038 13979 10452 15701 18474 11560 14536 17577 17382 19793 10583 10959 14997 14067 11711 15615 11590 13175 15011 16083 11832 11476 11758 10919 14917 19306 18751 12838 19097 11567 14383 12225 17525 999999 999999 999999 999999 999999 999999 999999 999999 999999 999999 999999 999999 999999 999999 999999 999999 999999 999999 999999 999999 999999 999999 999999 999999 999999 999999 999999 999999 999999 999999 999999 999999 999999 999999 999999 999999 999999 999999 999999 999999 999999 0 999999 999999 999999 999999 999999 999999 999999 999999 14991
999999 17424 11015 19520 10560 14145 13831 13486 14786 11022 14340 17252 16137 13119 19242 19546 14891 11331 15005 12356 15503 19157 17250 17197 13411 13087 10280 19030 16305 15218 10073 16561 12981 19147 18251 15851 15100 19408 19286 17834 14222 14408 13543 17522 17268 15393 17183 13253 17239 18555 16520 999999 999999 999999 999999 999999 999999 999999 999999 999999 999999 999999 999999 999999 999999 999999 999999 999999 999999 999999 999999 999999 999999 999999 999999 999999 999999 999999 999999 999999 999999 999999 999999 999999 999999 999999 999999 999999 999999 999999 999999 999999 999999 0 999999 999999 999999 999999 999999 999999 999999 10729
999999 18720 13870 16282 18415 11003 15529 18130 16259 19534 17367 16829 17806 13151 16560 10854 11180 17369 13639 19027 18105 15044 14163 17840 13563 14527 14262 10754 16992 16574 11824 14895 19872 13311 12585 19564 10221 17074 16249 12105 15702 16087 18205 17253 10650 11421 13761 15529 10580 14996 19573 999999 999999 999999 999999 999999 999999 999999 999999 999999 999999 999999 999999 999999 999999 999999 999999 999999 999999 999999 999999 999999 999999 999999 999999 999999 999999 999999 999999 999999 999999 999999 999999 999999 999999 999999 999999 999999 999999 999999 999999 999999 999999 999999 0 999999 999999 999999 999999 999999 999999 14326
999999 10540 13428 16978 19201 12711 11295 15105 11602 11916 15056 13958 10510 13701 16528 13662 10029 13755 16318 17988 18526 10621 17540 13045 16841 11738 12149 18715 10847 10981 15986 12086 13671 10201 18772 12755 15331 19694 15602 18667 12453 13816 18235 11940 12954 13057 10584 16917 11114 11000 12049 999999 999999 999999 999999 999999 999999 999999 999999 999999 999999 999999 999999 999999 999999 999999 999999 999999 999999 999999 999999 999999 999999 999999 999999 999999 999999 999999 999999 999999 999999 999999 999999 999999 999999 999999 999999 999999 999999 999999 999999 999999 999999 999999 999999 0 999999 999999 999999 999999 999999 10470
999999 11352 15999 13468 14665 12279 17500 17629 11842 12357 16487 11166 16721 17421 15258 18378 15026 10777 14569 18169 18081 14364 12143 13333 19810 15645 14786 16682 13480 14600 11144 16237 18571 14602 16445 11259 15605 16225 15573 13008 18043 11689 13281 19671 13300 15629 11386 10360 17484 13536 16656 999999 999999 999999 999999 999999 999999 999999 999999 999999 999999 999999 999999 999999 999999 999999 999999 999999 999999 999999 999999 999999 999999 999999 999999 999999 999999 999999 999999 999999 999999 999999 999999 999999 999999 999999 999999 999999 999999 999999 999999 999999 999999 999999 999999 999999 0 999999 999999 999999 999999 8298
999999 11228 14674 11381 18463 18584 17276 10986 15944 14840 11984 11440 16372 17387 19471 12882 18145 15639 14967 19213 17013 19038 16025 16883 17818 13554 17773 12703 19052 11024 15785 13208 19228 11089 12578 13735 14243 17908 17398 13929 16398 11293 15500 14290 15685 13936 15586 18220 16309 16727 12332 999999 999999 999999 999999 999999 999999 999999 999999 999999 999999 999999 999999 999999 999999 999999 999999 999999 999999 999999 999999 999999 999999 999999 999999 999999 999999 999999 999999 999999 999999 999999 999999 999999 999999 999999 999999 999999 999999 999999 999999 999999 999999 999999 999999 999999 999999 0 999999 999999 999999 7970
999999 13781 18472 17204 15089 12526 12825 17172 18692 16462 17899 10377 18453 16838 12292 12292 17294 11653 12617 12487 19986 16099 12281 14771 15479 10928 16135 11314 11442 13380 15271 14063 13925 19703 15349 19638 16094 10241 16529 10250 11753 19551 13487 15716 10568 15399 15019 13625 19571 19497 15918 999999 999999 999999 999999 999999 999999 999999 999999 999999 999999 999999 999999 999999 999999 999999 999999 999999 999999 999999 999999 999999 999999 999999 999999 999999 999999 999999 999999 999999 999999 999999 999999 999999 999999 999999 999999 999999 999999 999999 999999 999999 999999 999999 999999 999999 999999 999999 0 999999 999999 6189
999999 17538 17130 17398 15560 17983 15205 17626 12361 19673 10269 18777 18464 16338 16582 11426 10824 18392 11966 19696 11253 17669 13715 10398 19628 16566 13362 17746 19305 18928 10797 17541 19860 11117 11206 10920 11959 18757 16066 15800 14030 11792 18269 15714 11652 12247 12720 17551 16378 19952 13675 999999 999999 999999 999999 999999 999999 999999 999999 999999 999999 999999 999999 999999 999999 999999 999999 999999 999999 999999 999999 999999 999999 999999 999999 999999 999999 999999 999999 999999 999999 999999 999999 999999 999999 999999 999999 999999 999999 999999 999999 999999 999999 999999 999999 999999 999999 999999 999999 0 999999 14798
999999 15211 19260 12294 12030 10829 10799 16858 16994 16094 11854 15670 16621 10981 14845 10101 10714 13905 15432 17128 10923 11512 18699 16572 10536 12670 19071 11909 14950 19550 12660 13054 11739 19717 19668 14378 11465 13158 13003 12051 18289 10949 14259 11416 14035 11161 18544 13618 18896 19351 18278 999999 999999 999999 999999 999999 999999 999999 999999 999999 999999 999999 999999 999999 999999 999999 999999 999999 999999 999999 999999 999999 999999 999999 999999 999999 999999 999999 999999 999999 999999 999999 999999 999999 999999 999999 999999 999999 999999 999999 999999 999999 999999 999999 999999 999999 999999 999999 999999 999999 0 7509
1 999999 999999 999999 999999 999999 999999 999999 999999 999999 999999 999999 999999 999999 999999 999999 999999 999999 999999 999999 999999 999999 999999 999999 999999 999999 999999 999999 999999 999999 999999 999999 999999 999999 999999 999999 999999 999999 999999 999999 999999 999999 999999 999999 999999 999999 999999 999999 999999 999999 999999 999999 999999 999999 999999 999999 999999 999999 999999 999999 999999 999999 999999 999999 999999 999999 999999 999999 999999 999999 999999 999999 999999 999999 999999 999999 999999 999999 999999 999999 999999 999999 999999 999999 999999 999999 999999 999999 999999 999999 999999 999999 999999 999999 999999 999999 999999 999999 999999 999999 999999 0
EOF