NAME: GR_1x5x8_KH_5x8_Run_10
TYPE: TSP
COMMENT: BTSP instance |A|=40 GR nodes |B|=40 KH nodes depot=0.0 end=0.0.0
DIMENSION: 82
EDGE_WEIGHT_TYPE: EXPLICIT
EDGE_WEIGHT_FORMAT: FULL_MATRIX
NODE_COORD_TYPE: NO_COORDS
EDGE_WEIGHT_SECTION
0 9445 5356 12174 6967 5827 10492 7342 14279 14172 12207 9685 14130 12588 6625 10888 6991 13172 13638 5907 9887 13665 10226 5044 9948 9855 12670 12731 10861 14125 12933 6653 7576 13202 6574 5717 9892 8101 10626 10699 7576 999999 999999 999999 999999 999999 999999 999999 999999 999999 999999 999999 999999 999999 999999 999999 999999 999999 999999 999999 999999 999999 999999 999999 999999 999999 999999 999999 999999 999999 999999 999999 999999 999999 999999 999999 999999 999999 999999 999999 999999 999999
999999 0 999999 999999 999999 999999 999999 999999 999999 999999 999999 999999 999999 999999 999999 999999 999999 999999 999999 999999 999999 999999 999999 999999 999999 999999 999999 999999 999999 999999 999999 999999 999999 999999 999999 999999 999999 999999 999999 999999 999999 999999 16199 999999 999999 15540 999999 999999 999999 999999 999999 19020 999999 999999 999999 999999 999999 17288 999999 999999 12812 999999 14306 999999 999999 999999 19109 999999 999999 999999 999999 16892 999999 999999 999999 999999 999999 999999 999999 999999 999999 999999
999999 999999 0 999999 999999 999999 999999 999999 999999 999999 999999 999999 999999 999999 999999 999999 999999 999999 999999 999999 999999 999999 999999 999999 999999 999999 999999 999999 999999 999999 999999 999999 999999 999999 999999 999999 999999 999999 999999 999999 999999 999999 10615 999999 999999 18478 999999 999999 999999 999999 999999 13463 999999 999999 999999 999999 999999 10752 999999 999999 16298 999999 14082 999999 999999 999999 19454 999999 999999 999999 999999 19954 999999 999999 999999 999999 999999 999999 999999 999999 999999 999999
999999 999999 999999 0 999999 999999 999999 999999 999999 999999 999999 999999 999999 999999 999999 999999 999999 999999 999999 999999 999999 999999 999999 999999 999999 999999 999999 999999 999999 999999 999999 999999 999999 999999 999999 999999 999999 999999 999999 999999 999999 999999 15550 999999 999999 10446 999999 999999 999999 999999 999999 18666 999999 999999 999999 999999 999999 10541 999999 999999 18075 999999 12600 999999 999999 999999 14099 999999 999999 999999 999999 12817 999999 999999 999999 999999 999999 999999 999999 999999 999999 999999
999999 999999 999999 999999 0 999999 999999 999999 999999 999999 999999 999999 999999 999999 999999 999999 999999 999999 999999 999999 999999 999999 999999 999999 999999 999999 999999 999999 999999 999999 999999 999999 999999 999999 999999 999999 999999 999999 999999 999999 999999 999999 11950 999999 999999 13288 999999 999999 999999 999999 999999 13334 999999 999999 999999 999999 999999 16099 999999 999999 14277 999999 10332 999999 999999 999999 15122 999999 999999 999999 999999 14710 999999 999999 999999 999999 999999 999999 999999 999999 999999 999999
999999 999999 999999 999999 999999 0 999999 999999 999999 999999 999999 999999 999999 999999 999999 999999 999999 999999 999999 999999 999999 999999 999999 999999 999999 999999 999999 999999 999999 999999 999999 999999 999999 999999 999999 999999 999999 999999 999999 999999 999999 999999 11321 999999 999999 15432 999999 999999 999999 999999 999999 15507 999999 999999 999999 999999 999999 16011 999999 999999 10227 999999 12957 999999 999999 999999 12930 999999 999999 999999 999999 18448 999999 999999 999999 999999 999999 999999 999999 999999 999999 999999
999999 999999 999999 999999 999999 999999 0 999999 999999 999999 999999 999999 999999 999999 999999 999999 999999 999999 999999 999999 999999 999999 999999 999999 999999 999999 999999 999999 999999 999999 999999 999999 999999 999999 999999 999999 999999 999999 999999 999999 999999 999999 12062 999999 999999 17493 999999 999999 999999 999999 999999 17302 999999 999999 999999 999999 999999 18651 999999 999999 10021 999999 11149 999999 999999 999999 12421 999999 999999 999999 999999 14681 999999 999999 999999 999999 999999 999999 999999 999999 999999 999999
999999 999999 999999 999999 999999 999999 999999 0 999999 999999 999999 999999 999999 999999 999999 999999 999999 999999 999999 999999 999999 999999 999999 999999 999999 999999 999999 999999 999999 999999 999999 999999 999999 999999 999999 999999 999999 999999 999999 999999 999999 999999 16041 999999 999999 12990 999999 999999 999999 999999 999999 18882 999999 999999 999999 999999 999999 18677 999999 999999 15648 999999 12871 999999 999999 999999 14806 999999 999999 999999 999999 10186 999999 999999 999999 999999 999999 999999 999999 999999 999999 999999
999999 999999 999999 999999 999999 999999 999999 999999 0 999999 999999 999999 999999 999999 999999 999999 999999 999999 999999 999999 999999 999999 999999 999999 999999 999999 999999 999999 999999 999999 999999 999999 999999 999999 999999 999999 999999 999999 999999 999999 999999 999999 17897 999999 999999 10950 999999 999999 999999 999999 999999 12024 999999 999999 999999 999999 999999 12284 999999 999999 11307 999999 15829 999999 999999 999999 10662 999999 999999 999999 999999 19063 999999 999999 999999 999999 999999 999999 999999 999999 999999 999999
999999 999999 999999 999999 999999 999999 999999 999999 999999 0 999999 999999 999999 999999 999999 999999 999999 999999 999999 999999 999999 999999 999999 999999 999999 999999 999999 999999 999999 999999 999999 999999 999999 999999 999999 999999 999999 999999 999999 999999 999999 19229 999999 999999 999999 999999 13607 999999 999999 999999 999999 999999 999999 999999 10397 999999 999999 999999 999999 999999 999999 11861 999999 999999 999999 999999 999999 999999 999999 15617 999999 999999 999999 999999 15518 999999 17931 999999 999999 13827 999999 999999
999999 999999 999999 999999 999999 999999 999999 999999 999999 999999 0 999999 999999 999999 999999 999999 999999 999999 999999 999999 999999 999999 999999 999999 999999 999999 999999 999999 999999 999999 999999 999999 999999 999999 999999 999999 999999 999999 999999 999999 999999 17450 999999 999999 999999 999999 12528 999999 999999 999999 999999 999999 999999 999999 15854 999999 999999 999999 999999 999999 999999 15987 999999 999999 999999 999999 999999 999999 999999 17543 999999 999999 999999 999999 14075 999999 17949 999999 999999 17745 999999 999999
999999 999999 999999 999999 999999 999999 999999 999999 999999 999999 999999 0 999999 999999 999999 999999 999999 999999 999999 999999 999999 999999 999999 999999 999999 999999 999999 999999 999999 999999 999999 999999 999999 999999 999999 999999 999999 999999 999999 999999 999999 17393 999999 999999 999999 999999 12868 999999 999999 999999 999999 999999 999999 999999 10937 999999 999999 999999 999999 999999 999999 18902 999999 999999 999999 999999 999999 999999 999999 11648 999999 999999 999999 999999 15301 999999 11331 999999 999999 18351 999999 999999
999999 999999 999999 999999 999999 999999 999999 999999 999999 999999 999999 999999 0 999999 999999 999999 999999 999999 999999 999999 999999 999999 999999 999999 999999 999999 999999 999999 999999 999999 999999 999999 999999 999999 999999 999999 999999 999999 999999 999999 999999 19533 999999 999999 999999 999999 15958 999999 999999 999999 999999 999999 999999 999999 11618 999999 999999 999999 999999 999999 999999 14153 999999 999999 999999 999999 999999 999999 999999 11417 999999 999999 999999 999999 11188 999999 19601 999999 999999 17371 999999 999999
999999 999999 999999 999999 999999 999999 999999 999999 999999 999999 999999 999999 999999 0 999999 999999 999999 999999 999999 999999 999999 999999 999999 999999 999999 999999 999999 999999 999999 999999 999999 999999 999999 999999 999999 999999 999999 999999 999999 999999 999999 16385 999999 999999 999999 999999 18071 999999 999999 999999 999999 999999 999999 999999 10289 999999 999999 999999 999999 999999 999999 12099 999999 999999 999999 999999 999999 999999 999999 10547 999999 999999 999999 999999 13292 999999 17333 999999 999999 19543 999999 999999
999999 999999 999999 999999 999999 999999 999999 999999 999999 999999 999999 999999 999999 999999 0 999999 999999 999999 999999 999999 999999 999999 999999 999999 999999 999999 999999 999999 999999 999999 999999 999999 999999 999999 999999 999999 999999 999999 999999 999999 999999 16117 999999 999999 999999 999999 17956 999999 999999 999999 999999 999999 999999 999999 15764 999999 999999 999999 999999 999999 999999 17374 999999 999999 999999 999999 999999 999999 999999 16937 999999 999999 999999 999999 16980 999999 19968 999999 999999 10020 999999 999999
999999 999999 999999 999999 999999 999999 999999 999999 999999 999999 999999 999999 999999 999999 999999 0 999999 999999 999999 999999 999999 999999 999999 999999 999999 999999 999999 999999 999999 999999 999999 999999 999999 999999 999999 999999 999999 999999 999999 999999 999999 13626 999999 999999 999999 999999 16085 999999 999999 999999 999999 999999 999999 999999 17117 999999 999999 999999 999999 999999 999999 16941 999999 999999 999999 999999 999999 999999 999999 13219 999999 999999 999999 999999 15408 999999 18530 999999 999999 12884 999999 999999
999999 999999 999999 999999 999999 999999 999999 999999 999999 999999 999999 999999 999999 999999 999999 999999 0 999999 999999 999999 999999 999999 999999 999999 999999 999999 999999 999999 999999 999999 999999 999999 999999 999999 999999 999999 999999 999999 999999 999999 999999 17850 999999 999999 999999 999999 12557 999999 999999 999999 999999 999999 999999 999999 13287 999999 999999 999999 999999 999999 999999 11705 999999 999999 999999 999999 999999 999999 999999 14975 999999 999999 999999 999999 10150 999999 15916 999999 999999 16886 999999 999999
999999 999999 999999 999999 999999 999999 999999 999999 999999 999999 999999 999999 999999 999999 999999 999999 999999 0 999999 999999 999999 999999 999999 999999 999999 999999 999999 999999 999999 999999 999999 999999 999999 999999 999999 999999 999999 999999 999999 999999 999999 999999 999999 12747 999999 999999 999999 999999 16046 14326 10804 999999 10245 10090 999999 999999 10710 999999 999999 999999 999999 999999 999999 999999 999999 15848 999999 999999 999999 999999 999999 999999 999999 999999 999999 999999 999999 999999 999999 999999 999999 999999
999999 999999 999999 999999 999999 999999 999999 999999 999999 999999 999999 999999 999999 999999 999999 999999 999999 999999 0 999999 999999 999999 999999 999999 999999 999999 999999 999999 999999 999999 999999 999999 999999 999999 999999 999999 999999 999999 999999 999999 999999 999999 999999 13837 999999 999999 999999 999999 11438 17753 17234 999999 19823 19838 999999 999999 18203 999999 999999 999999 999999 999999 999999 999999 999999 14924 999999 999999 999999 999999 999999 999999 999999 999999 999999 999999 999999 999999 999999 999999 999999 999999
999999 999999 999999 999999 999999 999999 999999 999999 999999 999999 999999 999999 999999 999999 999999 999999 999999 999999 999999 0 999999 999999 999999 999999 999999 999999 999999 999999 999999 999999 999999 999999 999999 999999 999999 999999 999999 999999 999999 999999 999999 999999 999999 17291 999999 999999 999999 999999 18903 14693 14677 999999 13787 14067 999999 999999 11475 999999 999999 999999 999999 999999 999999 999999 999999 16385 999999 999999 999999 999999 999999 999999 999999 999999 999999 999999 999999 999999 999999 999999 999999 999999
999999 999999 999999 999999 999999 999999 999999 999999 999999 999999 999999 999999 999999 999999 999999 999999 999999 999999 999999 999999 0 999999 999999 999999 999999 999999 999999 999999 999999 999999 999999 999999 999999 999999 999999 999999 999999 999999 999999 999999 999999 999999 999999 15211 999999 999999 999999 999999 15748 13661 10861 999999 15109 15393 999999 999999 15719 999999 999999 999999 999999 999999 999999 999999 999999 14038 999999 999999 999999 999999 999999 999999 999999 999999 999999 999999 999999 999999 999999 999999 999999 999999
999999 999999 999999 999999 999999 999999 999999 999999 999999 999999 999999 999999 999999 999999 999999 999999 999999 999999 999999 999999 999999 0 999999 999999 999999 999999 999999 999999 999999 999999 999999 999999 999999 999999 999999 999999 999999 999999 999999 999999 999999 999999 999999 18332 999999 999999 999999 999999 12283 11782 11892 999999 14228 19906 999999 999999 15454 999999 999999 999999 999999 999999 999999 999999 999999 16342 999999 999999 999999 999999 999999 999999 999999 999999 999999 999999 999999 999999 999999 999999 999999 999999
999999 999999 999999 999999 999999 999999 999999 999999 999999 999999 999999 999999 999999 999999 999999 999999 999999 999999 999999 999999 999999 999999 0 999999 999999 999999 999999 999999 999999 999999 999999 999999 999999 999999 999999 999999 999999 999999 999999 999999 999999 999999 999999 10435 999999 999999 999999 999999 13214 17889 14226 999999 13804 16970 999999 999999 19078 999999 999999 999999 999999 999999 999999 999999 999999 15865 999999 999999 999999 999999 999999 999999 999999 999999 999999 999999 999999 999999 999999 999999 999999 999999
999999 999999 999999 999999 999999 999999 999999 999999 999999 999999 999999 999999 999999 999999 999999 999999 999999 999999 999999 999999 999999 999999 999999 0 999999 999999 999999 999999 999999 999999 999999 999999 999999 999999 999999 999999 999999 999999 999999 999999 999999 999999 999999 10155 999999 999999 999999 999999 13889 16608 10182 999999 15141 12238 999999 999999 13204 999999 999999 999999 999999 999999 999999 999999 999999 11699 999999 999999 999999 999999 999999 999999 999999 999999 999999 999999 999999 999999 999999 999999 999999 999999
999999 999999 999999 999999 999999 999999 999999 999999 999999 999999 999999 999999 999999 999999 999999 999999 999999 999999 999999 999999 999999 999999 999999 999999 0 999999 999999 999999 999999 999999 999999 999999 999999 999999 999999 999999 999999 999999 999999 999999 999999 999999 999999 17422 999999 999999 999999 999999 12986 15788 16904 999999 16308 18832 999999 999999 16396 999999 999999 999999 999999 999999 999999 999999 999999 17845 999999 999999 999999 999999 999999 999999 999999 999999 999999 999999 999999 999999 999999 999999 999999 999999
999999 999999 999999 999999 999999 999999 999999 999999 999999 999999 999999 999999 999999 999999 999999 999999 999999 999999 999999 999999 999999 999999 999999 999999 999999 0 999999 999999 999999 999999 999999 999999 999999 999999 999999 999999 999999 999999 999999 999999 999999 999999 999999 999999 17676 999999 999999 15725 999999 999999 999999 999999 999999 999999 999999 999999 999999 999999 18442 999999 999999 999999 999999 10116 13657 999999 999999 16566 11216 999999 12320 999999 999999 999999 999999 999999 999999 999999 999999 999999 999999 999999
999999 999999 999999 999999 999999 999999 999999 999999 999999 999999 999999 999999 999999 999999 999999 999999 999999 999999 999999 999999 999999 999999 999999 999999 999999 999999 0 999999 999999 999999 999999 999999 999999 999999 999999 999999 999999 999999 999999 999999 999999 999999 999999 999999 16668 999999 999999 13900 999999 999999 999999 999999 999999 999999 999999 999999 999999 999999 10139 999999 999999 999999 999999 15261 18505 999999 999999 18088 16373 999999 18524 999999 999999 999999 999999 999999 999999 999999 999999 999999 999999 999999
999999 999999 999999 999999 999999 999999 999999 999999 999999 999999 999999 999999 999999 999999 999999 999999 999999 999999 999999 999999 999999 999999 999999 999999 999999 999999 999999 0 999999 999999 999999 999999 999999 999999 999999 999999 999999 999999 999999 999999 999999 999999 999999 999999 13921 999999 999999 12587 999999 999999 999999 999999 999999 999999 999999 999999 999999 999999 13155 999999 999999 999999 999999 10152 10098 999999 999999 10043 13466 999999 13703 999999 999999 999999 999999 999999 999999 999999 999999 999999 999999 999999
999999 999999 999999 999999 999999 999999 999999 999999 999999 999999 999999 999999 999999 999999 999999 999999 999999 999999 999999 999999 999999 999999 999999 999999 999999 999999 999999 999999 0 999999 999999 999999 999999 999999 999999 999999 999999 999999 999999 999999 999999 999999 999999 999999 14760 999999 999999 14360 999999 999999 999999 999999 999999 999999 999999 999999 999999 999999 12175 999999 999999 999999 999999 16988 19848 999999 999999 13349 16525 999999 12278 999999 999999 999999 999999 999999 999999 999999 999999 999999 999999 999999
999999 999999 999999 999999 999999 999999 999999 999999 999999 999999 999999 999999 999999 999999 999999 999999 999999 999999 999999 999999 999999 999999 999999 999999 999999 999999 999999 999999 999999 0 999999 999999 999999 999999 999999 999999 999999 999999 999999 999999 999999 999999 999999 999999 11775 999999 999999 19005 999999 999999 999999 999999 999999 999999 999999 999999 999999 999999 15165 999999 999999 999999 999999 11692 16329 999999 999999 12559 16202 999999 14402 999999 999999 999999 999999 999999 999999 999999 999999 999999 999999 999999
999999 999999 999999 999999 999999 999999 999999 999999 999999 999999 999999 999999 999999 999999 999999 999999 999999 999999 999999 999999 999999 999999 999999 999999 999999 999999 999999 999999 999999 999999 0 999999 999999 999999 999999 999999 999999 999999 999999 999999 999999 999999 999999 999999 10477 999999 999999 19794 999999 999999 999999 999999 999999 999999 999999 999999 999999 999999 19829 999999 999999 999999 999999 11375 13359 999999 999999 17636 18418 999999 17323 999999 999999 999999 999999 999999 999999 999999 999999 999999 999999 999999
999999 999999 999999 999999 999999 999999 999999 999999 999999 999999 999999 999999 999999 999999 999999 999999 999999 999999 999999 999999 999999 999999 999999 999999 999999 999999 999999 999999 999999 999999 999999 0 999999 999999 999999 999999 999999 999999 999999 999999 999999 999999 999999 999999 15668 999999 999999 10598 999999 999999 999999 999999 999999 999999 999999 999999 999999 999999 17696 999999 999999 999999 999999 16390 19821 999999 999999 17656 15358 999999 14668 999999 999999 999999 999999 999999 999999 999999 999999 999999 999999 999999
999999 999999 999999 999999 999999 999999 999999 999999 999999 999999 999999 999999 999999 999999 999999 999999 999999 999999 999999 999999 999999 999999 999999 999999 999999 999999 999999 999999 999999 999999 999999 999999 0 999999 999999 999999 999999 999999 999999 999999 999999 999999 999999 999999 17015 999999 999999 17553 999999 999999 999999 999999 999999 999999 999999 999999 999999 999999 19808 999999 999999 999999 999999 14540 11585 999999 999999 19412 18506 999999 16490 999999 999999 999999 999999 999999 999999 999999 999999 999999 999999 999999
999999 999999 999999 999999 999999 999999 999999 999999 999999 999999 999999 999999 999999 999999 999999 999999 999999 999999 999999 999999 999999 999999 999999 999999 999999 999999 999999 999999 999999 999999 999999 999999 999999 0 999999 999999 999999 999999 999999 999999 999999 999999 999999 999999 999999 999999 999999 999999 999999 999999 999999 999999 999999 999999 999999 14400 999999 999999 999999 14211 999999 999999 999999 999999 999999 999999 999999 999999 999999 999999 999999 999999 12499 11746 999999 18350 999999 16315 11263 999999 15254 999999
999999 999999 999999 999999 999999 999999 999999 999999 999999 999999 999999 999999 999999 999999 999999 999999 999999 999999 999999 999999 999999 999999 999999 999999 999999 999999 999999 999999 999999 999999 999999 999999 999999 999999 0 999999 999999 999999 999999 999999 999999 999999 999999 999999 999999 999999 999999 999999 999999 999999 999999 999999 999999 999999 999999 13389 999999 999999 999999 16657 999999 999999 999999 999999 999999 999999 999999 999999 999999 999999 999999 999999 14003 13036 999999 15625 999999 17885 11658 999999 15685 999999
999999 999999 999999 999999 999999 999999 999999 999999 999999 999999 999999 999999 999999 999999 999999 999999 999999 999999 999999 999999 999999 999999 999999 999999 999999 999999 999999 999999 999999 999999 999999 999999 999999 999999 999999 0 999999 999999 999999 999999 999999 999999 999999 999999 999999 999999 999999 999999 999999 999999 999999 999999 999999 999999 999999 19953 999999 999999 999999 19109 999999 999999 999999 999999 999999 999999 999999 999999 999999 999999 999999 999999 19695 17153 999999 14093 999999 19827 16821 999999 16663 999999
999999 999999 999999 999999 999999 999999 999999 999999 999999 999999 999999 999999 999999 999999 999999 999999 999999 999999 999999 999999 999999 999999 999999 999999 999999 999999 999999 999999 999999 999999 999999 999999 999999 999999 999999 999999 0 999999 999999 999999 999999 999999 999999 999999 999999 999999 999999 999999 999999 999999 999999 999999 999999 999999 999999 19771 999999 999999 999999 18367 999999 999999 999999 999999 999999 999999 999999 999999 999999 999999 999999 999999 16751 15268 999999 17135 999999 19024 19560 999999 13353 999999
999999 999999 999999 999999 999999 999999 999999 999999 999999 999999 999999 999999 999999 999999 999999 999999 999999 999999 999999 999999 999999 999999 999999 999999 999999 999999 999999 999999 999999 999999 999999 999999 999999 999999 999999 999999 999999 0 999999 999999 999999 999999 999999 999999 999999 999999 999999 999999 999999 999999 999999 999999 999999 999999 999999 14211 999999 999999 999999 15208 999999 999999 999999 999999 999999 999999 999999 999999 999999 999999 999999 999999 19917 17347 999999 11972 999999 14839 13358 999999 14848 999999
999999 999999 999999 999999 999999 999999 999999 999999 999999 999999 999999 999999 999999 999999 999999 999999 999999 999999 999999 999999 999999 999999 999999 999999 999999 999999 999999 999999 999999 999999 999999 999999 999999 999999 999999 999999 999999 999999 0 999999 999999 999999 999999 999999 999999 999999 999999 999999 999999 999999 999999 999999 999999 999999 999999 16596 999999 999999 999999 15551 999999 999999 999999 999999 999999 999999 999999 999999 999999 999999 999999 999999 17967 19053 999999 18017 999999 19103 19791 999999 16692 999999
999999 999999 999999 999999 999999 999999 999999 999999 999999 999999 999999 999999 999999 999999 999999 999999 999999 999999 999999 999999 999999 999999 999999 999999 999999 999999 999999 999999 999999 999999 999999 999999 999999 999999 999999 999999 999999 999999 999999 0 999999 999999 999999 999999 999999 999999 999999 999999 999999 999999 999999 999999 999999 999999 999999 15830 999999 999999 999999 10436 999999 999999 999999 999999 999999 999999 999999 999999 999999 999999 999999 999999 10091 11823 999999 18563 999999 14896 16664 999999 14935 999999
999999 999999 999999 999999 999999 999999 999999 999999 999999 999999 999999 999999 999999 999999 999999 999999 999999 999999 999999 999999 999999 999999 999999 999999 999999 999999 999999 999999 999999 999999 999999 999999 999999 999999 999999 999999 999999 999999 999999 999999 0 999999 999999 999999 999999 999999 999999 999999 999999 999999 999999 999999 999999 999999 999999 18271 999999 999999 999999 17322 999999 999999 999999 999999 999999 999999 999999 999999 999999 999999 999999 999999 17203 13170 999999 15713 999999 14128 16010 999999 18286 999999
999999 16633 11010 17396 15097 15292 15194 15730 18601 19229 17450 17393 19533 16385 16117 13626 17850 11755 19491 15461 16670 10454 10861 17706 10132 12224 19440 19818 16424 18322 18515 12945 16804 16512 11842 19211 17656 13289 12636 11597 16760 0 999999 999999 999999 999999 999999 999999 999999 999999 999999 999999 999999 999999 999999 999999 999999 999999 999999 999999 999999 999999 999999 999999 999999 999999 999999 999999 999999 999999 999999 999999 999999 999999 999999 999999 999999 999999 999999 999999 999999 9940
999999 16199 10615 15550 11950 11321 12062 16041 17897 13446 10550 15768 14108 10082 10391 16389 13826 14790 12485 13213 11080 18523 10194 17066 18062 15514 10853 18777 11704 10053 11205 11448 12881 16275 18450 10447 12795 14512 16324 11397 11325 999999 0 999999 999999 999999 999999 999999 999999 999999 999999 999999 999999 999999 999999 999999 999999 999999 999999 999999 999999 999999 999999 999999 999999 999999 999999 999999 999999 999999 999999 999999 999999 999999 999999 999999 999999 999999 999999 999999 999999 8950
999999 11021 13871 12171 18238 19576 14072 13813 18823 15009 18407 16438 12779 15075 16928 17718 11115 12747 13837 17291 15211 18332 10435 10155 17422 10752 17933 19957 11866 18096 19109 11841 19166 14554 14909 10740 19993 16100 16877 16367 15927 999999 999999 0 999999 999999 999999 999999 999999 999999 999999 999999 999999 999999 999999 999999 999999 999999 999999 999999 999999 999999 999999 999999 999999 999999 999999 999999 999999 999999 999999 999999 999999 999999 999999 999999 999999 999999 999999 999999 999999 10109
999999 16313 19576 12864 19822 19385 16602 18860 10334 17966 11890 14865 13461 12566 10623 16135 11161 11114 14855 11988 19597 16712 10656 16315 17854 17676 16668 13921 14760 11775 10477 15668 17015 13643 18326 17971 12212 17312 15480 12287 18325 999999 999999 999999 0 999999 999999 999999 999999 999999 999999 999999 999999 999999 999999 999999 999999 999999 999999 999999 999999 999999 999999 999999 999999 999999 999999 999999 999999 999999 999999 999999 999999 999999 999999 999999 999999 999999 999999 999999 999999 13407
999999 15540 18478 10446 13288 15432 17493 12990 10950 12030 11324 18296 13329 15434 19210 17865 15597 17393 19623 11480 15180 15908 14469 13165 13026 18801 19914 16614 10437 13677 10479 10890 12475 14767 13620 12642 14455 19443 18038 19638 10064 999999 999999 999999 999999 0 999999 999999 999999 999999 999999 999999 999999 999999 999999 999999 999999 999999 999999 999999 999999 999999 999999 999999 999999 999999 999999 999999 999999 999999 999999 999999 999999 999999 999999 999999 999999 999999 999999 999999 999999 12250
999999 18552 19717 15225 11995 15358 17217 18021 18314 13607 12528 12868 15958 18071 17956 16085 12557 17044 15867 17465 18608 16221 18399 14124 16781 15290 15455 18618 11821 11295 14943 10268 13596 12002 19647 14586 18010 15743 14897 14709 10179 999999 999999 999999 999999 999999 0 999999 999999 999999 999999 999999 999999 999999 999999 999999 999999 999999 999999 999999 999999 999999 999999 999999 999999 999999 999999 999999 999999 999999 999999 999999 999999 999999 999999 999999 999999 999999 999999 999999 999999 10296
999999 17137 17753 16870 17435 10424 14951 18195 13397 11799 15906 10392 13163 18004 12505 16218 16663 18082 16840 16415 16426 18387 12859 13590 17875 15725 13900 12587 14360 19005 19794 10598 17553 14149 17690 10754 15675 18337 14076 16739 19837 999999 999999 999999 999999 999999 999999 0 999999 999999 999999 999999 999999 999999 999999 999999 999999 999999 999999 999999 999999 999999 999999 999999 999999 999999 999999 999999 999999 999999 999999 999999 999999 999999 999999 999999 999999 999999 999999 999999 999999 6576
999999 19081 16257 16313 18367 10753 18732 14940 19220 19567 18671 16393 17936 14022 13594 18578 12368 16046 11438 18903 15748 12283 13214 13889 12986 16253 11956 18591 10198 13451 13946 15020 14149 19559 11156 19067 11908 10770 18096 12164 16424 999999 999999 999999 999999 999999 999999 999999 0 999999 999999 999999 999999 999999 999999 999999 999999 999999 999999 999999 999999 999999 999999 999999 999999 999999 999999 999999 999999 999999 999999 999999 999999 999999 999999 999999 999999 999999 999999 999999 999999 8092
999999 19420 13030 16366 14065 14853 11470 15170 15786 11465 19645 14239 17105 12134 12761 10134 19340 14326 17753 14693 13661 11782 17889 16608 15788 10930 15392 13139 11541 10611 15793 19702 17985 18884 14753 15425 19727 15290 14585 17862 12538 999999 999999 999999 999999 999999 999999 999999 999999 0 999999 999999 999999 999999 999999 999999 999999 999999 999999 999999 999999 999999 999999 999999 999999 999999 999999 999999 999999 999999 999999 999999 999999 999999 999999 999999 999999 999999 999999 999999 999999 8045
999999 13304 12398 10623 15433 18144 18672 16253 12899 18925 19330 10218 10387 17876 15108 17277 16043 10804 17234 14677 10861 11892 14226 10182 16904 17344 15086 19697 15374 13803 18852 18334 10865 18549 15369 13851 16398 15139 10513 18863 12950 999999 999999 999999 999999 999999 999999 999999 999999 999999 0 999999 999999 999999 999999 999999 999999 999999 999999 999999 999999 999999 999999 999999 999999 999999 999999 999999 999999 999999 999999 999999 999999 999999 999999 999999 999999 999999 999999 999999 999999 10415
999999 19020 13463 18666 13334 15507 17302 18882 12024 15973 15337 17800 12111 11544 11281 15239 19785 13487 14136 12593 11340 17866 12855 13227 13422 18774 18084 14259 19977 18528 17272 12217 11579 10708 14536 12816 11539 19613 17473 11256 13316 999999 999999 999999 999999 999999 999999 999999 999999 999999 999999 0 999999 999999 999999 999999 999999 999999 999999 999999 999999 999999 999999 999999 999999 999999 999999 999999 999999 999999 999999 999999 999999 999999 999999 999999 999999 999999 999999 999999 999999 10568
999999 19478 19415 18755 15595 15268 13309 18522 10212 12204 11260 19050 15247 18480 18533 18610 18286 10245 19823 13787 15109 14228 13804 15141 16308 16828 12409 11622 19707 13077 13557 13777 13600 18325 19906 14729 19543 14606 11984 12933 12804 999999 999999 999999 999999 999999 999999 999999 999999 999999 999999 999999 0 999999 999999 999999 999999 999999 999999 999999 999999 999999 999999 999999 999999 999999 999999 999999 999999 999999 999999 999999 999999 999999 999999 999999 999999 999999 999999 999999 999999 5072
999999 10036 14407 19191 10226 12467 19351 15139 12832 10043 19701 13617 16362 11620 15169 18405 16283 10090 19838 14067 15393 19906 16970 12238 18832 15487 13420 15238 14517 19501 19360 13941 15547 16237 11292 18412 10171 15500 10361 15072 17118 999999 999999 999999 999999 999999 999999 999999 999999 999999 999999 999999 999999 0 999999 999999 999999 999999 999999 999999 999999 999999 999999 999999 999999 999999 999999 999999 999999 999999 999999 999999 999999 999999 999999 999999 999999 999999 999999 999999 999999 5232
999999 17225 14016 10252 19996 18055 11651 13045 16006 10397 15854 10937 11618 10289 15764 17117 13287 10132 17314 13903 13689 12278 10128 13411 14789 15302 14692 16434 12824 14550 17395 14566 16931 15004 13671 18319 13743 17122 17593 15268 16714 999999 999999 999999 999999 999999 999999 999999 999999 999999 999999 999999 999999 999999 0 999999 999999 999999 999999 999999 999999 999999 999999 999999 999999 999999 999999 999999 999999 999999 999999 999999 999999 999999 999999 999999 999999 999999 999999 999999 999999 14351
999999 17195 12501 13895 12384 15517 13128 18665 14047 11554 14488 18327 19011 13250 18185 14983 17407 13810 19008 12519 17508 13713 14555 17050 16976 18828 14629 17644 14534 19875 17551 19208 14202 14400 13389 19953 19771 14211 16596 15830 18271 999999 999999 999999 999999 999999 999999 999999 999999 999999 999999 999999 999999 999999 999999 0 999999 999999 999999 999999 999999 999999 999999 999999 999999 999999 999999 999999 999999 999999 999999 999999 999999 999999 999999 999999 999999 999999 999999 999999 999999 5531
999999 10240 16282 11651 17618 16819 10736 13570 12499 17311 11725 18739 18417 18961 11341 17466 10506 10710 18203 11475 15719 15454 19078 13204 16396 16841 10319 14910 12265 15372 13088 11121 10564 19373 14522 12109 10879 19110 10143 11845 11665 999999 999999 999999 999999 999999 999999 999999 999999 999999 999999 999999 999999 999999 999999 999999 0 999999 999999 999999 999999 999999 999999 999999 999999 999999 999999 999999 999999 999999 999999 999999 999999 999999 999999 999999 999999 999999 999999 999999 999999 13839
999999 17288 10752 10541 16099 16011 18651 18677 12284 19943 16000 15690 17386 12025 13477 18180 18252 13696 10426 12314 15213 18326 13113 18651 16602 14618 16510 11672 19284 18571 16951 15906 18504 14440 14222 15147 16523 18300 18211 17420 10848 999999 999999 999999 999999 999999 999999 999999 999999 999999 999999 999999 999999 999999 999999 999999 999999 0 999999 999999 999999 999999 999999 999999 999999 999999 999999 999999 999999 999999 999999 999999 999999 999999 999999 999999 999999 999999 999999 999999 999999 13426
999999 18868 11907 12002 19312 14967 12157 11118 15182 10802 11696 18010 18933 12725 12424 16379 12309 16253 14542 19677 12091 14915 11593 12604 17846 18442 10139 13155 12175 15165 19829 17696 19808 10225 19063 19915 14796 15921 19628 16881 14838 999999 999999 999999 999999 999999 999999 999999 999999 999999 999999 999999 999999 999999 999999 999999 999999 999999 0 999999 999999 999999 999999 999999 999999 999999 999999 999999 999999 999999 999999 999999 999999 999999 999999 999999 999999 999999 999999 999999 999999 5176
999999 12299 13903 17694 16609 11570 12113 16676 18308 17312 15269 12851 14723 11611 13819 18889 12913 13680 19271 17673 11396 14719 17210 12490 15235 11418 13656 12161 14916 19974 15640 10883 15773 14211 16657 19109 18367 15208 15551 10436 17322 999999 999999 999999 999999 999999 999999 999999 999999 999999 999999 999999 999999 999999 999999 999999 999999 999999 999999 0 999999 999999 999999 999999 999999 999999 999999 999999 999999 999999 999999 999999 999999 999999 999999 999999 999999 999999 999999 999999 999999 6489
999999 12812 16298 18075 14277 10227 10021 15648 11307 11883 17833 13987 10647 16116 10307 13285 19183 10291 10629 10783 18146 13491 16659 14011 12450 12857 14946 11344 17103 14689 13058 10050 13742 15655 16061 17429 10874 12456 11654 18674 16829 999999 999999 999999 999999 999999 999999 999999 999999 999999 999999 999999 999999 999999 999999 999999 999999 999999 999999 999999 0 999999 999999 999999 999999 999999 999999 999999 999999 999999 999999 999999 999999 999999 999999 999999 999999 999999 999999 999999 999999 10923
999999 17314 12350 12366 12343 15329 18952 14636 17260 11861 15987 18902 14153 12099 17374 16941 11705 15987 13530 15950 19508 11255 11480 17500 13908 13426 14379 15388 13919 14233 15912 11694 14340 16627 10873 19312 18727 12584 19521 18729 11390 999999 999999 999999 999999 999999 999999 999999 999999 999999 999999 999999 999999 999999 999999 999999 999999 999999 999999 999999 999999 0 999999 999999 999999 999999 999999 999999 999999 999999 999999 999999 999999 999999 999999 999999 999999 999999 999999 999999 999999 13703
999999 14306 14082 12600 10332 12957 11149 12871 15829 17507 18463 19073 17329 16473 10667 12874 15139 18996 19326 12158 17636 13553 15169 16229 10463 11571 12476 17955 14439 12058 12158 18905 14262 18877 15493 19692 13776 18452 13349 15197 15911 999999 999999 999999 999999 999999 999999 999999 999999 999999 999999 999999 999999 999999 999999 999999 999999 999999 999999 999999 999999 999999 0 999999 999999 999999 999999 999999 999999 999999 999999 999999 999999 999999 999999 999999 999999 999999 999999 999999 999999 11387
999999 16059 17113 13662 11003 16988 15772 11342 16101 15266 15614 10713 15479 12258 17932 11380 11162 15469 15084 18072 11485 19191 19398 12227 18917 10116 15261 10152 16988 11692 11375 16390 14540 17193 10219 12070 19204 11746 18761 11070 13022 999999 999999 999999 999999 999999 999999 999999 999999 999999 999999 999999 999999 999999 999999 999999 999999 999999 999999 999999 999999 999999 999999 0 999999 999999 999999 999999 999999 999999 999999 999999 999999 999999 999999 999999 999999 999999 999999 999999 999999 5940
999999 18811 14866 14346 14619 16756 18067 14203 14722 10844 14836 10154 18764 12755 15068 10294 18401 12920 12693 15995 16254 19883 19091 17467 19887 13657 18505 10098 19848 16329 13359 19821 11585 14889 17605 17783 10838 15060 14601 10668 10427 999999 999999 999999 999999 999999 999999 999999 999999 999999 999999 999999 999999 999999 999999 999999 999999 999999 999999 999999 999999 999999 999999 999999 0 999999 999999 999999 999999 999999 999999 999999 999999 999999 999999 999999 999999 999999 999999 999999 999999 7688
999999 16553 11211 13895 18840 17875 14052 14050 19978 18082 13622 12696 16323 16853 14887 11786 11034 15848 14924 16385 14038 16342 15865 11699 17845 18592 14931 17865 19276 11986 15738 19810 12601 15757 11445 10860 18756 19123 17892 10995 19712 999999 999999 999999 999999 999999 999999 999999 999999 999999 999999 999999 999999 999999 999999 999999 999999 999999 999999 999999 999999 999999 999999 999999 999999 0 999999 999999 999999 999999 999999 999999 999999 999999 999999 999999 999999 999999 999999 999999 999999 8981
999999 19109 19454 14099 15122 12930 12421 14806 10662 17715 16697 18686 17493 18331 15853 13129 12832 15231 16667 11090 13372 11396 18669 15497 14149 13618 17753 15050 14623 12106 19285 15524 14234 15752 16592 14305 10937 11117 15304 14983 14251 999999 999999 999999 999999 999999 999999 999999 999999 999999 999999 999999 999999 999999 999999 999999 999999 999999 999999 999999 999999 999999 999999 999999 999999 999999 0 999999 999999 999999 999999 999999 999999 999999 999999 999999 999999 999999 999999 999999 999999 6787
999999 14735 17227 10524 13772 13350 19199 16491 14445 16343 10176 18764 13153 19542 10173 16622 17361 18227 19994 16939 13729 16117 17378 19345 19625 16566 18088 10043 13349 12559 17636 17656 19412 15076 10792 15142 15863 12345 16314 10995 18637 999999 999999 999999 999999 999999 999999 999999 999999 999999 999999 999999 999999 999999 999999 999999 999999 999999 999999 999999 999999 999999 999999 999999 999999 999999 999999 0 999999 999999 999999 999999 999999 999999 999999 999999 999999 999999 999999 999999 999999 9875
999999 15985 18788 10975 15039 13772 14093 11261 10040 15267 11333 18024 10893 12536 14254 11896 17698 12403 16043 14133 18656 16369 15122 12103 13287 11216 16373 13466 16525 16202 18418 15358 18506 10980 15681 17403 18149 18698 12517 19345 15964 999999 999999 999999 999999 999999 999999 999999 999999 999999 999999 999999 999999 999999 999999 999999 999999 999999 999999 999999 999999 999999 999999 999999 999999 999999 999999 999999 0 999999 999999 999999 999999 999999 999999 999999 999999 999999 999999 999999 999999 12410
999999 11300 19287 10805 12812 17162 18503 16541 15328 15617 17543 11648 11417 10547 16937 13219 14975 13047 14463 17814 14444 14594 18267 17479 19532 19134 14357 17222 12582 15600 11486 12074 12750 18677 14774 14700 12538 15661 14927 12359 13022 999999 999999 999999 999999 999999 999999 999999 999999 999999 999999 999999 999999 999999 999999 999999 999999 999999 999999 999999 999999 999999 999999 999999 999999 999999 999999 999999 999999 0 999999 999999 999999 999999 999999 999999 999999 999999 999999 999999 999999 7419
999999 11836 18477 15884 17043 18271 16003 19244 16852 10997 18059 16459 14277 10167 15086 10225 18391 14588 12459 16516 17154 14267 18576 10808 18724 12320 18524 13703 12278 14402 17323 14668 16490 14565 13501 17173 16123 13475 12596 14332 14049 999999 999999 999999 999999 999999 999999 999999 999999 999999 999999 999999 999999 999999 999999 999999 999999 999999 999999 999999 999999 999999 999999 999999 999999 999999 999999 999999 999999 999999 0 999999 999999 999999 999999 999999 999999 999999 999999 999999 999999 6789
999999 16892 19954 12817 14710 18448 14681 10186 19063 17282 11905 10960 16786 11656 14147 14672 11595 11206 12719 15982 11409 12157 17115 16413 16814 10617 11050 18077 14282 18388 15758 19670 12090 14754 13608 14635 11495 10483 15038 13844 10003 999999 999999 999999 999999 999999 999999 999999 999999 999999 999999 999999 999999 999999 999999 999999 999999 999999 999999 999999 999999 999999 999999 999999 999999 999999 999999 999999 999999 999999 999999 0 999999 999999 999999 999999 999999 999999 999999 999999 999999 12909
999999 10597 14640 18912 17873 18128 17336 15079 15171 13752 12643 10276 19857 10627 17476 17272 10394 18269 12298 16824 11339 19838 16102 19020 18509 13834 14196 12243 15364 12175 11668 19516 19246 12499 14003 19695 16751 19917 17967 10091 17203 999999 999999 999999 999999 999999 999999 999999 999999 999999 999999 999999 999999 999999 999999 999999 999999 999999 999999 999999 999999 999999 999999 999999 999999 999999 999999 999999 999999 999999 999999 999999 0 999999 999999 999999 999999 999999 999999 999999 999999 10775
999999 16820 17757 12149 12583 19983 16186 17342 13368 15224 10969 17993 10137 15329 18710 13388 13292 16431 18449 19772 16610 18467 18841 12610 16836 15236 19733 15785 11868 13415 11404 10989 14184 11746 13036 17153 15268 17347 19053 11823 13170 999999 999999 999999 999999 999999 999999 999999 999999 999999 999999 999999 999999 999999 999999 999999 999999 999999 999999 999999 999999 999999 999999 999999 999999 999999 999999 999999 999999 999999 999999 999999 999999 0 999999 999999 999999 999999 999999 999999 999999 8952
999999 18309 10706 14040 14319 13318 17760 18988 18011 15518 14075 15301 11188 13292 16980 15408 10150 19467 12758 13805 19098 16165 19881 17220 19245 17820 13731 17043 14807 16403 12273 17551 12064 13327 18594 18597 14673 14882 19950 19111 10082 999999 999999 999999 999999 999999 999999 999999 999999 999999 999999 999999 999999 999999 999999 999999 999999 999999 999999 999999 999999 999999 999999 999999 999999 999999 999999 999999 999999 999999 999999 999999 999999 999999 0 999999 999999 999999 999999 999999 999999 5574
999999 18859 15514 15619 13564 11781 11994 11852 15016 14269 16604 19682 11050 18406 17602 10917 19914 14084 11936 14141 18326 12325 12207 13423 19079 15395 13576 13185 12128 16231 11603 17984 12765 18350 15625 14093 17135 11972 18017 18563 15713 999999 999999 999999 999999 999999 999999 999999 999999 999999 999999 999999 999999 999999 999999 999999 999999 999999 999999 999999 999999 999999 999999 999999 999999 999999 999999 999999 999999 999999 999999 999999 999999 999999 999999 0 999999 999999 999999 999999 999999 11628
999999 15042 13566 16391 15521 16279 11354 13230 14932 17931 17949 11331 19601 17333 19968 18530 15916 13025 11491 16730 19278 15628 18695 10690 17560 19396 14941 16545 16462 14987 15923 14960 14846 14770 16533 16838 11861 16120 13599 12428 10331 999999 999999 999999 999999 999999 999999 999999 999999 999999 999999 999999 999999 999999 999999 999999 999999 999999 999999 999999 999999 999999 999999 999999 999999 999999 999999 999999 999999 999999 999999 999999 999999 999999 999999 999999 0 999999 999999 999999 999999 14897
999999 14866 11672 14393 19541 16714 19684 19489 12974 14894 12640 16469 18528 16702 11990 18299 17686 15220 14778 10811 15955 18842 11469 14077 12596 18938 13865 14724 15723 14263 11928 11878 14181 16315 17885 19827 19024 14839 19103 14896 14128 999999 999999 999999 999999 999999 999999 999999 999999 999999 999999 999999 999999 999999 999999 999999 999999 999999 999999 999999 999999 999999 999999 999999 999999 999999 999999 999999 999999 999999 999999 999999 999999 999999 999999 999999 999999 0 999999 999999 999999 5507
999999 12210 14121 16627 19250 12052 16442 13782 12948 19857 19200 17651 15192 11526 14258 19770 12887 17785 13186 11539 15753 13696 10486 18376 15245 12475 19767 13436 18717 19409 16197 17908 19900 11263 11658 16821 19560 13358 19791 16664 16010 999999 999999 999999 999999 999999 999999 999999 999999 999999 999999 999999 999999 999999 999999 999999 999999 999999 999999 999999 999999 999999 999999 999999 999999 999999 999999 999999 999999 999999 999999 999999 999999 999999 999999 999999 999999 999999 0 999999 999999 12571
999999 11282 13511 15898 14530 14345 15028 10293 17592 13827 17745 18351 17371 19543 10020 12884 16886 14967 17984 16664 16178 18448 11522 13985 14604 15415 15247 10939 14353 11180 12289 13882 13448 14260 19952 18290 11529 16714 12173 14714 10435 999999 999999 999999 999999 999999 999999 999999 999999 999999 999999 999999 999999 999999 999999 999999 999999 999999 999999 999999 999999 999999 999999 999999 999999 999999 999999 999999 999999 999999 999999 999999 999999 999999 999999 999999 999999 999999 999999 0 999999 12217
999999 14773 16763 12744 15566 11799 14970 11545 15086 15975 16284 18318 13249 10674 10629 19146 17394 11581 15504 10442 18968 16763 19679 16979 12029 16575 17860 11134 19078 13070 17074 17582 10804 15254 15685 16663 13353 14848 16692 14935 18286 999999 999999 999999 999999 999999 999999 999999 999999 999999 999999 999999 999999 999999 999999 999999 999999 999999 999999 999999 999999 999999 999999 999999 999999 999999 999999 999999 999999 999999 999999 999999 999999 999999 999999 999999 999999 999999 999999 999999 0 13775
1 999999 999999 999999 999999 999999 999999 999999 999999 999999 999999 999999 999999 999999 999999 999999 999999 999999 999999 999999 999999 999999 999999 999999 999999 999999 999999 999999 999999 999999 999999 999999 999999 999999 999999 999999 999999 999999 999999 999999 999999 999999 999999 999999 999999 999999 999999 999999 999999 999999 999999 999999 999999 999999 999999 999999 999999 999999 999999 999999 999999 999999 999999 999999 999999 999999 999999 999999 999999 999999 999999 999999 999999 999999 999999 999999 999999 999999 999999 999999 999999 0
EOF