NAME: GR_1x2x10_KH_2x10_Run_4
TYPE: TSP
COMMENT: BTSP instance |A|=20 GR nodes |B|=20 KH nodes depot=0.0 end=0.0.0
DIMENSION: 42
EDGE_WEIGHT_TYPE: EXPLICIT
EDGE_WEIGHT_FORMAT: FULL_MATRIX
NODE_COORD_TYPE: NO_COORDS
EDGE_WEIGHT_SECTION
0 7201 10499 8772 12353 8254 9204 8721 11953 11308 5414 11103 8152 8106 11244 12250 5551 11633 11006 13113 6326 999999 999999 999999 999999 999999 999999 999999 999999 999999 999999 999999 999999 999999 999999 999999 999999 999999 999999 999999 999999 999999
999999 0 999999 999999 999999 999999 999999 999999 999999 999999 999999 999999 999999 999999 999999 999999 999999 999999 999999 999999 999999 999999 19867 999999 16841 10953 999999 15391 999999 999999 17401 999999 18515 999999 17486 999999 999999 17952 11233 999999 11456 999999
999999 999999 0 999999 999999 999999 999999 999999 999999 999999 999999 999999 999999 999999 999999 999999 999999 999999 999999 999999 999999 999999 16887 999999 10104 14644 999999 19403 999999 999999 16052 999999 16137 999999 17327 999999 999999 18762 19577 999999 19652 999999
999999 999999 999999 0 999999 999999 999999 999999 999999 999999 999999 999999 999999 999999 999999 999999 999999 999999 999999 999999 999999 999999 12405 999999 11027 13443 999999 10301 999999 999999 16062 999999 15860 999999 13496 999999 999999 14332 19620 999999 12264 999999
999999 999999 999999 999999 0 999999 999999 999999 999999 999999 999999 999999 999999 999999 999999 999999 999999 999999 999999 999999 999999 999999 15897 999999 10208 18573 999999 10210 999999 999999 14900 999999 15554 999999 18015 999999 999999 12962 11092 999999 12345 999999
999999 999999 999999 999999 999999 0 999999 999999 999999 999999 999999 999999 999999 999999 999999 999999 999999 999999 999999 999999 999999 999999 17488 999999 15206 14610 999999 15787 999999 999999 19932 999999 12044 999999 11924 999999 999999 16420 18243 999999 17898 999999
999999 999999 999999 999999 999999 999999 0 999999 999999 999999 999999 999999 999999 999999 999999 999999 999999 999999 999999 999999 999999 999999 16561 999999 14235 12453 999999 15093 999999 999999 10740 999999 12061 999999 12567 999999 999999 13107 11577 999999 12221 999999
999999 999999 999999 999999 999999 999999 999999 0 999999 999999 999999 999999 999999 999999 999999 999999 999999 999999 999999 999999 999999 999999 11805 999999 14903 10334 999999 10802 999999 999999 11366 999999 15331 999999 13357 999999 999999 18420 17812 999999 15704 999999
999999 999999 999999 999999 999999 999999 999999 999999 0 999999 999999 999999 999999 999999 999999 999999 999999 999999 999999 999999 999999 999999 16734 999999 10119 17896 999999 15820 999999 999999 19389 999999 16177 999999 19854 999999 999999 12320 13527 999999 12120 999999
999999 999999 999999 999999 999999 999999 999999 999999 999999 0 999999 999999 999999 999999 999999 999999 999999 999999 999999 999999 999999 999999 17087 999999 17280 10563 999999 17278 999999 999999 10797 999999 13011 999999 11365 999999 999999 19154 16199 999999 12770 999999
999999 999999 999999 999999 999999 999999 999999 999999 999999 999999 0 999999 999999 999999 999999 999999 999999 999999 999999 999999 999999 999999 13419 999999 15024 12137 999999 18434 999999 999999 11120 999999 19858 999999 10128 999999 999999 17414 13049 999999 19936 999999
999999 999999 999999 999999 999999 999999 999999 999999 999999 999999 999999 0 999999 999999 999999 999999 999999 999999 999999 999999 999999 11881 999999 19018 999999 999999 10761 999999 15183 18799 999999 16815 999999 18132 999999 11910 17020 999999 999999 16154 999999 999999
999999 999999 999999 999999 999999 999999 999999 999999 999999 999999 999999 999999 0 999999 999999 999999 999999 999999 999999 999999 999999 16796 999999 18779 999999 999999 17485 999999 16414 11503 999999 16792 999999 18363 999999 15182 14966 999999 999999 10955 999999 999999
999999 999999 999999 999999 999999 999999 999999 999999 999999 999999 999999 999999 999999 0 999999 999999 999999 999999 999999 999999 999999 10120 999999 10474 999999 999999 18525 999999 17971 14164 999999 13551 999999 16077 999999 10573 17785 999999 999999 14530 999999 999999
999999 999999 999999 999999 999999 999999 999999 999999 999999 999999 999999 999999 999999 999999 0 999999 999999 999999 999999 999999 999999 11086 999999 14884 999999 999999 13678 999999 17566 13029 999999 16995 999999 19900 999999 15825 16256 999999 999999 11950 999999 999999
999999 999999 999999 999999 999999 999999 999999 999999 999999 999999 999999 999999 999999 999999 999999 0 999999 999999 999999 999999 999999 14614 999999 15098 999999 999999 11484 999999 17212 19798 999999 16212 999999 14061 999999 16261 11145 999999 999999 18087 999999 999999
999999 999999 999999 999999 999999 999999 999999 999999 999999 999999 999999 999999 999999 999999 999999 999999 0 999999 999999 999999 999999 19848 999999 11831 999999 999999 15761 999999 16347 11560 999999 18348 999999 18749 999999 17154 18859 999999 999999 18590 999999 999999
999999 999999 999999 999999 999999 999999 999999 999999 999999 999999 999999 999999 999999 999999 999999 999999 999999 0 999999 999999 999999 16155 999999 14205 999999 999999 14738 999999 15047 10740 999999 16935 999999 16766 999999 18339 13984 999999 999999 11798 999999 999999
999999 999999 999999 999999 999999 999999 999999 999999 999999 999999 999999 999999 999999 999999 999999 999999 999999 999999 0 999999 999999 10046 999999 12546 999999 999999 11947 999999 14900 11774 999999 11183 999999 16511 999999 15423 19501 999999 999999 17078 999999 999999
999999 999999 999999 999999 999999 999999 999999 999999 999999 999999 999999 999999 999999 999999 999999 999999 999999 999999 999999 0 999999 13716 999999 12768 999999 999999 14100 999999 18637 18225 999999 15432 999999 19870 999999 19262 15161 999999 999999 16469 999999 999999
999999 999999 999999 999999 999999 999999 999999 999999 999999 999999 999999 999999 999999 999999 999999 999999 999999 999999 999999 999999 0 19953 999999 13325 999999 999999 15695 999999 11845 11260 999999 17479 999999 19741 999999 12115 18606 999999 999999 14857 999999 999999
999999 10270 17752 10719 10537 18767 18554 12695 17496 15873 17223 11881 16796 10120 11086 14614 19848 16155 10046 13716 19953 0 999999 999999 999999 999999 999999 999999 999999 999999 999999 999999 999999 999999 999999 999999 999999 999999 999999 999999 999999 6325
999999 19867 16887 12405 15897 17488 16561 11805 16734 17087 13419 11283 16326 12675 11824 15171 13109 18817 11418 11432 16366 999999 0 999999 999999 999999 999999 999999 999999 999999 999999 999999 999999 999999 999999 999999 999999 999999 999999 999999 999999 13349
999999 19971 15959 15589 14084 17119 17113 14414 12657 16314 13147 19018 18779 10474 14884 15098 11831 14205 12546 12768 13325 999999 999999 0 999999 999999 999999 999999 999999 999999 999999 999999 999999 999999 999999 999999 999999 999999 999999 999999 999999 9235
999999 16841 10104 11027 10208 15206 14235 14903 10119 17280 15024 15685 11657 13857 10453 15437 10547 17383 12568 17526 15251 999999 999999 999999 0 999999 999999 999999 999999 999999 999999 999999 999999 999999 999999 999999 999999 999999 999999 999999 999999 14602
999999 10953 14644 13443 18573 14610 12453 10334 17896 10563 12137 16270 10169 13987 13929 13293 18620 15651 17012 12247 12408 999999 999999 999999 999999 0 999999 999999 999999 999999 999999 999999 999999 999999 999999 999999 999999 999999 999999 999999 999999 9010
999999 16110 16944 15222 11303 15207 17357 13842 15273 11322 17154 10761 17485 18525 13678 11484 15761 14738 11947 14100 15695 999999 999999 999999 999999 999999 0 999999 999999 999999 999999 999999 999999 999999 999999 999999 999999 999999 999999 999999 999999 13780
999999 15391 19403 10301 10210 15787 15093 10802 15820 17278 18434 19790 18048 12657 10115 17989 12599 19666 17638 15916 10320 999999 999999 999999 999999 999999 999999 0 999999 999999 999999 999999 999999 999999 999999 999999 999999 999999 999999 999999 999999 6134
999999 18931 10572 19750 12761 18524 13857 15646 19436 11389 16634 15183 16414 17971 17566 17212 16347 15047 14900 18637 11845 999999 999999 999999 999999 999999 999999 999999 0 999999 999999 999999 999999 999999 999999 999999 999999 999999 999999 999999 999999 12330
999999 17023 12227 10665 14127 11868 15547 11199 19290 19297 18735 18799 11503 14164 13029 19798 11560 10740 11774 18225 11260 999999 999999 999999 999999 999999 999999 999999 999999 0 999999 999999 999999 999999 999999 999999 999999 999999 999999 999999 999999 6255
999999 17401 16052 16062 14900 19932 10740 11366 19389 10797 11120 17509 12769 18836 12195 18194 15192 14069 12676 15464 15879 999999 999999 999999 999999 999999 999999 999999 999999 999999 0 999999 999999 999999 999999 999999 999999 999999 999999 999999 999999 11313
999999 16553 16730 15446 14594 13620 17842 12914 19384 14456 14250 16815 16792 13551 16995 16212 18348 16935 11183 15432 17479 999999 999999 999999 999999 999999 999999 999999 999999 999999 999999 0 999999 999999 999999 999999 999999 999999 999999 999999 999999 14576
999999 18515 16137 15860 15554 12044 12061 15331 16177 13011 19858 16730 17078 16294 18476 10827 12068 16370 15297 13620 10481 999999 999999 999999 999999 999999 999999 999999 999999 999999 999999 999999 0 999999 999999 999999 999999 999999 999999 999999 999999 11099
999999 19630 11095 19917 12733 17596 15380 12982 16443 16562 19240 18132 18363 16077 19900 14061 18749 16766 16511 19870 19741 999999 999999 999999 999999 999999 999999 999999 999999 999999 999999 999999 999999 0 999999 999999 999999 999999 999999 999999 999999 8391
999999 17486 17327 13496 18015 11924 12567 13357 19854 11365 10128 18640 17482 12678 17020 14442 11930 13395 14525 14535 18027 999999 999999 999999 999999 999999 999999 999999 999999 999999 999999 999999 999999 999999 0 999999 999999 999999 999999 999999 999999 13040
999999 18144 14212 17057 14920 17736 10466 17440 14168 16115 15383 11910 15182 10573 15825 16261 17154 18339 15423 19262 12115 999999 999999 999999 999999 999999 999999 999999 999999 999999 999999 999999 999999 999999 999999 0 999999 999999 999999 999999 999999 11565
999999 14869 12067 11061 10016 10780 16789 15918 10256 19696 13959 17020 14966 17785 16256 11145 18859 13984 19501 15161 18606 999999 999999 999999 999999 999999 999999 999999 999999 999999 999999 999999 999999 999999 999999 999999 0 999999 999999 999999 999999 10090
999999 17952 18762 14332 12962 16420 13107 18420 12320 19154 17414 17276 17361 12396 15854 13598 16777 15441 10510 19818 16918 999999 999999 999999 999999 999999 999999 999999 999999 999999 999999 999999 999999 999999 999999 999999 999999 0 999999 999999 999999 9852
999999 11233 19577 19620 11092 18243 11577 17812 13527 16199 13049 11175 19220 17654 11042 16558 17563 10182 11818 11980 10299 999999 999999 999999 999999 999999 999999 999999 999999 999999 999999 999999 999999 999999 999999 999999 999999 999999 0 999999 999999 7666
999999 19992 16174 13237 15580 13795 17530 12463 13019 10009 17075 16154 10955 14530 11950 18087 18590 11798 17078 16469 14857 999999 999999 999999 999999 999999 999999 999999 999999 999999 999999 999999 999999 999999 999999 999999 999999 999999 999999 0 999999 10837
999999 11456 19652 12264 12345 17898 12221 15704 12120 12770 19936 16091 13001 16322 18968 18257 11658 17058 10327 11126 15787 999999 999999 999999 999999 999999 999999 999999 999999 999999 999999 999999 999999 999999 999999 999999 999999 999999 999999 999999 0 10697
1 999999 999999 999999 999999 999999 999999 999999 999999 999999 999999 999999 999999 999999 999999 999999 999999 999999 999999 999999 999999 999999 999999 999999 999999 999999 999999 999999 999999 999999 999999 999999 999999 999999 999999 999999 999999 999999 999999 999999 999999 0
EOF