NAME: GR_1x5x6_KH_5x6_Run_6
TYPE: TSP
COMMENT: BTSP instance |A|=30 GR nodes |B|=30 KH nodes depot=0.0 end=0.0.0
DIMENSION: 62
EDGE_WEIGHT_TYPE: EXPLICIT
EDGE_WEIGHT_FORMAT: FULL_MATRIX
NODE_COORD_TYPE: NO_COORDS
EDGE_WEIGHT_SECTION
0 10311 5792 10561 10297 5888 12891 10168 14963 5096 13731 9257 9137 14572 8973 14635 14964 13626 13145 7427 7726 9646 6193 5979 5970 6789 11771 13995 6842 6907 14274 999999 999999 999999 999999 999999 999999 999999 999999 999999 999999 999999 999999 999999 999999 999999 999999 999999 999999 999999 999999 999999 999999 999999 999999 999999 999999 999999 999999 999999 999999 999999
999999 0 999999 999999 999999 999999 999999 999999 999999 999999 999999 999999 999999 999999 999999 999999 999999 999999 999999 999999 999999 999999 999999 999999 999999 999999 999999 999999 999999 999999 999999 17532 14836 14313 19706 10647 11253 17865 13660 10519 18109 14237 12894 15500 19581 16905 12250 15975 13438 15538 14160 15009 14457 16979 18891 12190 14118 16325 14990 14375 15507 999999
999999 999999 0 999999 999999 999999 999999 999999 999999 999999 999999 999999 999999 999999 999999 999999 999999 999999 999999 999999 999999 999999 999999 999999 999999 999999 999999 999999 999999 999999 999999 18892 17350 11858 17598 11387 13316 18597 16230 12201 12869 11989 12088 18911 15825 13220 14614 12640 11496 16357 13841 19329 13189 13821 11160 11185 13205 16634 16364 18837 19199 999999
999999 999999 999999 0 999999 999999 999999 999999 999999 999999 999999 999999 999999 999999 999999 999999 999999 999999 999999 999999 999999 999999 999999 999999 999999 999999 999999 999999 999999 999999 999999 10931 17061 16570 12528 15256 15116 14611 12223 11748 17805 19568 15684 16516 10207 10756 17766 17244 10978 19426 10732 16892 18483 18625 14275 10252 18607 18148 11348 11110 19389 999999
999999 999999 999999 999999 0 999999 999999 999999 999999 999999 999999 999999 999999 999999 999999 999999 999999 999999 999999 999999 999999 999999 999999 999999 999999 999999 999999 999999 999999 999999 999999 18848 12143 12835 13712 10889 18950 19009 11668 18387 12409 12312 11743 14599 12924 11037 16761 15523 10298 18355 11191 13316 15595 15224 16660 15681 13846 17181 11178 14513 18641 999999
999999 999999 999999 999999 999999 0 999999 999999 999999 999999 999999 999999 999999 999999 999999 999999 999999 999999 999999 999999 999999 999999 999999 999999 999999 999999 999999 999999 999999 999999 999999 16981 19840 18539 12017 11516 10213 13580 19515 10607 18248 18827 12275 15658 10272 15505 13745 14053 13602 12916 11302 19255 14321 17461 15033 14392 17599 13200 17110 19938 11217 999999
999999 999999 999999 999999 999999 999999 0 999999 999999 999999 999999 999999 999999 999999 999999 999999 999999 999999 999999 999999 999999 999999 999999 999999 999999 999999 999999 999999 999999 999999 999999 19033 15659 19213 16724 16002 11075 15733 10143 18116 19577 15735 17542 19972 11533 16563 12254 17171 12994 18716 14301 10121 10242 19373 14291 13295 13349 12618 15077 11145 11193 999999
999999 999999 999999 999999 999999 999999 999999 0 999999 999999 999999 999999 999999 999999 999999 999999 999999 999999 999999 999999 999999 999999 999999 999999 999999 999999 999999 999999 999999 999999 999999 13421 10318 19482 17414 10054 11980 15347 12367 16100 18704 11268 17617 19609 10715 12106 18605 18129 10611 13255 17875 13767 11751 12903 15627 18634 15222 11885 19502 10101 19580 999999
999999 999999 999999 999999 999999 999999 999999 999999 0 999999 999999 999999 999999 999999 999999 999999 999999 999999 999999 999999 999999 999999 999999 999999 999999 999999 999999 999999 999999 999999 999999 17765 14388 19135 15606 15026 10909 11595 16280 11517 14223 19208 14867 13244 11579 12629 19222 11610 19094 16762 16216 13927 17043 15009 18914 14492 11478 10376 10140 14621 15936 999999
999999 999999 999999 999999 999999 999999 999999 999999 999999 0 999999 999999 999999 999999 999999 999999 999999 999999 999999 999999 999999 999999 999999 999999 999999 999999 999999 999999 999999 999999 999999 13076 19601 17447 10960 11759 14491 14440 18324 19074 19175 14555 17589 19281 19120 13531 17966 17022 19773 10036 15268 18819 13667 15731 18243 18651 17688 13750 17217 14638 17850 999999
999999 999999 999999 999999 999999 999999 999999 999999 999999 999999 0 999999 999999 999999 999999 999999 999999 999999 999999 999999 999999 999999 999999 999999 999999 999999 999999 999999 999999 999999 999999 14384 15883 17814 12614 12816 19078 17069 14541 17844 17445 16142 18712 19276 19396 14362 10553 12615 19371 10009 14920 17429 13744 17854 17816 10961 13448 12711 11794 18743 12327 999999
999999 999999 999999 999999 999999 999999 999999 999999 999999 999999 999999 0 999999 999999 999999 999999 999999 999999 999999 999999 999999 999999 999999 999999 999999 999999 999999 999999 999999 999999 999999 19951 18137 17891 11978 11829 16424 15048 16223 16313 12687 17739 13558 17556 11499 11926 11940 12072 16251 13825 15418 17762 10001 10482 15996 17964 17742 14315 17469 10349 14113 999999
999999 999999 999999 999999 999999 999999 999999 999999 999999 999999 999999 999999 0 999999 999999 999999 999999 999999 999999 999999 999999 999999 999999 999999 999999 999999 999999 999999 999999 999999 999999 15865 17048 16486 13602 13815 12634 10700 10810 13906 13366 15453 19848 16775 12277 19052 11857 15738 19475 18247 12367 12212 19704 18883 14517 16570 11554 12490 16229 16188 16589 999999
999999 999999 999999 999999 999999 999999 999999 999999 999999 999999 999999 999999 999999 0 999999 999999 999999 999999 999999 999999 999999 999999 999999 999999 999999 999999 999999 999999 999999 999999 999999 15809 15290 11660 11951 19581 11931 15853 11276 12048 17208 15261 14896 15563 17270 17381 15634 19581 15106 15141 14113 15469 16175 14343 16545 11695 10418 14152 13058 13627 13828 999999
999999 999999 999999 999999 999999 999999 999999 999999 999999 999999 999999 999999 999999 999999 0 999999 999999 999999 999999 999999 999999 999999 999999 999999 999999 999999 999999 999999 999999 999999 999999 17474 14048 19639 18428 10907 14834 10351 16265 19867 18176 14013 13819 17840 14989 18577 18749 11057 13127 15287 13813 12179 16067 17101 10253 10890 13861 14634 10095 13304 17949 999999
999999 999999 999999 999999 999999 999999 999999 999999 999999 999999 999999 999999 999999 999999 999999 0 999999 999999 999999 999999 999999 999999 999999 999999 999999 999999 999999 999999 999999 999999 999999 12050 12033 18442 18055 11136 12913 15501 16655 12481 12401 16389 16611 19404 19511 19609 11459 17584 12525 18369 16778 15123 14882 10115 13474 13262 18980 16867 10733 14806 10899 999999
999999 999999 999999 999999 999999 999999 999999 999999 999999 999999 999999 999999 999999 999999 999999 999999 0 999999 999999 999999 999999 999999 999999 999999 999999 999999 999999 999999 999999 999999 999999 16820 19499 13473 19541 17471 19692 18000 19344 10229 12570 15769 19016 17831 14192 12382 10240 19955 15655 18783 15396 15330 13400 11646 13045 16818 18251 18870 16251 12122 19569 999999
999999 999999 999999 999999 999999 999999 999999 999999 999999 999999 999999 999999 999999 999999 999999 999999 999999 0 999999 999999 999999 999999 999999 999999 999999 999999 999999 999999 999999 999999 999999 16617 18569 13579 19172 13431 17726 14229 10100 10633 11190 10665 15165 12520 10145 17664 18709 18952 18840 11190 11688 18051 13621 17388 17169 19145 14670 18375 14628 14887 18902 999999
999999 999999 999999 999999 999999 999999 999999 999999 999999 999999 999999 999999 999999 999999 999999 999999 999999 999999 0 999999 999999 999999 999999 999999 999999 999999 999999 999999 999999 999999 999999 15683 13987 19533 19363 18850 18907 17867 17374 10892 19574 12045 14941 11427 15204 10607 19716 11024 11830 18271 16836 15148 15140 14132 15935 19256 18942 19643 17628 10432 13806 999999
999999 999999 999999 999999 999999 999999 999999 999999 999999 999999 999999 999999 999999 999999 999999 999999 999999 999999 999999 0 999999 999999 999999 999999 999999 999999 999999 999999 999999 999999 999999 16569 10165 16351 14153 14459 15263 13090 11259 10807 17336 12685 10402 10596 13937 13421 13861 16486 11940 15586 13119 13332 10944 13562 14112 18618 16195 11215 13660 13271 17534 999999
999999 999999 999999 999999 999999 999999 999999 999999 999999 999999 999999 999999 999999 999999 999999 999999 999999 999999 999999 999999 0 999999 999999 999999 999999 999999 999999 999999 999999 999999 999999 13514 11993 12610 19403 19704 19558 14385 18863 15132 15612 11684 18491 17849 19113 15654 18875 11367 16615 11071 10816 16453 19140 19411 13867 16442 19354 10230 17793 16792 15657 999999
999999 999999 999999 999999 999999 999999 999999 999999 999999 999999 999999 999999 999999 999999 999999 999999 999999 999999 999999 999999 999999 0 999999 999999 999999 999999 999999 999999 999999 999999 999999 17978 18207 12176 12993 10018 16756 17795 10223 16476 14543 12151 14348 19966 13675 19347 18238 19755 12383 10185 15541 17028 18505 13793 18035 17353 13317 18556 10146 10745 16116 999999
999999 999999 999999 999999 999999 999999 999999 999999 999999 999999 999999 999999 999999 999999 999999 999999 999999 999999 999999 999999 999999 999999 0 999999 999999 999999 999999 999999 999999 999999 999999 19237 10362 17821 12577 14575 12264 19801 17763 15977 14161 10735 19250 19404 17257 14345 17503 15474 18299 13074 11669 19229 13531 11605 11955 10917 12834 18758 16628 12178 19613 999999
999999 999999 999999 999999 999999 999999 999999 999999 999999 999999 999999 999999 999999 999999 999999 999999 999999 999999 999999 999999 999999 999999 999999 0 999999 999999 999999 999999 999999 999999 999999 12510 19688 19284 14063 19198 10195 11063 17150 15287 15590 17775 11374 15203 16036 14139 13007 12475 19696 15769 15043 17487 19686 19326 10814 10132 15461 15466 18902 13873 15288 999999
999999 999999 999999 999999 999999 999999 999999 999999 999999 999999 999999 999999 999999 999999 999999 999999 999999 999999 999999 999999 999999 999999 999999 999999 0 999999 999999 999999 999999 999999 999999 15078 13940 16087 17854 15614 12079 14564 19009 14483 18108 15222 14549 15103 18828 11302 12181 11082 16305 12835 15232 16401 16198 12010 17142 10652 16755 11233 18659 17512 12960 999999
999999 999999 999999 999999 999999 999999 999999 999999 999999 999999 999999 999999 999999 999999 999999 999999 999999 999999 999999 999999 999999 999999 999999 999999 999999 0 999999 999999 999999 999999 999999 12718 11982 13115 13398 15414 14864 12632 19462 17325 19088 12107 17787 16972 15727 15358 18868 11406 18164 15821 18619 10942 19095 13914 10408 12327 13748 19230 10039 14795 14916 999999
999999 999999 999999 999999 999999 999999 999999 999999 999999 999999 999999 999999 999999 999999 999999 999999 999999 999999 999999 999999 999999 999999 999999 999999 999999 999999 0 999999 999999 999999 999999 19631 10771 10891 14854 12197 16532 19420 11340 14129 10577 13035 16646 14361 15264 18558 14304 12360 12645 19853 19169 13354 12116 18260 17477 14526 18626 13482 17187 17228 11841 999999
999999 999999 999999 999999 999999 999999 999999 999999 999999 999999 999999 999999 999999 999999 999999 999999 999999 999999 999999 999999 999999 999999 999999 999999 999999 999999 999999 0 999999 999999 999999 14287 17865 14282 13147 12636 16779 19105 11807 15562 17361 13430 17810 16179 15825 14854 13115 16825 13048 16507 12620 15353 18939 11516 18145 16109 17396 13811 15894 12506 14763 999999
999999 999999 999999 999999 999999 999999 999999 999999 999999 999999 999999 999999 999999 999999 999999 999999 999999 999999 999999 999999 999999 999999 999999 999999 999999 999999 999999 999999 0 999999 999999 13179 11513 12159 15452 12001 18971 12378 13605 11384 13554 16661 18996 19053 10048 15218 10678 17565 10240 10855 15239 10992 10190 11576 17726 12794 17399 11157 11038 16088 15367 999999
999999 999999 999999 999999 999999 999999 999999 999999 999999 999999 999999 999999 999999 999999 999999 999999 999999 999999 999999 999999 999999 999999 999999 999999 999999 999999 999999 999999 999999 0 999999 14771 12009 16223 15434 13683 18723 13616 15139 16546 16632 17990 19068 13178 11181 18893 13853 11563 18146 19039 16236 13074 15930 15109 19109 19887 16058 19967 18572 10591 13160 999999
999999 999999 999999 999999 999999 999999 999999 999999 999999 999999 999999 999999 999999 999999 999999 999999 999999 999999 999999 999999 999999 999999 999999 999999 999999 999999 999999 999999 999999 999999 0 12209 17129 19179 18636 13683 13755 12964 17986 10322 16027 12966 15184 18537 13829 17339 18582 19494 10535 10461 16862 19215 18220 11066 16095 19909 14558 17314 16639 10792 14955 999999
999999 17532 18892 10931 18848 16981 19033 13421 17765 13076 14384 19951 15865 15809 17474 12050 16820 16617 15683 16569 13514 17978 19237 12510 15078 12718 19631 14287 13179 14771 12209 0 999999 999999 999999 999999 999999 999999 999999 999999 999999 999999 999999 999999 999999 999999 999999 999999 999999 999999 999999 999999 999999 999999 999999 999999 999999 999999 999999 999999 999999 8585
999999 14836 17350 17061 12143 19840 15659 10318 14388 19601 15883 18137 17048 15290 14048 12033 19499 18569 13987 10165 11993 18207 10362 19688 13940 11982 10771 17865 11513 12009 17129 999999 0 999999 999999 999999 999999 999999 999999 999999 999999 999999 999999 999999 999999 999999 999999 999999 999999 999999 999999 999999 999999 999999 999999 999999 999999 999999 999999 999999 999999 11746
999999 14313 11858 16570 12835 18539 19213 19482 19135 17447 17814 17891 16486 11660 19639 18442 13473 13579 19533 16351 12610 12176 17821 19284 16087 13115 10891 14282 12159 16223 19179 999999 999999 0 999999 999999 999999 999999 999999 999999 999999 999999 999999 999999 999999 999999 999999 999999 999999 999999 999999 999999 999999 999999 999999 999999 999999 999999 999999 999999 999999 9991
999999 19706 17598 12528 13712 12017 16724 17414 15606 10960 12614 11978 13602 11951 18428 18055 19541 19172 19363 14153 19403 12993 12577 14063 17854 13398 14854 13147 15452 15434 18636 999999 999999 999999 0 999999 999999 999999 999999 999999 999999 999999 999999 999999 999999 999999 999999 999999 999999 999999 999999 999999 999999 999999 999999 999999 999999 999999 999999 999999 999999 13394
999999 10647 11387 15256 10889 11516 16002 10054 15026 11759 12816 11829 13815 19581 10907 11136 17471 13431 18850 14459 19704 10018 14575 19198 15614 15414 12197 12636 12001 13683 13683 999999 999999 999999 999999 0 999999 999999 999999 999999 999999 999999 999999 999999 999999 999999 999999 999999 999999 999999 999999 999999 999999 999999 999999 999999 999999 999999 999999 999999 999999 5402
999999 11253 13316 15116 18950 10213 11075 11980 10909 14491 19078 16424 12634 11931 14834 12913 19692 17726 18907 15263 19558 16756 12264 10195 12079 14864 16532 16779 18971 18723 13755 999999 999999 999999 999999 999999 0 999999 999999 999999 999999 999999 999999 999999 999999 999999 999999 999999 999999 999999 999999 999999 999999 999999 999999 999999 999999 999999 999999 999999 999999 9503
999999 17865 18597 14611 19009 13580 15733 15347 11595 14440 17069 15048 10700 15853 10351 15501 18000 14229 17867 13090 14385 17795 19801 11063 14564 12632 19420 19105 12378 13616 12964 999999 999999 999999 999999 999999 999999 0 999999 999999 999999 999999 999999 999999 999999 999999 999999 999999 999999 999999 999999 999999 999999 999999 999999 999999 999999 999999 999999 999999 999999 14913
999999 13660 16230 12223 11668 19515 10143 12367 16280 18324 14541 16223 10810 11276 16265 16655 19344 10100 17374 11259 18863 10223 17763 17150 19009 19462 11340 11807 13605 15139 17986 999999 999999 999999 999999 999999 999999 999999 0 999999 999999 999999 999999 999999 999999 999999 999999 999999 999999 999999 999999 999999 999999 999999 999999 999999 999999 999999 999999 999999 999999 9182
999999 10519 12201 11748 18387 10607 18116 16100 11517 19074 17844 16313 13906 12048 19867 12481 10229 10633 10892 10807 15132 16476 15977 15287 14483 17325 14129 15562 11384 16546 10322 999999 999999 999999 999999 999999 999999 999999 999999 0 999999 999999 999999 999999 999999 999999 999999 999999 999999 999999 999999 999999 999999 999999 999999 999999 999999 999999 999999 999999 999999 5274
999999 18109 12869 17805 12409 18248 19577 18704 14223 19175 17445 12687 13366 17208 18176 12401 12570 11190 19574 17336 15612 14543 14161 15590 18108 19088 10577 17361 13554 16632 16027 999999 999999 999999 999999 999999 999999 999999 999999 999999 0 999999 999999 999999 999999 999999 999999 999999 999999 999999 999999 999999 999999 999999 999999 999999 999999 999999 999999 999999 999999 5607
999999 14237 11989 19568 12312 18827 15735 11268 19208 14555 16142 17739 15453 15261 14013 16389 15769 10665 12045 12685 11684 12151 10735 17775 15222 12107 13035 13430 16661 17990 12966 999999 999999 999999 999999 999999 999999 999999 999999 999999 999999 0 999999 999999 999999 999999 999999 999999 999999 999999 999999 999999 999999 999999 999999 999999 999999 999999 999999 999999 999999 8300
999999 12894 12088 15684 11743 12275 17542 17617 14867 17589 18712 13558 19848 14896 13819 16611 19016 15165 14941 10402 18491 14348 19250 11374 14549 17787 16646 17810 18996 19068 15184 999999 999999 999999 999999 999999 999999 999999 999999 999999 999999 999999 0 999999 999999 999999 999999 999999 999999 999999 999999 999999 999999 999999 999999 999999 999999 999999 999999 999999 999999 13766
999999 15500 18911 16516 14599 15658 19972 19609 13244 19281 19276 17556 16775 15563 17840 19404 17831 12520 11427 10596 17849 19966 19404 15203 15103 16972 14361 16179 19053 13178 18537 999999 999999 999999 999999 999999 999999 999999 999999 999999 999999 999999 999999 0 999999 999999 999999 999999 999999 999999 999999 999999 999999 999999 999999 999999 999999 999999 999999 999999 999999 12078
999999 19581 15825 10207 12924 10272 11533 10715 11579 19120 19396 11499 12277 17270 14989 19511 14192 10145 15204 13937 19113 13675 17257 16036 18828 15727 15264 15825 10048 11181 13829 999999 999999 999999 999999 999999 999999 999999 999999 999999 999999 999999 999999 999999 0 999999 999999 999999 999999 999999 999999 999999 999999 999999 999999 999999 999999 999999 999999 999999 999999 6773
999999 16905 13220 10756 11037 15505 16563 12106 12629 13531 14362 11926 19052 17381 18577 19609 12382 17664 10607 13421 15654 19347 14345 14139 11302 15358 18558 14854 15218 18893 17339 999999 999999 999999 999999 999999 999999 999999 999999 999999 999999 999999 999999 999999 999999 0 999999 999999 999999 999999 999999 999999 999999 999999 999999 999999 999999 999999 999999 999999 999999 14419
999999 12250 14614 17766 16761 13745 12254 18605 19222 17966 10553 11940 11857 15634 18749 11459 10240 18709 19716 13861 18875 18238 17503 13007 12181 18868 14304 13115 10678 13853 18582 999999 999999 999999 999999 999999 999999 999999 999999 999999 999999 999999 999999 999999 999999 999999 0 999999 999999 999999 999999 999999 999999 999999 999999 999999 999999 999999 999999 999999 999999 7909
999999 15975 12640 17244 15523 14053 17171 18129 11610 17022 12615 12072 15738 19581 11057 17584 19955 18952 11024 16486 11367 19755 15474 12475 11082 11406 12360 16825 17565 11563 19494 999999 999999 999999 999999 999999 999999 999999 999999 999999 999999 999999 999999 999999 999999 999999 999999 0 999999 999999 999999 999999 999999 999999 999999 999999 999999 999999 999999 999999 999999 5562
999999 13438 11496 10978 10298 13602 12994 10611 19094 19773 19371 16251 19475 15106 13127 12525 15655 18840 11830 11940 16615 12383 18299 19696 16305 18164 12645 13048 10240 18146 10535 999999 999999 999999 999999 999999 999999 999999 999999 999999 999999 999999 999999 999999 999999 999999 999999 999999 0 999999 999999 999999 999999 999999 999999 999999 999999 999999 999999 999999 999999 14111
999999 15538 16357 19426 18355 12916 18716 13255 16762 10036 10009 13825 18247 15141 15287 18369 18783 11190 18271 15586 11071 10185 13074 15769 12835 15821 19853 16507 10855 19039 10461 999999 999999 999999 999999 999999 999999 999999 999999 999999 999999 999999 999999 999999 999999 999999 999999 999999 999999 0 999999 999999 999999 999999 999999 999999 999999 999999 999999 999999 999999 6103
999999 14160 13841 10732 11191 11302 14301 17875 16216 15268 14920 15418 12367 14113 13813 16778 15396 11688 16836 13119 10816 15541 11669 15043 15232 18619 19169 12620 15239 16236 16862 999999 999999 999999 999999 999999 999999 999999 999999 999999 999999 999999 999999 999999 999999 999999 999999 999999 999999 999999 0 999999 999999 999999 999999 999999 999999 999999 999999 999999 999999 11812
999999 15009 19329 16892 13316 19255 10121 13767 13927 18819 17429 17762 12212 15469 12179 15123 15330 18051 15148 13332 16453 17028 19229 17487 16401 10942 13354 15353 10992 13074 19215 999999 999999 999999 999999 999999 999999 999999 999999 999999 999999 999999 999999 999999 999999 999999 999999 999999 999999 999999 999999 0 999999 999999 999999 999999 999999 999999 999999 999999 999999 10383
999999 14457 13189 18483 15595 14321 10242 11751 17043 13667 13744 10001 19704 16175 16067 14882 13400 13621 15140 10944 19140 18505 13531 19686 16198 19095 12116 18939 10190 15930 18220 999999 999999 999999 999999 999999 999999 999999 999999 999999 999999 999999 999999 999999 999999 999999 999999 999999 999999 999999 999999 999999 0 999999 999999 999999 999999 999999 999999 999999 999999 6177
999999 16979 13821 18625 15224 17461 19373 12903 15009 15731 17854 10482 18883 14343 17101 10115 11646 17388 14132 13562 19411 13793 11605 19326 12010 13914 18260 11516 11576 15109 11066 999999 999999 999999 999999 999999 999999 999999 999999 999999 999999 999999 999999 999999 999999 999999 999999 999999 999999 999999 999999 999999 999999 0 999999 999999 999999 999999 999999 999999 999999 12712
999999 18891 11160 14275 16660 15033 14291 15627 18914 18243 17816 15996 14517 16545 10253 13474 13045 17169 15935 14112 13867 18035 11955 10814 17142 10408 17477 18145 17726 19109 16095 999999 999999 999999 999999 999999 999999 999999 999999 999999 999999 999999 999999 999999 999999 999999 999999 999999 999999 999999 999999 999999 999999 999999 0 999999 999999 999999 999999 999999 999999 9088
999999 12190 11185 10252 15681 14392 13295 18634 14492 18651 10961 17964 16570 11695 10890 13262 16818 19145 19256 18618 16442 17353 10917 10132 10652 12327 14526 16109 12794 19887 19909 999999 999999 999999 999999 999999 999999 999999 999999 999999 999999 999999 999999 999999 999999 999999 999999 999999 999999 999999 999999 999999 999999 999999 999999 0 999999 999999 999999 999999 999999 6556
999999 14118 13205 18607 13846 17599 13349 15222 11478 17688 13448 17742 11554 10418 13861 18980 18251 14670 18942 16195 19354 13317 12834 15461 16755 13748 18626 17396 17399 16058 14558 999999 999999 999999 999999 999999 999999 999999 999999 999999 999999 999999 999999 999999 999999 999999 999999 999999 999999 999999 999999 999999 999999 999999 999999 999999 0 999999 999999 999999 999999 9121
999999 16325 16634 18148 17181 13200 12618 11885 10376 13750 12711 14315 12490 14152 14634 16867 18870 18375 19643 11215 10230 18556 18758 15466 11233 19230 13482 13811 11157 19967 17314 999999 999999 999999 999999 999999 999999 999999 999999 999999 999999 999999 999999 999999 999999 999999 999999 999999 999999 999999 999999 999999 999999 999999 999999 999999 999999 0 999999 999999 999999 11749
999999 14990 16364 11348 11178 17110 15077 19502 10140 17217 11794 17469 16229 13058 10095 10733 16251 14628 17628 13660 17793 10146 16628 18902 18659 10039 17187 15894 11038 18572 16639 999999 999999 999999 999999 999999 999999 999999 999999 999999 999999 999999 999999 999999 999999 999999 999999 999999 999999 999999 999999 999999 999999 999999 999999 999999 999999 999999 0 999999 999999 9586
999999 14375 18837 11110 14513 19938 11145 10101 14621 14638 18743 10349 16188 13627 13304 14806 12122 14887 10432 13271 16792 10745 12178 13873 17512 14795 17228 12506 16088 10591 10792 999999 999999 999999 999999 999999 999999 999999 999999 999999 999999 999999 999999 999999 999999 999999 999999 999999 999999 999999 999999 999999 999999 999999 999999 999999 999999 999999 999999 0 999999 8076
999999 15507 19199 19389 18641 11217 11193 19580 15936 17850 12327 14113 16589 13828 17949 10899 19569 18902 13806 17534 15657 16116 19613 15288 12960 14916 11841 14763 15367 13160 14955 999999 999999 999999 999999 999999 999999 999999 999999 999999 999999 999999 999999 999999 999999 999999 999999 999999 999999 999999 999999 999999 999999 999999 999999 999999 999999 999999 999999 999999 0 14791
1 999999 999999 999999 999999 999999 999999 999999 999999 999999 999999 999999 999999 999999 999999 999999 999999 999999 999999 999999 999999 999999 999999 999999 999999 999999 999999 999999 999999 999999 999999 999999 999999 999999 999999 999999 999999 999999 999999 999999 999999 999999 999999 999999 999999 999999 999999 999999 999999 999999 999999 999999 999999 999999 999999 999999 999999 999999 999999 999999 999999 0
EOF