NAME: GR_1x2x10_KH_2x10_Run_9
TYPE: TSP
COMMENT: BTSP instance |A|=20 GR nodes |B|=20 KH nodes depot=0.0 end=0.0.0
DIMENSION: 42
EDGE_WEIGHT_TYPE: EXPLICIT
EDGE_WEIGHT_FORMAT: FULL_MATRIX
NODE_COORD_TYPE: NO_COORDS
EDGE_WEIGHT_SECTION
0 11834 5352 5842 5035 10649 6617 5953 6925 11429 6426 9329 14713 12278 14815 9256 6106 6385 12838 8288 6540 999999 999999 999999 999999 999999 999999 999999 999999 999999 999999 999999 999999 999999 999999 999999 999999 999999 999999 999999 999999 999999
999999 0 999999 999999 999999 999999 999999 999999 999999 999999 999999 999999 999999 999999 999999 999999 999999 999999 999999 999999 999999 16899 15844 10426 14721 11906 17236 14790 10949 15300 18749 18807 13651 15378 13311 17383 12515 18715 15106 19938 18988 999999
999999 999999 0 999999 999999 999999 999999 999999 999999 999999 999999 999999 999999 999999 999999 999999 999999 999999 999999 999999 999999 17011 19654 18343 18254 17036 19501 11737 19535 17891 16591 14680 10591 11573 11668 12683 13976 10724 14256 19210 11184 999999
999999 999999 999999 0 999999 999999 999999 999999 999999 999999 999999 999999 999999 999999 999999 999999 999999 999999 999999 999999 999999 17323 12490 10036 11641 15418 11181 16837 14289 10603 14007 19835 13721 15561 19327 17512 19649 10185 17532 19540 12972 999999
999999 999999 999999 999999 0 999999 999999 999999 999999 999999 999999 999999 999999 999999 999999 999999 999999 999999 999999 999999 999999 19868 16989 19979 18174 17876 16435 14329 19245 19965 12231 17304 17360 16581 16649 14342 17500 11331 17280 15082 14829 999999
999999 999999 999999 999999 999999 0 999999 999999 999999 999999 999999 999999 999999 999999 999999 999999 999999 999999 999999 999999 999999 18742 19258 18208 15076 16403 17995 18138 10891 15954 15369 14340 11396 19012 15313 11907 14488 16617 13740 17183 14159 999999
999999 999999 999999 999999 999999 999999 0 999999 999999 999999 999999 999999 999999 999999 999999 999999 999999 999999 999999 999999 999999 19192 19389 15152 18762 17923 14204 16757 12841 16370 16342 17974 17511 19564 11284 11768 19140 10647 11597 14427 14374 999999
999999 999999 999999 999999 999999 999999 999999 0 999999 999999 999999 999999 999999 999999 999999 999999 999999 999999 999999 999999 999999 18614 13889 19727 15460 12079 16451 10432 18587 17483 14395 18029 19602 17122 18809 11547 17843 10787 19864 13608 19476 999999
999999 999999 999999 999999 999999 999999 999999 999999 0 999999 999999 999999 999999 999999 999999 999999 999999 999999 999999 999999 999999 12313 13799 11978 14598 15926 11682 19576 16319 12510 17994 10039 12085 18908 10045 19814 17539 10743 14501 19536 17496 999999
999999 999999 999999 999999 999999 999999 999999 999999 999999 0 999999 999999 999999 999999 999999 999999 999999 999999 999999 999999 999999 13081 19872 14837 14011 19538 17894 19948 10476 19294 15729 18378 11543 10262 12701 18331 11643 19995 15861 11571 12504 999999
999999 999999 999999 999999 999999 999999 999999 999999 999999 999999 0 999999 999999 999999 999999 999999 999999 999999 999999 999999 999999 14840 15851 11778 10128 16444 10483 16369 18926 18632 16515 13874 18815 13016 10139 13391 19122 11780 18531 19411 11622 999999
999999 999999 999999 999999 999999 999999 999999 999999 999999 999999 999999 0 999999 999999 999999 999999 999999 999999 999999 999999 999999 15984 14257 16686 15520 19297 16893 14847 12972 10546 10998 10176 15206 14239 14869 15997 12424 11435 14582 19616 18590 999999
999999 999999 999999 999999 999999 999999 999999 999999 999999 999999 999999 999999 0 999999 999999 999999 999999 999999 999999 999999 999999 18435 17677 11853 14849 10990 13030 15239 15301 11536 12520 12293 12288 17402 14925 16125 13254 13908 16432 11406 14673 999999
999999 999999 999999 999999 999999 999999 999999 999999 999999 999999 999999 999999 999999 0 999999 999999 999999 999999 999999 999999 999999 12911 11038 13517 16926 11072 13655 13461 15114 11496 10673 12112 15521 18282 13048 14987 10140 15529 11161 11610 14511 999999
999999 999999 999999 999999 999999 999999 999999 999999 999999 999999 999999 999999 999999 999999 0 999999 999999 999999 999999 999999 999999 15458 16145 17078 10534 18276 18513 16358 11865 19715 11551 15174 10803 13748 18362 19177 14131 10281 16556 19608 11100 999999
999999 999999 999999 999999 999999 999999 999999 999999 999999 999999 999999 999999 999999 999999 999999 0 999999 999999 999999 999999 999999 18117 15359 12690 19835 14343 19350 11379 12294 14307 15846 18862 17206 18113 10872 10049 12188 11249 17946 11484 15952 999999
999999 999999 999999 999999 999999 999999 999999 999999 999999 999999 999999 999999 999999 999999 999999 999999 0 999999 999999 999999 999999 15157 18958 13430 17898 10574 11395 19347 12370 17253 14478 19869 16657 17116 16744 16945 17890 19724 11545 12164 12455 999999
999999 999999 999999 999999 999999 999999 999999 999999 999999 999999 999999 999999 999999 999999 999999 999999 999999 0 999999 999999 999999 15312 18020 19360 19275 19006 10707 12972 10568 17112 18285 18121 10027 14879 18374 13348 18120 19561 12590 16239 16394 999999
999999 999999 999999 999999 999999 999999 999999 999999 999999 999999 999999 999999 999999 999999 999999 999999 999999 999999 0 999999 999999 15712 12860 10570 17993 10811 10963 16428 18296 15551 13768 18838 17622 10369 11147 18413 15679 12058 15233 16660 15208 999999
999999 999999 999999 999999 999999 999999 999999 999999 999999 999999 999999 999999 999999 999999 999999 999999 999999 999999 999999 0 999999 16624 13407 13962 17341 18762 14159 13662 11224 16273 10959 17814 14781 11857 10040 19429 14709 10999 15967 13540 16094 999999
999999 999999 999999 999999 999999 999999 999999 999999 999999 999999 999999 999999 999999 999999 999999 999999 999999 999999 999999 999999 0 17197 18940 17157 18255 10127 10266 17987 12892 19038 12462 14738 12603 15834 14983 14416 10435 11427 16173 16258 14428 999999
999999 16899 17011 17323 19868 18742 19192 18614 12313 13081 14840 15984 18435 12911 15458 18117 15157 15312 15712 16624 17197 0 999999 999999 999999 999999 999999 999999 999999 999999 999999 999999 999999 999999 999999 999999 999999 999999 999999 999999 999999 13107
999999 15844 19654 12490 16989 19258 19389 13889 13799 19872 15851 14257 17677 11038 16145 15359 18958 18020 12860 13407 18940 999999 0 999999 999999 999999 999999 999999 999999 999999 999999 999999 999999 999999 999999 999999 999999 999999 999999 999999 999999 6119
999999 10426 18343 10036 19979 18208 15152 19727 11978 14837 11778 16686 11853 13517 17078 12690 13430 19360 10570 13962 17157 999999 999999 0 999999 999999 999999 999999 999999 999999 999999 999999 999999 999999 999999 999999 999999 999999 999999 999999 999999 14737
999999 14721 18254 11641 18174 15076 18762 15460 14598 14011 10128 15520 14849 16926 10534 19835 17898 19275 17993 17341 18255 999999 999999 999999 0 999999 999999 999999 999999 999999 999999 999999 999999 999999 999999 999999 999999 999999 999999 999999 999999 11974
999999 11906 17036 15418 17876 16403 17923 12079 15926 19538 16444 19297 10990 11072 18276 14343 10574 19006 10811 18762 10127 999999 999999 999999 999999 0 999999 999999 999999 999999 999999 999999 999999 999999 999999 999999 999999 999999 999999 999999 999999 14687
999999 17236 19501 11181 16435 17995 14204 16451 11682 17894 10483 16893 13030 13655 18513 19350 11395 10707 10963 14159 10266 999999 999999 999999 999999 999999 0 999999 999999 999999 999999 999999 999999 999999 999999 999999 999999 999999 999999 999999 999999 13551
999999 14790 11737 16837 14329 18138 16757 10432 19576 19948 16369 14847 15239 13461 16358 11379 19347 12972 16428 13662 17987 999999 999999 999999 999999 999999 999999 0 999999 999999 999999 999999 999999 999999 999999 999999 999999 999999 999999 999999 999999 10567
999999 10949 19535 14289 19245 10891 12841 18587 16319 10476 18926 12972 15301 15114 11865 12294 12370 10568 18296 11224 12892 999999 999999 999999 999999 999999 999999 999999 0 999999 999999 999999 999999 999999 999999 999999 999999 999999 999999 999999 999999 6748
999999 15300 17891 10603 19965 15954 16370 17483 12510 19294 18632 10546 11536 11496 19715 14307 17253 17112 15551 16273 19038 999999 999999 999999 999999 999999 999999 999999 999999 0 999999 999999 999999 999999 999999 999999 999999 999999 999999 999999 999999 5036
999999 18749 16591 14007 12231 15369 16342 14395 17994 15729 16515 10998 12520 10673 11551 15846 14478 18285 13768 10959 12462 999999 999999 999999 999999 999999 999999 999999 999999 999999 0 999999 999999 999999 999999 999999 999999 999999 999999 999999 999999 13504
999999 18807 14680 19835 17304 14340 17974 18029 10039 18378 13874 10176 12293 12112 15174 18862 19869 18121 18838 17814 14738 999999 999999 999999 999999 999999 999999 999999 999999 999999 999999 0 999999 999999 999999 999999 999999 999999 999999 999999 999999 5219
999999 13651 10591 13721 17360 11396 17511 19602 12085 11543 18815 15206 12288 15521 10803 17206 16657 10027 17622 14781 12603 999999 999999 999999 999999 999999 999999 999999 999999 999999 999999 999999 0 999999 999999 999999 999999 999999 999999 999999 999999 6071
999999 15378 11573 15561 16581 19012 19564 17122 18908 10262 13016 14239 17402 18282 13748 18113 17116 14879 10369 11857 15834 999999 999999 999999 999999 999999 999999 999999 999999 999999 999999 999999 999999 0 999999 999999 999999 999999 999999 999999 999999 13903
999999 13311 11668 19327 16649 15313 11284 18809 10045 12701 10139 14869 14925 13048 18362 10872 16744 18374 11147 10040 14983 999999 999999 999999 999999 999999 999999 999999 999999 999999 999999 999999 999999 999999 0 999999 999999 999999 999999 999999 999999 8357
999999 17383 12683 17512 14342 11907 11768 11547 19814 18331 13391 15997 16125 14987 19177 10049 16945 13348 18413 19429 14416 999999 999999 999999 999999 999999 999999 999999 999999 999999 999999 999999 999999 999999 999999 0 999999 999999 999999 999999 999999 6914
999999 12515 13976 19649 17500 14488 19140 17843 17539 11643 19122 12424 13254 10140 14131 12188 17890 18120 15679 14709 10435 999999 999999 999999 999999 999999 999999 999999 999999 999999 999999 999999 999999 999999 999999 999999 0 999999 999999 999999 999999 5482
999999 18715 10724 10185 11331 16617 10647 10787 10743 19995 11780 11435 13908 15529 10281 11249 19724 19561 12058 10999 11427 999999 999999 999999 999999 999999 999999 999999 999999 999999 999999 999999 999999 999999 999999 999999 999999 0 999999 999999 999999 7911
999999 15106 14256 17532 17280 13740 11597 19864 14501 15861 18531 14582 16432 11161 16556 17946 11545 12590 15233 15967 16173 999999 999999 999999 999999 999999 999999 999999 999999 999999 999999 999999 999999 999999 999999 999999 999999 999999 0 999999 999999 7034
999999 19938 19210 19540 15082 17183 14427 13608 19536 11571 19411 19616 11406 11610 19608 11484 12164 16239 16660 13540 16258 999999 999999 999999 999999 999999 999999 999999 999999 999999 999999 999999 999999 999999 999999 999999 999999 999999 999999 0 999999 12959
999999 18988 11184 12972 14829 14159 14374 19476 17496 12504 11622 18590 14673 14511 11100 15952 12455 16394 15208 16094 14428 999999 999999 999999 999999 999999 999999 999999 999999 999999 999999 999999 999999 999999 999999 999999 999999 999999 999999 999999 0 5206
1 999999 999999 999999 999999 999999 999999 999999 999999 999999 999999 999999 999999 999999 999999 999999 999999 999999 999999 999999 999999 999999 999999 999999 999999 999999 999999 999999 999999 999999 999999 999999 999999 999999 999999 999999 999999 999999 999999 999999 999999 0
EOF