NAME: GR_1x5x10_KH_5x10_Run_8
TYPE: TSP
COMMENT: BTSP instance |A|=50 GR nodes |B|=50 KH nodes depot=0.0 end=0.0.0
DIMENSION: 102
EDGE_WEIGHT_TYPE: EXPLICIT
EDGE_WEIGHT_FORMAT: FULL_MATRIX
NODE_COORD_TYPE: NO_COORDS
EDGE_WEIGHT_SECTION
0 11337 6412 10082 6914 14926 6300 8184 11546 14223 10075 9565 5662 14382 12906 9871 13077 10151 9083 13705 7137 11644 12478 11434 5369 7548 6876 6805 10811 11903 8941 8193 6653 14039 11690 5377 11293 5285 12708 9020 5261 11282 10877 11782 5067 13412 10683 9962 11052 8351 11262 999999 999999 999999 999999 999999 999999 999999 999999 999999 999999 999999 999999 999999 999999 999999 999999 999999 999999 999999 999999 999999 999999 999999 999999 999999 999999 999999 999999 999999 999999 999999 999999 999999 999999 999999 999999 999999 999999 999999 999999 999999 999999 999999 999999 999999 999999 999999 999999 999999 999999 999999
999999 0 999999 999999 999999 999999 999999 999999 999999 999999 999999 999999 999999 999999 999999 999999 999999 999999 999999 999999 999999 999999 999999 999999 999999 999999 999999 999999 999999 999999 999999 999999 999999 999999 999999 999999 999999 999999 999999 999999 999999 999999 999999 999999 999999 999999 999999 999999 999999 999999 999999 999999 999999 999999 999999 999999 999999 999999 999999 999999 13201 11917 18953 999999 999999 999999 999999 999999 999999 999999 16824 16922 999999 999999 999999 12243 999999 999999 999999 13763 10155 999999 999999 999999 999999 999999 999999 999999 999999 999999 999999 999999 999999 999999 999999 999999 999999 999999 10408 999999 19118 999999
999999 999999 0 999999 999999 999999 999999 999999 999999 999999 999999 999999 999999 999999 999999 999999 999999 999999 999999 999999 999999 999999 999999 999999 999999 999999 999999 999999 999999 999999 999999 999999 999999 999999 999999 999999 999999 999999 999999 999999 999999 999999 999999 999999 999999 999999 999999 999999 999999 999999 999999 999999 999999 999999 999999 999999 999999 999999 999999 999999 17326 19326 18966 999999 999999 999999 999999 999999 999999 999999 17658 13313 999999 999999 999999 10555 999999 999999 999999 19608 15031 999999 999999 999999 999999 999999 999999 999999 999999 999999 999999 999999 999999 999999 999999 999999 999999 999999 14812 999999 13303 999999
999999 999999 999999 0 999999 999999 999999 999999 999999 999999 999999 999999 999999 999999 999999 999999 999999 999999 999999 999999 999999 999999 999999 999999 999999 999999 999999 999999 999999 999999 999999 999999 999999 999999 999999 999999 999999 999999 999999 999999 999999 999999 999999 999999 999999 999999 999999 999999 999999 999999 999999 999999 999999 999999 999999 999999 999999 999999 999999 999999 17911 17311 18164 999999 999999 999999 999999 999999 999999 999999 17568 19436 999999 999999 999999 19303 999999 999999 999999 12345 12357 999999 999999 999999 999999 999999 999999 999999 999999 999999 999999 999999 999999 999999 999999 999999 999999 999999 11590 999999 17883 999999
999999 999999 999999 999999 0 999999 999999 999999 999999 999999 999999 999999 999999 999999 999999 999999 999999 999999 999999 999999 999999 999999 999999 999999 999999 999999 999999 999999 999999 999999 999999 999999 999999 999999 999999 999999 999999 999999 999999 999999 999999 999999 999999 999999 999999 999999 999999 999999 999999 999999 999999 999999 999999 999999 999999 999999 999999 999999 999999 999999 12548 19327 13656 999999 999999 999999 999999 999999 999999 999999 17396 15467 999999 999999 999999 13262 999999 999999 999999 11245 12911 999999 999999 999999 999999 999999 999999 999999 999999 999999 999999 999999 999999 999999 999999 999999 999999 999999 14938 999999 18392 999999
999999 999999 999999 999999 999999 0 999999 999999 999999 999999 999999 999999 999999 999999 999999 999999 999999 999999 999999 999999 999999 999999 999999 999999 999999 999999 999999 999999 999999 999999 999999 999999 999999 999999 999999 999999 999999 999999 999999 999999 999999 999999 999999 999999 999999 999999 999999 999999 999999 999999 999999 999999 999999 999999 999999 999999 999999 999999 999999 999999 11615 14770 16268 999999 999999 999999 999999 999999 999999 999999 10964 17081 999999 999999 999999 19503 999999 999999 999999 14346 15373 999999 999999 999999 999999 999999 999999 999999 999999 999999 999999 999999 999999 999999 999999 999999 999999 999999 12389 999999 15205 999999
999999 999999 999999 999999 999999 999999 0 999999 999999 999999 999999 999999 999999 999999 999999 999999 999999 999999 999999 999999 999999 999999 999999 999999 999999 999999 999999 999999 999999 999999 999999 999999 999999 999999 999999 999999 999999 999999 999999 999999 999999 999999 999999 999999 999999 999999 999999 999999 999999 999999 999999 999999 999999 999999 999999 999999 999999 999999 999999 999999 10723 16700 10971 999999 999999 999999 999999 999999 999999 999999 11692 14928 999999 999999 999999 17953 999999 999999 999999 10092 16481 999999 999999 999999 999999 999999 999999 999999 999999 999999 999999 999999 999999 999999 999999 999999 999999 999999 13377 999999 18353 999999
999999 999999 999999 999999 999999 999999 999999 0 999999 999999 999999 999999 999999 999999 999999 999999 999999 999999 999999 999999 999999 999999 999999 999999 999999 999999 999999 999999 999999 999999 999999 999999 999999 999999 999999 999999 999999 999999 999999 999999 999999 999999 999999 999999 999999 999999 999999 999999 999999 999999 999999 999999 999999 999999 999999 999999 999999 999999 999999 999999 10830 14098 10570 999999 999999 999999 999999 999999 999999 999999 18659 11514 999999 999999 999999 15060 999999 999999 999999 11158 18627 999999 999999 999999 999999 999999 999999 999999 999999 999999 999999 999999 999999 999999 999999 999999 999999 999999 10344 999999 11507 999999
999999 999999 999999 999999 999999 999999 999999 999999 0 999999 999999 999999 999999 999999 999999 999999 999999 999999 999999 999999 999999 999999 999999 999999 999999 999999 999999 999999 999999 999999 999999 999999 999999 999999 999999 999999 999999 999999 999999 999999 999999 999999 999999 999999 999999 999999 999999 999999 999999 999999 999999 999999 999999 999999 999999 999999 999999 999999 999999 999999 10799 11732 12972 999999 999999 999999 999999 999999 999999 999999 10586 19590 999999 999999 999999 13916 999999 999999 999999 14037 10313 999999 999999 999999 999999 999999 999999 999999 999999 999999 999999 999999 999999 999999 999999 999999 999999 999999 13230 999999 16009 999999
999999 999999 999999 999999 999999 999999 999999 999999 999999 0 999999 999999 999999 999999 999999 999999 999999 999999 999999 999999 999999 999999 999999 999999 999999 999999 999999 999999 999999 999999 999999 999999 999999 999999 999999 999999 999999 999999 999999 999999 999999 999999 999999 999999 999999 999999 999999 999999 999999 999999 999999 999999 999999 999999 999999 999999 999999 999999 999999 999999 18752 13183 12898 999999 999999 999999 999999 999999 999999 999999 19469 11221 999999 999999 999999 16520 999999 999999 999999 13632 15364 999999 999999 999999 999999 999999 999999 999999 999999 999999 999999 999999 999999 999999 999999 999999 999999 999999 13878 999999 10771 999999
999999 999999 999999 999999 999999 999999 999999 999999 999999 999999 0 999999 999999 999999 999999 999999 999999 999999 999999 999999 999999 999999 999999 999999 999999 999999 999999 999999 999999 999999 999999 999999 999999 999999 999999 999999 999999 999999 999999 999999 999999 999999 999999 999999 999999 999999 999999 999999 999999 999999 999999 999999 999999 999999 999999 999999 999999 999999 999999 999999 15401 10221 19091 999999 999999 999999 999999 999999 999999 999999 19967 14439 999999 999999 999999 19016 999999 999999 999999 18709 10533 999999 999999 999999 999999 999999 999999 999999 999999 999999 999999 999999 999999 999999 999999 999999 999999 999999 15994 999999 14936 999999
999999 999999 999999 999999 999999 999999 999999 999999 999999 999999 999999 0 999999 999999 999999 999999 999999 999999 999999 999999 999999 999999 999999 999999 999999 999999 999999 999999 999999 999999 999999 999999 999999 999999 999999 999999 999999 999999 999999 999999 999999 999999 999999 999999 999999 999999 999999 999999 999999 999999 999999 999999 16445 999999 999999 999999 999999 999999 999999 999999 999999 999999 999999 999999 999999 13094 11954 999999 999999 999999 999999 999999 10374 999999 19342 999999 18456 999999 999999 999999 999999 17225 999999 999999 999999 19763 999999 11260 999999 999999 999999 999999 999999 999999 999999 999999 999999 15864 999999 999999 999999 999999
999999 999999 999999 999999 999999 999999 999999 999999 999999 999999 999999 999999 0 999999 999999 999999 999999 999999 999999 999999 999999 999999 999999 999999 999999 999999 999999 999999 999999 999999 999999 999999 999999 999999 999999 999999 999999 999999 999999 999999 999999 999999 999999 999999 999999 999999 999999 999999 999999 999999 999999 999999 13905 999999 999999 999999 999999 999999 999999 999999 999999 999999 999999 999999 999999 17586 10385 999999 999999 999999 999999 999999 17889 999999 15209 999999 11408 999999 999999 999999 999999 14710 999999 999999 999999 14391 999999 11679 999999 999999 999999 999999 999999 999999 999999 999999 999999 18990 999999 999999 999999 999999
999999 999999 999999 999999 999999 999999 999999 999999 999999 999999 999999 999999 999999 0 999999 999999 999999 999999 999999 999999 999999 999999 999999 999999 999999 999999 999999 999999 999999 999999 999999 999999 999999 999999 999999 999999 999999 999999 999999 999999 999999 999999 999999 999999 999999 999999 999999 999999 999999 999999 999999 999999 14587 999999 999999 999999 999999 999999 999999 999999 999999 999999 999999 999999 999999 15953 13473 999999 999999 999999 999999 999999 18742 999999 10112 999999 18110 999999 999999 999999 999999 11544 999999 999999 999999 13929 999999 14199 999999 999999 999999 999999 999999 999999 999999 999999 999999 14209 999999 999999 999999 999999
999999 999999 999999 999999 999999 999999 999999 999999 999999 999999 999999 999999 999999 999999 0 999999 999999 999999 999999 999999 999999 999999 999999 999999 999999 999999 999999 999999 999999 999999 999999 999999 999999 999999 999999 999999 999999 999999 999999 999999 999999 999999 999999 999999 999999 999999 999999 999999 999999 999999 999999 999999 17723 999999 999999 999999 999999 999999 999999 999999 999999 999999 999999 999999 999999 11758 11461 999999 999999 999999 999999 999999 11658 999999 16580 999999 14581 999999 999999 999999 999999 18948 999999 999999 999999 16978 999999 13219 999999 999999 999999 999999 999999 999999 999999 999999 999999 13854 999999 999999 999999 999999
999999 999999 999999 999999 999999 999999 999999 999999 999999 999999 999999 999999 999999 999999 999999 0 999999 999999 999999 999999 999999 999999 999999 999999 999999 999999 999999 999999 999999 999999 999999 999999 999999 999999 999999 999999 999999 999999 999999 999999 999999 999999 999999 999999 999999 999999 999999 999999 999999 999999 999999 999999 10322 999999 999999 999999 999999 999999 999999 999999 999999 999999 999999 999999 999999 13593 14439 999999 999999 999999 999999 999999 14815 999999 18954 999999 11222 999999 999999 999999 999999 10221 999999 999999 999999 11045 999999 14833 999999 999999 999999 999999 999999 999999 999999 999999 999999 14812 999999 999999 999999 999999
999999 999999 999999 999999 999999 999999 999999 999999 999999 999999 999999 999999 999999 999999 999999 999999 0 999999 999999 999999 999999 999999 999999 999999 999999 999999 999999 999999 999999 999999 999999 999999 999999 999999 999999 999999 999999 999999 999999 999999 999999 999999 999999 999999 999999 999999 999999 999999 999999 999999 999999 999999 18025 999999 999999 999999 999999 999999 999999 999999 999999 999999 999999 999999 999999 13584 13795 999999 999999 999999 999999 999999 19476 999999 16013 999999 16716 999999 999999 999999 999999 11641 999999 999999 999999 13943 999999 18470 999999 999999 999999 999999 999999 999999 999999 999999 999999 19530 999999 999999 999999 999999
999999 999999 999999 999999 999999 999999 999999 999999 999999 999999 999999 999999 999999 999999 999999 999999 999999 0 999999 999999 999999 999999 999999 999999 999999 999999 999999 999999 999999 999999 999999 999999 999999 999999 999999 999999 999999 999999 999999 999999 999999 999999 999999 999999 999999 999999 999999 999999 999999 999999 999999 999999 14693 999999 999999 999999 999999 999999 999999 999999 999999 999999 999999 999999 999999 15696 13343 999999 999999 999999 999999 999999 14125 999999 15756 999999 13439 999999 999999 999999 999999 19281 999999 999999 999999 14864 999999 18152 999999 999999 999999 999999 999999 999999 999999 999999 999999 15678 999999 999999 999999 999999
999999 999999 999999 999999 999999 999999 999999 999999 999999 999999 999999 999999 999999 999999 999999 999999 999999 999999 0 999999 999999 999999 999999 999999 999999 999999 999999 999999 999999 999999 999999 999999 999999 999999 999999 999999 999999 999999 999999 999999 999999 999999 999999 999999 999999 999999 999999 999999 999999 999999 999999 999999 15598 999999 999999 999999 999999 999999 999999 999999 999999 999999 999999 999999 999999 14568 15358 999999 999999 999999 999999 999999 19327 999999 13304 999999 19801 999999 999999 999999 999999 13750 999999 999999 999999 11425 999999 12341 999999 999999 999999 999999 999999 999999 999999 999999 999999 11560 999999 999999 999999 999999
999999 999999 999999 999999 999999 999999 999999 999999 999999 999999 999999 999999 999999 999999 999999 999999 999999 999999 999999 0 999999 999999 999999 999999 999999 999999 999999 999999 999999 999999 999999 999999 999999 999999 999999 999999 999999 999999 999999 999999 999999 999999 999999 999999 999999 999999 999999 999999 999999 999999 999999 999999 14440 999999 999999 999999 999999 999999 999999 999999 999999 999999 999999 999999 999999 13494 18221 999999 999999 999999 999999 999999 19800 999999 16035 999999 13446 999999 999999 999999 999999 12906 999999 999999 999999 10657 999999 14245 999999 999999 999999 999999 999999 999999 999999 999999 999999 13164 999999 999999 999999 999999
999999 999999 999999 999999 999999 999999 999999 999999 999999 999999 999999 999999 999999 999999 999999 999999 999999 999999 999999 999999 0 999999 999999 999999 999999 999999 999999 999999 999999 999999 999999 999999 999999 999999 999999 999999 999999 999999 999999 999999 999999 999999 999999 999999 999999 999999 999999 999999 999999 999999 999999 999999 15097 999999 999999 999999 999999 999999 999999 999999 999999 999999 999999 999999 999999 12131 16884 999999 999999 999999 999999 999999 15161 999999 11045 999999 19120 999999 999999 999999 999999 13743 999999 999999 999999 16108 999999 16093 999999 999999 999999 999999 999999 999999 999999 999999 999999 10909 999999 999999 999999 999999
999999 999999 999999 999999 999999 999999 999999 999999 999999 999999 999999 999999 999999 999999 999999 999999 999999 999999 999999 999999 999999 0 999999 999999 999999 999999 999999 999999 999999 999999 999999 999999 999999 999999 999999 999999 999999 999999 999999 999999 999999 999999 999999 999999 999999 999999 999999 999999 999999 999999 999999 13405 999999 999999 999999 999999 999999 999999 999999 999999 999999 999999 999999 999999 16480 999999 999999 16682 19247 999999 999999 999999 999999 11157 999999 999999 999999 18039 999999 999999 999999 999999 13578 999999 999999 999999 999999 999999 999999 999999 999999 10130 13573 11617 999999 999999 999999 999999 999999 999999 999999 999999
999999 999999 999999 999999 999999 999999 999999 999999 999999 999999 999999 999999 999999 999999 999999 999999 999999 999999 999999 999999 999999 999999 0 999999 999999 999999 999999 999999 999999 999999 999999 999999 999999 999999 999999 999999 999999 999999 999999 999999 999999 999999 999999 999999 999999 999999 999999 999999 999999 999999 999999 18397 999999 999999 999999 999999 999999 999999 999999 999999 999999 999999 999999 999999 12220 999999 999999 10593 18929 999999 999999 999999 999999 16134 999999 999999 999999 11149 999999 999999 999999 999999 14461 999999 999999 999999 999999 999999 999999 999999 999999 12624 19254 10336 999999 999999 999999 999999 999999 999999 999999 999999
999999 999999 999999 999999 999999 999999 999999 999999 999999 999999 999999 999999 999999 999999 999999 999999 999999 999999 999999 999999 999999 999999 999999 0 999999 999999 999999 999999 999999 999999 999999 999999 999999 999999 999999 999999 999999 999999 999999 999999 999999 999999 999999 999999 999999 999999 999999 999999 999999 999999 999999 10595 999999 999999 999999 999999 999999 999999 999999 999999 999999 999999 999999 999999 10540 999999 999999 19782 11718 999999 999999 999999 999999 16281 999999 999999 999999 15588 999999 999999 999999 999999 12817 999999 999999 999999 999999 999999 999999 999999 999999 14500 16454 17628 999999 999999 999999 999999 999999 999999 999999 999999
999999 999999 999999 999999 999999 999999 999999 999999 999999 999999 999999 999999 999999 999999 999999 999999 999999 999999 999999 999999 999999 999999 999999 999999 0 999999 999999 999999 999999 999999 999999 999999 999999 999999 999999 999999 999999 999999 999999 999999 999999 999999 999999 999999 999999 999999 999999 999999 999999 999999 999999 18649 999999 999999 999999 999999 999999 999999 999999 999999 999999 999999 999999 999999 12219 999999 999999 17597 15792 999999 999999 999999 999999 16799 999999 999999 999999 16283 999999 999999 999999 999999 18433 999999 999999 999999 999999 999999 999999 999999 999999 13025 15817 17788 999999 999999 999999 999999 999999 999999 999999 999999
999999 999999 999999 999999 999999 999999 999999 999999 999999 999999 999999 999999 999999 999999 999999 999999 999999 999999 999999 999999 999999 999999 999999 999999 999999 0 999999 999999 999999 999999 999999 999999 999999 999999 999999 999999 999999 999999 999999 999999 999999 999999 999999 999999 999999 999999 999999 999999 999999 999999 999999 12448 999999 999999 999999 999999 999999 999999 999999 999999 999999 999999 999999 999999 17469 999999 999999 19208 18635 999999 999999 999999 999999 16387 999999 999999 999999 16963 999999 999999 999999 999999 16330 999999 999999 999999 999999 999999 999999 999999 999999 17405 17761 14805 999999 999999 999999 999999 999999 999999 999999 999999
999999 999999 999999 999999 999999 999999 999999 999999 999999 999999 999999 999999 999999 999999 999999 999999 999999 999999 999999 999999 999999 999999 999999 999999 999999 999999 0 999999 999999 999999 999999 999999 999999 999999 999999 999999 999999 999999 999999 999999 999999 999999 999999 999999 999999 999999 999999 999999 999999 999999 999999 10382 999999 999999 999999 999999 999999 999999 999999 999999 999999 999999 999999 999999 18248 999999 999999 14708 12183 999999 999999 999999 999999 13450 999999 999999 999999 14620 999999 999999 999999 999999 14608 999999 999999 999999 999999 999999 999999 999999 999999 17136 13029 19907 999999 999999 999999 999999 999999 999999 999999 999999
999999 999999 999999 999999 999999 999999 999999 999999 999999 999999 999999 999999 999999 999999 999999 999999 999999 999999 999999 999999 999999 999999 999999 999999 999999 999999 999999 0 999999 999999 999999 999999 999999 999999 999999 999999 999999 999999 999999 999999 999999 999999 999999 999999 999999 999999 999999 999999 999999 999999 999999 12582 999999 999999 999999 999999 999999 999999 999999 999999 999999 999999 999999 999999 18858 999999 999999 12293 18046 999999 999999 999999 999999 13386 999999 999999 999999 19623 999999 999999 999999 999999 13415 999999 999999 999999 999999 999999 999999 999999 999999 15833 17559 11376 999999 999999 999999 999999 999999 999999 999999 999999
999999 999999 999999 999999 999999 999999 999999 999999 999999 999999 999999 999999 999999 999999 999999 999999 999999 999999 999999 999999 999999 999999 999999 999999 999999 999999 999999 999999 0 999999 999999 999999 999999 999999 999999 999999 999999 999999 999999 999999 999999 999999 999999 999999 999999 999999 999999 999999 999999 999999 999999 10630 999999 999999 999999 999999 999999 999999 999999 999999 999999 999999 999999 999999 19434 999999 999999 17015 16907 999999 999999 999999 999999 12281 999999 999999 999999 13005 999999 999999 999999 999999 18109 999999 999999 999999 999999 999999 999999 999999 999999 17479 16899 11440 999999 999999 999999 999999 999999 999999 999999 999999
999999 999999 999999 999999 999999 999999 999999 999999 999999 999999 999999 999999 999999 999999 999999 999999 999999 999999 999999 999999 999999 999999 999999 999999 999999 999999 999999 999999 999999 0 999999 999999 999999 999999 999999 999999 999999 999999 999999 999999 999999 999999 999999 999999 999999 999999 999999 999999 999999 999999 999999 18401 999999 999999 999999 999999 999999 999999 999999 999999 999999 999999 999999 999999 19090 999999 999999 14521 18222 999999 999999 999999 999999 15619 999999 999999 999999 11521 999999 999999 999999 999999 10805 999999 999999 999999 999999 999999 999999 999999 999999 13652 14198 15249 999999 999999 999999 999999 999999 999999 999999 999999
999999 999999 999999 999999 999999 999999 999999 999999 999999 999999 999999 999999 999999 999999 999999 999999 999999 999999 999999 999999 999999 999999 999999 999999 999999 999999 999999 999999 999999 999999 0 999999 999999 999999 999999 999999 999999 999999 999999 999999 999999 999999 999999 999999 999999 999999 999999 999999 999999 999999 999999 14114 999999 999999 999999 999999 999999 999999 999999 999999 999999 999999 999999 999999 11006 999999 999999 16353 17229 999999 999999 999999 999999 12087 999999 999999 999999 17088 999999 999999 999999 999999 17256 999999 999999 999999 999999 999999 999999 999999 999999 12054 19234 14106 999999 999999 999999 999999 999999 999999 999999 999999
999999 999999 999999 999999 999999 999999 999999 999999 999999 999999 999999 999999 999999 999999 999999 999999 999999 999999 999999 999999 999999 999999 999999 999999 999999 999999 999999 999999 999999 999999 999999 0 999999 999999 999999 999999 999999 999999 999999 999999 999999 999999 999999 999999 999999 999999 999999 999999 999999 999999 999999 999999 999999 15965 19516 14579 15099 14379 12222 999999 999999 999999 999999 999999 999999 999999 999999 999999 999999 999999 999999 999999 999999 999999 999999 999999 999999 999999 999999 999999 999999 999999 999999 999999 999999 999999 11297 999999 18563 999999 11657 999999 999999 999999 999999 999999 12681 999999 999999 999999 999999 999999
999999 999999 999999 999999 999999 999999 999999 999999 999999 999999 999999 999999 999999 999999 999999 999999 999999 999999 999999 999999 999999 999999 999999 999999 999999 999999 999999 999999 999999 999999 999999 999999 0 999999 999999 999999 999999 999999 999999 999999 999999 999999 999999 999999 999999 999999 999999 999999 999999 999999 999999 999999 999999 12954 10800 14677 12352 10591 16607 999999 999999 999999 999999 999999 999999 999999 999999 999999 999999 999999 999999 999999 999999 999999 999999 999999 999999 999999 999999 999999 999999 999999 999999 999999 999999 999999 17708 999999 10059 999999 11837 999999 999999 999999 999999 999999 16961 999999 999999 999999 999999 999999
999999 999999 999999 999999 999999 999999 999999 999999 999999 999999 999999 999999 999999 999999 999999 999999 999999 999999 999999 999999 999999 999999 999999 999999 999999 999999 999999 999999 999999 999999 999999 999999 999999 0 999999 999999 999999 999999 999999 999999 999999 999999 999999 999999 999999 999999 999999 999999 999999 999999 999999 999999 999999 12827 11489 12880 19199 17798 11369 999999 999999 999999 999999 999999 999999 999999 999999 999999 999999 999999 999999 999999 999999 999999 999999 999999 999999 999999 999999 999999 999999 999999 999999 999999 999999 999999 15836 999999 18450 999999 13821 999999 999999 999999 999999 999999 18064 999999 999999 999999 999999 999999
999999 999999 999999 999999 999999 999999 999999 999999 999999 999999 999999 999999 999999 999999 999999 999999 999999 999999 999999 999999 999999 999999 999999 999999 999999 999999 999999 999999 999999 999999 999999 999999 999999 999999 0 999999 999999 999999 999999 999999 999999 999999 999999 999999 999999 999999 999999 999999 999999 999999 999999 999999 999999 12917 10297 16478 14385 18357 19853 999999 999999 999999 999999 999999 999999 999999 999999 999999 999999 999999 999999 999999 999999 999999 999999 999999 999999 999999 999999 999999 999999 999999 999999 999999 999999 999999 14390 999999 19370 999999 16358 999999 999999 999999 999999 999999 10644 999999 999999 999999 999999 999999
999999 999999 999999 999999 999999 999999 999999 999999 999999 999999 999999 999999 999999 999999 999999 999999 999999 999999 999999 999999 999999 999999 999999 999999 999999 999999 999999 999999 999999 999999 999999 999999 999999 999999 999999 0 999999 999999 999999 999999 999999 999999 999999 999999 999999 999999 999999 999999 999999 999999 999999 999999 999999 13712 16651 14665 17159 19612 13488 999999 999999 999999 999999 999999 999999 999999 999999 999999 999999 999999 999999 999999 999999 999999 999999 999999 999999 999999 999999 999999 999999 999999 999999 999999 999999 999999 15947 999999 14299 999999 19934 999999 999999 999999 999999 999999 17860 999999 999999 999999 999999 999999
999999 999999 999999 999999 999999 999999 999999 999999 999999 999999 999999 999999 999999 999999 999999 999999 999999 999999 999999 999999 999999 999999 999999 999999 999999 999999 999999 999999 999999 999999 999999 999999 999999 999999 999999 999999 0 999999 999999 999999 999999 999999 999999 999999 999999 999999 999999 999999 999999 999999 999999 999999 999999 17138 15577 14795 13956 14298 16814 999999 999999 999999 999999 999999 999999 999999 999999 999999 999999 999999 999999 999999 999999 999999 999999 999999 999999 999999 999999 999999 999999 999999 999999 999999 999999 999999 16899 999999 19091 999999 10627 999999 999999 999999 999999 999999 11501 999999 999999 999999 999999 999999
999999 999999 999999 999999 999999 999999 999999 999999 999999 999999 999999 999999 999999 999999 999999 999999 999999 999999 999999 999999 999999 999999 999999 999999 999999 999999 999999 999999 999999 999999 999999 999999 999999 999999 999999 999999 999999 0 999999 999999 999999 999999 999999 999999 999999 999999 999999 999999 999999 999999 999999 999999 999999 15201 17258 18137 12585 14194 14277 999999 999999 999999 999999 999999 999999 999999 999999 999999 999999 999999 999999 999999 999999 999999 999999 999999 999999 999999 999999 999999 999999 999999 999999 999999 999999 999999 15599 999999 12115 999999 12646 999999 999999 999999 999999 999999 14763 999999 999999 999999 999999 999999
999999 999999 999999 999999 999999 999999 999999 999999 999999 999999 999999 999999 999999 999999 999999 999999 999999 999999 999999 999999 999999 999999 999999 999999 999999 999999 999999 999999 999999 999999 999999 999999 999999 999999 999999 999999 999999 999999 0 999999 999999 999999 999999 999999 999999 999999 999999 999999 999999 999999 999999 999999 999999 13626 10477 18609 10812 12012 18857 999999 999999 999999 999999 999999 999999 999999 999999 999999 999999 999999 999999 999999 999999 999999 999999 999999 999999 999999 999999 999999 999999 999999 999999 999999 999999 999999 17840 999999 16357 999999 16462 999999 999999 999999 999999 999999 19592 999999 999999 999999 999999 999999
999999 999999 999999 999999 999999 999999 999999 999999 999999 999999 999999 999999 999999 999999 999999 999999 999999 999999 999999 999999 999999 999999 999999 999999 999999 999999 999999 999999 999999 999999 999999 999999 999999 999999 999999 999999 999999 999999 999999 0 999999 999999 999999 999999 999999 999999 999999 999999 999999 999999 999999 999999 999999 10277 13429 14947 15747 13417 11083 999999 999999 999999 999999 999999 999999 999999 999999 999999 999999 999999 999999 999999 999999 999999 999999 999999 999999 999999 999999 999999 999999 999999 999999 999999 999999 999999 15224 999999 10519 999999 15426 999999 999999 999999 999999 999999 17127 999999 999999 999999 999999 999999
999999 999999 999999 999999 999999 999999 999999 999999 999999 999999 999999 999999 999999 999999 999999 999999 999999 999999 999999 999999 999999 999999 999999 999999 999999 999999 999999 999999 999999 999999 999999 999999 999999 999999 999999 999999 999999 999999 999999 999999 0 999999 999999 999999 999999 999999 999999 999999 999999 999999 999999 999999 999999 16462 18012 14789 10372 11259 13567 999999 999999 999999 999999 999999 999999 999999 999999 999999 999999 999999 999999 999999 999999 999999 999999 999999 999999 999999 999999 999999 999999 999999 999999 999999 999999 999999 17814 999999 13849 999999 11115 999999 999999 999999 999999 999999 13103 999999 999999 999999 999999 999999
999999 999999 999999 999999 999999 999999 999999 999999 999999 999999 999999 999999 999999 999999 999999 999999 999999 999999 999999 999999 999999 999999 999999 999999 999999 999999 999999 999999 999999 999999 999999 999999 999999 999999 999999 999999 999999 999999 999999 999999 999999 0 999999 999999 999999 999999 999999 999999 999999 999999 999999 999999 999999 999999 999999 999999 999999 999999 999999 12550 999999 999999 999999 14573 999999 999999 999999 999999 999999 17886 999999 999999 999999 999999 999999 999999 999999 999999 18277 999999 999999 999999 999999 12853 18318 999999 999999 999999 999999 15211 999999 999999 999999 999999 16638 11379 999999 999999 999999 15500 999999 999999
999999 999999 999999 999999 999999 999999 999999 999999 999999 999999 999999 999999 999999 999999 999999 999999 999999 999999 999999 999999 999999 999999 999999 999999 999999 999999 999999 999999 999999 999999 999999 999999 999999 999999 999999 999999 999999 999999 999999 999999 999999 999999 0 999999 999999 999999 999999 999999 999999 999999 999999 999999 999999 999999 999999 999999 999999 999999 999999 18023 999999 999999 999999 17277 999999 999999 999999 999999 999999 17664 999999 999999 999999 999999 999999 999999 999999 999999 14672 999999 999999 999999 999999 15114 18761 999999 999999 999999 999999 12577 999999 999999 999999 999999 19805 19059 999999 999999 999999 12186 999999 999999
999999 999999 999999 999999 999999 999999 999999 999999 999999 999999 999999 999999 999999 999999 999999 999999 999999 999999 999999 999999 999999 999999 999999 999999 999999 999999 999999 999999 999999 999999 999999 999999 999999 999999 999999 999999 999999 999999 999999 999999 999999 999999 999999 0 999999 999999 999999 999999 999999 999999 999999 999999 999999 999999 999999 999999 999999 999999 999999 19418 999999 999999 999999 10563 999999 999999 999999 999999 999999 15772 999999 999999 999999 999999 999999 999999 999999 999999 12491 999999 999999 999999 999999 17128 19779 999999 999999 999999 999999 14375 999999 999999 999999 999999 14453 19351 999999 999999 999999 10118 999999 999999
999999 999999 999999 999999 999999 999999 999999 999999 999999 999999 999999 999999 999999 999999 999999 999999 999999 999999 999999 999999 999999 999999 999999 999999 999999 999999 999999 999999 999999 999999 999999 999999 999999 999999 999999 999999 999999 999999 999999 999999 999999 999999 999999 999999 0 999999 999999 999999 999999 999999 999999 999999 999999 999999 999999 999999 999999 999999 999999 11329 999999 999999 999999 16736 999999 999999 999999 999999 999999 12016 999999 999999 999999 999999 999999 999999 999999 999999 19990 999999 999999 999999 999999 11645 19524 999999 999999 999999 999999 16388 999999 999999 999999 999999 10209 12190 999999 999999 999999 12448 999999 999999
999999 999999 999999 999999 999999 999999 999999 999999 999999 999999 999999 999999 999999 999999 999999 999999 999999 999999 999999 999999 999999 999999 999999 999999 999999 999999 999999 999999 999999 999999 999999 999999 999999 999999 999999 999999 999999 999999 999999 999999 999999 999999 999999 999999 999999 0 999999 999999 999999 999999 999999 999999 999999 999999 999999 999999 999999 999999 999999 18857 999999 999999 999999 18868 999999 999999 999999 999999 999999 18136 999999 999999 999999 999999 999999 999999 999999 999999 18728 999999 999999 999999 999999 19829 15248 999999 999999 999999 999999 16948 999999 999999 999999 999999 18762 15126 999999 999999 999999 14270 999999 999999
999999 999999 999999 999999 999999 999999 999999 999999 999999 999999 999999 999999 999999 999999 999999 999999 999999 999999 999999 999999 999999 999999 999999 999999 999999 999999 999999 999999 999999 999999 999999 999999 999999 999999 999999 999999 999999 999999 999999 999999 999999 999999 999999 999999 999999 999999 0 999999 999999 999999 999999 999999 999999 999999 999999 999999 999999 999999 999999 17827 999999 999999 999999 12545 999999 999999 999999 999999 999999 18894 999999 999999 999999 999999 999999 999999 999999 999999 16720 999999 999999 999999 999999 16861 10460 999999 999999 999999 999999 10140 999999 999999 999999 999999 10444 14145 999999 999999 999999 18974 999999 999999
999999 999999 999999 999999 999999 999999 999999 999999 999999 999999 999999 999999 999999 999999 999999 999999 999999 999999 999999 999999 999999 999999 999999 999999 999999 999999 999999 999999 999999 999999 999999 999999 999999 999999 999999 999999 999999 999999 999999 999999 999999 999999 999999 999999 999999 999999 999999 0 999999 999999 999999 999999 999999 999999 999999 999999 999999 999999 999999 15176 999999 999999 999999 13474 999999 999999 999999 999999 999999 19922 999999 999999 999999 999999 999999 999999 999999 999999 11983 999999 999999 999999 999999 19294 16699 999999 999999 999999 999999 17724 999999 999999 999999 999999 11964 17127 999999 999999 999999 11924 999999 999999
999999 999999 999999 999999 999999 999999 999999 999999 999999 999999 999999 999999 999999 999999 999999 999999 999999 999999 999999 999999 999999 999999 999999 999999 999999 999999 999999 999999 999999 999999 999999 999999 999999 999999 999999 999999 999999 999999 999999 999999 999999 999999 999999 999999 999999 999999 999999 999999 0 999999 999999 999999 999999 999999 999999 999999 999999 999999 999999 12826 999999 999999 999999 10579 999999 999999 999999 999999 999999 13721 999999 999999 999999 999999 999999 999999 999999 999999 14761 999999 999999 999999 999999 13861 18792 999999 999999 999999 999999 15199 999999 999999 999999 999999 19080 17134 999999 999999 999999 19071 999999 999999
999999 999999 999999 999999 999999 999999 999999 999999 999999 999999 999999 999999 999999 999999 999999 999999 999999 999999 999999 999999 999999 999999 999999 999999 999999 999999 999999 999999 999999 999999 999999 999999 999999 999999 999999 999999 999999 999999 999999 999999 999999 999999 999999 999999 999999 999999 999999 999999 999999 0 999999 999999 999999 999999 999999 999999 999999 999999 999999 18063 999999 999999 999999 15098 999999 999999 999999 999999 999999 16475 999999 999999 999999 999999 999999 999999 999999 999999 16610 999999 999999 999999 999999 15732 18650 999999 999999 999999 999999 11646 999999 999999 999999 999999 13656 18438 999999 999999 999999 19023 999999 999999
999999 999999 999999 999999 999999 999999 999999 999999 999999 999999 999999 999999 999999 999999 999999 999999 999999 999999 999999 999999 999999 999999 999999 999999 999999 999999 999999 999999 999999 999999 999999 999999 999999 999999 999999 999999 999999 999999 999999 999999 999999 999999 999999 999999 999999 999999 999999 999999 999999 999999 0 999999 999999 999999 999999 999999 999999 999999 999999 18720 999999 999999 999999 10009 999999 999999 999999 999999 999999 10746 999999 999999 999999 999999 999999 999999 999999 999999 15372 999999 999999 999999 999999 13231 13071 999999 999999 999999 999999 19267 999999 999999 999999 999999 14979 12757 999999 999999 999999 11709 999999 999999
999999 19033 11983 17296 15465 10826 19676 15304 12425 17838 19373 18045 13849 16404 19495 11779 17137 16568 15278 14888 10793 13405 18397 10595 18649 12448 10382 12582 10630 18401 14114 16269 12728 18293 18569 10977 19088 19567 17600 19247 19698 10218 12946 15571 15150 19104 11906 15255 15714 13320 11794 0 999999 999999 999999 999999 999999 999999 999999 999999 999999 999999 999999 999999 999999 999999 999999 999999 999999 999999 999999 999999 999999 999999 999999 999999 999999 999999 999999 999999 999999 999999 999999 999999 999999 999999 999999 999999 999999 999999 999999 999999 999999 999999 999999 999999 999999 999999 999999 999999 999999 13492
999999 10977 19426 10078 19131 14376 12932 15150 13894 15781 13074 16445 13905 14587 17723 10322 18025 14693 15598 14440 15097 14774 11245 17316 18716 19946 19785 16424 15041 11621 14903 15423 15142 10537 11813 10498 14638 17340 10244 10604 15280 13491 19843 15644 17263 16789 10136 18253 14035 10980 16440 999999 0 999999 999999 999999 999999 999999 999999 999999 999999 999999 999999 999999 999999 999999 999999 999999 999999 999999 999999 999999 999999 999999 999999 999999 999999 999999 999999 999999 999999 999999 999999 999999 999999 999999 999999 999999 999999 999999 999999 999999 999999 999999 999999 999999 999999 999999 999999 999999 999999 8978
999999 15561 12736 18594 18448 10472 19664 19188 14856 16342 11531 18520 10295 19226 12373 19885 18574 16270 15856 17100 15088 10320 13498 19051 11884 18438 11552 18628 12130 18374 10353 15965 12954 12827 12917 13712 17138 15201 13626 10277 16462 12211 13319 10547 15100 17804 18818 16925 12865 19950 14786 999999 999999 0 999999 999999 999999 999999 999999 999999 999999 999999 999999 999999 999999 999999 999999 999999 999999 999999 999999 999999 999999 999999 999999 999999 999999 999999 999999 999999 999999 999999 999999 999999 999999 999999 999999 999999 999999 999999 999999 999999 999999 999999 999999 999999 999999 999999 999999 999999 999999 7087
999999 19552 18970 15933 18986 12112 12178 16362 19976 17019 11207 10260 17837 10777 16118 10743 13515 14027 10180 12643 19866 18057 13410 11570 12494 14307 13868 16047 14325 18173 10580 19516 10800 11489 10297 16651 15577 17258 10477 13429 18012 19387 19815 16445 12169 10791 16353 15824 17862 17116 11374 999999 999999 999999 0 999999 999999 999999 999999 999999 999999 999999 999999 999999 999999 999999 999999 999999 999999 999999 999999 999999 999999 999999 999999 999999 999999 999999 999999 999999 999999 999999 999999 999999 999999 999999 999999 999999 999999 999999 999999 999999 999999 999999 999999 999999 999999 999999 999999 999999 999999 7118
999999 11876 16505 16898 10939 14954 17361 18879 14056 15783 14295 19174 16924 17635 18888 12318 12996 17571 14970 11939 13824 13228 10070 10972 18198 17082 10729 11440 12913 11260 14565 14579 14677 12880 16478 14665 14795 18137 18609 14947 14789 15990 18777 10207 17773 10762 12565 10518 19053 10617 10422 999999 999999 999999 999999 0 999999 999999 999999 999999 999999 999999 999999 999999 999999 999999 999999 999999 999999 999999 999999 999999 999999 999999 999999 999999 999999 999999 999999 999999 999999 999999 999999 999999 999999 999999 999999 999999 999999 999999 999999 999999 999999 999999 999999 999999 999999 999999 999999 999999 999999 14579
999999 13482 18419 19247 14915 19540 11943 15466 18586 17684 18874 11915 17232 11868 14356 15169 19402 11102 11523 10136 17233 18216 16873 19143 15563 19706 16307 12861 13546 17399 13818 15099 12352 19199 14385 17159 13956 12585 10812 15747 10372 15963 15157 18599 15752 16307 17875 15954 19998 13706 11391 999999 999999 999999 999999 999999 0 999999 999999 999999 999999 999999 999999 999999 999999 999999 999999 999999 999999 999999 999999 999999 999999 999999 999999 999999 999999 999999 999999 999999 999999 999999 999999 999999 999999 999999 999999 999999 999999 999999 999999 999999 999999 999999 999999 999999 999999 999999 999999 999999 999999 6936
999999 19597 10288 15407 10804 12551 14457 16748 17642 10062 17844 13651 10254 19158 18938 13421 15322 12908 11294 10911 17462 17648 17976 15921 17396 17988 18946 14421 17081 10120 13279 14379 10591 17798 18357 19612 14298 14194 12012 13417 11259 17865 11849 17483 17624 15938 11629 16501 16403 17882 12319 999999 999999 999999 999999 999999 999999 0 999999 999999 999999 999999 999999 999999 999999 999999 999999 999999 999999 999999 999999 999999 999999 999999 999999 999999 999999 999999 999999 999999 999999 999999 999999 999999 999999 999999 999999 999999 999999 999999 999999 999999 999999 999999 999999 999999 999999 999999 999999 999999 999999 6128
999999 10452 13694 18205 12010 17201 11486 18494 17822 19405 17423 19558 12328 18229 16989 16514 19546 13211 14896 12602 11525 17751 10304 10242 17415 11722 10752 12563 15145 12632 16399 12222 16607 11369 19853 13488 16814 14277 18857 11083 13567 11806 17247 15112 18125 14953 10306 14898 17301 14831 10168 999999 999999 999999 999999 999999 999999 999999 0 999999 999999 999999 999999 999999 999999 999999 999999 999999 999999 999999 999999 999999 999999 999999 999999 999999 999999 999999 999999 999999 999999 999999 999999 999999 999999 999999 999999 999999 999999 999999 999999 999999 999999 999999 999999 999999 999999 999999 999999 999999 999999 11169
999999 19329 10542 10892 12328 10596 10541 17284 16592 13015 12758 18443 15018 16537 18459 12335 11034 18224 12878 14949 15808 13937 17590 11539 14889 17515 12112 11905 16454 19032 11893 13333 10251 17551 14777 15519 16197 15159 19077 11706 11436 12550 18023 19418 11329 18857 17827 15176 12826 18063 18720 999999 999999 999999 999999 999999 999999 999999 999999 0 999999 999999 999999 999999 999999 999999 999999 999999 999999 999999 999999 999999 999999 999999 999999 999999 999999 999999 999999 999999 999999 999999 999999 999999 999999 999999 999999 999999 999999 999999 999999 999999 999999 999999 999999 999999 999999 999999 999999 999999 999999 5999
999999 13201 17326 17911 12548 11615 10723 10830 10799 18752 15401 16642 15699 15167 14454 14474 14277 15780 17536 12629 14625 15831 11218 16040 14255 11779 18162 15206 18658 12572 12644 15242 11169 18879 13246 16619 11036 16234 14476 11203 19255 18259 19496 19913 11729 16408 17660 14037 15444 16249 18292 999999 999999 999999 999999 999999 999999 999999 999999 999999 0 999999 999999 999999 999999 999999 999999 999999 999999 999999 999999 999999 999999 999999 999999 999999 999999 999999 999999 999999 999999 999999 999999 999999 999999 999999 999999 999999 999999 999999 999999 999999 999999 999999 999999 999999 999999 999999 999999 999999 999999 6586
999999 11917 19326 17311 19327 14770 16700 14098 11732 13183 10221 18904 13708 11385 15020 15143 10637 11991 19355 13943 18412 13692 18641 18626 18474 13558 10689 16079 12827 14089 13193 16651 12652 15945 11545 19957 11901 12081 14983 16295 12989 10083 13014 14602 11539 17743 11294 17370 14252 18610 15697 999999 999999 999999 999999 999999 999999 999999 999999 999999 999999 0 999999 999999 999999 999999 999999 999999 999999 999999 999999 999999 999999 999999 999999 999999 999999 999999 999999 999999 999999 999999 999999 999999 999999 999999 999999 999999 999999 999999 999999 999999 999999 999999 999999 999999 999999 999999 999999 999999 999999 9548
999999 18953 18966 18164 13656 16268 10971 10570 12972 12898 19091 19737 12134 12643 15164 12380 18483 19120 10790 15162 13784 19101 10525 11807 15366 11357 17501 16288 10336 15896 13145 11218 13591 19691 13155 14404 16224 19128 19954 10352 12911 15909 10997 13540 13305 17513 18981 15395 16475 18550 16721 999999 999999 999999 999999 999999 999999 999999 999999 999999 999999 999999 0 999999 999999 999999 999999 999999 999999 999999 999999 999999 999999 999999 999999 999999 999999 999999 999999 999999 999999 999999 999999 999999 999999 999999 999999 999999 999999 999999 999999 999999 999999 999999 999999 999999 999999 999999 999999 999999 999999 11752
999999 13666 13192 18236 18708 14309 12128 18309 12626 11845 13352 17295 11460 15484 18318 19436 16361 16646 13784 12275 17530 16234 13323 19389 12910 19945 13457 16818 13407 11561 15619 13172 13455 18103 13290 14466 16213 11187 15411 13468 17907 14573 17277 10563 16736 18868 12545 13474 10579 15098 10009 999999 999999 999999 999999 999999 999999 999999 999999 999999 999999 999999 999999 0 999999 999999 999999 999999 999999 999999 999999 999999 999999 999999 999999 999999 999999 999999 999999 999999 999999 999999 999999 999999 999999 999999 999999 999999 999999 999999 999999 999999 999999 999999 999999 999999 999999 999999 999999 999999 999999 12053
999999 12711 11579 17108 14165 11009 17850 19634 13649 12323 16628 17468 18008 15710 10968 12419 14644 11222 11388 18078 15399 16480 12220 10540 12219 17469 18248 18858 19434 19090 11006 13016 11094 15296 14584 14070 17798 16221 18189 16702 11924 10879 14961 18754 11439 17347 17011 17240 11391 18563 11953 999999 999999 999999 999999 999999 999999 999999 999999 999999 999999 999999 999999 999999 0 999999 999999 999999 999999 999999 999999 999999 999999 999999 999999 999999 999999 999999 999999 999999 999999 999999 999999 999999 999999 999999 999999 999999 999999 999999 999999 999999 999999 999999 999999 999999 999999 999999 999999 999999 999999 8887
999999 14954 14483 15199 19220 14688 14600 19076 12770 19084 16963 13094 17586 15953 11758 13593 13584 15696 14568 13494 12131 12108 10067 12441 15428 19906 13166 11771 12532 13407 10685 12960 17121 19083 10219 13965 13706 13502 17022 15601 14088 17811 17538 15898 14554 15186 12445 17089 16808 17167 12638 999999 999999 999999 999999 999999 999999 999999 999999 999999 999999 999999 999999 999999 999999 0 999999 999999 999999 999999 999999 999999 999999 999999 999999 999999 999999 999999 999999 999999 999999 999999 999999 999999 999999 999999 999999 999999 999999 999999 999999 999999 999999 999999 999999 999999 999999 999999 999999 999999 999999 14467
999999 12955 19279 17473 15303 18763 13646 13091 16215 15551 10816 11954 10385 13473 11461 14439 13795 13343 15358 18221 16884 16951 15233 16666 11536 13604 12207 12779 18171 12075 19858 10861 14028 19247 13806 19582 10827 15635 13040 16644 14579 17037 11421 10175 19415 16394 15933 16742 16881 12812 15532 999999 999999 999999 999999 999999 999999 999999 999999 999999 999999 999999 999999 999999 999999 999999 0 999999 999999 999999 999999 999999 999999 999999 999999 999999 999999 999999 999999 999999 999999 999999 999999 999999 999999 999999 999999 999999 999999 999999 999999 999999 999999 999999 999999 999999 999999 999999 999999 999999 999999 5407
999999 15368 18650 15103 13800 13158 18795 13077 16053 15426 10503 18401 19949 11453 11236 19752 19162 13573 18157 19240 15735 16682 10593 19782 17597 19208 14708 12293 17015 14521 16353 11243 15659 14789 11603 10331 13677 12173 15155 12427 15713 17479 16950 19472 14068 11640 19039 12925 16040 16887 17450 999999 999999 999999 999999 999999 999999 999999 999999 999999 999999 999999 999999 999999 999999 999999 999999 0 999999 999999 999999 999999 999999 999999 999999 999999 999999 999999 999999 999999 999999 999999 999999 999999 999999 999999 999999 999999 999999 999999 999999 999999 999999 999999 999999 999999 999999 999999 999999 999999 999999 8446
999999 16631 13805 12486 12266 11407 10747 17706 19268 16769 12328 17002 19126 14380 11458 13006 11368 12532 10606 10989 14161 19247 18929 11718 15792 18635 12183 18046 16907 18222 17229 18842 11473 18526 18432 14810 16490 12353 11023 17211 12241 16095 19617 10619 11435 10726 12784 17791 14470 15310 12602 999999 999999 999999 999999 999999 999999 999999 999999 999999 999999 999999 999999 999999 999999 999999 999999 999999 0 999999 999999 999999 999999 999999 999999 999999 999999 999999 999999 999999 999999 999999 999999 999999 999999 999999 999999 999999 999999 999999 999999 999999 999999 999999 999999 999999 999999 999999 999999 999999 999999 11155
999999 18050 14657 16324 14498 11944 15095 19667 16768 17283 13595 13080 14618 10277 12791 17627 11216 19661 16460 10428 16488 18258 10849 16496 12545 19960 15872 14263 17611 14359 12211 19286 11663 10100 18728 19939 10821 18880 19387 16532 16175 17886 17664 15772 12016 18136 18894 19922 13721 16475 10746 999999 999999 999999 999999 999999 999999 999999 999999 999999 999999 999999 999999 999999 999999 999999 999999 999999 999999 0 999999 999999 999999 999999 999999 999999 999999 999999 999999 999999 999999 999999 999999 999999 999999 999999 999999 999999 999999 999999 999999 999999 999999 999999 999999 999999 999999 999999 999999 999999 999999 10838
999999 16824 17658 17568 17396 10964 11692 18659 10586 19469 19967 15351 18752 12016 10920 16566 12775 17488 19108 10373 14508 15333 12071 16362 12117 18475 11120 17368 13203 15368 12475 17057 10041 19068 11061 14582 15189 15944 10323 18879 19904 18348 13093 15972 12421 17587 10591 16272 11813 14017 10005 999999 999999 999999 999999 999999 999999 999999 999999 999999 999999 999999 999999 999999 999999 999999 999999 999999 999999 999999 0 999999 999999 999999 999999 999999 999999 999999 999999 999999 999999 999999 999999 999999 999999 999999 999999 999999 999999 999999 999999 999999 999999 999999 999999 999999 999999 999999 999999 999999 999999 13570
999999 16922 13313 19436 15467 17081 14928 11514 19590 11221 14439 13258 17885 12002 10582 15530 19470 19179 13087 14987 12767 18469 14681 10002 15195 16335 15565 12330 19207 19930 10919 10339 12572 16614 18415 18798 11170 18330 16504 17332 12446 16828 11341 17310 12171 10195 19619 19899 12040 14726 17870 999999 999999 999999 999999 999999 999999 999999 999999 999999 999999 999999 999999 999999 999999 999999 999999 999999 999999 999999 999999 0 999999 999999 999999 999999 999999 999999 999999 999999 999999 999999 999999 999999 999999 999999 999999 999999 999999 999999 999999 999999 999999 999999 999999 999999 999999 999999 999999 999999 999999 12267
999999 10239 15107 13154 12537 17297 15942 13471 15826 12474 19772 10374 17889 18742 11658 14815 19476 14125 19327 19800 15161 19717 10996 18252 12990 19329 19966 19484 12310 13260 11368 11851 18910 13551 12454 11196 16306 16179 17762 18545 16578 13701 10385 11292 10341 13077 15491 10438 11876 17238 18895 999999 999999 999999 999999 999999 999999 999999 999999 999999 999999 999999 999999 999999 999999 999999 999999 999999 999999 999999 999999 999999 0 999999 999999 999999 999999 999999 999999 999999 999999 999999 999999 999999 999999 999999 999999 999999 999999 999999 999999 999999 999999 999999 999999 999999 999999 999999 999999 999999 999999 12893
999999 15145 14965 18561 17665 10017 11129 13896 14166 12686 11473 15391 14199 15311 18303 13568 15374 13143 18945 10333 17109 11157 16134 16281 16799 16387 13450 13386 12281 15619 12087 19177 11093 18609 19205 11400 11217 16223 12786 18297 16708 18977 16309 14818 16341 10781 12143 19964 15064 15696 17598 999999 999999 999999 999999 999999 999999 999999 999999 999999 999999 999999 999999 999999 999999 999999 999999 999999 999999 999999 999999 999999 999999 0 999999 999999 999999 999999 999999 999999 999999 999999 999999 999999 999999 999999 999999 999999 999999 999999 999999 999999 999999 999999 999999 999999 999999 999999 999999 999999 999999 9759
999999 19833 12494 15877 17563 11331 12907 19906 10848 19015 15664 19342 15209 10112 16580 18954 16013 15756 13304 16035 11045 14807 13818 11440 18514 10239 19426 13228 18103 17536 15005 16203 12495 19988 18042 14109 19197 14794 17233 18333 18956 12479 18810 18516 18027 10529 13049 13614 14210 12602 17377 999999 999999 999999 999999 999999 999999 999999 999999 999999 999999 999999 999999 999999 999999 999999 999999 999999 999999 999999 999999 999999 999999 999999 0 999999 999999 999999 999999 999999 999999 999999 999999 999999 999999 999999 999999 999999 999999 999999 999999 999999 999999 999999 999999 999999 999999 999999 999999 999999 999999 11968
999999 12243 10555 19303 13262 19503 17953 15060 13916 16520 19016 19025 11584 19660 10076 14082 18323 17119 17671 12299 11709 13856 17788 17051 17926 14976 12138 13089 11486 13675 17841 19994 17271 12147 10596 13770 18193 13080 12027 14212 16255 17654 12828 16908 17870 15807 14703 16953 14362 15400 12481 999999 999999 999999 999999 999999 999999 999999 999999 999999 999999 999999 999999 999999 999999 999999 999999 999999 999999 999999 999999 999999 999999 999999 999999 0 999999 999999 999999 999999 999999 999999 999999 999999 999999 999999 999999 999999 999999 999999 999999 999999 999999 999999 999999 999999 999999 999999 999999 999999 999999 9961
999999 18130 14980 12480 10513 17302 14329 19060 19442 14916 10078 18456 11408 18110 14581 11222 16716 13439 19801 13446 19120 18289 19602 18259 13018 16371 17926 14736 15946 15712 19291 19407 15923 19930 16219 16017 17229 10133 13366 10314 18644 15419 16896 15423 16469 19016 12272 11261 18147 19765 16008 999999 999999 999999 999999 999999 999999 999999 999999 999999 999999 999999 999999 999999 999999 999999 999999 999999 999999 999999 999999 999999 999999 999999 999999 999999 0 999999 999999 999999 999999 999999 999999 999999 999999 999999 999999 999999 999999 999999 999999 999999 999999 999999 999999 999999 999999 999999 999999 999999 999999 7095
999999 14355 19210 10825 10980 15089 14505 12419 10962 10348 16349 12173 14413 14313 18530 17404 10074 19896 13625 10811 10102 18039 11149 15588 16283 16963 14620 19623 13005 11521 17088 11022 15688 18778 19603 19463 12814 13771 18969 17839 11770 17335 15797 15232 14410 18417 15638 13081 10562 18407 16908 999999 999999 999999 999999 999999 999999 999999 999999 999999 999999 999999 999999 999999 999999 999999 999999 999999 999999 999999 999999 999999 999999 999999 999999 999999 999999 0 999999 999999 999999 999999 999999 999999 999999 999999 999999 999999 999999 999999 999999 999999 999999 999999 999999 999999 999999 999999 999999 999999 999999 14311
999999 13667 19112 11420 15962 18155 15332 16181 12374 12731 12276 13289 11216 12873 13684 15612 14431 19036 11063 15895 14124 15218 16102 19671 13607 16897 17963 12488 18440 15555 14080 14975 16474 15391 12231 13845 17611 15860 15404 16357 15131 18277 14672 12491 19990 18728 16720 11983 14761 16610 15372 999999 999999 999999 999999 999999 999999 999999 999999 999999 999999 999999 999999 999999 999999 999999 999999 999999 999999 999999 999999 999999 999999 999999 999999 999999 999999 999999 0 999999 999999 999999 999999 999999 999999 999999 999999 999999 999999 999999 999999 999999 999999 999999 999999 999999 999999 999999 999999 999999 999999 8138
999999 13763 19608 12345 11245 14346 10092 11158 14037 13632 18709 16479 10608 15034 17665 19520 17127 12556 14839 17560 14863 11355 15920 17729 11465 15473 17487 10204 15144 16975 12819 15223 14979 15560 15044 17530 12881 15263 10829 11331 12201 13007 16269 16097 18706 16092 16170 16556 19598 16857 14059 999999 999999 999999 999999 999999 999999 999999 999999 999999 999999 999999 999999 999999 999999 999999 999999 999999 999999 999999 999999 999999 999999 999999 999999 999999 999999 999999 999999 0 999999 999999 999999 999999 999999 999999 999999 999999 999999 999999 999999 999999 999999 999999 999999 999999 999999 999999 999999 999999 999999 9022
999999 10155 15031 12357 12911 15373 16481 18627 10313 15364 10533 11128 14031 12058 18259 14546 16661 14284 13332 13928 10355 15884 12146 17668 12820 18893 11486 13207 17449 14519 10927 19404 18802 18147 16225 18916 18273 11035 13197 13638 17568 11549 11133 11750 17413 16100 13536 14329 15179 13404 19730 999999 999999 999999 999999 999999 999999 999999 999999 999999 999999 999999 999999 999999 999999 999999 999999 999999 999999 999999 999999 999999 999999 999999 999999 999999 999999 999999 999999 999999 0 999999 999999 999999 999999 999999 999999 999999 999999 999999 999999 999999 999999 999999 999999 999999 999999 999999 999999 999999 999999 13506
999999 13901 16180 10801 11992 18804 19277 19901 16317 18537 11602 17225 14710 11544 18948 10221 11641 19281 13750 12906 13743 10492 16226 15809 16233 13078 12127 12464 14253 15767 10481 13469 15104 10845 14131 19703 12519 16583 13359 10864 19109 17946 18433 19458 11599 18519 10303 16852 13321 17381 11277 999999 999999 999999 999999 999999 999999 999999 999999 999999 999999 999999 999999 999999 999999 999999 999999 999999 999999 999999 999999 999999 999999 999999 999999 999999 999999 999999 999999 999999 999999 0 999999 999999 999999 999999 999999 999999 999999 999999 999999 999999 999999 999999 999999 999999 999999 999999 999999 999999 999999 7294
999999 12786 13973 16324 14530 19406 18524 13065 18478 15854 13907 16885 15401 13041 18264 16347 14748 12850 10572 16050 16617 13578 14461 12817 18433 16330 14608 13415 18109 10805 17256 15114 12892 11739 11608 17430 19884 14067 16182 12020 11049 18683 19920 19807 12921 13300 13410 13723 12970 13573 16061 999999 999999 999999 999999 999999 999999 999999 999999 999999 999999 999999 999999 999999 999999 999999 999999 999999 999999 999999 999999 999999 999999 999999 999999 999999 999999 999999 999999 999999 999999 999999 0 999999 999999 999999 999999 999999 999999 999999 999999 999999 999999 999999 999999 999999 999999 999999 999999 999999 999999 6341
999999 19809 16379 12619 17119 19389 16063 11895 14861 17168 17012 12807 12385 10442 11541 17305 12623 14966 13999 14871 19518 18106 11845 13425 14807 10229 10107 12830 12373 14064 15846 17189 10446 17417 10027 17025 17428 19649 13648 13975 15301 12853 15114 17128 11645 19829 16861 19294 13861 15732 13231 999999 999999 999999 999999 999999 999999 999999 999999 999999 999999 999999 999999 999999 999999 999999 999999 999999 999999 999999 999999 999999 999999 999999 999999 999999 999999 999999 999999 999999 999999 999999 999999 0 999999 999999 999999 999999 999999 999999 999999 999999 999999 999999 999999 999999 999999 999999 999999 999999 999999 7713
999999 13978 12714 11430 13822 10054 13019 10446 16717 18363 13093 11158 19056 12825 18315 16577 12096 17883 16969 18978 11518 18373 19724 16300 15103 17335 12571 11439 18504 13449 17346 16295 19410 13333 19659 13258 18979 10526 15471 12315 10771 18318 18761 19779 19524 15248 10460 16699 18792 18650 13071 999999 999999 999999 999999 999999 999999 999999 999999 999999 999999 999999 999999 999999 999999 999999 999999 999999 999999 999999 999999 999999 999999 999999 999999 999999 999999 999999 999999 999999 999999 999999 999999 999999 0 999999 999999 999999 999999 999999 999999 999999 999999 999999 999999 999999 999999 999999 999999 999999 999999 14641
999999 16788 11545 14508 10965 13219 11485 13070 19159 13237 15390 19763 14391 13929 16978 11045 13943 14864 11425 10657 16108 14454 13092 13185 10504 12403 12869 18210 18969 12856 16752 17744 15496 14460 11396 11312 14879 13366 18582 12217 16672 10560 18968 11726 15548 17868 12224 10389 11623 19113 19285 999999 999999 999999 999999 999999 999999 999999 999999 999999 999999 999999 999999 999999 999999 999999 999999 999999 999999 999999 999999 999999 999999 999999 999999 999999 999999 999999 999999 999999 999999 999999 999999 999999 999999 0 999999 999999 999999 999999 999999 999999 999999 999999 999999 999999 999999 999999 999999 999999 999999 13557
999999 15024 19455 18803 17667 15778 16561 11980 13793 12814 19028 12715 10346 14072 12678 15435 19792 17531 14106 10298 15335 18336 18796 16142 11022 17858 19006 19995 16115 19530 13672 11297 17708 15836 14390 15947 16899 15599 17840 15224 17814 14715 16656 13066 14073 11677 12228 13603 12819 14975 18501 999999 999999 999999 999999 999999 999999 999999 999999 999999 999999 999999 999999 999999 999999 999999 999999 999999 999999 999999 999999 999999 999999 999999 999999 999999 999999 999999 999999 999999 999999 999999 999999 999999 999999 999999 0 999999 999999 999999 999999 999999 999999 999999 999999 999999 999999 999999 999999 999999 999999 7821
999999 16368 16310 15089 13803 15355 11942 10472 16196 12300 10659 11260 11679 14199 13219 14833 18470 18152 12341 14245 16093 10458 19460 18912 16046 16405 12533 14180 10052 12438 18781 10466 15777 12569 14099 12532 13275 11860 19180 19486 12102 16628 17625 14950 10186 18103 15922 12579 19443 12070 18363 999999 999999 999999 999999 999999 999999 999999 999999 999999 999999 999999 999999 999999 999999 999999 999999 999999 999999 999999 999999 999999 999999 999999 999999 999999 999999 999999 999999 999999 999999 999999 999999 999999 999999 999999 999999 0 999999 999999 999999 999999 999999 999999 999999 999999 999999 999999 999999 999999 999999 10851
999999 13492 13037 19586 12136 17830 11103 13564 17111 14054 14976 12683 18797 12951 13049 13462 11523 11006 15001 14908 11424 19060 19783 15943 19445 17651 11381 17759 16762 19762 11724 18563 10059 18450 19370 14299 19091 12115 16357 10519 13849 11639 13328 14793 19417 16245 14143 16065 12370 13995 10282 999999 999999 999999 999999 999999 999999 999999 999999 999999 999999 999999 999999 999999 999999 999999 999999 999999 999999 999999 999999 999999 999999 999999 999999 999999 999999 999999 999999 999999 999999 999999 999999 999999 999999 999999 999999 999999 0 999999 999999 999999 999999 999999 999999 999999 999999 999999 999999 999999 999999 10293
999999 18320 13555 11103 10735 15007 10266 15700 10249 14231 12425 14870 14695 11112 11178 19676 14811 10920 14224 17234 12539 18791 18388 17006 12238 15143 14893 18589 11263 14885 12040 18535 18207 18811 19734 16413 15595 13664 13309 13322 15673 15211 12577 14375 16388 16948 10140 17724 15199 11646 19267 999999 999999 999999 999999 999999 999999 999999 999999 999999 999999 999999 999999 999999 999999 999999 999999 999999 999999 999999 999999 999999 999999 999999 999999 999999 999999 999999 999999 999999 999999 999999 999999 999999 999999 999999 999999 999999 999999 0 999999 999999 999999 999999 999999 999999 999999 999999 999999 999999 999999 7380
999999 19174 10388 14000 19124 10867 11775 15632 19120 19079 16600 15077 19313 14830 15526 12385 17013 14686 15268 11471 11076 14121 13320 15225 13865 17326 13877 10085 10350 12279 17891 11657 11837 13821 16358 19934 10627 12646 16462 15426 11115 11131 18006 19281 13636 10407 13115 19222 15849 12895 13498 999999 999999 999999 999999 999999 999999 999999 999999 999999 999999 999999 999999 999999 999999 999999 999999 999999 999999 999999 999999 999999 999999 999999 999999 999999 999999 999999 999999 999999 999999 999999 999999 999999 999999 999999 999999 999999 999999 999999 0 999999 999999 999999 999999 999999 999999 999999 999999 999999 999999 14648
999999 17690 16437 11167 16376 10744 15036 11780 17399 12813 11444 15898 16137 14411 17022 15975 19242 11654 14144 10185 19128 10130 12624 14500 13025 17405 17136 15833 17479 13652 12054 12708 13967 15296 14063 19624 12274 12734 17412 12156 19212 14124 11875 17037 16032 19465 10513 14765 19348 17163 15229 999999 999999 999999 999999 999999 999999 999999 999999 999999 999999 999999 999999 999999 999999 999999 999999 999999 999999 999999 999999 999999 999999 999999 999999 999999 999999 999999 999999 999999 999999 999999 999999 999999 999999 999999 999999 999999 999999 999999 999999 0 999999 999999 999999 999999 999999 999999 999999 999999 999999 13332
999999 19160 16036 14632 17465 13954 14856 18225 15433 12246 17000 15327 15957 12672 19554 17620 18436 11227 14213 12038 15844 13573 19254 16454 15817 17761 13029 17559 16899 14198 19234 13427 11554 18207 12089 14465 15307 17944 15344 17357 18157 17906 19840 16957 15599 17063 12382 12186 15418 13972 14698 999999 999999 999999 999999 999999 999999 999999 999999 999999 999999 999999 999999 999999 999999 999999 999999 999999 999999 999999 999999 999999 999999 999999 999999 999999 999999 999999 999999 999999 999999 999999 999999 999999 999999 999999 999999 999999 999999 999999 999999 999999 0 999999 999999 999999 999999 999999 999999 999999 999999 9154
999999 15528 12594 12772 16745 17190 17816 15000 11722 12781 16643 18858 11309 11603 14579 10507 16211 13355 10391 19169 16085 11617 10336 17628 17788 14805 19907 11376 11440 15249 14106 10897 17436 15617 16772 13511 14551 16392 15245 14610 14468 15254 19087 19891 12545 17395 12373 18891 11137 11635 14245 999999 999999 999999 999999 999999 999999 999999 999999 999999 999999 999999 999999 999999 999999 999999 999999 999999 999999 999999 999999 999999 999999 999999 999999 999999 999999 999999 999999 999999 999999 999999 999999 999999 999999 999999 999999 999999 999999 999999 999999 999999 999999 0 999999 999999 999999 999999 999999 999999 999999 6770
999999 13717 18662 14686 13808 10848 12731 18501 14192 18692 19480 17894 11714 12500 16114 11839 19044 12153 11358 10520 16356 13507 15467 12954 18215 11104 17695 11471 12688 15290 17189 15321 18260 12033 13514 15942 13112 13398 17204 15144 13182 16638 19805 14453 10209 18762 10444 11964 19080 13656 14979 999999 999999 999999 999999 999999 999999 999999 999999 999999 999999 999999 999999 999999 999999 999999 999999 999999 999999 999999 999999 999999 999999 999999 999999 999999 999999 999999 999999 999999 999999 999999 999999 999999 999999 999999 999999 999999 999999 999999 999999 999999 999999 999999 0 999999 999999 999999 999999 999999 999999 6057
999999 19623 13217 17467 17590 16040 12854 14231 16260 14994 16709 10388 19092 18810 15880 14721 10391 16394 19887 19846 16492 16225 11853 17352 17327 11539 18386 10784 12463 19252 18552 14812 14309 18178 19829 11756 15993 13614 18411 11288 15671 11379 19059 19351 12190 15126 14145 17127 17134 18438 12757 999999 999999 999999 999999 999999 999999 999999 999999 999999 999999 999999 999999 999999 999999 999999 999999 999999 999999 999999 999999 999999 999999 999999 999999 999999 999999 999999 999999 999999 999999 999999 999999 999999 999999 999999 999999 999999 999999 999999 999999 999999 999999 999999 999999 0 999999 999999 999999 999999 999999 11476
999999 17002 13457 14485 13432 19091 15301 14640 15022 15895 13616 11221 15825 16930 10674 12401 13144 15100 15470 15969 18908 13511 19888 13005 12463 10311 17289 13398 13268 17106 16467 12681 16961 18064 10644 17860 11501 14763 19592 17127 13103 18806 10472 19771 11603 17816 10352 15642 17018 12290 13966 999999 999999 999999 999999 999999 999999 999999 999999 999999 999999 999999 999999 999999 999999 999999 999999 999999 999999 999999 999999 999999 999999 999999 999999 999999 999999 999999 999999 999999 999999 999999 999999 999999 999999 999999 999999 999999 999999 999999 999999 999999 999999 999999 999999 999999 0 999999 999999 999999 999999 10132
999999 12240 10916 11603 11939 13418 11236 11572 17506 15027 10435 15864 18990 14209 13854 14812 19530 15678 11560 13164 10909 15394 12491 16008 15431 17373 15127 16571 17010 16008 13646 11166 19589 13866 10607 10802 15405 15997 14122 17673 14527 18206 16293 13719 17791 14639 15334 16792 11919 19505 14085 999999 999999 999999 999999 999999 999999 999999 999999 999999 999999 999999 999999 999999 999999 999999 999999 999999 999999 999999 999999 999999 999999 999999 999999 999999 999999 999999 999999 999999 999999 999999 999999 999999 999999 999999 999999 999999 999999 999999 999999 999999 999999 999999 999999 999999 999999 0 999999 999999 999999 10452
999999 10408 14812 11590 14938 12389 13377 10344 13230 13878 15994 13033 18068 17744 18298 10606 14398 19893 11556 13406 17372 10170 10881 19171 19840 15262 19378 11250 16190 12655 19823 11115 17579 11356 11806 10552 10692 19285 12725 12825 19850 13975 16273 13504 12859 19375 16077 11008 14552 12981 11505 999999 999999 999999 999999 999999 999999 999999 999999 999999 999999 999999 999999 999999 999999 999999 999999 999999 999999 999999 999999 999999 999999 999999 999999 999999 999999 999999 999999 999999 999999 999999 999999 999999 999999 999999 999999 999999 999999 999999 999999 999999 999999 999999 999999 999999 999999 999999 0 999999 999999 14603
999999 16587 13219 17978 17957 12861 11151 16116 18484 19626 18021 15454 16325 17370 17162 15096 18898 15484 10536 17521 17205 16085 19706 17488 13536 14072 17793 11946 14223 12631 19713 15636 10777 15163 19225 16154 11827 17168 11268 11208 16202 15500 12186 10118 12448 14270 18974 11924 19071 19023 11709 999999 999999 999999 999999 999999 999999 999999 999999 999999 999999 999999 999999 999999 999999 999999 999999 999999 999999 999999 999999 999999 999999 999999 999999 999999 999999 999999 999999 999999 999999 999999 999999 999999 999999 999999 999999 999999 999999 999999 999999 999999 999999 999999 999999 999999 999999 999999 999999 0 999999 10015
999999 19118 13303 17883 18392 15205 18353 11507 16009 10771 14936 12145 19363 13529 17529 11084 13859 12527 14567 18069 14636 15907 19259 10687 12220 15754 17535 10423 19415 10114 13031 15968 18425 15109 15086 15386 15027 13097 19181 18417 14023 17215 15873 17506 12092 17142 13102 18180 11425 11169 11724 999999 999999 999999 999999 999999 999999 999999 999999 999999 999999 999999 999999 999999 999999 999999 999999 999999 999999 999999 999999 999999 999999 999999 999999 999999 999999 999999 999999 999999 999999 999999 999999 999999 999999 999999 999999 999999 999999 999999 999999 999999 999999 999999 999999 999999 999999 999999 999999 999999 0 8657
1 999999 999999 999999 999999 999999 999999 999999 999999 999999 999999 999999 999999 999999 999999 999999 999999 999999 999999 999999 999999 999999 999999 999999 999999 999999 999999 999999 999999 999999 999999 999999 999999 999999 999999 999999 999999 999999 999999 999999 999999 999999 999999 999999 999999 999999 999999 999999 999999 999999 999999 999999 999999 999999 999999 999999 999999 999999 999999 999999 999999 999999 999999 999999 999999 999999 999999 999999 999999 999999 999999 999999 999999 999999 999999 999999 999999 999999 999999 999999 999999 999999 999999 999999 999999 999999 999999 999999 999999 999999 999999 999999 999999 999999 999999 999999 999999 999999 999999 999999 999999 0
EOF