NAME: GR_1x2x5_KH_2x5_Run_6
TYPE: TSP
COMMENT: BTSP instance |A|=10 GR nodes |B|=10 KH nodes depot=0.0 end=0.0.0
DIMENSION: 22
EDGE_WEIGHT_TYPE: EXPLICIT
EDGE_WEIGHT_FORMAT: FULL_MATRIX
NODE_COORD_TYPE: NO_COORDS
EDGE_WEIGHT_SECTION
0 9617 7619 5030 10347 14787 14849 13254 8678 12477 6874 999999 999999 999999 999999 999999 999999 999999 999999 999999 999999 999999
999999 0 999999 999999 999999 999999 999999 999999 999999 999999 999999 10427 16363 13350 11474 10403 17380 15715 10299 13574 12117 999999
999999 999999 0 999999 999999 999999 999999 999999 999999 999999 999999 12399 17662 11621 19656 18356 18728 14230 18502 10381 14880 999999
999999 999999 999999 0 999999 999999 999999 999999 999999 999999 999999 11140 15094 10106 11331 12421 10660 12934 19094 13119 12592 999999
999999 999999 999999 999999 0 999999 999999 999999 999999 999999 999999 17978 14058 10394 13737 13299 14010 12598 11254 11261 10977 999999
999999 999999 999999 999999 999999 0 999999 999999 999999 999999 999999 16757 14717 19000 11288 15450 12820 15063 15145 11856 17521 999999
999999 999999 999999 999999 999999 999999 0 999999 999999 999999 999999 14642 13734 15294 15063 18324 15243 15602 10055 14822 13721 999999
999999 999999 999999 999999 999999 999999 999999 0 999999 999999 999999 10667 18566 16405 11557 17545 11443 18603 13459 12359 11542 999999
999999 999999 999999 999999 999999 999999 999999 999999 0 999999 999999 15965 12458 11305 16017 10617 17189 15460 17107 16721 16628 999999
999999 999999 999999 999999 999999 999999 999999 999999 999999 0 999999 11116 18218 10964 16793 18190 17767 16283 10447 10933 12663 999999
999999 999999 999999 999999 999999 999999 999999 999999 999999 999999 0 14766 18354 16528 13429 18148 12960 10497 19078 13147 13607 999999
999999 10427 12399 11140 17978 16757 14642 10667 15965 11116 14766 0 999999 999999 999999 999999 999999 999999 999999 999999 999999 13257
999999 16363 17662 15094 14058 14717 13734 18566 12458 18218 18354 999999 0 999999 999999 999999 999999 999999 999999 999999 999999 6192
999999 13350 11621 10106 10394 19000 15294 16405 11305 10964 16528 999999 999999 0 999999 999999 999999 999999 999999 999999 999999 14346
999999 11474 19656 11331 13737 11288 15063 11557 16017 16793 13429 999999 999999 999999 0 999999 999999 999999 999999 999999 999999 13918
999999 10403 18356 12421 13299 15450 18324 17545 10617 18190 18148 999999 999999 999999 999999 0 999999 999999 999999 999999 999999 10470
999999 17380 18728 10660 14010 12820 15243 11443 17189 17767 12960 999999 999999 999999 999999 999999 0 999999 999999 999999 999999 12474
999999 15715 14230 12934 12598 15063 15602 18603 15460 16283 10497 999999 999999 999999 999999 999999 999999 0 999999 999999 999999 6915
999999 10299 18502 19094 11254 15145 10055 13459 17107 10447 19078 999999 999999 999999 999999 999999 999999 999999 0 999999 999999 6802
999999 13574 10381 13119 11261 11856 14822 12359 16721 10933 13147 999999 999999 999999 999999 999999 999999 999999 999999 0 999999 8648
999999 12117 14880 12592 10977 17521 13721 11542 16628 12663 13607 999999 999999 999999 999999 999999 999999 999999 999999 999999 0 11195
1 999999 999999 999999 999999 999999 999999 999999 999999 999999 999999 999999 999999 999999 999999 999999 999999 999999 999999 999999 999999 0
EOF