NAME: GR_1x2x5_KH_2x5_Run_3
TYPE: TSP
COMMENT: BTSP instance |A|=10 GR nodes |B|=10 KH nodes depot=0.0 end=0.0.0
DIMENSION: 22
EDGE_WEIGHT_TYPE: EXPLICIT
EDGE_WEIGHT_FORMAT: FULL_MATRIX
NODE_COORD_TYPE: NO_COORDS
EDGE_WEIGHT_SECTION
0 8660 14595 5310 13421 7457 11951 7496 9893 13825 14335 999999 999999 999999 999999 999999 999999 999999 999999 999999 999999 999999
999999 0 999999 999999 999999 999999 999999 999999 999999 999999 999999 13928 16711 15942 11040 12468 17493 11911 19538 15562 13058 999999
999999 999999 0 999999 999999 999999 999999 999999 999999 999999 999999 17242 10710 15542 11055 17750 12415 11298 14526 14491 10780 999999
999999 999999 999999 0 999999 999999 999999 999999 999999 999999 999999 10977 15196 10959 18078 12519 13206 13251 14764 14712 15110 999999
999999 999999 999999 999999 0 999999 999999 999999 999999 999999 999999 16606 19405 12184 18816 10861 10524 10535 17890 16789 17309 999999
999999 999999 999999 999999 999999 0 999999 999999 999999 999999 999999 12274 16219 15147 15286 19394 11869 10835 14655 15828 16730 999999
999999 999999 999999 999999 999999 999999 0 999999 999999 999999 999999 17233 11787 17089 15969 18710 16003 14665 16308 10064 12815 999999
999999 999999 999999 999999 999999 999999 999999 0 999999 999999 999999 12785 11747 15332 14899 17272 11100 18031 12597 14400 14650 999999
999999 999999 999999 999999 999999 999999 999999 999999 0 999999 999999 10250 10872 12196 16867 16212 19278 14058 16107 16760 16726 999999
999999 999999 999999 999999 999999 999999 999999 999999 999999 0 999999 18699 13721 14963 19554 16611 18379 14129 19655 16326 13169 999999
999999 999999 999999 999999 999999 999999 999999 999999 999999 999999 0 17428 17079 11300 18584 16285 11818 15967 13087 19541 16545 999999
999999 13928 17242 10977 16606 12274 17233 12785 10250 18699 17428 0 999999 999999 999999 999999 999999 999999 999999 999999 999999 14193
999999 16711 10710 15196 19405 16219 11787 11747 10872 13721 17079 999999 0 999999 999999 999999 999999 999999 999999 999999 999999 8308
999999 15942 15542 10959 12184 15147 17089 15332 12196 14963 11300 999999 999999 0 999999 999999 999999 999999 999999 999999 999999 12635
999999 11040 11055 18078 18816 15286 15969 14899 16867 19554 18584 999999 999999 999999 0 999999 999999 999999 999999 999999 999999 13591
999999 12468 17750 12519 10861 19394 18710 17272 16212 16611 16285 999999 999999 999999 999999 0 999999 999999 999999 999999 999999 11978
999999 17493 12415 13206 10524 11869 16003 11100 19278 18379 11818 999999 999999 999999 999999 999999 0 999999 999999 999999 999999 14391
999999 11911 11298 13251 10535 10835 14665 18031 14058 14129 15967 999999 999999 999999 999999 999999 999999 0 999999 999999 999999 11101
999999 19538 14526 14764 17890 14655 16308 12597 16107 19655 13087 999999 999999 999999 999999 999999 999999 999999 0 999999 999999 10743
999999 15562 14491 14712 16789 15828 10064 14400 16760 16326 19541 999999 999999 999999 999999 999999 999999 999999 999999 0 999999 12961
999999 13058 10780 15110 17309 16730 12815 14650 16726 13169 16545 999999 999999 999999 999999 999999 999999 999999 999999 999999 0 13310
1 999999 999999 999999 999999 999999 999999 999999 999999 999999 999999 999999 999999 999999 999999 999999 999999 999999 999999 999999 999999 0
EOF