NAME: GR_2x2x35_KH_5x10_Run_7
TYPE: TSP
COMMENT: BTSP instance |A|=140 GR nodes |B|=50 KH nodes depot=0.0 end=0.0.0
DIMENSION: 192
EDGE_WEIGHT_TYPE: EXPLICIT
EDGE_WEIGHT_FORMAT: FULL_MATRIX
NODE_COORD_TYPE: NO_COORDS
EDGE_WEIGHT_SECTION
0 12436 12122 6979 13674 14697 13793 7848 9444 5220 14145 8928 11883 14833 10739 14074 9383 9728 12368 14852 5043 6891 5985 5648 8418 12201 7949 10946 10101 14605 9682 6351 5297 6948 9606 14149 6109 8883 14570 5268 11422 5587 7066 6685 14222 9311 13122 5033 6625 11364 7119 7522 5598 11876 9140 9149 14190 12358 11107 9912 13840 12579 14911 8923 12249 7228 7435 10409 12098 12665 9694 6771 11977 5353 5501 14598 6710 8784 12585 6681 10457 11979 7289 5740 11982 7869 8609 5318 8626 9530 11814 13673 5086 13855 9060 14233 11414 12243 7744 13873 10676 14886 7364 9081 8043 9726 7466 7835 14986 11504 6699 13448 11412 6678 6422 11103 5489 8278 6178 14402 11885 8434 5336 12484 13311 5892 12897 7353 14311 6591 10408 11672 14046 14869 6857 9949 10231 9537 12980 11145 9082 999999 999999 999999 999999 999999 999999 999999 999999 999999 999999 999999 999999 999999 999999 999999 999999 999999 999999 999999 999999 999999 999999 999999 999999 999999 999999 999999 999999 999999 999999 999999 999999 999999 999999 999999 999999 999999 999999 999999 999999 999999 999999 999999 999999 999999 999999 999999 999999 999999 999999 999999
999999 0 999999 999999 999999 999999 999999 999999 999999 999999 999999 999999 999999 999999 999999 999999 999999 999999 999999 999999 999999 999999 999999 999999 999999 999999 999999 999999 999999 999999 999999 999999 999999 999999 999999 999999 999999 999999 999999 999999 999999 999999 999999 999999 999999 999999 999999 999999 999999 999999 999999 999999 999999 999999 999999 999999 999999 999999 999999 999999 999999 999999 999999 999999 999999 999999 999999 999999 999999 999999 999999 999999 999999 999999 999999 999999 999999 999999 999999 999999 999999 999999 999999 999999 999999 999999 999999 999999 999999 999999 999999 999999 999999 999999 999999 999999 999999 999999 999999 999999 999999 999999 999999 999999 999999 999999 999999 999999 999999 999999 999999 999999 999999 999999 999999 999999 999999 999999 999999 999999 999999 999999 999999 999999 999999 999999 999999 999999 999999 999999 999999 999999 999999 999999 999999 999999 999999 999999 999999 999999 999999 15508 12194 12612 16360 13264 15192 11470 18338 19925 18692 11590 12928 12592 12052 13183 13254 14821 11255 10053 19945 12222 12236 17494 11076 16456 14584 18641 12930 10350 12206 13169 11216 12183 17857 15107 18997 16335 11154 11853 14049 16896 18113 14920 18884 10820 17462 13131 16953 18824 11972 999999
999999 999999 0 999999 999999 999999 999999 999999 999999 999999 999999 999999 999999 999999 999999 999999 999999 999999 999999 999999 999999 999999 999999 999999 999999 999999 999999 999999 999999 999999 999999 999999 999999 999999 999999 999999 999999 999999 999999 999999 999999 999999 999999 999999 999999 999999 999999 999999 999999 999999 999999 999999 999999 999999 999999 999999 999999 999999 999999 999999 999999 999999 999999 999999 999999 999999 999999 999999 999999 999999 999999 999999 999999 999999 999999 999999 999999 999999 999999 999999 999999 999999 999999 999999 999999 999999 999999 999999 999999 999999 999999 999999 999999 999999 999999 999999 999999 999999 999999 999999 999999 999999 999999 999999 999999 999999 999999 999999 999999 999999 999999 999999 999999 999999 999999 999999 999999 999999 999999 999999 999999 999999 999999 999999 999999 999999 999999 999999 999999 999999 999999 999999 999999 999999 999999 999999 999999 999999 999999 999999 999999 15772 13772 11072 10861 10211 12607 16642 11018 13212 15867 19635 18292 10479 17844 13226 13004 10503 14917 17436 16078 17689 14936 17997 14047 18496 18853 15755 15752 17594 18786 14907 15887 19915 13093 12991 12529 12209 13092 15382 10681 17300 15315 10264 14015 19161 19814 11030 14711 17656 17247 999999
999999 999999 999999 0 999999 999999 999999 999999 999999 999999 999999 999999 999999 999999 999999 999999 999999 999999 999999 999999 999999 999999 999999 999999 999999 999999 999999 999999 999999 999999 999999 999999 999999 999999 999999 999999 999999 999999 999999 999999 999999 999999 999999 999999 999999 999999 999999 999999 999999 999999 999999 999999 999999 999999 999999 999999 999999 999999 999999 999999 999999 999999 999999 999999 999999 999999 999999 999999 999999 999999 999999 999999 999999 999999 999999 999999 999999 999999 999999 999999 999999 999999 999999 999999 999999 999999 999999 999999 999999 999999 999999 999999 999999 999999 999999 999999 999999 999999 999999 999999 999999 999999 999999 999999 999999 999999 999999 999999 999999 999999 999999 999999 999999 999999 999999 999999 999999 999999 999999 999999 999999 999999 999999 999999 999999 999999 999999 999999 999999 999999 999999 999999 999999 999999 999999 999999 999999 999999 999999 999999 999999 12404 15698 16118 10537 19880 18627 12785 16783 12261 11027 14480 16425 17295 17020 15000 18127 17580 17589 15452 12820 10657 18920 14754 16985 15053 14110 16497 10909 11784 16308 14798 17180 17192 13401 13382 18743 10246 17661 15525 15810 15170 17733 12024 14990 15335 12434 17341 14845 10058 12559 999999
999999 999999 999999 999999 0 999999 999999 999999 999999 999999 999999 999999 999999 999999 999999 999999 999999 999999 999999 999999 999999 999999 999999 999999 999999 999999 999999 999999 999999 999999 999999 999999 999999 999999 999999 999999 999999 999999 999999 999999 999999 999999 999999 999999 999999 999999 999999 999999 999999 999999 999999 999999 999999 999999 999999 999999 999999 999999 999999 999999 999999 999999 999999 999999 999999 999999 999999 999999 999999 999999 999999 999999 999999 999999 999999 999999 999999 999999 999999 999999 999999 999999 999999 999999 999999 999999 999999 999999 999999 999999 999999 999999 999999 999999 999999 999999 999999 999999 999999 999999 999999 999999 999999 999999 999999 999999 999999 999999 999999 999999 999999 999999 999999 999999 999999 999999 999999 999999 999999 999999 999999 999999 999999 999999 999999 999999 999999 999999 999999 999999 999999 999999 999999 999999 999999 999999 999999 999999 999999 999999 999999 15938 18834 11502 17176 10504 17849 16406 17411 19384 12642 10888 17092 10599 11688 14813 11578 18136 14504 12693 15430 10252 18880 10457 10019 15119 19330 14104 15514 16572 17967 11960 15058 13574 16460 14224 16962 10301 10644 14717 17302 16880 15873 15711 12938 19489 14685 14003 12568 12715 17297 999999
999999 999999 999999 999999 999999 0 999999 999999 999999 999999 999999 999999 999999 999999 999999 999999 999999 999999 999999 999999 999999 999999 999999 999999 999999 999999 999999 999999 999999 999999 999999 999999 999999 999999 999999 999999 999999 999999 999999 999999 999999 999999 999999 999999 999999 999999 999999 999999 999999 999999 999999 999999 999999 999999 999999 999999 999999 999999 999999 999999 999999 999999 999999 999999 999999 999999 999999 999999 999999 999999 999999 999999 999999 999999 999999 999999 999999 999999 999999 999999 999999 999999 999999 999999 999999 999999 999999 999999 999999 999999 999999 999999 999999 999999 999999 999999 999999 999999 999999 999999 999999 999999 999999 999999 999999 999999 999999 999999 999999 999999 999999 999999 999999 999999 999999 999999 999999 999999 999999 999999 999999 999999 999999 999999 999999 999999 999999 999999 999999 999999 999999 999999 999999 999999 999999 999999 999999 999999 999999 999999 999999 18951 18270 10093 17361 13098 13020 13828 16626 14599 12489 14794 10952 10627 19116 10303 16995 16711 15560 17296 14952 12109 11240 19664 10807 17004 13567 18612 17342 14588 11190 15548 12241 16871 15921 16899 13728 13601 17559 14777 17138 11177 12859 14173 14828 18432 16347 12679 12543 12388 12591 999999
999999 999999 999999 999999 999999 999999 0 999999 999999 999999 999999 999999 999999 999999 999999 999999 999999 999999 999999 999999 999999 999999 999999 999999 999999 999999 999999 999999 999999 999999 999999 999999 999999 999999 999999 999999 999999 999999 999999 999999 999999 999999 999999 999999 999999 999999 999999 999999 999999 999999 999999 999999 999999 999999 999999 999999 999999 999999 999999 999999 999999 999999 999999 999999 999999 999999 999999 999999 999999 999999 999999 999999 999999 999999 999999 999999 999999 999999 999999 999999 999999 999999 999999 999999 999999 999999 999999 999999 999999 999999 999999 999999 999999 999999 999999 999999 999999 999999 999999 999999 999999 999999 999999 999999 999999 999999 999999 999999 999999 999999 999999 999999 999999 999999 999999 999999 999999 999999 999999 999999 999999 999999 999999 999999 999999 999999 999999 999999 999999 999999 999999 999999 999999 999999 999999 999999 999999 999999 999999 999999 999999 11290 14552 14878 19039 10944 16560 17013 16979 12337 13153 15365 11583 16814 11178 13890 14905 18458 14113 15393 14422 16540 14692 19730 14999 16437 11094 10632 10261 19480 18265 14731 15722 19243 19322 11395 13654 17065 15348 18318 13616 10894 12139 14351 14711 11289 15789 11677 15631 18093 18215 999999
999999 999999 999999 999999 999999 999999 999999 0 999999 999999 999999 999999 999999 999999 999999 999999 999999 999999 999999 999999 999999 999999 999999 999999 999999 999999 999999 999999 999999 999999 999999 999999 999999 999999 999999 999999 999999 999999 999999 999999 999999 999999 999999 999999 999999 999999 999999 999999 999999 999999 999999 999999 999999 999999 999999 999999 999999 999999 999999 999999 999999 999999 999999 999999 999999 999999 999999 999999 999999 999999 999999 999999 999999 999999 999999 999999 999999 999999 999999 999999 999999 999999 999999 999999 999999 999999 999999 999999 999999 999999 999999 999999 999999 999999 999999 999999 999999 999999 999999 999999 999999 999999 999999 999999 999999 999999 999999 999999 999999 999999 999999 999999 999999 999999 999999 999999 999999 999999 999999 999999 999999 999999 999999 999999 999999 999999 999999 999999 999999 999999 999999 999999 999999 999999 999999 999999 999999 999999 999999 999999 999999 14664 17485 10514 13216 19496 19077 11634 14670 18658 17150 18185 19887 18851 14328 10428 16027 13103 16521 19785 17848 15122 16512 11473 10035 13700 13574 16649 17302 11402 16306 14569 17077 11346 12685 13702 18158 12761 11594 10225 17602 10045 14198 17445 17633 12566 10939 13158 14780 18102 19132 999999
999999 999999 999999 999999 999999 999999 999999 999999 0 999999 999999 999999 999999 999999 999999 999999 999999 999999 999999 999999 999999 999999 999999 999999 999999 999999 999999 999999 999999 999999 999999 999999 999999 999999 999999 999999 999999 999999 999999 999999 999999 999999 999999 999999 999999 999999 999999 999999 999999 999999 999999 999999 999999 999999 999999 999999 999999 999999 999999 999999 999999 999999 999999 999999 999999 999999 999999 999999 999999 999999 999999 999999 999999 999999 999999 999999 999999 999999 999999 999999 999999 999999 999999 999999 999999 999999 999999 999999 999999 999999 999999 999999 999999 999999 999999 999999 999999 999999 999999 999999 999999 999999 999999 999999 999999 999999 999999 999999 999999 999999 999999 999999 999999 999999 999999 999999 999999 999999 999999 999999 999999 999999 999999 999999 999999 999999 999999 999999 999999 999999 999999 999999 999999 999999 999999 999999 999999 999999 999999 999999 999999 13501 13591 13148 11419 11387 15249 10766 19160 17454 11766 12833 10912 12805 14711 11828 11689 14800 10395 14376 15845 17799 13842 18168 12386 13869 11794 10138 18901 10860 14404 12495 11856 10445 15856 17905 15153 18354 17758 14365 10057 17283 17782 15553 18167 10604 19827 13680 17442 11497 19777 999999
999999 999999 999999 999999 999999 999999 999999 999999 999999 0 999999 999999 999999 999999 999999 999999 999999 999999 999999 999999 999999 999999 999999 999999 999999 999999 999999 999999 999999 999999 999999 999999 999999 999999 999999 999999 999999 999999 999999 999999 999999 999999 999999 999999 999999 999999 999999 999999 999999 999999 999999 999999 999999 999999 999999 999999 999999 999999 999999 999999 999999 999999 999999 999999 999999 999999 999999 999999 999999 999999 999999 999999 999999 999999 999999 999999 999999 999999 999999 999999 999999 999999 999999 999999 999999 999999 999999 999999 999999 999999 999999 999999 999999 999999 999999 999999 999999 999999 999999 999999 999999 999999 999999 999999 999999 999999 999999 999999 999999 999999 999999 999999 999999 999999 999999 999999 999999 999999 999999 999999 999999 999999 999999 999999 999999 999999 999999 999999 999999 999999 999999 999999 999999 999999 999999 999999 999999 999999 999999 999999 999999 16344 16538 10343 16080 11399 17481 13943 10350 15578 11951 17390 16712 15068 16936 15697 15141 18925 17314 15957 14325 14273 12879 19642 14261 11322 10113 13886 13215 18445 13004 10604 16023 18009 17118 19914 16368 14030 12175 16691 19604 10601 19451 16793 19423 17896 15289 19121 16983 12862 12278 999999
999999 999999 999999 999999 999999 999999 999999 999999 999999 999999 0 999999 999999 999999 999999 999999 999999 999999 999999 999999 999999 999999 999999 999999 999999 999999 999999 999999 999999 999999 999999 999999 999999 999999 999999 999999 999999 999999 999999 999999 999999 999999 999999 999999 999999 999999 999999 999999 999999 999999 999999 999999 999999 999999 999999 999999 999999 999999 999999 999999 999999 999999 999999 999999 999999 999999 999999 999999 999999 999999 999999 999999 999999 999999 999999 999999 999999 999999 999999 999999 999999 999999 999999 999999 999999 999999 999999 999999 999999 999999 999999 999999 999999 999999 999999 999999 999999 999999 999999 999999 999999 999999 999999 999999 999999 999999 999999 999999 999999 999999 999999 999999 999999 999999 999999 999999 999999 999999 999999 999999 999999 999999 999999 999999 999999 999999 999999 999999 999999 999999 999999 999999 999999 999999 999999 999999 999999 999999 999999 999999 999999 15107 17001 11720 15320 14953 19659 10676 14190 15348 12365 19574 19683 18403 14712 11154 17732 11485 19606 14785 15464 15440 14424 19946 18577 14248 13263 12058 14356 15541 16609 17465 19369 14948 14607 11696 14522 10682 19439 14321 12587 15683 11142 13503 16548 12913 19566 16595 11849 12275 13802 999999
999999 999999 999999 999999 999999 999999 999999 999999 999999 999999 999999 0 999999 999999 999999 999999 999999 999999 999999 999999 999999 999999 999999 999999 999999 999999 999999 999999 999999 999999 999999 999999 999999 999999 999999 999999 999999 999999 999999 999999 999999 999999 999999 999999 999999 999999 999999 999999 999999 999999 999999 999999 999999 999999 999999 999999 999999 999999 999999 999999 999999 999999 999999 999999 999999 999999 999999 999999 999999 999999 999999 999999 999999 999999 999999 999999 999999 999999 999999 999999 999999 999999 999999 999999 999999 999999 999999 999999 999999 999999 999999 999999 999999 999999 999999 999999 999999 999999 999999 999999 999999 999999 999999 999999 999999 999999 999999 999999 999999 999999 999999 999999 999999 999999 999999 999999 999999 999999 999999 999999 999999 999999 999999 999999 999999 999999 999999 999999 999999 999999 999999 999999 999999 999999 999999 999999 999999 999999 999999 999999 999999 11628 19312 14553 10816 11612 18312 15238 17099 11058 12548 15756 16343 11910 19285 19210 14792 17409 13762 16932 13958 14934 16695 18770 14300 18802 12027 13377 17397 10641 17614 12049 16411 19656 15285 10291 14103 19271 15565 13167 19224 12502 11383 16300 15150 17096 15663 15829 15585 18585 13272 999999
999999 999999 999999 999999 999999 999999 999999 999999 999999 999999 999999 999999 0 999999 999999 999999 999999 999999 999999 999999 999999 999999 999999 999999 999999 999999 999999 999999 999999 999999 999999 999999 999999 999999 999999 999999 999999 999999 999999 999999 999999 999999 999999 999999 999999 999999 999999 999999 999999 999999 999999 999999 999999 999999 999999 999999 999999 999999 999999 999999 999999 999999 999999 999999 999999 999999 999999 999999 999999 999999 999999 999999 999999 999999 999999 999999 999999 999999 999999 999999 999999 999999 999999 999999 999999 999999 999999 999999 999999 999999 999999 999999 999999 999999 999999 999999 999999 999999 999999 999999 999999 999999 999999 999999 999999 999999 999999 999999 999999 999999 999999 999999 999999 999999 999999 999999 999999 999999 999999 999999 999999 999999 999999 999999 999999 999999 999999 999999 999999 999999 999999 999999 999999 999999 999999 999999 999999 999999 999999 999999 999999 11877 17347 10742 11889 19714 17703 15467 17682 14990 15434 16329 14942 12545 15943 15479 16865 10780 15059 11262 16450 16273 11990 14497 11277 19914 17690 15644 13907 13003 15558 15949 17805 11943 14614 14001 13374 16757 14486 15630 19622 15588 17406 13626 12003 18500 17087 12987 11949 10389 15375 999999
999999 999999 999999 999999 999999 999999 999999 999999 999999 999999 999999 999999 999999 0 999999 999999 999999 999999 999999 999999 999999 999999 999999 999999 999999 999999 999999 999999 999999 999999 999999 999999 999999 999999 999999 999999 999999 999999 999999 999999 999999 999999 999999 999999 999999 999999 999999 999999 999999 999999 999999 999999 999999 999999 999999 999999 999999 999999 999999 999999 999999 999999 999999 999999 999999 999999 999999 999999 999999 999999 999999 999999 999999 999999 999999 999999 999999 999999 999999 999999 999999 999999 999999 999999 999999 999999 999999 999999 999999 999999 999999 999999 999999 999999 999999 999999 999999 999999 999999 999999 999999 999999 999999 999999 999999 999999 999999 999999 999999 999999 999999 999999 999999 999999 999999 999999 999999 999999 999999 999999 999999 999999 999999 999999 999999 999999 999999 999999 999999 999999 999999 999999 999999 999999 999999 999999 999999 999999 999999 999999 999999 17204 12898 15144 10810 16715 15651 11759 17610 10842 19410 12393 16881 14126 17364 10862 11488 10786 10980 18664 12329 11699 16206 13839 10583 19536 14207 12849 10177 17399 11537 16557 14142 19463 17568 16786 12847 13242 16591 11328 13876 19000 13269 12943 13256 13700 10457 13081 10996 17006 17094 999999
999999 999999 999999 999999 999999 999999 999999 999999 999999 999999 999999 999999 999999 999999 0 999999 999999 999999 999999 999999 999999 999999 999999 999999 999999 999999 999999 999999 999999 999999 999999 999999 999999 999999 999999 999999 999999 999999 999999 999999 999999 999999 999999 999999 999999 999999 999999 999999 999999 999999 999999 999999 999999 999999 999999 999999 999999 999999 999999 999999 999999 999999 999999 999999 999999 999999 999999 999999 999999 999999 999999 999999 999999 999999 999999 999999 999999 999999 999999 999999 999999 999999 999999 999999 999999 999999 999999 999999 999999 999999 999999 999999 999999 999999 999999 999999 999999 999999 999999 999999 999999 999999 999999 999999 999999 999999 999999 999999 999999 999999 999999 999999 999999 999999 999999 999999 999999 999999 999999 999999 999999 999999 999999 999999 999999 999999 999999 999999 999999 999999 999999 999999 999999 999999 999999 999999 999999 999999 999999 999999 999999 13247 12819 19981 17619 19907 14411 18049 12171 15923 10382 12420 12844 10020 18932 15395 19416 18220 12895 18514 11431 14702 17018 12168 13895 11558 14481 11700 15493 18149 12628 14347 17177 13792 14517 12670 14193 16170 14373 13504 13958 16087 10278 12310 10004 19731 10792 14901 15283 13898 15279 999999
999999 999999 999999 999999 999999 999999 999999 999999 999999 999999 999999 999999 999999 999999 999999 0 999999 999999 999999 999999 999999 999999 999999 999999 999999 999999 999999 999999 999999 999999 999999 999999 999999 999999 999999 999999 999999 999999 999999 999999 999999 999999 999999 999999 999999 999999 999999 999999 999999 999999 999999 999999 999999 999999 999999 999999 999999 999999 999999 999999 999999 999999 999999 999999 999999 999999 999999 999999 999999 999999 999999 999999 999999 999999 999999 999999 999999 999999 999999 999999 999999 999999 999999 999999 999999 999999 999999 999999 999999 999999 999999 999999 999999 999999 999999 999999 999999 999999 999999 999999 999999 999999 999999 999999 999999 999999 999999 999999 999999 999999 999999 999999 999999 999999 999999 999999 999999 999999 999999 999999 999999 999999 999999 999999 999999 999999 999999 999999 999999 999999 999999 999999 999999 999999 999999 999999 999999 999999 999999 999999 999999 16823 15056 16247 18569 13959 17530 19076 10260 13278 16895 12037 17854 19480 13886 18605 10598 15237 19322 16290 12376 12701 13218 13966 12179 19640 15398 16890 17962 17424 12057 11901 18057 16208 19905 13774 10934 15048 14098 13581 17195 15463 10470 15702 15989 16570 17238 19554 19458 10570 13653 999999
999999 999999 999999 999999 999999 999999 999999 999999 999999 999999 999999 999999 999999 999999 999999 999999 0 999999 999999 999999 999999 999999 999999 999999 999999 999999 999999 999999 999999 999999 999999 999999 999999 999999 999999 999999 999999 999999 999999 999999 999999 999999 999999 999999 999999 999999 999999 999999 999999 999999 999999 999999 999999 999999 999999 999999 999999 999999 999999 999999 999999 999999 999999 999999 999999 999999 999999 999999 999999 999999 999999 999999 999999 999999 999999 999999 999999 999999 999999 999999 999999 999999 999999 999999 999999 999999 999999 999999 999999 999999 999999 999999 999999 999999 999999 999999 999999 999999 999999 999999 999999 999999 999999 999999 999999 999999 999999 999999 999999 999999 999999 999999 999999 999999 999999 999999 999999 999999 999999 999999 999999 999999 999999 999999 999999 999999 999999 999999 999999 999999 999999 999999 999999 999999 999999 999999 999999 999999 999999 999999 999999 17623 11033 17276 18746 18365 12958 11990 15318 10484 10115 11309 11897 11659 15640 13657 13990 15468 13598 13271 16498 14228 17891 14078 11393 11209 13289 12324 10824 17136 11108 17559 11370 18350 15757 18644 16494 19460 13654 12759 11509 10582 16427 13119 15292 17367 13113 18484 11901 19010 10620 999999
999999 999999 999999 999999 999999 999999 999999 999999 999999 999999 999999 999999 999999 999999 999999 999999 999999 0 999999 999999 999999 999999 999999 999999 999999 999999 999999 999999 999999 999999 999999 999999 999999 999999 999999 999999 999999 999999 999999 999999 999999 999999 999999 999999 999999 999999 999999 999999 999999 999999 999999 999999 999999 999999 999999 999999 999999 999999 999999 999999 999999 999999 999999 999999 999999 999999 999999 999999 999999 999999 999999 999999 999999 999999 999999 999999 999999 999999 999999 999999 999999 999999 999999 999999 999999 999999 999999 999999 999999 999999 999999 999999 999999 999999 999999 999999 999999 999999 999999 999999 999999 999999 999999 999999 999999 999999 999999 999999 999999 999999 999999 999999 999999 999999 999999 999999 999999 999999 999999 999999 999999 999999 999999 999999 999999 999999 999999 999999 999999 999999 999999 999999 999999 999999 999999 999999 999999 999999 999999 999999 999999 10902 18965 16092 12394 15268 16354 12189 14573 15385 13963 12414 19374 18352 19211 13370 18110 10697 18256 10508 18113 14208 11520 11589 11091 19719 18258 13940 10880 18820 15936 12349 15318 12446 17186 11017 16220 15564 12882 10401 16926 13933 10136 12293 17067 10662 11082 17981 17056 19105 19120 999999
999999 999999 999999 999999 999999 999999 999999 999999 999999 999999 999999 999999 999999 999999 999999 999999 999999 999999 0 999999 999999 999999 999999 999999 999999 999999 999999 999999 999999 999999 999999 999999 999999 999999 999999 999999 999999 999999 999999 999999 999999 999999 999999 999999 999999 999999 999999 999999 999999 999999 999999 999999 999999 999999 999999 999999 999999 999999 999999 999999 999999 999999 999999 999999 999999 999999 999999 999999 999999 999999 999999 999999 999999 999999 999999 999999 999999 999999 999999 999999 999999 999999 999999 999999 999999 999999 999999 999999 999999 999999 999999 999999 999999 999999 999999 999999 999999 999999 999999 999999 999999 999999 999999 999999 999999 999999 999999 999999 999999 999999 999999 999999 999999 999999 999999 999999 999999 999999 999999 999999 999999 999999 999999 999999 999999 999999 999999 999999 999999 999999 999999 999999 999999 999999 999999 999999 999999 999999 999999 999999 999999 19105 14154 18200 15750 15065 12576 10860 14495 11006 19433 11536 13284 14603 12276 13470 19534 12629 18562 14912 15763 19632 13741 10951 17304 12504 11713 15988 17380 18494 12726 11997 12100 13664 19620 18564 16268 18462 15678 13507 11418 10960 15317 19333 16011 17984 16516 10153 16253 16048 11746 999999
999999 999999 999999 999999 999999 999999 999999 999999 999999 999999 999999 999999 999999 999999 999999 999999 999999 999999 999999 0 999999 999999 999999 999999 999999 999999 999999 999999 999999 999999 999999 999999 999999 999999 999999 999999 999999 999999 999999 999999 999999 999999 999999 999999 999999 999999 999999 999999 999999 999999 999999 999999 999999 999999 999999 999999 999999 999999 999999 999999 999999 999999 999999 999999 999999 999999 999999 999999 999999 999999 999999 999999 999999 999999 999999 999999 999999 999999 999999 999999 999999 999999 999999 999999 999999 999999 999999 999999 999999 999999 999999 999999 999999 999999 999999 999999 999999 999999 999999 999999 999999 999999 999999 999999 999999 999999 999999 999999 999999 999999 999999 999999 999999 999999 999999 999999 999999 999999 999999 999999 999999 999999 999999 999999 999999 999999 999999 999999 999999 999999 999999 999999 999999 999999 999999 999999 999999 999999 999999 999999 999999 15825 15006 18568 14752 12480 15767 12958 14224 10247 13427 13924 12206 16740 10393 10189 12843 15480 19035 19980 15855 16816 16931 13583 12858 12358 16434 10862 14402 17983 19561 13456 15657 19381 11905 16048 15644 18046 16898 18400 19920 14777 15439 12751 13436 16789 14576 13820 19215 11070 10506 999999
999999 999999 999999 999999 999999 999999 999999 999999 999999 999999 999999 999999 999999 999999 999999 999999 999999 999999 999999 999999 0 999999 999999 999999 999999 999999 999999 999999 999999 999999 999999 999999 999999 999999 999999 999999 999999 999999 999999 999999 999999 999999 999999 999999 999999 999999 999999 999999 999999 999999 999999 999999 999999 999999 999999 999999 999999 999999 999999 999999 999999 999999 999999 999999 999999 999999 999999 999999 999999 999999 999999 999999 999999 999999 999999 999999 999999 999999 999999 999999 999999 999999 999999 999999 999999 999999 999999 999999 999999 999999 999999 999999 999999 999999 999999 999999 999999 999999 999999 999999 999999 999999 999999 999999 999999 999999 999999 999999 999999 999999 999999 999999 999999 999999 999999 999999 999999 999999 999999 999999 999999 999999 999999 999999 999999 999999 999999 999999 999999 999999 999999 999999 999999 999999 999999 999999 999999 999999 999999 999999 999999 12306 18779 17295 18721 13216 10589 19231 16817 14752 10984 14131 11117 15268 10000 18958 10023 18005 17054 16153 10597 13370 14888 18348 19378 14849 11231 12796 14479 18523 16363 15705 11219 11873 17966 12384 17373 10250 19419 13693 16295 18453 12638 19451 12374 19584 16749 12740 12740 13062 15754 999999
999999 999999 999999 999999 999999 999999 999999 999999 999999 999999 999999 999999 999999 999999 999999 999999 999999 999999 999999 999999 999999 0 999999 999999 999999 999999 999999 999999 999999 999999 999999 999999 999999 999999 999999 999999 999999 999999 999999 999999 999999 999999 999999 999999 999999 999999 999999 999999 999999 999999 999999 999999 999999 999999 999999 999999 999999 999999 999999 999999 999999 999999 999999 999999 999999 999999 999999 999999 999999 999999 999999 999999 999999 999999 999999 999999 999999 999999 999999 999999 999999 999999 999999 999999 999999 999999 999999 999999 999999 999999 999999 999999 999999 999999 999999 999999 999999 999999 999999 999999 999999 999999 999999 999999 999999 999999 999999 999999 999999 999999 999999 999999 999999 999999 999999 999999 999999 999999 999999 999999 999999 999999 999999 999999 999999 999999 999999 999999 999999 999999 999999 999999 999999 999999 999999 999999 999999 999999 999999 999999 999999 18966 15358 18814 10834 12409 11339 18329 15041 16461 15707 18636 10055 17504 16720 17844 18477 13097 18799 16884 14483 13622 12955 14909 17099 17838 15509 19227 18654 11140 11984 11945 16337 11261 12322 10131 16303 19392 14811 10627 16712 16936 19847 12995 13094 10588 10505 11795 17869 17947 19477 999999
999999 999999 999999 999999 999999 999999 999999 999999 999999 999999 999999 999999 999999 999999 999999 999999 999999 999999 999999 999999 999999 999999 0 999999 999999 999999 999999 999999 999999 999999 999999 999999 999999 999999 999999 999999 999999 999999 999999 999999 999999 999999 999999 999999 999999 999999 999999 999999 999999 999999 999999 999999 999999 999999 999999 999999 999999 999999 999999 999999 999999 999999 999999 999999 999999 999999 999999 999999 999999 999999 999999 999999 999999 999999 999999 999999 999999 999999 999999 999999 999999 999999 999999 999999 999999 999999 999999 999999 999999 999999 999999 999999 999999 999999 999999 999999 999999 999999 999999 999999 999999 999999 999999 999999 999999 999999 999999 999999 999999 999999 999999 999999 999999 999999 999999 999999 999999 999999 999999 999999 999999 999999 999999 999999 999999 999999 999999 999999 999999 999999 999999 999999 999999 999999 999999 999999 999999 999999 999999 999999 999999 17986 12134 10594 19298 11468 12550 15279 14228 10641 11158 14480 17080 14978 12966 17930 13615 19596 19553 10342 18775 12530 14115 17363 14768 12167 16889 14086 16363 16966 11967 13216 11257 16058 11063 17475 12836 10195 11819 15951 10951 12129 13148 11723 17787 15215 16141 11004 10674 19172 19933 999999
999999 999999 999999 999999 999999 999999 999999 999999 999999 999999 999999 999999 999999 999999 999999 999999 999999 999999 999999 999999 999999 999999 999999 0 999999 999999 999999 999999 999999 999999 999999 999999 999999 999999 999999 999999 999999 999999 999999 999999 999999 999999 999999 999999 999999 999999 999999 999999 999999 999999 999999 999999 999999 999999 999999 999999 999999 999999 999999 999999 999999 999999 999999 999999 999999 999999 999999 999999 999999 999999 999999 999999 999999 999999 999999 999999 999999 999999 999999 999999 999999 999999 999999 999999 999999 999999 999999 999999 999999 999999 999999 999999 999999 999999 999999 999999 999999 999999 999999 999999 999999 999999 999999 999999 999999 999999 999999 999999 999999 999999 999999 999999 999999 999999 999999 999999 999999 999999 999999 999999 999999 999999 999999 999999 999999 999999 999999 999999 999999 999999 999999 999999 999999 999999 999999 999999 999999 999999 999999 999999 999999 11079 13026 19351 17899 18680 10051 14318 18064 12324 10201 13132 15031 14968 15915 16264 19712 17551 15610 18457 19190 19133 18836 19853 10925 12293 16325 16223 15837 15989 11598 12475 18467 16006 10899 11308 19314 10670 13215 19470 13539 13421 14349 10029 18419 15589 19940 10886 15563 14996 12280 999999
999999 999999 999999 999999 999999 999999 999999 999999 999999 999999 999999 999999 999999 999999 999999 999999 999999 999999 999999 999999 999999 999999 999999 999999 0 999999 999999 999999 999999 999999 999999 999999 999999 999999 999999 999999 999999 999999 999999 999999 999999 999999 999999 999999 999999 999999 999999 999999 999999 999999 999999 999999 999999 999999 999999 999999 999999 999999 999999 999999 999999 999999 999999 999999 999999 999999 999999 999999 999999 999999 999999 999999 999999 999999 999999 999999 999999 999999 999999 999999 999999 999999 999999 999999 999999 999999 999999 999999 999999 999999 999999 999999 999999 999999 999999 999999 999999 999999 999999 999999 999999 999999 999999 999999 999999 999999 999999 999999 999999 999999 999999 999999 999999 999999 999999 999999 999999 999999 999999 999999 999999 999999 999999 999999 999999 999999 999999 999999 999999 999999 999999 999999 999999 999999 999999 999999 999999 999999 999999 999999 999999 19183 16264 17424 17753 17470 10051 16987 17946 16946 19548 15485 10727 13386 18414 12162 19225 16785 19579 13288 11206 12458 16886 13627 14065 10249 13868 17163 12464 15206 13650 18749 19936 14620 10989 17472 14864 12753 16320 11574 13759 10941 13517 10113 17029 13039 18983 17595 15812 18779 13742 999999
999999 999999 999999 999999 999999 999999 999999 999999 999999 999999 999999 999999 999999 999999 999999 999999 999999 999999 999999 999999 999999 999999 999999 999999 999999 0 999999 999999 999999 999999 999999 999999 999999 999999 999999 999999 999999 999999 999999 999999 999999 999999 999999 999999 999999 999999 999999 999999 999999 999999 999999 999999 999999 999999 999999 999999 999999 999999 999999 999999 999999 999999 999999 999999 999999 999999 999999 999999 999999 999999 999999 999999 999999 999999 999999 999999 999999 999999 999999 999999 999999 999999 999999 999999 999999 999999 999999 999999 999999 999999 999999 999999 999999 999999 999999 999999 999999 999999 999999 999999 999999 999999 999999 999999 999999 999999 999999 999999 999999 999999 999999 999999 999999 999999 999999 999999 999999 999999 999999 999999 999999 999999 999999 999999 999999 999999 999999 999999 999999 999999 999999 999999 999999 999999 999999 999999 999999 999999 999999 999999 999999 11571 11698 14477 15108 19326 14906 13578 13009 19073 17697 11232 16132 17922 12039 14609 14282 12821 18370 10362 16982 19248 18092 11575 13531 13120 15497 10611 12027 15267 12934 19761 13678 13267 17456 17312 13659 15026 13457 18309 12755 12674 14059 14961 17263 14070 12084 13815 19377 11421 15905 999999
999999 999999 999999 999999 999999 999999 999999 999999 999999 999999 999999 999999 999999 999999 999999 999999 999999 999999 999999 999999 999999 999999 999999 999999 999999 999999 0 999999 999999 999999 999999 999999 999999 999999 999999 999999 999999 999999 999999 999999 999999 999999 999999 999999 999999 999999 999999 999999 999999 999999 999999 999999 999999 999999 999999 999999 999999 999999 999999 999999 999999 999999 999999 999999 999999 999999 999999 999999 999999 999999 999999 999999 999999 999999 999999 999999 999999 999999 999999 999999 999999 999999 999999 999999 999999 999999 999999 999999 999999 999999 999999 999999 999999 999999 999999 999999 999999 999999 999999 999999 999999 999999 999999 999999 999999 999999 999999 999999 999999 999999 999999 999999 999999 999999 999999 999999 999999 999999 999999 999999 999999 999999 999999 999999 999999 999999 999999 999999 999999 999999 999999 999999 999999 999999 999999 999999 999999 999999 999999 999999 999999 19463 12307 19941 13204 18047 16881 18379 12255 15930 19551 10366 16643 19112 14725 19380 10728 11997 15334 17230 10105 16651 18600 10506 17532 10818 14584 11742 14711 18932 18032 19879 15208 17033 19493 11220 18929 15667 11554 17463 10967 11595 13822 10035 10523 14619 10227 19943 15796 15371 11046 999999
999999 999999 999999 999999 999999 999999 999999 999999 999999 999999 999999 999999 999999 999999 999999 999999 999999 999999 999999 999999 999999 999999 999999 999999 999999 999999 999999 0 999999 999999 999999 999999 999999 999999 999999 999999 999999 999999 999999 999999 999999 999999 999999 999999 999999 999999 999999 999999 999999 999999 999999 999999 999999 999999 999999 999999 999999 999999 999999 999999 999999 999999 999999 999999 999999 999999 999999 999999 999999 999999 999999 999999 999999 999999 999999 999999 999999 999999 999999 999999 999999 999999 999999 999999 999999 999999 999999 999999 999999 999999 999999 999999 999999 999999 999999 999999 999999 999999 999999 999999 999999 999999 999999 999999 999999 999999 999999 999999 999999 999999 999999 999999 999999 999999 999999 999999 999999 999999 999999 999999 999999 999999 999999 999999 999999 999999 999999 999999 999999 999999 999999 999999 999999 999999 999999 999999 999999 999999 999999 999999 999999 11022 14583 14570 16618 14150 11338 12214 19633 11119 16927 10078 15213 11015 19976 10298 10918 12421 15394 15109 18148 15204 14851 15177 14409 13458 13143 11520 10821 19543 12037 11282 14837 14565 10493 13526 19268 17080 11925 14302 11433 12030 13961 11293 16909 10302 13206 15033 18540 15204 15009 999999
999999 999999 999999 999999 999999 999999 999999 999999 999999 999999 999999 999999 999999 999999 999999 999999 999999 999999 999999 999999 999999 999999 999999 999999 999999 999999 999999 999999 0 999999 999999 999999 999999 999999 999999 999999 999999 999999 999999 999999 999999 999999 999999 999999 999999 999999 999999 999999 999999 999999 999999 999999 999999 999999 999999 999999 999999 999999 999999 999999 999999 999999 999999 999999 999999 999999 999999 999999 999999 999999 999999 999999 999999 999999 999999 999999 999999 999999 999999 999999 999999 999999 999999 999999 999999 999999 999999 999999 999999 999999 999999 999999 999999 999999 999999 999999 999999 999999 999999 999999 999999 999999 999999 999999 999999 999999 999999 999999 999999 999999 999999 999999 999999 999999 999999 999999 999999 999999 999999 999999 999999 999999 999999 999999 999999 999999 999999 999999 999999 999999 999999 999999 999999 999999 999999 999999 999999 999999 999999 999999 999999 16901 17105 15463 13672 14797 16932 19379 10441 13426 11072 11641 18396 14523 15007 12646 18622 18675 15086 10422 10171 19850 18660 11107 19266 14447 18802 14415 19737 19904 15927 12043 18039 18170 19007 18407 19097 10346 18576 18378 15742 11294 18876 18721 19637 15607 19293 17880 16963 11992 12747 999999
999999 999999 999999 999999 999999 999999 999999 999999 999999 999999 999999 999999 999999 999999 999999 999999 999999 999999 999999 999999 999999 999999 999999 999999 999999 999999 999999 999999 999999 0 999999 999999 999999 999999 999999 999999 999999 999999 999999 999999 999999 999999 999999 999999 999999 999999 999999 999999 999999 999999 999999 999999 999999 999999 999999 999999 999999 999999 999999 999999 999999 999999 999999 999999 999999 999999 999999 999999 999999 999999 999999 999999 999999 999999 999999 999999 999999 999999 999999 999999 999999 999999 999999 999999 999999 999999 999999 999999 999999 999999 999999 999999 999999 999999 999999 999999 999999 999999 999999 999999 999999 999999 999999 999999 999999 999999 999999 999999 999999 999999 999999 999999 999999 999999 999999 999999 999999 999999 999999 999999 999999 999999 999999 999999 999999 999999 999999 999999 999999 999999 999999 999999 999999 999999 999999 999999 999999 999999 999999 999999 999999 18966 12447 13048 12202 15117 14451 11322 13333 15925 13585 12065 14683 16761 16531 13268 18757 17475 10890 16086 16050 11590 11226 13852 14126 10384 12477 19927 12798 11750 19786 10337 12019 12280 11333 13671 16460 19708 16001 16087 13283 17469 16504 17969 11442 13634 10265 15728 10368 17122 15967 999999
999999 999999 999999 999999 999999 999999 999999 999999 999999 999999 999999 999999 999999 999999 999999 999999 999999 999999 999999 999999 999999 999999 999999 999999 999999 999999 999999 999999 999999 999999 0 999999 999999 999999 999999 999999 999999 999999 999999 999999 999999 999999 999999 999999 999999 999999 999999 999999 999999 999999 999999 999999 999999 999999 999999 999999 999999 999999 999999 999999 999999 999999 999999 999999 999999 999999 999999 999999 999999 999999 999999 999999 999999 999999 999999 999999 999999 999999 999999 999999 999999 999999 999999 999999 999999 999999 999999 999999 999999 999999 999999 999999 999999 999999 999999 999999 999999 999999 999999 999999 999999 999999 999999 999999 999999 999999 999999 999999 999999 999999 999999 999999 999999 999999 999999 999999 999999 999999 999999 999999 999999 999999 999999 999999 999999 999999 999999 999999 999999 999999 999999 999999 999999 999999 999999 999999 999999 999999 999999 999999 999999 15276 11630 13506 14525 14908 11383 17355 11432 18845 14448 16050 12302 12799 13893 16338 12647 12175 13945 12540 10874 12660 11625 15694 10544 18672 18160 18431 14249 18238 16297 18418 13456 19793 10775 11174 13612 16010 18104 19089 10729 14880 11737 15692 19726 13521 12948 12636 11287 11226 10447 999999
999999 999999 999999 999999 999999 999999 999999 999999 999999 999999 999999 999999 999999 999999 999999 999999 999999 999999 999999 999999 999999 999999 999999 999999 999999 999999 999999 999999 999999 999999 999999 0 999999 999999 999999 999999 999999 999999 999999 999999 999999 999999 999999 999999 999999 999999 999999 999999 999999 999999 999999 999999 999999 999999 999999 999999 999999 999999 999999 999999 999999 999999 999999 999999 999999 999999 999999 999999 999999 999999 999999 999999 999999 999999 999999 999999 999999 999999 999999 999999 999999 999999 999999 999999 999999 999999 999999 999999 999999 999999 999999 999999 999999 999999 999999 999999 999999 999999 999999 999999 999999 999999 999999 999999 999999 999999 999999 999999 999999 999999 999999 999999 999999 999999 999999 999999 999999 999999 999999 999999 999999 999999 999999 999999 999999 999999 999999 999999 999999 999999 999999 999999 999999 999999 999999 999999 999999 999999 999999 999999 999999 19081 18832 15728 16366 16117 13975 10149 12659 12065 18220 13531 13948 19880 15948 15188 17197 14175 15823 19127 17637 16919 10043 17538 19673 10779 16501 15245 15510 16454 19828 19147 14569 15543 15936 19998 11452 18221 13202 17958 17109 10179 15969 10982 12300 15619 10514 11883 16326 17449 11627 999999
999999 999999 999999 999999 999999 999999 999999 999999 999999 999999 999999 999999 999999 999999 999999 999999 999999 999999 999999 999999 999999 999999 999999 999999 999999 999999 999999 999999 999999 999999 999999 999999 0 999999 999999 999999 999999 999999 999999 999999 999999 999999 999999 999999 999999 999999 999999 999999 999999 999999 999999 999999 999999 999999 999999 999999 999999 999999 999999 999999 999999 999999 999999 999999 999999 999999 999999 999999 999999 999999 999999 999999 999999 999999 999999 999999 999999 999999 999999 999999 999999 999999 999999 999999 999999 999999 999999 999999 999999 999999 999999 999999 999999 999999 999999 999999 999999 999999 999999 999999 999999 999999 999999 999999 999999 999999 999999 999999 999999 999999 999999 999999 999999 999999 999999 999999 999999 999999 999999 999999 999999 999999 999999 999999 999999 999999 999999 999999 999999 999999 999999 999999 999999 999999 999999 999999 999999 999999 999999 999999 999999 15660 12943 18714 14939 17858 16207 11392 10554 17024 13230 13693 15011 12992 13394 14691 12460 19244 19850 19545 12618 12742 15226 18076 13378 15649 12358 15540 13335 18688 12785 11324 15291 11750 11347 11368 10998 15765 11170 18671 14853 17251 15839 12077 19731 16948 10016 10824 12528 13129 18366 999999
999999 999999 999999 999999 999999 999999 999999 999999 999999 999999 999999 999999 999999 999999 999999 999999 999999 999999 999999 999999 999999 999999 999999 999999 999999 999999 999999 999999 999999 999999 999999 999999 999999 0 999999 999999 999999 999999 999999 999999 999999 999999 999999 999999 999999 999999 999999 999999 999999 999999 999999 999999 999999 999999 999999 999999 999999 999999 999999 999999 999999 999999 999999 999999 999999 999999 999999 999999 999999 999999 999999 999999 999999 999999 999999 999999 999999 999999 999999 999999 999999 999999 999999 999999 999999 999999 999999 999999 999999 999999 999999 999999 999999 999999 999999 999999 999999 999999 999999 999999 999999 999999 999999 999999 999999 999999 999999 999999 999999 999999 999999 999999 999999 999999 999999 999999 999999 999999 999999 999999 999999 999999 999999 999999 999999 999999 999999 999999 999999 999999 999999 999999 999999 999999 999999 999999 999999 999999 999999 999999 999999 14711 10693 15450 12410 13829 19028 12872 10195 17565 12144 18300 17759 15540 15026 14759 18950 15697 11365 12394 19587 19865 19855 19550 16030 19733 12716 13320 13704 11350 17193 10053 12154 12777 19708 13601 12555 17625 11979 15012 19501 18689 14467 12991 12737 19812 12666 19652 12686 12726 19563 999999
999999 999999 999999 999999 999999 999999 999999 999999 999999 999999 999999 999999 999999 999999 999999 999999 999999 999999 999999 999999 999999 999999 999999 999999 999999 999999 999999 999999 999999 999999 999999 999999 999999 999999 0 999999 999999 999999 999999 999999 999999 999999 999999 999999 999999 999999 999999 999999 999999 999999 999999 999999 999999 999999 999999 999999 999999 999999 999999 999999 999999 999999 999999 999999 999999 999999 999999 999999 999999 999999 999999 999999 999999 999999 999999 999999 999999 999999 999999 999999 999999 999999 999999 999999 999999 999999 999999 999999 999999 999999 999999 999999 999999 999999 999999 999999 999999 999999 999999 999999 999999 999999 999999 999999 999999 999999 999999 999999 999999 999999 999999 999999 999999 999999 999999 999999 999999 999999 999999 999999 999999 999999 999999 999999 999999 999999 999999 999999 999999 999999 999999 999999 999999 999999 999999 999999 999999 999999 999999 999999 999999 16063 18197 10006 16870 18935 10564 14868 13924 14837 17399 15588 13804 10297 18945 18499 16943 10999 14736 15727 12436 14971 14355 10298 10696 16076 10082 18052 17811 13539 15318 17191 18486 15605 14408 19872 12857 15870 16427 16469 16591 16789 18329 10096 19089 16542 16057 10238 11559 10110 12437 999999
999999 999999 999999 999999 999999 999999 999999 999999 999999 999999 999999 999999 999999 999999 999999 999999 999999 999999 999999 999999 999999 999999 999999 999999 999999 999999 999999 999999 999999 999999 999999 999999 999999 999999 999999 0 999999 999999 999999 999999 999999 999999 999999 999999 999999 999999 999999 999999 999999 999999 999999 999999 999999 999999 999999 999999 999999 999999 999999 999999 999999 999999 999999 999999 999999 999999 999999 999999 999999 999999 999999 999999 999999 999999 999999 999999 999999 999999 999999 999999 999999 999999 999999 999999 999999 999999 999999 999999 999999 999999 999999 999999 999999 999999 999999 999999 999999 999999 999999 999999 999999 999999 999999 999999 999999 999999 999999 999999 999999 999999 999999 999999 999999 999999 999999 999999 999999 999999 999999 999999 999999 999999 999999 999999 999999 999999 999999 999999 999999 999999 999999 999999 999999 999999 999999 999999 999999 999999 999999 999999 999999 17456 14911 17103 13891 13136 12925 10015 14938 19080 18866 11510 16596 19620 16169 14646 17749 12832 18916 14600 13529 15598 19455 14838 19483 15162 10718 15962 11965 19349 19508 11966 11788 15167 15989 10790 13968 15953 19991 15751 13549 17077 13184 12871 17389 16825 11169 17988 13521 15384 18427 999999
999999 999999 999999 999999 999999 999999 999999 999999 999999 999999 999999 999999 999999 999999 999999 999999 999999 999999 999999 999999 999999 999999 999999 999999 999999 999999 999999 999999 999999 999999 999999 999999 999999 999999 999999 999999 0 999999 999999 999999 999999 999999 999999 999999 999999 999999 999999 999999 999999 999999 999999 999999 999999 999999 999999 999999 999999 999999 999999 999999 999999 999999 999999 999999 999999 999999 999999 999999 999999 999999 999999 999999 999999 999999 999999 999999 999999 999999 999999 999999 999999 999999 999999 999999 999999 999999 999999 999999 999999 999999 999999 999999 999999 999999 999999 999999 999999 999999 999999 999999 999999 999999 999999 999999 999999 999999 999999 999999 999999 999999 999999 999999 999999 999999 999999 999999 999999 999999 999999 999999 999999 999999 999999 999999 999999 999999 999999 999999 999999 999999 999999 999999 999999 999999 999999 999999 999999 999999 999999 999999 999999 11559 19121 10915 12198 11619 15270 15699 18725 10220 19541 13348 13513 15341 14218 11525 11606 14132 16365 18972 10873 19653 19248 18045 15067 19944 14871 12910 19817 13109 15434 13170 19579 12100 15606 16481 12954 18913 10082 19615 12893 17180 19552 18787 14881 17863 18278 15964 17296 15690 11787 999999
999999 999999 999999 999999 999999 999999 999999 999999 999999 999999 999999 999999 999999 999999 999999 999999 999999 999999 999999 999999 999999 999999 999999 999999 999999 999999 999999 999999 999999 999999 999999 999999 999999 999999 999999 999999 999999 0 999999 999999 999999 999999 999999 999999 999999 999999 999999 999999 999999 999999 999999 999999 999999 999999 999999 999999 999999 999999 999999 999999 999999 999999 999999 999999 999999 999999 999999 999999 999999 999999 999999 999999 999999 999999 999999 999999 999999 999999 999999 999999 999999 999999 999999 999999 999999 999999 999999 999999 999999 999999 999999 999999 999999 999999 999999 999999 999999 999999 999999 999999 999999 999999 999999 999999 999999 999999 999999 999999 999999 999999 999999 999999 999999 999999 999999 999999 999999 999999 999999 999999 999999 999999 999999 999999 999999 999999 999999 999999 999999 999999 999999 999999 999999 999999 999999 999999 999999 999999 999999 999999 999999 12863 10524 17457 12009 19690 16236 10856 15498 13801 19153 14868 11372 12495 19496 16541 14565 14170 10073 14125 14264 19378 10740 14442 14331 15564 11661 11432 19801 15623 13520 19166 17579 12438 17168 19250 14023 13904 10843 11074 16638 13344 10578 13476 19041 14681 15478 12469 12070 14667 12209 999999
999999 999999 999999 999999 999999 999999 999999 999999 999999 999999 999999 999999 999999 999999 999999 999999 999999 999999 999999 999999 999999 999999 999999 999999 999999 999999 999999 999999 999999 999999 999999 999999 999999 999999 999999 999999 999999 999999 0 999999 999999 999999 999999 999999 999999 999999 999999 999999 999999 999999 999999 999999 999999 999999 999999 999999 999999 999999 999999 999999 999999 999999 999999 999999 999999 999999 999999 999999 999999 999999 999999 999999 999999 999999 999999 999999 999999 999999 999999 999999 999999 999999 999999 999999 999999 999999 999999 999999 999999 999999 999999 999999 999999 999999 999999 999999 999999 999999 999999 999999 999999 999999 999999 999999 999999 999999 999999 999999 999999 999999 999999 999999 999999 999999 999999 999999 999999 999999 999999 999999 999999 999999 999999 999999 999999 999999 999999 999999 999999 999999 999999 999999 999999 999999 999999 999999 999999 999999 999999 999999 999999 15438 13668 19398 17641 10933 12674 18736 13252 12202 11340 11210 11591 19825 11143 14384 11419 18253 12947 17969 12398 10848 11799 11720 18660 10770 14784 13280 18770 18834 11077 12439 17468 19037 15778 13810 18229 13183 15013 14669 15864 18904 14862 15984 13781 10323 12445 13966 17027 13089 10347 999999
999999 999999 999999 999999 999999 999999 999999 999999 999999 999999 999999 999999 999999 999999 999999 999999 999999 999999 999999 999999 999999 999999 999999 999999 999999 999999 999999 999999 999999 999999 999999 999999 999999 999999 999999 999999 999999 999999 999999 0 999999 999999 999999 999999 999999 999999 999999 999999 999999 999999 999999 999999 999999 999999 999999 999999 999999 999999 999999 999999 999999 999999 999999 999999 999999 999999 999999 999999 999999 999999 999999 999999 999999 999999 999999 999999 999999 999999 999999 999999 999999 999999 999999 999999 999999 999999 999999 999999 999999 999999 999999 999999 999999 999999 999999 999999 999999 999999 999999 999999 999999 999999 999999 999999 999999 999999 999999 999999 999999 999999 999999 999999 999999 999999 999999 999999 999999 999999 999999 999999 999999 999999 999999 999999 999999 999999 999999 999999 999999 999999 999999 999999 999999 999999 999999 999999 999999 999999 999999 999999 999999 13471 10754 14036 15844 12659 12786 14370 16616 17646 14860 16712 14801 12254 11494 13496 17454 19068 11547 16413 10627 11251 17883 12012 10187 18092 13855 18450 11780 13700 11795 16619 14624 15498 16231 17639 18481 15578 11511 11890 10670 10814 13440 12328 13904 15503 11542 13257 16201 13325 18659 999999
999999 999999 999999 999999 999999 999999 999999 999999 999999 999999 999999 999999 999999 999999 999999 999999 999999 999999 999999 999999 999999 999999 999999 999999 999999 999999 999999 999999 999999 999999 999999 999999 999999 999999 999999 999999 999999 999999 999999 999999 0 999999 999999 999999 999999 999999 999999 999999 999999 999999 999999 999999 999999 999999 999999 999999 999999 999999 999999 999999 999999 999999 999999 999999 999999 999999 999999 999999 999999 999999 999999 999999 999999 999999 999999 999999 999999 999999 999999 999999 999999 999999 999999 999999 999999 999999 999999 999999 999999 999999 999999 999999 999999 999999 999999 999999 999999 999999 999999 999999 999999 999999 999999 999999 999999 999999 999999 999999 999999 999999 999999 999999 999999 999999 999999 999999 999999 999999 999999 999999 999999 999999 999999 999999 999999 999999 999999 999999 999999 999999 999999 999999 999999 999999 999999 999999 999999 999999 999999 999999 999999 11086 12692 15470 10530 11322 13974 19569 17130 10527 10115 11504 16348 18203 11841 18191 16853 11234 12277 12014 17568 17154 17233 17709 16644 18425 18831 11855 16472 15723 14022 19021 11800 10986 11005 13415 15465 11637 18043 10202 19888 12667 12830 18719 14186 17850 15898 17260 10206 17574 14087 999999
999999 999999 999999 999999 999999 999999 999999 999999 999999 999999 999999 999999 999999 999999 999999 999999 999999 999999 999999 999999 999999 999999 999999 999999 999999 999999 999999 999999 999999 999999 999999 999999 999999 999999 999999 999999 999999 999999 999999 999999 999999 0 999999 999999 999999 999999 999999 999999 999999 999999 999999 999999 999999 999999 999999 999999 999999 999999 999999 999999 999999 999999 999999 999999 999999 999999 999999 999999 999999 999999 999999 999999 999999 999999 999999 999999 999999 999999 999999 999999 999999 999999 999999 999999 999999 999999 999999 999999 999999 999999 999999 999999 999999 999999 999999 999999 999999 999999 999999 999999 999999 999999 999999 999999 999999 999999 999999 999999 999999 999999 999999 999999 999999 999999 999999 999999 999999 999999 999999 999999 999999 999999 999999 999999 999999 999999 999999 999999 999999 999999 999999 999999 999999 999999 999999 999999 999999 999999 999999 999999 999999 17910 19484 13226 12300 12268 16957 14601 18237 13189 11493 10526 19804 17132 16592 12828 15908 17795 19485 15797 17674 16597 11992 13008 16675 11770 11514 11860 10200 12237 14165 13704 11667 14938 15310 10554 16850 18140 14758 15359 16518 15795 16518 18926 11895 17260 15655 14527 15288 13147 19494 999999
999999 999999 999999 999999 999999 999999 999999 999999 999999 999999 999999 999999 999999 999999 999999 999999 999999 999999 999999 999999 999999 999999 999999 999999 999999 999999 999999 999999 999999 999999 999999 999999 999999 999999 999999 999999 999999 999999 999999 999999 999999 999999 0 999999 999999 999999 999999 999999 999999 999999 999999 999999 999999 999999 999999 999999 999999 999999 999999 999999 999999 999999 999999 999999 999999 999999 999999 999999 999999 999999 999999 999999 999999 999999 999999 999999 999999 999999 999999 999999 999999 999999 999999 999999 999999 999999 999999 999999 999999 999999 999999 999999 999999 999999 999999 999999 999999 999999 999999 999999 999999 999999 999999 999999 999999 999999 999999 999999 999999 999999 999999 999999 999999 999999 999999 999999 999999 999999 999999 999999 999999 999999 999999 999999 999999 999999 999999 999999 999999 999999 999999 999999 999999 999999 999999 999999 999999 999999 999999 999999 999999 18681 16831 17463 12793 18221 19915 13705 15535 10578 10853 17810 13069 10880 17556 16562 16301 11144 11364 11923 17025 17541 15031 11613 18289 19194 14160 12197 11868 14383 15256 13847 14646 13398 15140 12885 12220 17842 10826 13821 17367 18707 15666 13877 17339 15785 18980 15834 18920 11622 11888 999999
999999 999999 999999 999999 999999 999999 999999 999999 999999 999999 999999 999999 999999 999999 999999 999999 999999 999999 999999 999999 999999 999999 999999 999999 999999 999999 999999 999999 999999 999999 999999 999999 999999 999999 999999 999999 999999 999999 999999 999999 999999 999999 999999 0 999999 999999 999999 999999 999999 999999 999999 999999 999999 999999 999999 999999 999999 999999 999999 999999 999999 999999 999999 999999 999999 999999 999999 999999 999999 999999 999999 999999 999999 999999 999999 999999 999999 999999 999999 999999 999999 999999 999999 999999 999999 999999 999999 999999 999999 999999 999999 999999 999999 999999 999999 999999 999999 999999 999999 999999 999999 999999 999999 999999 999999 999999 999999 999999 999999 999999 999999 999999 999999 999999 999999 999999 999999 999999 999999 999999 999999 999999 999999 999999 999999 999999 999999 999999 999999 999999 999999 999999 999999 999999 999999 999999 999999 999999 999999 999999 999999 14348 17042 19079 13389 12181 13085 11568 11130 13515 11189 17758 18465 13727 14043 13074 10521 12998 12125 15658 19436 15511 18526 13543 14422 14189 16831 12256 12615 14781 13555 16963 11167 10479 13446 12235 15169 14079 18044 11554 12655 15129 18058 13512 11896 16387 17441 17591 14070 11193 19216 999999
999999 999999 999999 999999 999999 999999 999999 999999 999999 999999 999999 999999 999999 999999 999999 999999 999999 999999 999999 999999 999999 999999 999999 999999 999999 999999 999999 999999 999999 999999 999999 999999 999999 999999 999999 999999 999999 999999 999999 999999 999999 999999 999999 999999 0 999999 999999 999999 999999 999999 999999 999999 999999 999999 999999 999999 999999 999999 999999 999999 999999 999999 999999 999999 999999 999999 999999 999999 999999 999999 999999 999999 999999 999999 999999 999999 999999 999999 999999 999999 999999 999999 999999 999999 999999 999999 999999 999999 999999 999999 999999 999999 999999 999999 999999 999999 999999 999999 999999 999999 999999 999999 999999 999999 999999 999999 999999 999999 999999 999999 999999 999999 999999 999999 999999 999999 999999 999999 999999 999999 999999 999999 999999 999999 999999 999999 999999 999999 999999 999999 999999 999999 999999 999999 999999 999999 999999 999999 999999 999999 999999 16680 18844 18202 14054 11715 12887 10576 14795 19023 11042 15200 18317 13658 18731 13052 16679 13645 19706 19609 17618 12132 17309 17165 12061 13177 17731 16839 10161 13082 15402 14950 18751 17791 14107 11584 18993 10736 10117 11916 15296 10765 17781 13564 14731 19492 14723 19163 10582 19918 10407 999999
999999 999999 999999 999999 999999 999999 999999 999999 999999 999999 999999 999999 999999 999999 999999 999999 999999 999999 999999 999999 999999 999999 999999 999999 999999 999999 999999 999999 999999 999999 999999 999999 999999 999999 999999 999999 999999 999999 999999 999999 999999 999999 999999 999999 999999 0 999999 999999 999999 999999 999999 999999 999999 999999 999999 999999 999999 999999 999999 999999 999999 999999 999999 999999 999999 999999 999999 999999 999999 999999 999999 999999 999999 999999 999999 999999 999999 999999 999999 999999 999999 999999 999999 999999 999999 999999 999999 999999 999999 999999 999999 999999 999999 999999 999999 999999 999999 999999 999999 999999 999999 999999 999999 999999 999999 999999 999999 999999 999999 999999 999999 999999 999999 999999 999999 999999 999999 999999 999999 999999 999999 999999 999999 999999 999999 999999 999999 999999 999999 999999 999999 999999 999999 999999 999999 999999 999999 999999 999999 999999 999999 12384 17388 14763 19566 11831 17801 12565 19843 16381 18583 12634 16007 17868 18273 15276 16513 19626 11320 13648 14490 19986 11953 15360 17653 10256 19225 14371 18402 15297 12802 18172 12128 14490 18704 12123 14663 11663 19879 16212 13987 11966 16128 18282 13128 14173 18549 19257 18178 17046 16569 999999
999999 999999 999999 999999 999999 999999 999999 999999 999999 999999 999999 999999 999999 999999 999999 999999 999999 999999 999999 999999 999999 999999 999999 999999 999999 999999 999999 999999 999999 999999 999999 999999 999999 999999 999999 999999 999999 999999 999999 999999 999999 999999 999999 999999 999999 999999 0 999999 999999 999999 999999 999999 999999 999999 999999 999999 999999 999999 999999 999999 999999 999999 999999 999999 999999 999999 999999 999999 999999 999999 999999 999999 999999 999999 999999 999999 999999 999999 999999 999999 999999 999999 999999 999999 999999 999999 999999 999999 999999 999999 999999 999999 999999 999999 999999 999999 999999 999999 999999 999999 999999 999999 999999 999999 999999 999999 999999 999999 999999 999999 999999 999999 999999 999999 999999 999999 999999 999999 999999 999999 999999 999999 999999 999999 999999 999999 999999 999999 999999 999999 999999 999999 999999 999999 999999 999999 999999 999999 999999 999999 999999 18182 18290 14002 13212 10790 14708 11596 13638 11376 11594 19071 17827 18458 18722 17568 11238 15149 13567 16545 18522 16606 17937 15482 10079 18423 14889 13738 18229 16350 12951 17256 16899 10323 17281 11287 16305 13578 17563 12464 16174 18297 16341 15398 13259 18745 13258 18434 19791 15807 11888 999999
999999 999999 999999 999999 999999 999999 999999 999999 999999 999999 999999 999999 999999 999999 999999 999999 999999 999999 999999 999999 999999 999999 999999 999999 999999 999999 999999 999999 999999 999999 999999 999999 999999 999999 999999 999999 999999 999999 999999 999999 999999 999999 999999 999999 999999 999999 999999 0 999999 999999 999999 999999 999999 999999 999999 999999 999999 999999 999999 999999 999999 999999 999999 999999 999999 999999 999999 999999 999999 999999 999999 999999 999999 999999 999999 999999 999999 999999 999999 999999 999999 999999 999999 999999 999999 999999 999999 999999 999999 999999 999999 999999 999999 999999 999999 999999 999999 999999 999999 999999 999999 999999 999999 999999 999999 999999 999999 999999 999999 999999 999999 999999 999999 999999 999999 999999 999999 999999 999999 999999 999999 999999 999999 999999 999999 999999 999999 999999 999999 999999 999999 999999 999999 999999 999999 999999 999999 999999 999999 999999 999999 16910 19415 12148 10982 14672 13688 11600 10444 11924 14540 14216 17468 11870 15735 11747 14026 19830 14038 19822 19245 13920 11583 16877 15467 17954 18952 11889 13518 16258 10017 16879 12133 18324 12656 19788 16624 16855 13990 18241 12331 17752 11524 14843 14806 18644 11403 11792 16696 14395 16707 999999
999999 999999 999999 999999 999999 999999 999999 999999 999999 999999 999999 999999 999999 999999 999999 999999 999999 999999 999999 999999 999999 999999 999999 999999 999999 999999 999999 999999 999999 999999 999999 999999 999999 999999 999999 999999 999999 999999 999999 999999 999999 999999 999999 999999 999999 999999 999999 999999 0 999999 999999 999999 999999 999999 999999 999999 999999 999999 999999 999999 999999 999999 999999 999999 999999 999999 999999 999999 999999 999999 999999 999999 999999 999999 999999 999999 999999 999999 999999 999999 999999 999999 999999 999999 999999 999999 999999 999999 999999 999999 999999 999999 999999 999999 999999 999999 999999 999999 999999 999999 999999 999999 999999 999999 999999 999999 999999 999999 999999 999999 999999 999999 999999 999999 999999 999999 999999 999999 999999 999999 999999 999999 999999 999999 999999 999999 999999 999999 999999 999999 999999 999999 999999 999999 999999 999999 999999 999999 999999 999999 999999 12140 14074 19098 19680 14681 10065 15550 16737 10900 11107 10042 18858 15094 19255 11506 17707 15786 16819 16617 17069 16905 11643 11605 18454 17761 12028 19599 10275 17088 16374 11514 10622 19225 12653 14670 16482 11140 12534 18627 17168 10010 11978 14770 13097 11520 15199 11670 13764 15955 14697 999999
999999 999999 999999 999999 999999 999999 999999 999999 999999 999999 999999 999999 999999 999999 999999 999999 999999 999999 999999 999999 999999 999999 999999 999999 999999 999999 999999 999999 999999 999999 999999 999999 999999 999999 999999 999999 999999 999999 999999 999999 999999 999999 999999 999999 999999 999999 999999 999999 999999 0 999999 999999 999999 999999 999999 999999 999999 999999 999999 999999 999999 999999 999999 999999 999999 999999 999999 999999 999999 999999 999999 999999 999999 999999 999999 999999 999999 999999 999999 999999 999999 999999 999999 999999 999999 999999 999999 999999 999999 999999 999999 999999 999999 999999 999999 999999 999999 999999 999999 999999 999999 999999 999999 999999 999999 999999 999999 999999 999999 999999 999999 999999 999999 999999 999999 999999 999999 999999 999999 999999 999999 999999 999999 999999 999999 999999 999999 999999 999999 999999 999999 999999 999999 999999 999999 999999 999999 999999 999999 999999 999999 18934 19026 17519 11341 14230 17329 10455 19114 17703 14719 14100 10738 16638 13344 15779 16964 13978 19645 19037 11987 19474 19839 12050 18804 13451 10960 17038 10651 18833 12511 11343 16519 12876 12357 11147 17624 13004 12678 13984 19503 10146 10583 11282 18794 11449 16558 12801 13205 19388 17888 999999
999999 999999 999999 999999 999999 999999 999999 999999 999999 999999 999999 999999 999999 999999 999999 999999 999999 999999 999999 999999 999999 999999 999999 999999 999999 999999 999999 999999 999999 999999 999999 999999 999999 999999 999999 999999 999999 999999 999999 999999 999999 999999 999999 999999 999999 999999 999999 999999 999999 999999 0 999999 999999 999999 999999 999999 999999 999999 999999 999999 999999 999999 999999 999999 999999 999999 999999 999999 999999 999999 999999 999999 999999 999999 999999 999999 999999 999999 999999 999999 999999 999999 999999 999999 999999 999999 999999 999999 999999 999999 999999 999999 999999 999999 999999 999999 999999 999999 999999 999999 999999 999999 999999 999999 999999 999999 999999 999999 999999 999999 999999 999999 999999 999999 999999 999999 999999 999999 999999 999999 999999 999999 999999 999999 999999 999999 999999 999999 999999 999999 999999 999999 999999 999999 999999 999999 999999 999999 999999 999999 999999 10049 15459 14440 19194 11285 15861 10303 13217 18722 15882 17044 18165 11054 14308 17008 12353 10592 10991 15781 16873 11197 13565 14028 14306 18285 11348 14820 12780 14713 19416 10346 13356 17244 18764 11809 18268 12301 18980 13210 15246 10590 10918 13653 14704 17067 12587 11599 13413 19477 15971 999999
999999 999999 999999 999999 999999 999999 999999 999999 999999 999999 999999 999999 999999 999999 999999 999999 999999 999999 999999 999999 999999 999999 999999 999999 999999 999999 999999 999999 999999 999999 999999 999999 999999 999999 999999 999999 999999 999999 999999 999999 999999 999999 999999 999999 999999 999999 999999 999999 999999 999999 999999 0 999999 999999 999999 999999 999999 999999 999999 999999 999999 999999 999999 999999 999999 999999 999999 999999 999999 999999 999999 999999 999999 999999 999999 999999 999999 999999 999999 999999 999999 999999 999999 999999 999999 999999 999999 999999 999999 999999 999999 999999 999999 999999 999999 999999 999999 999999 999999 999999 999999 999999 999999 999999 999999 999999 999999 999999 999999 999999 999999 999999 999999 999999 999999 999999 999999 999999 999999 999999 999999 999999 999999 999999 999999 999999 999999 999999 999999 999999 999999 999999 999999 999999 999999 999999 999999 999999 999999 999999 999999 17791 12999 12974 12630 13436 11076 16898 15772 11897 15932 18440 19038 16679 19910 11027 17473 19443 15444 10285 12108 14672 11272 12334 16620 15540 13215 15465 10094 10560 10698 18375 10684 15965 14820 18048 10621 18836 16733 12906 10225 17170 18733 15385 14940 10849 15733 10455 15058 12466 19466 999999
999999 999999 999999 999999 999999 999999 999999 999999 999999 999999 999999 999999 999999 999999 999999 999999 999999 999999 999999 999999 999999 999999 999999 999999 999999 999999 999999 999999 999999 999999 999999 999999 999999 999999 999999 999999 999999 999999 999999 999999 999999 999999 999999 999999 999999 999999 999999 999999 999999 999999 999999 999999 0 999999 999999 999999 999999 999999 999999 999999 999999 999999 999999 999999 999999 999999 999999 999999 999999 999999 999999 999999 999999 999999 999999 999999 999999 999999 999999 999999 999999 999999 999999 999999 999999 999999 999999 999999 999999 999999 999999 999999 999999 999999 999999 999999 999999 999999 999999 999999 999999 999999 999999 999999 999999 999999 999999 999999 999999 999999 999999 999999 999999 999999 999999 999999 999999 999999 999999 999999 999999 999999 999999 999999 999999 999999 999999 999999 999999 999999 999999 999999 999999 999999 999999 999999 999999 999999 999999 999999 999999 12210 12044 11084 16263 11943 14783 17703 13987 12813 17746 15771 10969 13003 15841 11383 14626 18311 10388 19448 14956 14821 19660 10532 11209 18645 15946 10507 18569 18939 14041 12699 15763 10664 12857 17926 12150 15410 14774 17811 17253 19472 15161 10128 14210 16628 13401 18450 16064 16075 14976 999999
999999 999999 999999 999999 999999 999999 999999 999999 999999 999999 999999 999999 999999 999999 999999 999999 999999 999999 999999 999999 999999 999999 999999 999999 999999 999999 999999 999999 999999 999999 999999 999999 999999 999999 999999 999999 999999 999999 999999 999999 999999 999999 999999 999999 999999 999999 999999 999999 999999 999999 999999 999999 999999 0 999999 999999 999999 999999 999999 999999 999999 999999 999999 999999 999999 999999 999999 999999 999999 999999 999999 999999 999999 999999 999999 999999 999999 999999 999999 999999 999999 999999 999999 999999 999999 999999 999999 999999 999999 999999 999999 999999 999999 999999 999999 999999 999999 999999 999999 999999 999999 999999 999999 999999 999999 999999 999999 999999 999999 999999 999999 999999 999999 999999 999999 999999 999999 999999 999999 999999 999999 999999 999999 999999 999999 999999 999999 999999 999999 999999 999999 999999 999999 999999 999999 999999 999999 999999 999999 999999 999999 17869 13268 19216 16194 13347 16054 11915 19111 10146 10820 15115 15414 18990 15262 17298 12879 15202 13833 18750 14496 13150 16084 16747 19374 12784 17044 13873 16841 11696 14277 12719 13548 16096 10963 19782 18104 16824 16036 16910 15868 12277 13784 11911 19582 13508 18865 14354 16490 10758 10677 999999
999999 999999 999999 999999 999999 999999 999999 999999 999999 999999 999999 999999 999999 999999 999999 999999 999999 999999 999999 999999 999999 999999 999999 999999 999999 999999 999999 999999 999999 999999 999999 999999 999999 999999 999999 999999 999999 999999 999999 999999 999999 999999 999999 999999 999999 999999 999999 999999 999999 999999 999999 999999 999999 999999 0 999999 999999 999999 999999 999999 999999 999999 999999 999999 999999 999999 999999 999999 999999 999999 999999 999999 999999 999999 999999 999999 999999 999999 999999 999999 999999 999999 999999 999999 999999 999999 999999 999999 999999 999999 999999 999999 999999 999999 999999 999999 999999 999999 999999 999999 999999 999999 999999 999999 999999 999999 999999 999999 999999 999999 999999 999999 999999 999999 999999 999999 999999 999999 999999 999999 999999 999999 999999 999999 999999 999999 999999 999999 999999 999999 999999 999999 999999 999999 999999 999999 999999 999999 999999 999999 999999 18136 12247 15226 11411 16255 10103 13180 17300 19110 18901 10726 15417 18445 12368 10876 18776 12157 13409 19210 15599 11227 16142 11065 17036 16958 18937 17605 19162 18334 12084 19229 15821 14634 17327 14579 12041 11709 11857 19611 17600 13531 18293 10949 18030 11461 17258 15347 14478 19210 10723 999999
999999 999999 999999 999999 999999 999999 999999 999999 999999 999999 999999 999999 999999 999999 999999 999999 999999 999999 999999 999999 999999 999999 999999 999999 999999 999999 999999 999999 999999 999999 999999 999999 999999 999999 999999 999999 999999 999999 999999 999999 999999 999999 999999 999999 999999 999999 999999 999999 999999 999999 999999 999999 999999 999999 999999 0 999999 999999 999999 999999 999999 999999 999999 999999 999999 999999 999999 999999 999999 999999 999999 999999 999999 999999 999999 999999 999999 999999 999999 999999 999999 999999 999999 999999 999999 999999 999999 999999 999999 999999 999999 999999 999999 999999 999999 999999 999999 999999 999999 999999 999999 999999 999999 999999 999999 999999 999999 999999 999999 999999 999999 999999 999999 999999 999999 999999 999999 999999 999999 999999 999999 999999 999999 999999 999999 999999 999999 999999 999999 999999 999999 999999 999999 999999 999999 999999 999999 999999 999999 999999 999999 16944 10255 15108 14339 16319 11490 19376 16037 14408 12749 15165 15641 10924 13929 10705 17377 15922 14674 18394 19029 15658 15371 10933 13282 13489 12384 12336 19865 17982 12204 18337 11024 19707 17539 13911 13637 14144 13434 11897 16235 10825 10675 10319 19666 14539 12802 14633 15314 17253 10661 999999
999999 999999 999999 999999 999999 999999 999999 999999 999999 999999 999999 999999 999999 999999 999999 999999 999999 999999 999999 999999 999999 999999 999999 999999 999999 999999 999999 999999 999999 999999 999999 999999 999999 999999 999999 999999 999999 999999 999999 999999 999999 999999 999999 999999 999999 999999 999999 999999 999999 999999 999999 999999 999999 999999 999999 999999 0 999999 999999 999999 999999 999999 999999 999999 999999 999999 999999 999999 999999 999999 999999 999999 999999 999999 999999 999999 999999 999999 999999 999999 999999 999999 999999 999999 999999 999999 999999 999999 999999 999999 999999 999999 999999 999999 999999 999999 999999 999999 999999 999999 999999 999999 999999 999999 999999 999999 999999 999999 999999 999999 999999 999999 999999 999999 999999 999999 999999 999999 999999 999999 999999 999999 999999 999999 999999 999999 999999 999999 999999 999999 999999 999999 999999 999999 999999 999999 999999 999999 999999 999999 999999 16314 18432 14268 17325 17184 17437 10330 19635 10124 10734 12040 13810 19593 10798 13898 13899 16102 16893 12618 15575 19885 16630 13528 16463 15905 18992 19132 13874 11532 11679 13025 14932 11638 10857 18632 15133 18533 18465 10820 11872 10569 13375 10011 14162 13005 11487 10942 12038 10472 19214 999999
999999 999999 999999 999999 999999 999999 999999 999999 999999 999999 999999 999999 999999 999999 999999 999999 999999 999999 999999 999999 999999 999999 999999 999999 999999 999999 999999 999999 999999 999999 999999 999999 999999 999999 999999 999999 999999 999999 999999 999999 999999 999999 999999 999999 999999 999999 999999 999999 999999 999999 999999 999999 999999 999999 999999 999999 999999 0 999999 999999 999999 999999 999999 999999 999999 999999 999999 999999 999999 999999 999999 999999 999999 999999 999999 999999 999999 999999 999999 999999 999999 999999 999999 999999 999999 999999 999999 999999 999999 999999 999999 999999 999999 999999 999999 999999 999999 999999 999999 999999 999999 999999 999999 999999 999999 999999 999999 999999 999999 999999 999999 999999 999999 999999 999999 999999 999999 999999 999999 999999 999999 999999 999999 999999 999999 999999 999999 999999 999999 999999 999999 999999 999999 999999 999999 999999 999999 999999 999999 999999 999999 11456 12817 12352 19795 16605 17328 19497 19913 18723 19541 10617 18176 15230 14389 15976 18521 17137 17407 16682 12698 11013 12098 14477 19888 10496 12298 16420 18995 11087 14742 17165 13467 17854 10684 13150 11069 10621 12522 11194 14235 13311 19818 17136 11841 17678 18733 15130 18685 12597 15381 999999
999999 999999 999999 999999 999999 999999 999999 999999 999999 999999 999999 999999 999999 999999 999999 999999 999999 999999 999999 999999 999999 999999 999999 999999 999999 999999 999999 999999 999999 999999 999999 999999 999999 999999 999999 999999 999999 999999 999999 999999 999999 999999 999999 999999 999999 999999 999999 999999 999999 999999 999999 999999 999999 999999 999999 999999 999999 999999 0 999999 999999 999999 999999 999999 999999 999999 999999 999999 999999 999999 999999 999999 999999 999999 999999 999999 999999 999999 999999 999999 999999 999999 999999 999999 999999 999999 999999 999999 999999 999999 999999 999999 999999 999999 999999 999999 999999 999999 999999 999999 999999 999999 999999 999999 999999 999999 999999 999999 999999 999999 999999 999999 999999 999999 999999 999999 999999 999999 999999 999999 999999 999999 999999 999999 999999 999999 999999 999999 999999 999999 999999 999999 999999 999999 999999 999999 999999 999999 999999 999999 999999 10970 15249 19180 17387 17306 11527 16514 14741 17938 19930 13464 19591 14624 12850 12829 11216 13271 14525 10416 19488 19765 17533 19341 16041 14656 11291 13217 11268 19959 18199 10607 10839 16058 18609 12674 14250 12644 17625 13568 19236 15164 12712 18137 19820 14908 17896 18021 19542 13818 13083 999999
999999 999999 999999 999999 999999 999999 999999 999999 999999 999999 999999 999999 999999 999999 999999 999999 999999 999999 999999 999999 999999 999999 999999 999999 999999 999999 999999 999999 999999 999999 999999 999999 999999 999999 999999 999999 999999 999999 999999 999999 999999 999999 999999 999999 999999 999999 999999 999999 999999 999999 999999 999999 999999 999999 999999 999999 999999 999999 999999 0 999999 999999 999999 999999 999999 999999 999999 999999 999999 999999 999999 999999 999999 999999 999999 999999 999999 999999 999999 999999 999999 999999 999999 999999 999999 999999 999999 999999 999999 999999 999999 999999 999999 999999 999999 999999 999999 999999 999999 999999 999999 999999 999999 999999 999999 999999 999999 999999 999999 999999 999999 999999 999999 999999 999999 999999 999999 999999 999999 999999 999999 999999 999999 999999 999999 999999 999999 999999 999999 999999 999999 999999 999999 999999 999999 999999 999999 999999 999999 999999 999999 10277 13916 10174 11767 15715 15804 13187 13601 13731 18108 13552 15685 18053 15913 19010 14400 19691 17064 19616 18030 15643 15855 13257 18641 14962 11780 19646 12303 18676 19284 14434 10221 15928 17185 14246 16284 12593 19052 13355 19326 18746 16326 17301 11797 12773 13176 12893 14562 10058 17700 999999
999999 999999 999999 999999 999999 999999 999999 999999 999999 999999 999999 999999 999999 999999 999999 999999 999999 999999 999999 999999 999999 999999 999999 999999 999999 999999 999999 999999 999999 999999 999999 999999 999999 999999 999999 999999 999999 999999 999999 999999 999999 999999 999999 999999 999999 999999 999999 999999 999999 999999 999999 999999 999999 999999 999999 999999 999999 999999 999999 999999 0 999999 999999 999999 999999 999999 999999 999999 999999 999999 999999 999999 999999 999999 999999 999999 999999 999999 999999 999999 999999 999999 999999 999999 999999 999999 999999 999999 999999 999999 999999 999999 999999 999999 999999 999999 999999 999999 999999 999999 999999 999999 999999 999999 999999 999999 999999 999999 999999 999999 999999 999999 999999 999999 999999 999999 999999 999999 999999 999999 999999 999999 999999 999999 999999 999999 999999 999999 999999 999999 999999 999999 999999 999999 999999 999999 999999 999999 999999 999999 999999 11795 16275 15751 15350 10064 18523 11842 13156 12006 18806 12051 12924 11122 16797 17382 16095 13053 17365 18264 17921 12906 16706 19130 16231 19729 10593 12949 16764 15388 16479 16179 14216 13202 18674 19752 15343 18044 16493 16800 12111 12495 14059 14561 14052 15556 14252 12320 16084 14939 17013 999999
999999 999999 999999 999999 999999 999999 999999 999999 999999 999999 999999 999999 999999 999999 999999 999999 999999 999999 999999 999999 999999 999999 999999 999999 999999 999999 999999 999999 999999 999999 999999 999999 999999 999999 999999 999999 999999 999999 999999 999999 999999 999999 999999 999999 999999 999999 999999 999999 999999 999999 999999 999999 999999 999999 999999 999999 999999 999999 999999 999999 999999 0 999999 999999 999999 999999 999999 999999 999999 999999 999999 999999 999999 999999 999999 999999 999999 999999 999999 999999 999999 999999 999999 999999 999999 999999 999999 999999 999999 999999 999999 999999 999999 999999 999999 999999 999999 999999 999999 999999 999999 999999 999999 999999 999999 999999 999999 999999 999999 999999 999999 999999 999999 999999 999999 999999 999999 999999 999999 999999 999999 999999 999999 999999 999999 999999 999999 999999 999999 999999 999999 999999 999999 999999 999999 999999 999999 999999 999999 999999 999999 10081 11597 16561 11427 11306 13917 14261 12338 15907 14314 10089 17063 10311 12217 17075 12992 15510 15945 15158 17200 15892 19153 17865 18636 15837 11214 19124 10818 11673 15006 15870 18585 14515 19844 17097 15264 16544 16492 19072 10280 18626 14287 10892 17857 18207 13696 14537 14939 11894 17078 999999
999999 999999 999999 999999 999999 999999 999999 999999 999999 999999 999999 999999 999999 999999 999999 999999 999999 999999 999999 999999 999999 999999 999999 999999 999999 999999 999999 999999 999999 999999 999999 999999 999999 999999 999999 999999 999999 999999 999999 999999 999999 999999 999999 999999 999999 999999 999999 999999 999999 999999 999999 999999 999999 999999 999999 999999 999999 999999 999999 999999 999999 999999 0 999999 999999 999999 999999 999999 999999 999999 999999 999999 999999 999999 999999 999999 999999 999999 999999 999999 999999 999999 999999 999999 999999 999999 999999 999999 999999 999999 999999 999999 999999 999999 999999 999999 999999 999999 999999 999999 999999 999999 999999 999999 999999 999999 999999 999999 999999 999999 999999 999999 999999 999999 999999 999999 999999 999999 999999 999999 999999 999999 999999 999999 999999 999999 999999 999999 999999 999999 999999 999999 999999 999999 999999 999999 999999 999999 999999 999999 999999 18439 13226 13116 10943 17807 14037 12717 19876 17574 14635 10935 11314 16803 14137 19967 13793 13308 14720 13272 11249 15287 13904 12759 15873 18257 15743 13299 14195 16098 14180 14981 18439 18166 11832 13465 16613 17110 13049 17464 12578 19918 18356 15103 14416 16118 10831 14934 12545 11831 20000 999999
999999 999999 999999 999999 999999 999999 999999 999999 999999 999999 999999 999999 999999 999999 999999 999999 999999 999999 999999 999999 999999 999999 999999 999999 999999 999999 999999 999999 999999 999999 999999 999999 999999 999999 999999 999999 999999 999999 999999 999999 999999 999999 999999 999999 999999 999999 999999 999999 999999 999999 999999 999999 999999 999999 999999 999999 999999 999999 999999 999999 999999 999999 999999 0 999999 999999 999999 999999 999999 999999 999999 999999 999999 999999 999999 999999 999999 999999 999999 999999 999999 999999 999999 999999 999999 999999 999999 999999 999999 999999 999999 999999 999999 999999 999999 999999 999999 999999 999999 999999 999999 999999 999999 999999 999999 999999 999999 999999 999999 999999 999999 999999 999999 999999 999999 999999 999999 999999 999999 999999 999999 999999 999999 999999 999999 999999 999999 999999 999999 999999 999999 999999 999999 999999 999999 999999 999999 999999 999999 999999 999999 19601 14540 11609 11955 14461 18963 17269 13563 16559 15340 18935 17265 15112 19803 10387 14341 14273 15958 10348 19354 15403 13343 12199 11660 10455 14644 10052 13748 12541 13842 14906 17251 19237 10707 16139 11143 17073 10176 12737 18085 14438 13510 11438 19129 10451 10191 15781 13352 16106 11031 999999
999999 999999 999999 999999 999999 999999 999999 999999 999999 999999 999999 999999 999999 999999 999999 999999 999999 999999 999999 999999 999999 999999 999999 999999 999999 999999 999999 999999 999999 999999 999999 999999 999999 999999 999999 999999 999999 999999 999999 999999 999999 999999 999999 999999 999999 999999 999999 999999 999999 999999 999999 999999 999999 999999 999999 999999 999999 999999 999999 999999 999999 999999 999999 999999 0 999999 999999 999999 999999 999999 999999 999999 999999 999999 999999 999999 999999 999999 999999 999999 999999 999999 999999 999999 999999 999999 999999 999999 999999 999999 999999 999999 999999 999999 999999 999999 999999 999999 999999 999999 999999 999999 999999 999999 999999 999999 999999 999999 999999 999999 999999 999999 999999 999999 999999 999999 999999 999999 999999 999999 999999 999999 999999 999999 999999 999999 999999 999999 999999 999999 999999 999999 999999 999999 999999 999999 999999 999999 999999 999999 999999 13696 19000 13348 18649 10293 13751 10239 17850 12235 19209 11490 16053 13254 18984 10087 13846 10042 19197 11900 18634 11750 16628 14454 15156 12259 12602 16708 10424 15302 17200 13183 14526 15157 18826 15293 16001 16318 14429 19602 13667 10014 16576 15331 17716 17003 10485 17161 13314 16826 12986 999999
999999 999999 999999 999999 999999 999999 999999 999999 999999 999999 999999 999999 999999 999999 999999 999999 999999 999999 999999 999999 999999 999999 999999 999999 999999 999999 999999 999999 999999 999999 999999 999999 999999 999999 999999 999999 999999 999999 999999 999999 999999 999999 999999 999999 999999 999999 999999 999999 999999 999999 999999 999999 999999 999999 999999 999999 999999 999999 999999 999999 999999 999999 999999 999999 999999 0 999999 999999 999999 999999 999999 999999 999999 999999 999999 999999 999999 999999 999999 999999 999999 999999 999999 999999 999999 999999 999999 999999 999999 999999 999999 999999 999999 999999 999999 999999 999999 999999 999999 999999 999999 999999 999999 999999 999999 999999 999999 999999 999999 999999 999999 999999 999999 999999 999999 999999 999999 999999 999999 999999 999999 999999 999999 999999 999999 999999 999999 999999 999999 999999 999999 999999 999999 999999 999999 999999 999999 999999 999999 999999 999999 12992 10277 19407 10309 16844 11440 14091 14064 15289 12566 13684 16994 19573 19491 14489 17848 14298 19509 17235 10723 10339 16033 16909 12483 16194 19936 10747 11525 10103 16405 10416 14853 18052 14106 19240 18939 19818 14937 16199 11260 18370 19040 12817 16006 10910 15155 17125 11863 17217 17084 999999
999999 999999 999999 999999 999999 999999 999999 999999 999999 999999 999999 999999 999999 999999 999999 999999 999999 999999 999999 999999 999999 999999 999999 999999 999999 999999 999999 999999 999999 999999 999999 999999 999999 999999 999999 999999 999999 999999 999999 999999 999999 999999 999999 999999 999999 999999 999999 999999 999999 999999 999999 999999 999999 999999 999999 999999 999999 999999 999999 999999 999999 999999 999999 999999 999999 999999 0 999999 999999 999999 999999 999999 999999 999999 999999 999999 999999 999999 999999 999999 999999 999999 999999 999999 999999 999999 999999 999999 999999 999999 999999 999999 999999 999999 999999 999999 999999 999999 999999 999999 999999 999999 999999 999999 999999 999999 999999 999999 999999 999999 999999 999999 999999 999999 999999 999999 999999 999999 999999 999999 999999 999999 999999 999999 999999 999999 999999 999999 999999 999999 999999 999999 999999 999999 999999 999999 999999 999999 999999 999999 999999 11981 19935 14039 15288 14859 10073 14507 16383 10179 15852 18350 16131 14121 18424 18990 18658 10957 17184 15431 17380 18769 12335 11563 12710 12169 14575 11476 16130 19681 10643 15289 12799 13857 12863 19430 14041 16851 12978 18614 10206 19732 16267 13401 12015 13891 12670 11470 11733 14799 17840 999999
999999 999999 999999 999999 999999 999999 999999 999999 999999 999999 999999 999999 999999 999999 999999 999999 999999 999999 999999 999999 999999 999999 999999 999999 999999 999999 999999 999999 999999 999999 999999 999999 999999 999999 999999 999999 999999 999999 999999 999999 999999 999999 999999 999999 999999 999999 999999 999999 999999 999999 999999 999999 999999 999999 999999 999999 999999 999999 999999 999999 999999 999999 999999 999999 999999 999999 999999 0 999999 999999 999999 999999 999999 999999 999999 999999 999999 999999 999999 999999 999999 999999 999999 999999 999999 999999 999999 999999 999999 999999 999999 999999 999999 999999 999999 999999 999999 999999 999999 999999 999999 999999 999999 999999 999999 999999 999999 999999 999999 999999 999999 999999 999999 999999 999999 999999 999999 999999 999999 999999 999999 999999 999999 999999 999999 999999 999999 999999 999999 999999 999999 999999 999999 999999 999999 999999 999999 999999 999999 999999 999999 13414 16387 10454 11372 12064 17925 18832 10102 16840 15812 11687 17432 10932 10791 18509 18237 14624 19888 19425 18025 17517 15837 19115 19134 19792 11741 14500 15598 11584 18739 15395 13596 13384 14865 17190 14988 17901 19854 18055 18125 16694 13722 19924 14377 13309 13873 13820 11501 16424 17641 999999
999999 999999 999999 999999 999999 999999 999999 999999 999999 999999 999999 999999 999999 999999 999999 999999 999999 999999 999999 999999 999999 999999 999999 999999 999999 999999 999999 999999 999999 999999 999999 999999 999999 999999 999999 999999 999999 999999 999999 999999 999999 999999 999999 999999 999999 999999 999999 999999 999999 999999 999999 999999 999999 999999 999999 999999 999999 999999 999999 999999 999999 999999 999999 999999 999999 999999 999999 999999 0 999999 999999 999999 999999 999999 999999 999999 999999 999999 999999 999999 999999 999999 999999 999999 999999 999999 999999 999999 999999 999999 999999 999999 999999 999999 999999 999999 999999 999999 999999 999999 999999 999999 999999 999999 999999 999999 999999 999999 999999 999999 999999 999999 999999 999999 999999 999999 999999 999999 999999 999999 999999 999999 999999 999999 999999 999999 999999 999999 999999 999999 999999 999999 999999 999999 999999 999999 999999 999999 999999 999999 999999 16093 16139 17298 10686 17004 16423 12216 16316 18076 12767 13891 19391 13344 14045 19146 11783 18423 13533 14197 10556 19433 14354 18732 10449 14251 19277 18427 18251 10113 13122 14051 12361 15956 11043 12367 19052 19518 17410 13549 18359 13492 11526 17463 14661 18468 12604 17265 12005 19955 10213 999999
999999 999999 999999 999999 999999 999999 999999 999999 999999 999999 999999 999999 999999 999999 999999 999999 999999 999999 999999 999999 999999 999999 999999 999999 999999 999999 999999 999999 999999 999999 999999 999999 999999 999999 999999 999999 999999 999999 999999 999999 999999 999999 999999 999999 999999 999999 999999 999999 999999 999999 999999 999999 999999 999999 999999 999999 999999 999999 999999 999999 999999 999999 999999 999999 999999 999999 999999 999999 999999 0 999999 999999 999999 999999 999999 999999 999999 999999 999999 999999 999999 999999 999999 999999 999999 999999 999999 999999 999999 999999 999999 999999 999999 999999 999999 999999 999999 999999 999999 999999 999999 999999 999999 999999 999999 999999 999999 999999 999999 999999 999999 999999 999999 999999 999999 999999 999999 999999 999999 999999 999999 999999 999999 999999 999999 999999 999999 999999 999999 999999 999999 999999 999999 999999 999999 999999 999999 999999 999999 999999 999999 16071 13251 16467 18862 15333 14323 14257 13857 15035 19777 12465 16793 15909 11711 19977 13665 12368 12624 10617 14527 17400 17450 16779 14545 14734 18271 10692 10357 17005 14471 14139 10263 17075 18261 18663 16110 13425 17480 16146 12971 14422 18191 19749 14114 14219 15492 19164 12785 12342 13044 999999
999999 999999 999999 999999 999999 999999 999999 999999 999999 999999 999999 999999 999999 999999 999999 999999 999999 999999 999999 999999 999999 999999 999999 999999 999999 999999 999999 999999 999999 999999 999999 999999 999999 999999 999999 999999 999999 999999 999999 999999 999999 999999 999999 999999 999999 999999 999999 999999 999999 999999 999999 999999 999999 999999 999999 999999 999999 999999 999999 999999 999999 999999 999999 999999 999999 999999 999999 999999 999999 999999 0 999999 999999 999999 999999 999999 999999 999999 999999 999999 999999 999999 999999 999999 999999 999999 999999 999999 999999 999999 999999 999999 999999 999999 999999 999999 999999 999999 999999 999999 999999 999999 999999 999999 999999 999999 999999 999999 999999 999999 999999 999999 999999 999999 999999 999999 999999 999999 999999 999999 999999 999999 999999 999999 999999 999999 999999 999999 999999 999999 999999 999999 999999 999999 999999 999999 999999 999999 999999 999999 999999 19196 16578 15412 12117 18211 18768 17960 16027 15527 19447 18662 16426 12396 16554 10254 14972 13692 13222 13431 19723 11436 19443 12146 19894 15598 19081 19348 16893 19559 15614 16789 17182 10480 10623 16527 16707 12366 19319 10404 13079 11240 17447 14401 17155 12554 11193 10657 19050 12809 11867 999999
999999 999999 999999 999999 999999 999999 999999 999999 999999 999999 999999 999999 999999 999999 999999 999999 999999 999999 999999 999999 999999 999999 999999 999999 999999 999999 999999 999999 999999 999999 999999 999999 999999 999999 999999 999999 999999 999999 999999 999999 999999 999999 999999 999999 999999 999999 999999 999999 999999 999999 999999 999999 999999 999999 999999 999999 999999 999999 999999 999999 999999 999999 999999 999999 999999 999999 999999 999999 999999 999999 999999 0 999999 999999 999999 999999 999999 999999 999999 999999 999999 999999 999999 999999 999999 999999 999999 999999 999999 999999 999999 999999 999999 999999 999999 999999 999999 999999 999999 999999 999999 999999 999999 999999 999999 999999 999999 999999 999999 999999 999999 999999 999999 999999 999999 999999 999999 999999 999999 999999 999999 999999 999999 999999 999999 999999 999999 999999 999999 999999 999999 999999 999999 999999 999999 999999 999999 999999 999999 999999 999999 19723 17074 13153 13107 13662 19413 15474 19216 16101 10037 14710 19413 11755 19518 14088 12392 17519 19980 15206 18363 18480 11719 10258 12043 11864 10743 17973 19265 13248 18143 17248 11615 13181 19285 16618 15045 11156 11203 11453 14385 17756 15490 15728 18442 16261 12818 17218 12825 19074 13600 999999
999999 999999 999999 999999 999999 999999 999999 999999 999999 999999 999999 999999 999999 999999 999999 999999 999999 999999 999999 999999 999999 999999 999999 999999 999999 999999 999999 999999 999999 999999 999999 999999 999999 999999 999999 999999 999999 999999 999999 999999 999999 999999 999999 999999 999999 999999 999999 999999 999999 999999 999999 999999 999999 999999 999999 999999 999999 999999 999999 999999 999999 999999 999999 999999 999999 999999 999999 999999 999999 999999 999999 999999 0 999999 999999 999999 999999 999999 999999 999999 999999 999999 999999 999999 999999 999999 999999 999999 999999 999999 999999 999999 999999 999999 999999 999999 999999 999999 999999 999999 999999 999999 999999 999999 999999 999999 999999 999999 999999 999999 999999 999999 999999 999999 999999 999999 999999 999999 999999 999999 999999 999999 999999 999999 999999 999999 999999 999999 999999 999999 999999 999999 999999 999999 999999 999999 999999 999999 999999 999999 999999 18145 14745 11618 18724 19304 10487 16229 12358 16874 16790 19785 17024 19706 10839 13200 18445 19009 10076 15521 14177 17890 19094 18070 13172 19281 14590 18677 16349 13864 10860 10325 11698 15056 15495 19934 19919 12150 19016 11822 15747 18886 13176 15445 17761 18129 14006 12266 15275 11536 15629 999999
999999 999999 999999 999999 999999 999999 999999 999999 999999 999999 999999 999999 999999 999999 999999 999999 999999 999999 999999 999999 999999 999999 999999 999999 999999 999999 999999 999999 999999 999999 999999 999999 999999 999999 999999 999999 999999 999999 999999 999999 999999 999999 999999 999999 999999 999999 999999 999999 999999 999999 999999 999999 999999 999999 999999 999999 999999 999999 999999 999999 999999 999999 999999 999999 999999 999999 999999 999999 999999 999999 999999 999999 999999 0 999999 999999 999999 999999 999999 999999 999999 999999 999999 999999 999999 999999 999999 999999 999999 999999 999999 999999 999999 999999 999999 999999 999999 999999 999999 999999 999999 999999 999999 999999 999999 999999 999999 999999 999999 999999 999999 999999 999999 999999 999999 999999 999999 999999 999999 999999 999999 999999 999999 999999 999999 999999 999999 999999 999999 999999 999999 999999 999999 999999 999999 999999 999999 999999 999999 999999 999999 17669 11261 10631 16251 13786 18925 11286 17282 11995 11309 15122 18184 15876 11105 18698 17243 15992 14674 13015 11158 13970 19112 16867 12996 17696 11748 12141 18207 11778 13503 13102 12453 13297 14846 15800 10685 19271 15900 13471 11879 17051 15747 11627 12003 14662 18722 17068 17152 18986 10534 999999
999999 999999 999999 999999 999999 999999 999999 999999 999999 999999 999999 999999 999999 999999 999999 999999 999999 999999 999999 999999 999999 999999 999999 999999 999999 999999 999999 999999 999999 999999 999999 999999 999999 999999 999999 999999 999999 999999 999999 999999 999999 999999 999999 999999 999999 999999 999999 999999 999999 999999 999999 999999 999999 999999 999999 999999 999999 999999 999999 999999 999999 999999 999999 999999 999999 999999 999999 999999 999999 999999 999999 999999 999999 999999 0 999999 999999 999999 999999 999999 999999 999999 999999 999999 999999 999999 999999 999999 999999 999999 999999 999999 999999 999999 999999 999999 999999 999999 999999 999999 999999 999999 999999 999999 999999 999999 999999 999999 999999 999999 999999 999999 999999 999999 999999 999999 999999 999999 999999 999999 999999 999999 999999 999999 999999 999999 999999 999999 999999 999999 999999 999999 999999 999999 999999 999999 999999 999999 999999 999999 999999 14360 12533 15298 12271 19182 15060 13387 15413 11003 15206 19768 19702 13143 15555 19809 18636 16680 10712 10830 19438 12713 12751 17858 12913 15474 16006 11571 11282 15854 10166 19857 12770 18180 18364 10303 10934 16293 14836 13281 19144 16885 19686 15481 13635 11569 12927 12388 10476 19651 10911 999999
999999 999999 999999 999999 999999 999999 999999 999999 999999 999999 999999 999999 999999 999999 999999 999999 999999 999999 999999 999999 999999 999999 999999 999999 999999 999999 999999 999999 999999 999999 999999 999999 999999 999999 999999 999999 999999 999999 999999 999999 999999 999999 999999 999999 999999 999999 999999 999999 999999 999999 999999 999999 999999 999999 999999 999999 999999 999999 999999 999999 999999 999999 999999 999999 999999 999999 999999 999999 999999 999999 999999 999999 999999 999999 999999 0 999999 999999 999999 999999 999999 999999 999999 999999 999999 999999 999999 999999 999999 999999 999999 999999 999999 999999 999999 999999 999999 999999 999999 999999 999999 999999 999999 999999 999999 999999 999999 999999 999999 999999 999999 999999 999999 999999 999999 999999 999999 999999 999999 999999 999999 999999 999999 999999 999999 999999 999999 999999 999999 999999 999999 999999 999999 999999 999999 999999 999999 999999 999999 999999 999999 17576 18562 12963 19420 11449 12634 13385 15717 14497 19151 15029 10222 15690 13284 11171 18807 10783 19865 14483 13119 14748 16445 18477 15826 17557 12455 16912 11856 10717 11826 13971 17552 11112 12293 14534 16788 13350 10306 14703 11333 14626 13708 15196 17516 19571 17579 14162 10186 10597 18134 999999
999999 999999 999999 999999 999999 999999 999999 999999 999999 999999 999999 999999 999999 999999 999999 999999 999999 999999 999999 999999 999999 999999 999999 999999 999999 999999 999999 999999 999999 999999 999999 999999 999999 999999 999999 999999 999999 999999 999999 999999 999999 999999 999999 999999 999999 999999 999999 999999 999999 999999 999999 999999 999999 999999 999999 999999 999999 999999 999999 999999 999999 999999 999999 999999 999999 999999 999999 999999 999999 999999 999999 999999 999999 999999 999999 999999 0 999999 999999 999999 999999 999999 999999 999999 999999 999999 999999 999999 999999 999999 999999 999999 999999 999999 999999 999999 999999 999999 999999 999999 999999 999999 999999 999999 999999 999999 999999 999999 999999 999999 999999 999999 999999 999999 999999 999999 999999 999999 999999 999999 999999 999999 999999 999999 999999 999999 999999 999999 999999 999999 999999 999999 999999 999999 999999 999999 999999 999999 999999 999999 999999 12111 12530 14495 19140 18406 19692 19457 17953 14798 15662 13229 15174 12694 16368 15801 11077 13922 17803 15772 11400 10937 17815 13632 13424 18577 11514 10983 19797 17058 12032 13184 19849 17617 13099 15411 16026 13626 10521 17298 16318 11586 18685 16633 14005 15939 10270 11823 12536 10992 15905 999999
999999 999999 999999 999999 999999 999999 999999 999999 999999 999999 999999 999999 999999 999999 999999 999999 999999 999999 999999 999999 999999 999999 999999 999999 999999 999999 999999 999999 999999 999999 999999 999999 999999 999999 999999 999999 999999 999999 999999 999999 999999 999999 999999 999999 999999 999999 999999 999999 999999 999999 999999 999999 999999 999999 999999 999999 999999 999999 999999 999999 999999 999999 999999 999999 999999 999999 999999 999999 999999 999999 999999 999999 999999 999999 999999 999999 999999 0 999999 999999 999999 999999 999999 999999 999999 999999 999999 999999 999999 999999 999999 999999 999999 999999 999999 999999 999999 999999 999999 999999 999999 999999 999999 999999 999999 999999 999999 999999 999999 999999 999999 999999 999999 999999 999999 999999 999999 999999 999999 999999 999999 999999 999999 999999 999999 999999 999999 999999 999999 999999 999999 999999 999999 999999 999999 999999 999999 999999 999999 999999 999999 11189 12760 11344 16379 17842 19386 18265 19600 17726 16159 19244 19946 12834 17160 17254 17380 16656 14679 12798 12009 13799 11489 18823 19772 13342 13950 15793 15750 12432 16240 10558 13606 14285 14043 12861 17702 16795 10539 15138 11436 10253 19960 19692 16972 16008 18047 19080 18532 14932 16012 999999
999999 999999 999999 999999 999999 999999 999999 999999 999999 999999 999999 999999 999999 999999 999999 999999 999999 999999 999999 999999 999999 999999 999999 999999 999999 999999 999999 999999 999999 999999 999999 999999 999999 999999 999999 999999 999999 999999 999999 999999 999999 999999 999999 999999 999999 999999 999999 999999 999999 999999 999999 999999 999999 999999 999999 999999 999999 999999 999999 999999 999999 999999 999999 999999 999999 999999 999999 999999 999999 999999 999999 999999 999999 999999 999999 999999 999999 999999 0 999999 999999 999999 999999 999999 999999 999999 999999 999999 999999 999999 999999 999999 999999 999999 999999 999999 999999 999999 999999 999999 999999 999999 999999 999999 999999 999999 999999 999999 999999 999999 999999 999999 999999 999999 999999 999999 999999 999999 999999 999999 999999 999999 999999 999999 999999 999999 999999 999999 999999 999999 999999 999999 999999 999999 999999 999999 999999 999999 999999 999999 999999 12599 17544 12203 15994 19127 10572 14062 18258 16471 17047 11648 13801 10743 11034 16039 14910 19778 10415 10454 16488 18848 18547 13458 14819 17847 18897 19869 13042 14527 13175 17993 17893 19922 19491 12756 14217 15826 17880 14252 10218 19530 15223 11361 13861 16264 10613 18904 17655 18502 16545 999999
999999 999999 999999 999999 999999 999999 999999 999999 999999 999999 999999 999999 999999 999999 999999 999999 999999 999999 999999 999999 999999 999999 999999 999999 999999 999999 999999 999999 999999 999999 999999 999999 999999 999999 999999 999999 999999 999999 999999 999999 999999 999999 999999 999999 999999 999999 999999 999999 999999 999999 999999 999999 999999 999999 999999 999999 999999 999999 999999 999999 999999 999999 999999 999999 999999 999999 999999 999999 999999 999999 999999 999999 999999 999999 999999 999999 999999 999999 999999 0 999999 999999 999999 999999 999999 999999 999999 999999 999999 999999 999999 999999 999999 999999 999999 999999 999999 999999 999999 999999 999999 999999 999999 999999 999999 999999 999999 999999 999999 999999 999999 999999 999999 999999 999999 999999 999999 999999 999999 999999 999999 999999 999999 999999 999999 999999 999999 999999 999999 999999 999999 999999 999999 999999 999999 999999 999999 999999 999999 999999 999999 15322 10890 19815 14104 18963 10662 13641 16739 15936 19005 12130 15319 14825 16550 12262 14767 11573 15988 11663 14206 14197 12930 19321 11878 14610 18391 15418 10354 14937 12774 11492 16718 19157 19354 17608 10878 10739 10029 16971 15813 13753 15401 19977 17985 19892 19862 19360 15656 16485 14256 999999
999999 999999 999999 999999 999999 999999 999999 999999 999999 999999 999999 999999 999999 999999 999999 999999 999999 999999 999999 999999 999999 999999 999999 999999 999999 999999 999999 999999 999999 999999 999999 999999 999999 999999 999999 999999 999999 999999 999999 999999 999999 999999 999999 999999 999999 999999 999999 999999 999999 999999 999999 999999 999999 999999 999999 999999 999999 999999 999999 999999 999999 999999 999999 999999 999999 999999 999999 999999 999999 999999 999999 999999 999999 999999 999999 999999 999999 999999 999999 999999 0 999999 999999 999999 999999 999999 999999 999999 999999 999999 999999 999999 999999 999999 999999 999999 999999 999999 999999 999999 999999 999999 999999 999999 999999 999999 999999 999999 999999 999999 999999 999999 999999 999999 999999 999999 999999 999999 999999 999999 999999 999999 999999 999999 999999 999999 999999 999999 999999 999999 999999 999999 999999 999999 999999 999999 999999 999999 999999 999999 999999 18157 12240 17963 11570 16806 16930 11173 19856 11589 16425 18148 15986 15376 15241 16056 17238 12759 11487 17798 14726 13715 13007 13373 16161 14017 11198 18895 10199 18673 16982 10343 13580 13077 15006 18336 13145 10451 13407 18547 19698 17900 15132 14312 14567 19593 13580 14612 13805 12404 17299 999999
999999 999999 999999 999999 999999 999999 999999 999999 999999 999999 999999 999999 999999 999999 999999 999999 999999 999999 999999 999999 999999 999999 999999 999999 999999 999999 999999 999999 999999 999999 999999 999999 999999 999999 999999 999999 999999 999999 999999 999999 999999 999999 999999 999999 999999 999999 999999 999999 999999 999999 999999 999999 999999 999999 999999 999999 999999 999999 999999 999999 999999 999999 999999 999999 999999 999999 999999 999999 999999 999999 999999 999999 999999 999999 999999 999999 999999 999999 999999 999999 999999 0 999999 999999 999999 999999 999999 999999 999999 999999 999999 999999 999999 999999 999999 999999 999999 999999 999999 999999 999999 999999 999999 999999 999999 999999 999999 999999 999999 999999 999999 999999 999999 999999 999999 999999 999999 999999 999999 999999 999999 999999 999999 999999 999999 999999 999999 999999 999999 999999 999999 999999 999999 999999 999999 999999 999999 999999 999999 999999 999999 11092 13975 16131 12535 10495 16703 12251 11494 11573 11746 19330 11448 12302 12782 14365 17593 12203 19847 19617 10194 10502 14855 10725 19632 18085 15687 16608 14537 12427 14195 12148 16719 15950 13119 14794 11624 17079 11838 11026 19413 17419 10286 18012 11259 16665 14670 14847 19407 10856 10735 999999
999999 999999 999999 999999 999999 999999 999999 999999 999999 999999 999999 999999 999999 999999 999999 999999 999999 999999 999999 999999 999999 999999 999999 999999 999999 999999 999999 999999 999999 999999 999999 999999 999999 999999 999999 999999 999999 999999 999999 999999 999999 999999 999999 999999 999999 999999 999999 999999 999999 999999 999999 999999 999999 999999 999999 999999 999999 999999 999999 999999 999999 999999 999999 999999 999999 999999 999999 999999 999999 999999 999999 999999 999999 999999 999999 999999 999999 999999 999999 999999 999999 999999 0 999999 999999 999999 999999 999999 999999 999999 999999 999999 999999 999999 999999 999999 999999 999999 999999 999999 999999 999999 999999 999999 999999 999999 999999 999999 999999 999999 999999 999999 999999 999999 999999 999999 999999 999999 999999 999999 999999 999999 999999 999999 999999 999999 999999 999999 999999 999999 999999 999999 999999 999999 999999 999999 999999 999999 999999 999999 999999 13875 16373 17640 14126 17732 10150 14828 13743 16912 13443 11186 17649 13547 12448 19414 12768 19816 15126 18231 10861 11156 15210 10721 13648 15900 18152 17278 18491 11609 15490 14107 17207 11863 13566 13051 12052 11357 10925 17868 14035 17366 16736 17062 13402 18738 16877 13410 19530 12770 18933 999999
999999 999999 999999 999999 999999 999999 999999 999999 999999 999999 999999 999999 999999 999999 999999 999999 999999 999999 999999 999999 999999 999999 999999 999999 999999 999999 999999 999999 999999 999999 999999 999999 999999 999999 999999 999999 999999 999999 999999 999999 999999 999999 999999 999999 999999 999999 999999 999999 999999 999999 999999 999999 999999 999999 999999 999999 999999 999999 999999 999999 999999 999999 999999 999999 999999 999999 999999 999999 999999 999999 999999 999999 999999 999999 999999 999999 999999 999999 999999 999999 999999 999999 999999 0 999999 999999 999999 999999 999999 999999 999999 999999 999999 999999 999999 999999 999999 999999 999999 999999 999999 999999 999999 999999 999999 999999 999999 999999 999999 999999 999999 999999 999999 999999 999999 999999 999999 999999 999999 999999 999999 999999 999999 999999 999999 999999 999999 999999 999999 999999 999999 999999 999999 999999 999999 999999 999999 999999 999999 999999 999999 16299 18734 16901 13012 15116 11332 12301 10374 14989 16591 18846 18696 11466 19789 14687 15177 17595 13851 13695 14011 15481 12096 12966 11700 19462 14976 17671 15249 19934 18384 13541 14255 11727 17648 17076 13949 15910 12485 12379 11639 19823 18646 19594 17759 19989 12903 13944 13989 13557 15826 999999
999999 999999 999999 999999 999999 999999 999999 999999 999999 999999 999999 999999 999999 999999 999999 999999 999999 999999 999999 999999 999999 999999 999999 999999 999999 999999 999999 999999 999999 999999 999999 999999 999999 999999 999999 999999 999999 999999 999999 999999 999999 999999 999999 999999 999999 999999 999999 999999 999999 999999 999999 999999 999999 999999 999999 999999 999999 999999 999999 999999 999999 999999 999999 999999 999999 999999 999999 999999 999999 999999 999999 999999 999999 999999 999999 999999 999999 999999 999999 999999 999999 999999 999999 999999 0 999999 999999 999999 999999 999999 999999 999999 999999 999999 999999 999999 999999 999999 999999 999999 999999 999999 999999 999999 999999 999999 999999 999999 999999 999999 999999 999999 999999 999999 999999 999999 999999 999999 999999 999999 999999 999999 999999 999999 999999 999999 999999 999999 999999 999999 999999 999999 999999 999999 999999 999999 999999 999999 999999 999999 999999 17930 16361 15662 13316 11777 18653 14393 18736 11598 13661 13649 13305 19551 15862 17688 14445 19944 10378 14132 14239 13724 11399 11584 14733 10104 12602 15477 12004 18539 11719 11753 18879 10012 18405 14646 17627 13717 11457 11736 16435 12136 12701 18327 10605 16865 14313 17392 12517 12126 19369 999999
999999 999999 999999 999999 999999 999999 999999 999999 999999 999999 999999 999999 999999 999999 999999 999999 999999 999999 999999 999999 999999 999999 999999 999999 999999 999999 999999 999999 999999 999999 999999 999999 999999 999999 999999 999999 999999 999999 999999 999999 999999 999999 999999 999999 999999 999999 999999 999999 999999 999999 999999 999999 999999 999999 999999 999999 999999 999999 999999 999999 999999 999999 999999 999999 999999 999999 999999 999999 999999 999999 999999 999999 999999 999999 999999 999999 999999 999999 999999 999999 999999 999999 999999 999999 999999 0 999999 999999 999999 999999 999999 999999 999999 999999 999999 999999 999999 999999 999999 999999 999999 999999 999999 999999 999999 999999 999999 999999 999999 999999 999999 999999 999999 999999 999999 999999 999999 999999 999999 999999 999999 999999 999999 999999 999999 999999 999999 999999 999999 999999 999999 999999 999999 999999 999999 999999 999999 999999 999999 999999 999999 12691 11724 19712 18091 17410 17137 17231 11868 11036 16842 11013 14167 14664 14224 18847 19251 14926 13884 10048 16528 12297 17345 14222 13834 10521 12063 15835 13019 13903 12617 18561 15297 14791 19319 14269 10351 17210 17220 17895 14219 11967 12172 10715 17161 18677 13646 18112 16472 11092 10432 999999
999999 999999 999999 999999 999999 999999 999999 999999 999999 999999 999999 999999 999999 999999 999999 999999 999999 999999 999999 999999 999999 999999 999999 999999 999999 999999 999999 999999 999999 999999 999999 999999 999999 999999 999999 999999 999999 999999 999999 999999 999999 999999 999999 999999 999999 999999 999999 999999 999999 999999 999999 999999 999999 999999 999999 999999 999999 999999 999999 999999 999999 999999 999999 999999 999999 999999 999999 999999 999999 999999 999999 999999 999999 999999 999999 999999 999999 999999 999999 999999 999999 999999 999999 999999 999999 999999 0 999999 999999 999999 999999 999999 999999 999999 999999 999999 999999 999999 999999 999999 999999 999999 999999 999999 999999 999999 999999 999999 999999 999999 999999 999999 999999 999999 999999 999999 999999 999999 999999 999999 999999 999999 999999 999999 999999 999999 999999 999999 999999 999999 999999 999999 999999 999999 999999 999999 999999 999999 999999 999999 999999 13826 12893 10852 16221 10024 10648 15822 18663 17237 15158 19915 12827 19655 15507 11408 18514 15577 19324 10749 10962 12816 15704 12241 18921 14425 18500 11298 15770 10376 11292 13471 17198 16084 10973 16478 19781 19245 18309 13820 10201 10366 19259 16347 15287 17047 10856 18593 12976 10260 13167 999999
999999 999999 999999 999999 999999 999999 999999 999999 999999 999999 999999 999999 999999 999999 999999 999999 999999 999999 999999 999999 999999 999999 999999 999999 999999 999999 999999 999999 999999 999999 999999 999999 999999 999999 999999 999999 999999 999999 999999 999999 999999 999999 999999 999999 999999 999999 999999 999999 999999 999999 999999 999999 999999 999999 999999 999999 999999 999999 999999 999999 999999 999999 999999 999999 999999 999999 999999 999999 999999 999999 999999 999999 999999 999999 999999 999999 999999 999999 999999 999999 999999 999999 999999 999999 999999 999999 999999 0 999999 999999 999999 999999 999999 999999 999999 999999 999999 999999 999999 999999 999999 999999 999999 999999 999999 999999 999999 999999 999999 999999 999999 999999 999999 999999 999999 999999 999999 999999 999999 999999 999999 999999 999999 999999 999999 999999 999999 999999 999999 999999 999999 999999 999999 999999 999999 999999 999999 999999 999999 999999 999999 11471 18211 15788 17336 18149 14060 14259 14872 15723 19135 17068 10645 14267 13116 17847 16610 19771 16671 14178 11276 18448 17300 18737 19979 16900 14325 12417 11564 15078 12289 12393 11711 12376 19102 10492 18499 17690 12493 14294 18296 14995 12919 11764 16219 12181 12029 16253 13813 18897 15691 999999
999999 999999 999999 999999 999999 999999 999999 999999 999999 999999 999999 999999 999999 999999 999999 999999 999999 999999 999999 999999 999999 999999 999999 999999 999999 999999 999999 999999 999999 999999 999999 999999 999999 999999 999999 999999 999999 999999 999999 999999 999999 999999 999999 999999 999999 999999 999999 999999 999999 999999 999999 999999 999999 999999 999999 999999 999999 999999 999999 999999 999999 999999 999999 999999 999999 999999 999999 999999 999999 999999 999999 999999 999999 999999 999999 999999 999999 999999 999999 999999 999999 999999 999999 999999 999999 999999 999999 999999 0 999999 999999 999999 999999 999999 999999 999999 999999 999999 999999 999999 999999 999999 999999 999999 999999 999999 999999 999999 999999 999999 999999 999999 999999 999999 999999 999999 999999 999999 999999 999999 999999 999999 999999 999999 999999 999999 999999 999999 999999 999999 999999 999999 999999 999999 999999 999999 999999 999999 999999 999999 999999 15441 10169 19678 12296 14598 19617 12677 18249 15812 17632 11288 16522 10718 12503 17641 13538 16701 11572 17557 19957 10372 16610 19370 12131 11690 11974 15837 13383 13956 14257 14657 10222 14633 12852 13336 13742 18169 11702 18874 18575 14638 13502 12602 14030 18348 19651 18022 17106 18858 19696 999999
999999 999999 999999 999999 999999 999999 999999 999999 999999 999999 999999 999999 999999 999999 999999 999999 999999 999999 999999 999999 999999 999999 999999 999999 999999 999999 999999 999999 999999 999999 999999 999999 999999 999999 999999 999999 999999 999999 999999 999999 999999 999999 999999 999999 999999 999999 999999 999999 999999 999999 999999 999999 999999 999999 999999 999999 999999 999999 999999 999999 999999 999999 999999 999999 999999 999999 999999 999999 999999 999999 999999 999999 999999 999999 999999 999999 999999 999999 999999 999999 999999 999999 999999 999999 999999 999999 999999 999999 999999 0 999999 999999 999999 999999 999999 999999 999999 999999 999999 999999 999999 999999 999999 999999 999999 999999 999999 999999 999999 999999 999999 999999 999999 999999 999999 999999 999999 999999 999999 999999 999999 999999 999999 999999 999999 999999 999999 999999 999999 999999 999999 999999 999999 999999 999999 999999 999999 999999 999999 999999 999999 18977 17730 15901 11996 19360 13467 14459 17712 18512 19249 12244 12663 14301 10337 16864 12237 11075 16911 18103 14824 16298 13757 15094 17842 16814 12029 10177 13747 16714 19834 19731 13136 16022 12143 10917 11494 16803 19808 15442 19506 19737 11380 12938 17127 15407 18937 12915 18244 15222 10332 999999
999999 999999 999999 999999 999999 999999 999999 999999 999999 999999 999999 999999 999999 999999 999999 999999 999999 999999 999999 999999 999999 999999 999999 999999 999999 999999 999999 999999 999999 999999 999999 999999 999999 999999 999999 999999 999999 999999 999999 999999 999999 999999 999999 999999 999999 999999 999999 999999 999999 999999 999999 999999 999999 999999 999999 999999 999999 999999 999999 999999 999999 999999 999999 999999 999999 999999 999999 999999 999999 999999 999999 999999 999999 999999 999999 999999 999999 999999 999999 999999 999999 999999 999999 999999 999999 999999 999999 999999 999999 999999 0 999999 999999 999999 999999 999999 999999 999999 999999 999999 999999 999999 999999 999999 999999 999999 999999 999999 999999 999999 999999 999999 999999 999999 999999 999999 999999 999999 999999 999999 999999 999999 999999 999999 999999 999999 999999 999999 999999 999999 999999 999999 999999 999999 999999 999999 999999 999999 999999 999999 999999 10706 10262 14968 15018 13107 19214 18497 15769 14174 13020 18757 19681 17129 16936 11108 10129 11197 15383 11848 11505 19353 14816 12780 17583 19744 15466 19398 11177 10443 11746 12666 12008 18811 10063 13621 15293 10157 16820 15716 12606 14856 10645 12668 11792 13671 19378 19818 14601 18526 14117 999999
999999 999999 999999 999999 999999 999999 999999 999999 999999 999999 999999 999999 999999 999999 999999 999999 999999 999999 999999 999999 999999 999999 999999 999999 999999 999999 999999 999999 999999 999999 999999 999999 999999 999999 999999 999999 999999 999999 999999 999999 999999 999999 999999 999999 999999 999999 999999 999999 999999 999999 999999 999999 999999 999999 999999 999999 999999 999999 999999 999999 999999 999999 999999 999999 999999 999999 999999 999999 999999 999999 999999 999999 999999 999999 999999 999999 999999 999999 999999 999999 999999 999999 999999 999999 999999 999999 999999 999999 999999 999999 999999 0 999999 999999 999999 999999 999999 999999 999999 999999 999999 999999 999999 999999 999999 999999 999999 999999 999999 999999 999999 999999 999999 999999 999999 999999 999999 999999 999999 999999 999999 999999 999999 999999 999999 999999 999999 999999 999999 999999 999999 999999 999999 999999 999999 999999 999999 999999 999999 999999 999999 19315 13807 15395 16320 11355 16385 17784 10387 18098 10692 15430 10107 10185 16389 13240 18912 17948 16116 17672 16181 11384 12429 19071 19810 11420 11078 14417 11202 16626 13383 11805 11737 12612 11533 19894 19752 11699 14840 17778 18298 15498 12041 19889 18961 11621 16011 15558 14435 14885 15942 999999
999999 999999 999999 999999 999999 999999 999999 999999 999999 999999 999999 999999 999999 999999 999999 999999 999999 999999 999999 999999 999999 999999 999999 999999 999999 999999 999999 999999 999999 999999 999999 999999 999999 999999 999999 999999 999999 999999 999999 999999 999999 999999 999999 999999 999999 999999 999999 999999 999999 999999 999999 999999 999999 999999 999999 999999 999999 999999 999999 999999 999999 999999 999999 999999 999999 999999 999999 999999 999999 999999 999999 999999 999999 999999 999999 999999 999999 999999 999999 999999 999999 999999 999999 999999 999999 999999 999999 999999 999999 999999 999999 999999 0 999999 999999 999999 999999 999999 999999 999999 999999 999999 999999 999999 999999 999999 999999 999999 999999 999999 999999 999999 999999 999999 999999 999999 999999 999999 999999 999999 999999 999999 999999 999999 999999 999999 999999 999999 999999 999999 999999 999999 999999 999999 999999 999999 999999 999999 999999 999999 999999 14522 12674 16014 19521 13656 15762 19470 15130 17098 13474 12541 15179 14937 17456 17481 11482 16855 15495 16428 14750 15855 18793 12945 11756 16305 15355 13466 18000 16391 19124 19482 16262 11150 17889 12064 10140 11532 16480 12243 10785 13447 13172 18041 14650 15388 18892 11902 14310 13799 15399 999999
999999 999999 999999 999999 999999 999999 999999 999999 999999 999999 999999 999999 999999 999999 999999 999999 999999 999999 999999 999999 999999 999999 999999 999999 999999 999999 999999 999999 999999 999999 999999 999999 999999 999999 999999 999999 999999 999999 999999 999999 999999 999999 999999 999999 999999 999999 999999 999999 999999 999999 999999 999999 999999 999999 999999 999999 999999 999999 999999 999999 999999 999999 999999 999999 999999 999999 999999 999999 999999 999999 999999 999999 999999 999999 999999 999999 999999 999999 999999 999999 999999 999999 999999 999999 999999 999999 999999 999999 999999 999999 999999 999999 999999 0 999999 999999 999999 999999 999999 999999 999999 999999 999999 999999 999999 999999 999999 999999 999999 999999 999999 999999 999999 999999 999999 999999 999999 999999 999999 999999 999999 999999 999999 999999 999999 999999 999999 999999 999999 999999 999999 999999 999999 999999 999999 999999 999999 999999 999999 999999 999999 19529 19003 14636 14293 11702 17272 14074 16237 11174 12595 14278 12749 13097 18395 19812 14267 19815 13792 12287 10219 13791 14531 16314 18310 14939 10186 18647 16796 17609 16795 11146 18765 18525 10661 16203 13253 18438 14592 19475 14253 14861 14250 14296 17015 16774 15860 16888 11283 11643 17589 999999
999999 999999 999999 999999 999999 999999 999999 999999 999999 999999 999999 999999 999999 999999 999999 999999 999999 999999 999999 999999 999999 999999 999999 999999 999999 999999 999999 999999 999999 999999 999999 999999 999999 999999 999999 999999 999999 999999 999999 999999 999999 999999 999999 999999 999999 999999 999999 999999 999999 999999 999999 999999 999999 999999 999999 999999 999999 999999 999999 999999 999999 999999 999999 999999 999999 999999 999999 999999 999999 999999 999999 999999 999999 999999 999999 999999 999999 999999 999999 999999 999999 999999 999999 999999 999999 999999 999999 999999 999999 999999 999999 999999 999999 999999 0 999999 999999 999999 999999 999999 999999 999999 999999 999999 999999 999999 999999 999999 999999 999999 999999 999999 999999 999999 999999 999999 999999 999999 999999 999999 999999 999999 999999 999999 999999 999999 999999 999999 999999 999999 999999 999999 999999 999999 999999 999999 999999 999999 999999 999999 999999 16132 12135 17880 11208 11978 15358 16459 17707 13826 19963 13790 13230 18385 18477 12468 13427 15342 18914 14824 15241 17146 18524 16585 12071 19991 15590 16493 12960 16518 17462 12105 16100 19013 11086 14671 18340 10070 17990 10624 14478 11970 11561 12419 19717 17509 16477 17953 15319 13103 13350 999999
999999 999999 999999 999999 999999 999999 999999 999999 999999 999999 999999 999999 999999 999999 999999 999999 999999 999999 999999 999999 999999 999999 999999 999999 999999 999999 999999 999999 999999 999999 999999 999999 999999 999999 999999 999999 999999 999999 999999 999999 999999 999999 999999 999999 999999 999999 999999 999999 999999 999999 999999 999999 999999 999999 999999 999999 999999 999999 999999 999999 999999 999999 999999 999999 999999 999999 999999 999999 999999 999999 999999 999999 999999 999999 999999 999999 999999 999999 999999 999999 999999 999999 999999 999999 999999 999999 999999 999999 999999 999999 999999 999999 999999 999999 999999 0 999999 999999 999999 999999 999999 999999 999999 999999 999999 999999 999999 999999 999999 999999 999999 999999 999999 999999 999999 999999 999999 999999 999999 999999 999999 999999 999999 999999 999999 999999 999999 999999 999999 999999 999999 999999 999999 999999 999999 999999 999999 999999 999999 999999 999999 10296 15322 13120 18995 12250 14167 17961 16475 13073 13656 16185 15906 11685 15080 12788 15443 14846 10479 14661 10151 19295 17105 12640 10399 17976 19741 16939 19734 10717 10934 13781 19078 19583 11936 12178 18433 14032 15355 14504 10031 19906 18728 15386 14147 19720 10132 10046 17681 10845 12403 999999
999999 999999 999999 999999 999999 999999 999999 999999 999999 999999 999999 999999 999999 999999 999999 999999 999999 999999 999999 999999 999999 999999 999999 999999 999999 999999 999999 999999 999999 999999 999999 999999 999999 999999 999999 999999 999999 999999 999999 999999 999999 999999 999999 999999 999999 999999 999999 999999 999999 999999 999999 999999 999999 999999 999999 999999 999999 999999 999999 999999 999999 999999 999999 999999 999999 999999 999999 999999 999999 999999 999999 999999 999999 999999 999999 999999 999999 999999 999999 999999 999999 999999 999999 999999 999999 999999 999999 999999 999999 999999 999999 999999 999999 999999 999999 999999 0 999999 999999 999999 999999 999999 999999 999999 999999 999999 999999 999999 999999 999999 999999 999999 999999 999999 999999 999999 999999 999999 999999 999999 999999 999999 999999 999999 999999 999999 999999 999999 999999 999999 999999 999999 999999 999999 999999 999999 999999 999999 999999 999999 999999 19548 11346 12903 19146 10170 15239 14252 13639 13272 10886 10865 15031 16496 16729 15365 12614 10864 17362 13133 17630 14038 14151 16596 13956 10376 12402 13024 16861 18874 13659 16437 16064 11309 15377 19614 16172 15722 17662 13957 18503 17936 19425 11541 12817 18908 18346 11144 13841 15180 12641 999999
999999 999999 999999 999999 999999 999999 999999 999999 999999 999999 999999 999999 999999 999999 999999 999999 999999 999999 999999 999999 999999 999999 999999 999999 999999 999999 999999 999999 999999 999999 999999 999999 999999 999999 999999 999999 999999 999999 999999 999999 999999 999999 999999 999999 999999 999999 999999 999999 999999 999999 999999 999999 999999 999999 999999 999999 999999 999999 999999 999999 999999 999999 999999 999999 999999 999999 999999 999999 999999 999999 999999 999999 999999 999999 999999 999999 999999 999999 999999 999999 999999 999999 999999 999999 999999 999999 999999 999999 999999 999999 999999 999999 999999 999999 999999 999999 999999 0 999999 999999 999999 999999 999999 999999 999999 999999 999999 999999 999999 999999 999999 999999 999999 999999 999999 999999 999999 999999 999999 999999 999999 999999 999999 999999 999999 999999 999999 999999 999999 999999 999999 999999 999999 999999 999999 999999 999999 999999 999999 999999 999999 18236 17006 18174 14320 15464 16744 13382 15025 10219 12392 14857 10005 18711 11641 12579 18854 18507 19693 10368 12698 10555 15979 13871 11161 14458 12370 13668 15598 15933 17245 18415 14704 10193 16827 11403 10995 10124 10462 13984 16885 19161 18193 17171 10341 12619 10791 13068 10597 15100 14137 999999
999999 999999 999999 999999 999999 999999 999999 999999 999999 999999 999999 999999 999999 999999 999999 999999 999999 999999 999999 999999 999999 999999 999999 999999 999999 999999 999999 999999 999999 999999 999999 999999 999999 999999 999999 999999 999999 999999 999999 999999 999999 999999 999999 999999 999999 999999 999999 999999 999999 999999 999999 999999 999999 999999 999999 999999 999999 999999 999999 999999 999999 999999 999999 999999 999999 999999 999999 999999 999999 999999 999999 999999 999999 999999 999999 999999 999999 999999 999999 999999 999999 999999 999999 999999 999999 999999 999999 999999 999999 999999 999999 999999 999999 999999 999999 999999 999999 999999 0 999999 999999 999999 999999 999999 999999 999999 999999 999999 999999 999999 999999 999999 999999 999999 999999 999999 999999 999999 999999 999999 999999 999999 999999 999999 999999 999999 999999 999999 999999 999999 999999 999999 999999 999999 999999 999999 999999 999999 999999 999999 999999 17758 14753 13612 14725 16910 14564 11082 17914 11128 17332 12796 14612 17953 10518 19474 13326 13555 12756 14588 10430 19273 10585 13264 13022 10731 15659 12381 17614 19570 13152 13240 18644 19456 12057 10238 11248 15730 18282 12008 16254 18238 12060 10450 19179 19132 19874 14169 18283 13609 15438 999999
999999 999999 999999 999999 999999 999999 999999 999999 999999 999999 999999 999999 999999 999999 999999 999999 999999 999999 999999 999999 999999 999999 999999 999999 999999 999999 999999 999999 999999 999999 999999 999999 999999 999999 999999 999999 999999 999999 999999 999999 999999 999999 999999 999999 999999 999999 999999 999999 999999 999999 999999 999999 999999 999999 999999 999999 999999 999999 999999 999999 999999 999999 999999 999999 999999 999999 999999 999999 999999 999999 999999 999999 999999 999999 999999 999999 999999 999999 999999 999999 999999 999999 999999 999999 999999 999999 999999 999999 999999 999999 999999 999999 999999 999999 999999 999999 999999 999999 999999 0 999999 999999 999999 999999 999999 999999 999999 999999 999999 999999 999999 999999 999999 999999 999999 999999 999999 999999 999999 999999 999999 999999 999999 999999 999999 999999 999999 999999 999999 999999 999999 999999 999999 999999 999999 999999 999999 999999 999999 999999 999999 13475 19683 14071 16115 14081 19525 19399 13952 10813 15339 16929 19245 10429 17704 14133 13895 12047 10362 12808 16109 11482 10317 17863 15611 15943 19024 11647 12544 15072 17028 13017 18088 11974 15603 10775 10108 17154 19308 14192 19409 18829 15622 15748 11899 17173 14207 13695 17565 13887 15952 999999
999999 999999 999999 999999 999999 999999 999999 999999 999999 999999 999999 999999 999999 999999 999999 999999 999999 999999 999999 999999 999999 999999 999999 999999 999999 999999 999999 999999 999999 999999 999999 999999 999999 999999 999999 999999 999999 999999 999999 999999 999999 999999 999999 999999 999999 999999 999999 999999 999999 999999 999999 999999 999999 999999 999999 999999 999999 999999 999999 999999 999999 999999 999999 999999 999999 999999 999999 999999 999999 999999 999999 999999 999999 999999 999999 999999 999999 999999 999999 999999 999999 999999 999999 999999 999999 999999 999999 999999 999999 999999 999999 999999 999999 999999 999999 999999 999999 999999 999999 999999 0 999999 999999 999999 999999 999999 999999 999999 999999 999999 999999 999999 999999 999999 999999 999999 999999 999999 999999 999999 999999 999999 999999 999999 999999 999999 999999 999999 999999 999999 999999 999999 999999 999999 999999 999999 999999 999999 999999 999999 999999 14660 10465 16941 11284 10985 16765 15215 14450 11763 18975 15647 17156 13304 12462 17018 17363 11635 19729 19870 11693 11601 18336 12461 18444 17873 15601 11581 18918 10159 11442 19837 13259 19716 12293 16286 10838 18917 17048 16614 14458 13655 18472 16657 12489 17013 19177 18077 14014 16709 18703 999999
999999 999999 999999 999999 999999 999999 999999 999999 999999 999999 999999 999999 999999 999999 999999 999999 999999 999999 999999 999999 999999 999999 999999 999999 999999 999999 999999 999999 999999 999999 999999 999999 999999 999999 999999 999999 999999 999999 999999 999999 999999 999999 999999 999999 999999 999999 999999 999999 999999 999999 999999 999999 999999 999999 999999 999999 999999 999999 999999 999999 999999 999999 999999 999999 999999 999999 999999 999999 999999 999999 999999 999999 999999 999999 999999 999999 999999 999999 999999 999999 999999 999999 999999 999999 999999 999999 999999 999999 999999 999999 999999 999999 999999 999999 999999 999999 999999 999999 999999 999999 999999 0 999999 999999 999999 999999 999999 999999 999999 999999 999999 999999 999999 999999 999999 999999 999999 999999 999999 999999 999999 999999 999999 999999 999999 999999 999999 999999 999999 999999 999999 999999 999999 999999 999999 999999 999999 999999 999999 999999 999999 15437 19745 14838 14955 12294 19549 10395 17949 11626 17157 14805 12116 17734 19071 17022 10619 19609 15002 18918 11946 15274 15779 18746 10345 18392 18435 12493 12270 13142 12930 11900 15532 16345 16391 11220 13109 11801 10614 11197 16636 16364 11839 11061 12049 10279 16193 10628 18696 18003 17809 999999
999999 999999 999999 999999 999999 999999 999999 999999 999999 999999 999999 999999 999999 999999 999999 999999 999999 999999 999999 999999 999999 999999 999999 999999 999999 999999 999999 999999 999999 999999 999999 999999 999999 999999 999999 999999 999999 999999 999999 999999 999999 999999 999999 999999 999999 999999 999999 999999 999999 999999 999999 999999 999999 999999 999999 999999 999999 999999 999999 999999 999999 999999 999999 999999 999999 999999 999999 999999 999999 999999 999999 999999 999999 999999 999999 999999 999999 999999 999999 999999 999999 999999 999999 999999 999999 999999 999999 999999 999999 999999 999999 999999 999999 999999 999999 999999 999999 999999 999999 999999 999999 999999 0 999999 999999 999999 999999 999999 999999 999999 999999 999999 999999 999999 999999 999999 999999 999999 999999 999999 999999 999999 999999 999999 999999 999999 999999 999999 999999 999999 999999 999999 999999 999999 999999 999999 999999 999999 999999 999999 999999 10300 15620 18320 13166 13463 10851 17254 10802 11759 17966 12662 14473 16779 18233 17714 19351 15743 12545 18682 14393 17462 18507 17477 12116 15346 12393 15356 15816 10123 11986 13494 12941 17627 10223 12007 14437 17073 15513 19947 16807 14794 17270 15286 15580 12376 13164 14585 11090 15426 17271 999999
999999 999999 999999 999999 999999 999999 999999 999999 999999 999999 999999 999999 999999 999999 999999 999999 999999 999999 999999 999999 999999 999999 999999 999999 999999 999999 999999 999999 999999 999999 999999 999999 999999 999999 999999 999999 999999 999999 999999 999999 999999 999999 999999 999999 999999 999999 999999 999999 999999 999999 999999 999999 999999 999999 999999 999999 999999 999999 999999 999999 999999 999999 999999 999999 999999 999999 999999 999999 999999 999999 999999 999999 999999 999999 999999 999999 999999 999999 999999 999999 999999 999999 999999 999999 999999 999999 999999 999999 999999 999999 999999 999999 999999 999999 999999 999999 999999 999999 999999 999999 999999 999999 999999 0 999999 999999 999999 999999 999999 999999 999999 999999 999999 999999 999999 999999 999999 999999 999999 999999 999999 999999 999999 999999 999999 999999 999999 999999 999999 999999 999999 999999 999999 999999 999999 999999 999999 999999 999999 999999 999999 13264 17133 18184 16673 13893 15952 11115 12703 14243 12167 13448 14964 19640 12582 14296 19581 14960 10394 17416 17247 18021 11295 17544 10438 18114 16797 16126 17177 17813 17724 16769 17400 16568 14438 11814 10961 11500 16932 14568 13566 14049 14941 16457 17315 10491 12945 17299 12872 13790 15621 999999
999999 999999 999999 999999 999999 999999 999999 999999 999999 999999 999999 999999 999999 999999 999999 999999 999999 999999 999999 999999 999999 999999 999999 999999 999999 999999 999999 999999 999999 999999 999999 999999 999999 999999 999999 999999 999999 999999 999999 999999 999999 999999 999999 999999 999999 999999 999999 999999 999999 999999 999999 999999 999999 999999 999999 999999 999999 999999 999999 999999 999999 999999 999999 999999 999999 999999 999999 999999 999999 999999 999999 999999 999999 999999 999999 999999 999999 999999 999999 999999 999999 999999 999999 999999 999999 999999 999999 999999 999999 999999 999999 999999 999999 999999 999999 999999 999999 999999 999999 999999 999999 999999 999999 999999 0 999999 999999 999999 999999 999999 999999 999999 999999 999999 999999 999999 999999 999999 999999 999999 999999 999999 999999 999999 999999 999999 999999 999999 999999 999999 999999 999999 999999 999999 999999 999999 999999 999999 999999 999999 999999 12258 13766 17525 12075 15999 18419 10420 13239 17530 19678 10353 14334 11643 19354 14286 10650 15548 18568 14974 16190 19825 18651 14764 10128 11623 12139 17608 17258 19107 14733 19658 13656 10887 10309 18912 18934 19674 15653 17251 13066 13987 19298 15792 19502 16761 12905 19515 14340 13833 17901 999999
999999 999999 999999 999999 999999 999999 999999 999999 999999 999999 999999 999999 999999 999999 999999 999999 999999 999999 999999 999999 999999 999999 999999 999999 999999 999999 999999 999999 999999 999999 999999 999999 999999 999999 999999 999999 999999 999999 999999 999999 999999 999999 999999 999999 999999 999999 999999 999999 999999 999999 999999 999999 999999 999999 999999 999999 999999 999999 999999 999999 999999 999999 999999 999999 999999 999999 999999 999999 999999 999999 999999 999999 999999 999999 999999 999999 999999 999999 999999 999999 999999 999999 999999 999999 999999 999999 999999 999999 999999 999999 999999 999999 999999 999999 999999 999999 999999 999999 999999 999999 999999 999999 999999 999999 999999 0 999999 999999 999999 999999 999999 999999 999999 999999 999999 999999 999999 999999 999999 999999 999999 999999 999999 999999 999999 999999 999999 999999 999999 999999 999999 999999 999999 999999 999999 999999 999999 999999 999999 999999 999999 16693 18247 11300 18484 15832 18567 14435 12588 19756 16108 12003 17199 16278 15138 15061 11322 16378 16162 16131 10295 13349 16536 12726 13040 12583 19213 18631 16682 11833 14337 12171 11841 15850 16765 10730 13970 18935 14988 11836 19901 18436 19014 10410 15382 15534 14386 17804 11374 10448 16903 999999
999999 999999 999999 999999 999999 999999 999999 999999 999999 999999 999999 999999 999999 999999 999999 999999 999999 999999 999999 999999 999999 999999 999999 999999 999999 999999 999999 999999 999999 999999 999999 999999 999999 999999 999999 999999 999999 999999 999999 999999 999999 999999 999999 999999 999999 999999 999999 999999 999999 999999 999999 999999 999999 999999 999999 999999 999999 999999 999999 999999 999999 999999 999999 999999 999999 999999 999999 999999 999999 999999 999999 999999 999999 999999 999999 999999 999999 999999 999999 999999 999999 999999 999999 999999 999999 999999 999999 999999 999999 999999 999999 999999 999999 999999 999999 999999 999999 999999 999999 999999 999999 999999 999999 999999 999999 999999 0 999999 999999 999999 999999 999999 999999 999999 999999 999999 999999 999999 999999 999999 999999 999999 999999 999999 999999 999999 999999 999999 999999 999999 999999 999999 999999 999999 999999 999999 999999 999999 999999 999999 999999 14608 10112 19535 14512 14380 12658 16724 11708 14285 15938 18668 15869 16338 10472 18337 12698 15868 11245 14079 16726 16772 19835 17639 11931 17288 15558 17025 19701 10790 13933 12751 10230 17837 18338 11487 12156 17366 14882 11583 13245 19414 10063 14039 18818 14344 18042 14264 17848 15081 19390 999999
999999 999999 999999 999999 999999 999999 999999 999999 999999 999999 999999 999999 999999 999999 999999 999999 999999 999999 999999 999999 999999 999999 999999 999999 999999 999999 999999 999999 999999 999999 999999 999999 999999 999999 999999 999999 999999 999999 999999 999999 999999 999999 999999 999999 999999 999999 999999 999999 999999 999999 999999 999999 999999 999999 999999 999999 999999 999999 999999 999999 999999 999999 999999 999999 999999 999999 999999 999999 999999 999999 999999 999999 999999 999999 999999 999999 999999 999999 999999 999999 999999 999999 999999 999999 999999 999999 999999 999999 999999 999999 999999 999999 999999 999999 999999 999999 999999 999999 999999 999999 999999 999999 999999 999999 999999 999999 999999 0 999999 999999 999999 999999 999999 999999 999999 999999 999999 999999 999999 999999 999999 999999 999999 999999 999999 999999 999999 999999 999999 999999 999999 999999 999999 999999 999999 999999 999999 999999 999999 999999 999999 16085 17182 17648 15461 15544 14644 19683 18314 16072 13998 16193 16065 13114 19979 10704 16736 19367 13525 15875 11427 13721 15684 14759 14155 19162 18369 13155 18806 16754 13114 13741 17483 16980 10737 17866 15174 15376 13722 16572 11712 13939 11822 16890 10180 12526 14817 10450 14550 12397 13213 999999
999999 999999 999999 999999 999999 999999 999999 999999 999999 999999 999999 999999 999999 999999 999999 999999 999999 999999 999999 999999 999999 999999 999999 999999 999999 999999 999999 999999 999999 999999 999999 999999 999999 999999 999999 999999 999999 999999 999999 999999 999999 999999 999999 999999 999999 999999 999999 999999 999999 999999 999999 999999 999999 999999 999999 999999 999999 999999 999999 999999 999999 999999 999999 999999 999999 999999 999999 999999 999999 999999 999999 999999 999999 999999 999999 999999 999999 999999 999999 999999 999999 999999 999999 999999 999999 999999 999999 999999 999999 999999 999999 999999 999999 999999 999999 999999 999999 999999 999999 999999 999999 999999 999999 999999 999999 999999 999999 999999 0 999999 999999 999999 999999 999999 999999 999999 999999 999999 999999 999999 999999 999999 999999 999999 999999 999999 999999 999999 999999 999999 999999 999999 999999 999999 999999 999999 999999 999999 999999 999999 999999 10855 16675 15057 14247 11785 13955 16184 16325 11954 13911 16963 10048 13204 10250 19052 12351 12277 14827 14537 12349 10519 15546 16250 10980 10144 13610 17804 16585 10385 14969 14242 16279 18023 11290 10341 19997 18772 17249 15735 19254 15332 18451 18149 12510 12627 19562 11517 19243 10986 12808 999999
999999 999999 999999 999999 999999 999999 999999 999999 999999 999999 999999 999999 999999 999999 999999 999999 999999 999999 999999 999999 999999 999999 999999 999999 999999 999999 999999 999999 999999 999999 999999 999999 999999 999999 999999 999999 999999 999999 999999 999999 999999 999999 999999 999999 999999 999999 999999 999999 999999 999999 999999 999999 999999 999999 999999 999999 999999 999999 999999 999999 999999 999999 999999 999999 999999 999999 999999 999999 999999 999999 999999 999999 999999 999999 999999 999999 999999 999999 999999 999999 999999 999999 999999 999999 999999 999999 999999 999999 999999 999999 999999 999999 999999 999999 999999 999999 999999 999999 999999 999999 999999 999999 999999 999999 999999 999999 999999 999999 999999 0 999999 999999 999999 999999 999999 999999 999999 999999 999999 999999 999999 999999 999999 999999 999999 999999 999999 999999 999999 999999 999999 999999 999999 999999 999999 999999 999999 999999 999999 999999 999999 10081 10394 14480 10711 15982 12619 14143 11406 17233 11498 16771 12748 10032 12369 12951 16899 13220 10660 18410 16686 14236 16798 12949 18623 13344 17896 11814 17227 13392 19993 19457 14880 12280 12960 14472 14346 16457 19036 14871 12988 18599 10832 17816 11198 11619 15301 16716 17168 15200 13376 999999
999999 999999 999999 999999 999999 999999 999999 999999 999999 999999 999999 999999 999999 999999 999999 999999 999999 999999 999999 999999 999999 999999 999999 999999 999999 999999 999999 999999 999999 999999 999999 999999 999999 999999 999999 999999 999999 999999 999999 999999 999999 999999 999999 999999 999999 999999 999999 999999 999999 999999 999999 999999 999999 999999 999999 999999 999999 999999 999999 999999 999999 999999 999999 999999 999999 999999 999999 999999 999999 999999 999999 999999 999999 999999 999999 999999 999999 999999 999999 999999 999999 999999 999999 999999 999999 999999 999999 999999 999999 999999 999999 999999 999999 999999 999999 999999 999999 999999 999999 999999 999999 999999 999999 999999 999999 999999 999999 999999 999999 999999 0 999999 999999 999999 999999 999999 999999 999999 999999 999999 999999 999999 999999 999999 999999 999999 999999 999999 999999 999999 999999 999999 999999 999999 999999 999999 999999 999999 999999 999999 999999 17335 10541 15639 17480 16647 19569 19919 15280 10463 15050 13320 16077 17924 12046 14554 15222 10046 11038 16480 11258 12149 14613 13205 17263 18004 13070 17815 12062 18825 19278 17394 12317 12986 17653 11028 17397 19384 18171 17362 10444 12266 13603 18437 10401 16314 14352 18598 17690 18454 19217 999999
999999 999999 999999 999999 999999 999999 999999 999999 999999 999999 999999 999999 999999 999999 999999 999999 999999 999999 999999 999999 999999 999999 999999 999999 999999 999999 999999 999999 999999 999999 999999 999999 999999 999999 999999 999999 999999 999999 999999 999999 999999 999999 999999 999999 999999 999999 999999 999999 999999 999999 999999 999999 999999 999999 999999 999999 999999 999999 999999 999999 999999 999999 999999 999999 999999 999999 999999 999999 999999 999999 999999 999999 999999 999999 999999 999999 999999 999999 999999 999999 999999 999999 999999 999999 999999 999999 999999 999999 999999 999999 999999 999999 999999 999999 999999 999999 999999 999999 999999 999999 999999 999999 999999 999999 999999 999999 999999 999999 999999 999999 999999 0 999999 999999 999999 999999 999999 999999 999999 999999 999999 999999 999999 999999 999999 999999 999999 999999 999999 999999 999999 999999 999999 999999 999999 999999 999999 999999 999999 999999 999999 19951 10753 11870 11721 17860 13745 15927 13995 11126 14311 13974 12364 12892 10007 14730 15452 13868 17191 17043 14740 15377 17946 19626 15977 10265 14101 19524 18410 17288 16996 14483 10456 13630 14678 19574 13434 18277 12398 16801 14601 12345 12365 17149 13057 19800 13585 17307 16670 13480 17219 999999
999999 999999 999999 999999 999999 999999 999999 999999 999999 999999 999999 999999 999999 999999 999999 999999 999999 999999 999999 999999 999999 999999 999999 999999 999999 999999 999999 999999 999999 999999 999999 999999 999999 999999 999999 999999 999999 999999 999999 999999 999999 999999 999999 999999 999999 999999 999999 999999 999999 999999 999999 999999 999999 999999 999999 999999 999999 999999 999999 999999 999999 999999 999999 999999 999999 999999 999999 999999 999999 999999 999999 999999 999999 999999 999999 999999 999999 999999 999999 999999 999999 999999 999999 999999 999999 999999 999999 999999 999999 999999 999999 999999 999999 999999 999999 999999 999999 999999 999999 999999 999999 999999 999999 999999 999999 999999 999999 999999 999999 999999 999999 999999 0 999999 999999 999999 999999 999999 999999 999999 999999 999999 999999 999999 999999 999999 999999 999999 999999 999999 999999 999999 999999 999999 999999 999999 999999 999999 999999 999999 999999 14801 12296 18294 11264 18210 10929 19345 13203 12196 13822 13515 10097 16830 13619 19541 12989 17412 12083 16116 15685 18773 13719 18176 13491 14041 12383 14766 12063 14368 10610 17564 12605 17097 12844 12432 16012 19854 12225 15173 16663 12901 15317 14013 15764 17796 10704 18379 12490 19504 14852 999999
999999 999999 999999 999999 999999 999999 999999 999999 999999 999999 999999 999999 999999 999999 999999 999999 999999 999999 999999 999999 999999 999999 999999 999999 999999 999999 999999 999999 999999 999999 999999 999999 999999 999999 999999 999999 999999 999999 999999 999999 999999 999999 999999 999999 999999 999999 999999 999999 999999 999999 999999 999999 999999 999999 999999 999999 999999 999999 999999 999999 999999 999999 999999 999999 999999 999999 999999 999999 999999 999999 999999 999999 999999 999999 999999 999999 999999 999999 999999 999999 999999 999999 999999 999999 999999 999999 999999 999999 999999 999999 999999 999999 999999 999999 999999 999999 999999 999999 999999 999999 999999 999999 999999 999999 999999 999999 999999 999999 999999 999999 999999 999999 999999 0 999999 999999 999999 999999 999999 999999 999999 999999 999999 999999 999999 999999 999999 999999 999999 999999 999999 999999 999999 999999 999999 999999 999999 999999 999999 999999 999999 18545 13497 11943 16102 17073 13733 15159 12077 13545 16643 13757 19588 14023 12141 11971 14467 18884 16691 13081 12275 17749 17630 12057 10383 14269 16346 18067 14156 12552 14271 17158 18678 15648 12464 10053 11172 14399 10316 11847 14304 18895 18214 11992 13985 13140 12287 11131 18491 15029 19642 999999
999999 999999 999999 999999 999999 999999 999999 999999 999999 999999 999999 999999 999999 999999 999999 999999 999999 999999 999999 999999 999999 999999 999999 999999 999999 999999 999999 999999 999999 999999 999999 999999 999999 999999 999999 999999 999999 999999 999999 999999 999999 999999 999999 999999 999999 999999 999999 999999 999999 999999 999999 999999 999999 999999 999999 999999 999999 999999 999999 999999 999999 999999 999999 999999 999999 999999 999999 999999 999999 999999 999999 999999 999999 999999 999999 999999 999999 999999 999999 999999 999999 999999 999999 999999 999999 999999 999999 999999 999999 999999 999999 999999 999999 999999 999999 999999 999999 999999 999999 999999 999999 999999 999999 999999 999999 999999 999999 999999 999999 999999 999999 999999 999999 999999 0 999999 999999 999999 999999 999999 999999 999999 999999 999999 999999 999999 999999 999999 999999 999999 999999 999999 999999 999999 999999 999999 999999 999999 999999 999999 999999 17266 19838 11446 18649 15645 10688 16437 18109 11236 14552 18519 12315 13320 16639 15412 17133 13944 18909 14472 19835 16235 10810 13247 11212 12786 16798 19380 12753 14330 16526 11874 10225 15257 12474 12310 12670 12070 15881 16437 12138 19429 16977 11078 19655 17373 10853 10432 14512 11342 12210 999999
999999 999999 999999 999999 999999 999999 999999 999999 999999 999999 999999 999999 999999 999999 999999 999999 999999 999999 999999 999999 999999 999999 999999 999999 999999 999999 999999 999999 999999 999999 999999 999999 999999 999999 999999 999999 999999 999999 999999 999999 999999 999999 999999 999999 999999 999999 999999 999999 999999 999999 999999 999999 999999 999999 999999 999999 999999 999999 999999 999999 999999 999999 999999 999999 999999 999999 999999 999999 999999 999999 999999 999999 999999 999999 999999 999999 999999 999999 999999 999999 999999 999999 999999 999999 999999 999999 999999 999999 999999 999999 999999 999999 999999 999999 999999 999999 999999 999999 999999 999999 999999 999999 999999 999999 999999 999999 999999 999999 999999 999999 999999 999999 999999 999999 999999 0 999999 999999 999999 999999 999999 999999 999999 999999 999999 999999 999999 999999 999999 999999 999999 999999 999999 999999 999999 999999 999999 999999 999999 999999 999999 16508 14598 14875 11504 10418 16421 11760 19580 11811 15604 12674 10582 12430 18178 11798 10671 14907 15980 12237 19728 17666 19202 11172 14506 13768 12914 14532 10073 15750 11962 15287 11480 13214 10323 12193 15340 12337 11735 17025 10166 16882 11253 19916 11789 17358 17023 19258 12809 11082 16607 999999
999999 999999 999999 999999 999999 999999 999999 999999 999999 999999 999999 999999 999999 999999 999999 999999 999999 999999 999999 999999 999999 999999 999999 999999 999999 999999 999999 999999 999999 999999 999999 999999 999999 999999 999999 999999 999999 999999 999999 999999 999999 999999 999999 999999 999999 999999 999999 999999 999999 999999 999999 999999 999999 999999 999999 999999 999999 999999 999999 999999 999999 999999 999999 999999 999999 999999 999999 999999 999999 999999 999999 999999 999999 999999 999999 999999 999999 999999 999999 999999 999999 999999 999999 999999 999999 999999 999999 999999 999999 999999 999999 999999 999999 999999 999999 999999 999999 999999 999999 999999 999999 999999 999999 999999 999999 999999 999999 999999 999999 999999 999999 999999 999999 999999 999999 999999 0 999999 999999 999999 999999 999999 999999 999999 999999 999999 999999 999999 999999 999999 999999 999999 999999 999999 999999 999999 999999 999999 999999 999999 999999 13406 12623 18800 10298 13169 12111 18494 18814 13386 18400 11251 10862 14837 13000 19394 10627 18305 11718 17126 10693 17426 14632 19379 17342 13333 17957 12606 18533 13534 12977 10889 14532 18708 16933 12120 13481 12450 16385 14044 13076 17680 12393 13506 12982 13341 14349 17492 10583 11453 12359 999999
999999 999999 999999 999999 999999 999999 999999 999999 999999 999999 999999 999999 999999 999999 999999 999999 999999 999999 999999 999999 999999 999999 999999 999999 999999 999999 999999 999999 999999 999999 999999 999999 999999 999999 999999 999999 999999 999999 999999 999999 999999 999999 999999 999999 999999 999999 999999 999999 999999 999999 999999 999999 999999 999999 999999 999999 999999 999999 999999 999999 999999 999999 999999 999999 999999 999999 999999 999999 999999 999999 999999 999999 999999 999999 999999 999999 999999 999999 999999 999999 999999 999999 999999 999999 999999 999999 999999 999999 999999 999999 999999 999999 999999 999999 999999 999999 999999 999999 999999 999999 999999 999999 999999 999999 999999 999999 999999 999999 999999 999999 999999 999999 999999 999999 999999 999999 999999 0 999999 999999 999999 999999 999999 999999 999999 999999 999999 999999 999999 999999 999999 999999 999999 999999 999999 999999 999999 999999 999999 999999 999999 19897 18432 13746 12162 14509 16858 18359 10339 10825 19566 12590 12973 15603 15030 13762 10657 14820 15735 10080 14344 12941 12105 16804 11500 10154 15272 19065 15336 18689 12659 18126 14783 19633 11988 19335 14033 17819 19472 15171 15401 13346 14273 13992 14007 11390 14574 12071 12898 10875 10767 999999
999999 999999 999999 999999 999999 999999 999999 999999 999999 999999 999999 999999 999999 999999 999999 999999 999999 999999 999999 999999 999999 999999 999999 999999 999999 999999 999999 999999 999999 999999 999999 999999 999999 999999 999999 999999 999999 999999 999999 999999 999999 999999 999999 999999 999999 999999 999999 999999 999999 999999 999999 999999 999999 999999 999999 999999 999999 999999 999999 999999 999999 999999 999999 999999 999999 999999 999999 999999 999999 999999 999999 999999 999999 999999 999999 999999 999999 999999 999999 999999 999999 999999 999999 999999 999999 999999 999999 999999 999999 999999 999999 999999 999999 999999 999999 999999 999999 999999 999999 999999 999999 999999 999999 999999 999999 999999 999999 999999 999999 999999 999999 999999 999999 999999 999999 999999 999999 999999 0 999999 999999 999999 999999 999999 999999 999999 999999 999999 999999 999999 999999 999999 999999 999999 999999 999999 999999 999999 999999 999999 999999 10038 10718 16114 10954 16161 14670 12850 12341 15977 18912 10667 14236 19325 14452 11230 16744 12541 10815 10316 14609 14365 16932 12125 15335 13566 16439 10063 11291 18671 19569 14495 13095 10988 12225 17137 19835 12568 14852 18785 15131 16082 16708 18973 17155 12383 18294 12143 11677 12601 14180 999999
999999 999999 999999 999999 999999 999999 999999 999999 999999 999999 999999 999999 999999 999999 999999 999999 999999 999999 999999 999999 999999 999999 999999 999999 999999 999999 999999 999999 999999 999999 999999 999999 999999 999999 999999 999999 999999 999999 999999 999999 999999 999999 999999 999999 999999 999999 999999 999999 999999 999999 999999 999999 999999 999999 999999 999999 999999 999999 999999 999999 999999 999999 999999 999999 999999 999999 999999 999999 999999 999999 999999 999999 999999 999999 999999 999999 999999 999999 999999 999999 999999 999999 999999 999999 999999 999999 999999 999999 999999 999999 999999 999999 999999 999999 999999 999999 999999 999999 999999 999999 999999 999999 999999 999999 999999 999999 999999 999999 999999 999999 999999 999999 999999 999999 999999 999999 999999 999999 999999 0 999999 999999 999999 999999 999999 999999 999999 999999 999999 999999 999999 999999 999999 999999 999999 999999 999999 999999 999999 999999 999999 13606 19285 19964 18683 12494 18149 19276 13459 11156 13126 16372 15471 10188 14538 19617 19914 17974 13468 18167 13748 10747 10899 13748 11600 19904 15871 11688 18772 18415 17923 13519 14523 12917 13644 15743 13947 16352 13837 13133 16538 13194 15447 16387 14619 11920 15161 16965 16053 11970 11499 999999
999999 999999 999999 999999 999999 999999 999999 999999 999999 999999 999999 999999 999999 999999 999999 999999 999999 999999 999999 999999 999999 999999 999999 999999 999999 999999 999999 999999 999999 999999 999999 999999 999999 999999 999999 999999 999999 999999 999999 999999 999999 999999 999999 999999 999999 999999 999999 999999 999999 999999 999999 999999 999999 999999 999999 999999 999999 999999 999999 999999 999999 999999 999999 999999 999999 999999 999999 999999 999999 999999 999999 999999 999999 999999 999999 999999 999999 999999 999999 999999 999999 999999 999999 999999 999999 999999 999999 999999 999999 999999 999999 999999 999999 999999 999999 999999 999999 999999 999999 999999 999999 999999 999999 999999 999999 999999 999999 999999 999999 999999 999999 999999 999999 999999 999999 999999 999999 999999 999999 999999 0 999999 999999 999999 999999 999999 999999 999999 999999 999999 999999 999999 999999 999999 999999 999999 999999 999999 999999 999999 999999 19658 16400 17750 19478 13211 14723 19056 17728 13409 11763 16237 10514 18276 14516 11120 18313 14809 12358 10728 18444 18238 18886 18920 10195 15811 18317 18558 10230 11450 13180 14502 15817 10706 14513 19640 11334 10900 19969 16239 18037 13460 10435 11293 15681 11750 10681 18857 15932 19658 13196 999999
999999 999999 999999 999999 999999 999999 999999 999999 999999 999999 999999 999999 999999 999999 999999 999999 999999 999999 999999 999999 999999 999999 999999 999999 999999 999999 999999 999999 999999 999999 999999 999999 999999 999999 999999 999999 999999 999999 999999 999999 999999 999999 999999 999999 999999 999999 999999 999999 999999 999999 999999 999999 999999 999999 999999 999999 999999 999999 999999 999999 999999 999999 999999 999999 999999 999999 999999 999999 999999 999999 999999 999999 999999 999999 999999 999999 999999 999999 999999 999999 999999 999999 999999 999999 999999 999999 999999 999999 999999 999999 999999 999999 999999 999999 999999 999999 999999 999999 999999 999999 999999 999999 999999 999999 999999 999999 999999 999999 999999 999999 999999 999999 999999 999999 999999 999999 999999 999999 999999 999999 999999 0 999999 999999 999999 999999 999999 999999 999999 999999 999999 999999 999999 999999 999999 999999 999999 999999 999999 999999 999999 19562 12046 10804 16076 11213 18507 15374 12778 13051 12169 17248 12164 16219 13428 10785 19908 11470 15195 16682 11943 14702 18850 15254 15545 16351 17829 15479 12617 10766 15964 16977 18038 18357 11565 13186 11309 11979 11203 12272 14502 17660 15051 19013 11203 19869 16443 12003 11221 18041 19787 999999
999999 999999 999999 999999 999999 999999 999999 999999 999999 999999 999999 999999 999999 999999 999999 999999 999999 999999 999999 999999 999999 999999 999999 999999 999999 999999 999999 999999 999999 999999 999999 999999 999999 999999 999999 999999 999999 999999 999999 999999 999999 999999 999999 999999 999999 999999 999999 999999 999999 999999 999999 999999 999999 999999 999999 999999 999999 999999 999999 999999 999999 999999 999999 999999 999999 999999 999999 999999 999999 999999 999999 999999 999999 999999 999999 999999 999999 999999 999999 999999 999999 999999 999999 999999 999999 999999 999999 999999 999999 999999 999999 999999 999999 999999 999999 999999 999999 999999 999999 999999 999999 999999 999999 999999 999999 999999 999999 999999 999999 999999 999999 999999 999999 999999 999999 999999 999999 999999 999999 999999 999999 999999 0 999999 999999 999999 999999 999999 999999 999999 999999 999999 999999 999999 999999 999999 999999 999999 999999 999999 999999 13305 14119 15152 18552 19699 14827 11077 11826 18487 15264 11115 15832 10421 17884 12189 13534 19840 13675 15017 18743 12434 14189 10887 18737 18508 12964 15750 15680 10739 15768 19179 11550 14863 14633 16047 18237 18681 15351 17881 17911 12341 17127 13422 17349 17605 12879 14505 17482 18287 19796 999999
999999 999999 999999 999999 999999 999999 999999 999999 999999 999999 999999 999999 999999 999999 999999 999999 999999 999999 999999 999999 999999 999999 999999 999999 999999 999999 999999 999999 999999 999999 999999 999999 999999 999999 999999 999999 999999 999999 999999 999999 999999 999999 999999 999999 999999 999999 999999 999999 999999 999999 999999 999999 999999 999999 999999 999999 999999 999999 999999 999999 999999 999999 999999 999999 999999 999999 999999 999999 999999 999999 999999 999999 999999 999999 999999 999999 999999 999999 999999 999999 999999 999999 999999 999999 999999 999999 999999 999999 999999 999999 999999 999999 999999 999999 999999 999999 999999 999999 999999 999999 999999 999999 999999 999999 999999 999999 999999 999999 999999 999999 999999 999999 999999 999999 999999 999999 999999 999999 999999 999999 999999 999999 999999 0 999999 999999 999999 999999 999999 999999 999999 999999 999999 999999 999999 999999 999999 999999 999999 999999 999999 10636 18240 19731 13346 16371 17774 11518 11210 11462 12839 15065 11049 19140 17263 12095 12342 17426 14332 14893 14817 11910 13582 17970 17052 11906 18683 10400 12798 15864 10440 13193 13381 19079 14344 11456 10710 14532 18376 17442 19931 12620 10143 18394 18125 11992 16263 11993 16303 17786 17253 999999
999999 999999 999999 999999 999999 999999 999999 999999 999999 999999 999999 999999 999999 999999 999999 999999 999999 999999 999999 999999 999999 999999 999999 999999 999999 999999 999999 999999 999999 999999 999999 999999 999999 999999 999999 999999 999999 999999 999999 999999 999999 999999 999999 999999 999999 999999 999999 999999 999999 999999 999999 999999 999999 999999 999999 999999 999999 999999 999999 999999 999999 999999 999999 999999 999999 999999 999999 999999 999999 999999 999999 999999 999999 999999 999999 999999 999999 999999 999999 999999 999999 999999 999999 999999 999999 999999 999999 999999 999999 999999 999999 999999 999999 999999 999999 999999 999999 999999 999999 999999 999999 999999 999999 999999 999999 999999 999999 999999 999999 999999 999999 999999 999999 999999 999999 999999 999999 999999 999999 999999 999999 999999 999999 999999 0 999999 999999 999999 999999 999999 999999 999999 999999 999999 999999 999999 999999 999999 999999 999999 999999 18909 18503 16358 13439 15103 15294 12929 18078 11903 14864 14123 11203 16924 14069 12474 16670 15421 12844 16032 15421 14849 19741 19192 11710 17830 12538 11050 12312 13859 19752 17290 10999 16633 18120 14077 10370 17613 16525 13729 19714 12395 18524 18106 12700 19219 18507 15222 18293 10613 17593 999999
999999 999999 999999 999999 999999 999999 999999 999999 999999 999999 999999 999999 999999 999999 999999 999999 999999 999999 999999 999999 999999 999999 999999 999999 999999 999999 999999 999999 999999 999999 999999 999999 999999 999999 999999 999999 999999 999999 999999 999999 999999 999999 999999 999999 999999 999999 999999 999999 999999 999999 999999 999999 999999 999999 999999 999999 999999 999999 999999 999999 999999 999999 999999 999999 999999 999999 999999 999999 999999 999999 999999 999999 999999 999999 999999 999999 999999 999999 999999 999999 999999 999999 999999 999999 999999 999999 999999 999999 999999 999999 999999 999999 999999 999999 999999 999999 999999 999999 999999 999999 999999 999999 999999 999999 999999 999999 999999 999999 999999 999999 999999 999999 999999 999999 999999 999999 999999 999999 999999 999999 999999 999999 999999 999999 999999 0 999999 999999 999999 999999 999999 999999 999999 999999 999999 999999 999999 999999 999999 999999 999999 15645 18355 14298 10479 19079 11260 19356 17869 14100 18648 15147 12922 12106 19993 19101 11773 13845 16849 14715 17448 12077 14343 17542 19956 12764 10599 17270 12809 17458 17906 11684 16360 10161 19408 15514 16530 10611 18781 11200 13886 19948 11742 11923 17494 10455 13817 15251 15943 11154 11337 999999
999999 999999 999999 999999 999999 999999 999999 999999 999999 999999 999999 999999 999999 999999 999999 999999 999999 999999 999999 999999 999999 999999 999999 999999 999999 999999 999999 999999 999999 999999 999999 999999 999999 999999 999999 999999 999999 999999 999999 999999 999999 999999 999999 999999 999999 999999 999999 999999 999999 999999 999999 999999 999999 999999 999999 999999 999999 999999 999999 999999 999999 999999 999999 999999 999999 999999 999999 999999 999999 999999 999999 999999 999999 999999 999999 999999 999999 999999 999999 999999 999999 999999 999999 999999 999999 999999 999999 999999 999999 999999 999999 999999 999999 999999 999999 999999 999999 999999 999999 999999 999999 999999 999999 999999 999999 999999 999999 999999 999999 999999 999999 999999 999999 999999 999999 999999 999999 999999 999999 999999 999999 999999 999999 999999 999999 999999 0 999999 999999 999999 999999 999999 999999 999999 999999 999999 999999 999999 999999 999999 999999 17990 18344 16889 11521 14115 11412 15172 12136 16251 17914 10998 15806 10005 10687 16985 17740 19444 14345 11287 17145 19380 12778 14690 12837 10137 14183 11335 13647 16738 18059 13336 11949 13759 17917 10797 16305 12497 15401 19832 18434 10153 12265 12308 16102 16818 14020 12695 15893 13618 15195 999999
999999 999999 999999 999999 999999 999999 999999 999999 999999 999999 999999 999999 999999 999999 999999 999999 999999 999999 999999 999999 999999 999999 999999 999999 999999 999999 999999 999999 999999 999999 999999 999999 999999 999999 999999 999999 999999 999999 999999 999999 999999 999999 999999 999999 999999 999999 999999 999999 999999 999999 999999 999999 999999 999999 999999 999999 999999 999999 999999 999999 999999 999999 999999 999999 999999 999999 999999 999999 999999 999999 999999 999999 999999 999999 999999 999999 999999 999999 999999 999999 999999 999999 999999 999999 999999 999999 999999 999999 999999 999999 999999 999999 999999 999999 999999 999999 999999 999999 999999 999999 999999 999999 999999 999999 999999 999999 999999 999999 999999 999999 999999 999999 999999 999999 999999 999999 999999 999999 999999 999999 999999 999999 999999 999999 999999 999999 999999 0 999999 999999 999999 999999 999999 999999 999999 999999 999999 999999 999999 999999 999999 11012 10213 11153 18608 18677 10822 19951 17767 15191 16470 18258 18840 14092 18119 14288 18360 13141 11493 10606 12479 18318 11181 14553 14573 16737 18338 19294 14278 13062 14134 17220 16092 13711 18589 18374 13263 17720 14069 12347 15335 15807 10973 15133 17706 18557 17670 10950 12504 13408 10543 999999
999999 999999 999999 999999 999999 999999 999999 999999 999999 999999 999999 999999 999999 999999 999999 999999 999999 999999 999999 999999 999999 999999 999999 999999 999999 999999 999999 999999 999999 999999 999999 999999 999999 999999 999999 999999 999999 999999 999999 999999 999999 999999 999999 999999 999999 999999 999999 999999 999999 999999 999999 999999 999999 999999 999999 999999 999999 999999 999999 999999 999999 999999 999999 999999 999999 999999 999999 999999 999999 999999 999999 999999 999999 999999 999999 999999 999999 999999 999999 999999 999999 999999 999999 999999 999999 999999 999999 999999 999999 999999 999999 999999 999999 999999 999999 999999 999999 999999 999999 999999 999999 999999 999999 999999 999999 999999 999999 999999 999999 999999 999999 999999 999999 999999 999999 999999 999999 999999 999999 999999 999999 999999 999999 999999 999999 999999 999999 999999 0 999999 999999 999999 999999 999999 999999 999999 999999 999999 999999 999999 999999 14668 18678 13656 10672 14155 16142 18541 16248 10586 17796 11425 14046 17322 12124 19913 13173 12495 14968 13247 14134 12241 12286 10695 18968 19013 11586 17015 12170 15715 16902 19881 11417 11236 18051 19439 18653 14935 10561 14448 10778 13180 16262 18673 10666 18747 10043 14198 13461 11357 18723 999999
999999 999999 999999 999999 999999 999999 999999 999999 999999 999999 999999 999999 999999 999999 999999 999999 999999 999999 999999 999999 999999 999999 999999 999999 999999 999999 999999 999999 999999 999999 999999 999999 999999 999999 999999 999999 999999 999999 999999 999999 999999 999999 999999 999999 999999 999999 999999 999999 999999 999999 999999 999999 999999 999999 999999 999999 999999 999999 999999 999999 999999 999999 999999 999999 999999 999999 999999 999999 999999 999999 999999 999999 999999 999999 999999 999999 999999 999999 999999 999999 999999 999999 999999 999999 999999 999999 999999 999999 999999 999999 999999 999999 999999 999999 999999 999999 999999 999999 999999 999999 999999 999999 999999 999999 999999 999999 999999 999999 999999 999999 999999 999999 999999 999999 999999 999999 999999 999999 999999 999999 999999 999999 999999 999999 999999 999999 999999 999999 999999 0 999999 999999 999999 999999 999999 999999 999999 999999 999999 999999 999999 18655 13007 10846 13162 15302 14901 11167 13997 10847 10184 10976 14636 14713 17276 17173 14679 19853 18615 11488 18280 17771 13991 14152 15352 17630 15592 17932 12245 16091 17553 10516 14882 19880 15476 11460 12898 12080 11753 18848 14067 14177 14604 15560 18124 11706 18155 19728 18302 11376 15772 999999
999999 999999 999999 999999 999999 999999 999999 999999 999999 999999 999999 999999 999999 999999 999999 999999 999999 999999 999999 999999 999999 999999 999999 999999 999999 999999 999999 999999 999999 999999 999999 999999 999999 999999 999999 999999 999999 999999 999999 999999 999999 999999 999999 999999 999999 999999 999999 999999 999999 999999 999999 999999 999999 999999 999999 999999 999999 999999 999999 999999 999999 999999 999999 999999 999999 999999 999999 999999 999999 999999 999999 999999 999999 999999 999999 999999 999999 999999 999999 999999 999999 999999 999999 999999 999999 999999 999999 999999 999999 999999 999999 999999 999999 999999 999999 999999 999999 999999 999999 999999 999999 999999 999999 999999 999999 999999 999999 999999 999999 999999 999999 999999 999999 999999 999999 999999 999999 999999 999999 999999 999999 999999 999999 999999 999999 999999 999999 999999 999999 999999 0 999999 999999 999999 999999 999999 999999 999999 999999 999999 999999 13315 16585 10578 14835 10781 17214 12391 16025 15226 16942 12872 12352 16874 14268 15965 11037 19800 17681 11699 18583 15988 16248 13672 12455 19386 18920 12972 11678 10506 15557 14035 11216 13889 13516 18282 16895 11304 12086 12252 16109 17829 14218 17666 15425 11057 13421 10212 18499 18945 16550 999999
999999 999999 999999 999999 999999 999999 999999 999999 999999 999999 999999 999999 999999 999999 999999 999999 999999 999999 999999 999999 999999 999999 999999 999999 999999 999999 999999 999999 999999 999999 999999 999999 999999 999999 999999 999999 999999 999999 999999 999999 999999 999999 999999 999999 999999 999999 999999 999999 999999 999999 999999 999999 999999 999999 999999 999999 999999 999999 999999 999999 999999 999999 999999 999999 999999 999999 999999 999999 999999 999999 999999 999999 999999 999999 999999 999999 999999 999999 999999 999999 999999 999999 999999 999999 999999 999999 999999 999999 999999 999999 999999 999999 999999 999999 999999 999999 999999 999999 999999 999999 999999 999999 999999 999999 999999 999999 999999 999999 999999 999999 999999 999999 999999 999999 999999 999999 999999 999999 999999 999999 999999 999999 999999 999999 999999 999999 999999 999999 999999 999999 999999 0 999999 999999 999999 999999 999999 999999 999999 999999 999999 16954 11199 15458 12298 14650 13762 10771 19792 16805 16620 10810 12426 10474 10807 17367 13457 16444 19367 11379 13301 16785 19139 15891 12986 14329 13093 16152 11922 15431 19219 17960 18563 15552 17650 16981 18199 14889 15678 11304 15314 14653 14399 17395 13502 17019 19339 18529 17270 18395 17975 999999
999999 999999 999999 999999 999999 999999 999999 999999 999999 999999 999999 999999 999999 999999 999999 999999 999999 999999 999999 999999 999999 999999 999999 999999 999999 999999 999999 999999 999999 999999 999999 999999 999999 999999 999999 999999 999999 999999 999999 999999 999999 999999 999999 999999 999999 999999 999999 999999 999999 999999 999999 999999 999999 999999 999999 999999 999999 999999 999999 999999 999999 999999 999999 999999 999999 999999 999999 999999 999999 999999 999999 999999 999999 999999 999999 999999 999999 999999 999999 999999 999999 999999 999999 999999 999999 999999 999999 999999 999999 999999 999999 999999 999999 999999 999999 999999 999999 999999 999999 999999 999999 999999 999999 999999 999999 999999 999999 999999 999999 999999 999999 999999 999999 999999 999999 999999 999999 999999 999999 999999 999999 999999 999999 999999 999999 999999 999999 999999 999999 999999 999999 999999 0 999999 999999 999999 999999 999999 999999 999999 999999 16823 17722 17081 12074 17929 15044 14659 15906 16734 11406 10827 17605 13259 18295 10000 16737 19680 12664 18507 16024 13321 16731 17661 13657 17586 18283 12450 10755 13792 12025 17689 14481 17575 10306 10255 18711 18273 15253 19353 15468 10400 18757 18491 12829 17738 17448 14844 18495 12549 18530 999999
999999 999999 999999 999999 999999 999999 999999 999999 999999 999999 999999 999999 999999 999999 999999 999999 999999 999999 999999 999999 999999 999999 999999 999999 999999 999999 999999 999999 999999 999999 999999 999999 999999 999999 999999 999999 999999 999999 999999 999999 999999 999999 999999 999999 999999 999999 999999 999999 999999 999999 999999 999999 999999 999999 999999 999999 999999 999999 999999 999999 999999 999999 999999 999999 999999 999999 999999 999999 999999 999999 999999 999999 999999 999999 999999 999999 999999 999999 999999 999999 999999 999999 999999 999999 999999 999999 999999 999999 999999 999999 999999 999999 999999 999999 999999 999999 999999 999999 999999 999999 999999 999999 999999 999999 999999 999999 999999 999999 999999 999999 999999 999999 999999 999999 999999 999999 999999 999999 999999 999999 999999 999999 999999 999999 999999 999999 999999 999999 999999 999999 999999 999999 999999 0 999999 999999 999999 999999 999999 999999 999999 10204 17095 12249 17846 11678 18390 11511 10339 16292 19190 14852 19950 16309 13728 10441 18457 14854 11100 19166 15869 15681 14141 11611 12587 15002 10724 15110 19714 18722 17929 12585 13942 17429 16839 15857 15857 16819 15067 18889 18024 19847 16360 15154 11287 12403 17923 16789 12615 19499 12902 999999
999999 999999 999999 999999 999999 999999 999999 999999 999999 999999 999999 999999 999999 999999 999999 999999 999999 999999 999999 999999 999999 999999 999999 999999 999999 999999 999999 999999 999999 999999 999999 999999 999999 999999 999999 999999 999999 999999 999999 999999 999999 999999 999999 999999 999999 999999 999999 999999 999999 999999 999999 999999 999999 999999 999999 999999 999999 999999 999999 999999 999999 999999 999999 999999 999999 999999 999999 999999 999999 999999 999999 999999 999999 999999 999999 999999 999999 999999 999999 999999 999999 999999 999999 999999 999999 999999 999999 999999 999999 999999 999999 999999 999999 999999 999999 999999 999999 999999 999999 999999 999999 999999 999999 999999 999999 999999 999999 999999 999999 999999 999999 999999 999999 999999 999999 999999 999999 999999 999999 999999 999999 999999 999999 999999 999999 999999 999999 999999 999999 999999 999999 999999 999999 999999 0 999999 999999 999999 999999 999999 999999 10937 11691 18661 17282 12766 15563 15637 17994 19226 10162 14559 18271 13681 12995 14462 12244 17573 19107 11329 17586 17077 16204 16611 13013 10012 19257 15505 10323 14305 14133 14133 13548 15930 13680 13322 12417 18217 11031 11367 11028 13650 19948 15106 10095 19762 17507 14491 18154 17912 11384 999999
999999 999999 999999 999999 999999 999999 999999 999999 999999 999999 999999 999999 999999 999999 999999 999999 999999 999999 999999 999999 999999 999999 999999 999999 999999 999999 999999 999999 999999 999999 999999 999999 999999 999999 999999 999999 999999 999999 999999 999999 999999 999999 999999 999999 999999 999999 999999 999999 999999 999999 999999 999999 999999 999999 999999 999999 999999 999999 999999 999999 999999 999999 999999 999999 999999 999999 999999 999999 999999 999999 999999 999999 999999 999999 999999 999999 999999 999999 999999 999999 999999 999999 999999 999999 999999 999999 999999 999999 999999 999999 999999 999999 999999 999999 999999 999999 999999 999999 999999 999999 999999 999999 999999 999999 999999 999999 999999 999999 999999 999999 999999 999999 999999 999999 999999 999999 999999 999999 999999 999999 999999 999999 999999 999999 999999 999999 999999 999999 999999 999999 999999 999999 999999 999999 999999 0 999999 999999 999999 999999 999999 14176 12234 12427 14973 14482 16197 15772 11205 11859 13936 16935 18477 11331 11088 16768 11618 11355 16869 11118 18329 17620 19155 11947 14901 16964 15202 13072 16521 13772 16834 12273 15495 19248 14070 17679 12502 16201 18479 11154 19019 16943 14643 12696 15930 15933 11362 17928 15955 19693 13328 999999
999999 999999 999999 999999 999999 999999 999999 999999 999999 999999 999999 999999 999999 999999 999999 999999 999999 999999 999999 999999 999999 999999 999999 999999 999999 999999 999999 999999 999999 999999 999999 999999 999999 999999 999999 999999 999999 999999 999999 999999 999999 999999 999999 999999 999999 999999 999999 999999 999999 999999 999999 999999 999999 999999 999999 999999 999999 999999 999999 999999 999999 999999 999999 999999 999999 999999 999999 999999 999999 999999 999999 999999 999999 999999 999999 999999 999999 999999 999999 999999 999999 999999 999999 999999 999999 999999 999999 999999 999999 999999 999999 999999 999999 999999 999999 999999 999999 999999 999999 999999 999999 999999 999999 999999 999999 999999 999999 999999 999999 999999 999999 999999 999999 999999 999999 999999 999999 999999 999999 999999 999999 999999 999999 999999 999999 999999 999999 999999 999999 999999 999999 999999 999999 999999 999999 999999 0 999999 999999 999999 999999 18606 15167 12846 11939 14971 11714 13656 10988 13316 16715 19628 11413 19812 16267 14430 16284 15963 12328 15319 19521 12356 18975 15565 18086 19802 12408 16746 16865 12540 13749 10800 19153 14562 17949 18336 15804 19180 13044 12373 11671 15679 14752 11011 17297 17410 13677 18942 16449 15128 17704 999999
999999 999999 999999 999999 999999 999999 999999 999999 999999 999999 999999 999999 999999 999999 999999 999999 999999 999999 999999 999999 999999 999999 999999 999999 999999 999999 999999 999999 999999 999999 999999 999999 999999 999999 999999 999999 999999 999999 999999 999999 999999 999999 999999 999999 999999 999999 999999 999999 999999 999999 999999 999999 999999 999999 999999 999999 999999 999999 999999 999999 999999 999999 999999 999999 999999 999999 999999 999999 999999 999999 999999 999999 999999 999999 999999 999999 999999 999999 999999 999999 999999 999999 999999 999999 999999 999999 999999 999999 999999 999999 999999 999999 999999 999999 999999 999999 999999 999999 999999 999999 999999 999999 999999 999999 999999 999999 999999 999999 999999 999999 999999 999999 999999 999999 999999 999999 999999 999999 999999 999999 999999 999999 999999 999999 999999 999999 999999 999999 999999 999999 999999 999999 999999 999999 999999 999999 999999 0 999999 999999 999999 18745 18116 17881 19132 17725 16601 15868 10270 18182 13190 13121 11431 18402 14245 16532 12220 18192 11823 17859 15625 10110 11016 11152 14088 16769 13923 16081 17190 15457 17298 10099 16337 12151 14301 11297 10318 18029 12706 17616 15971 19804 16673 10421 10306 13903 16297 12868 14460 16096 15912 999999
999999 999999 999999 999999 999999 999999 999999 999999 999999 999999 999999 999999 999999 999999 999999 999999 999999 999999 999999 999999 999999 999999 999999 999999 999999 999999 999999 999999 999999 999999 999999 999999 999999 999999 999999 999999 999999 999999 999999 999999 999999 999999 999999 999999 999999 999999 999999 999999 999999 999999 999999 999999 999999 999999 999999 999999 999999 999999 999999 999999 999999 999999 999999 999999 999999 999999 999999 999999 999999 999999 999999 999999 999999 999999 999999 999999 999999 999999 999999 999999 999999 999999 999999 999999 999999 999999 999999 999999 999999 999999 999999 999999 999999 999999 999999 999999 999999 999999 999999 999999 999999 999999 999999 999999 999999 999999 999999 999999 999999 999999 999999 999999 999999 999999 999999 999999 999999 999999 999999 999999 999999 999999 999999 999999 999999 999999 999999 999999 999999 999999 999999 999999 999999 999999 999999 999999 999999 999999 0 999999 999999 13043 10662 16551 15167 15489 19910 11618 13901 13011 16973 12229 19321 16053 18082 13458 18629 16087 10762 11079 16834 13721 10088 11077 12141 14666 12914 16121 10983 16851 11025 14073 19938 15692 17765 11436 18872 16383 10860 11789 16688 18326 18348 13246 16427 17152 19539 18049 11309 13145 11078 999999
999999 999999 999999 999999 999999 999999 999999 999999 999999 999999 999999 999999 999999 999999 999999 999999 999999 999999 999999 999999 999999 999999 999999 999999 999999 999999 999999 999999 999999 999999 999999 999999 999999 999999 999999 999999 999999 999999 999999 999999 999999 999999 999999 999999 999999 999999 999999 999999 999999 999999 999999 999999 999999 999999 999999 999999 999999 999999 999999 999999 999999 999999 999999 999999 999999 999999 999999 999999 999999 999999 999999 999999 999999 999999 999999 999999 999999 999999 999999 999999 999999 999999 999999 999999 999999 999999 999999 999999 999999 999999 999999 999999 999999 999999 999999 999999 999999 999999 999999 999999 999999 999999 999999 999999 999999 999999 999999 999999 999999 999999 999999 999999 999999 999999 999999 999999 999999 999999 999999 999999 999999 999999 999999 999999 999999 999999 999999 999999 999999 999999 999999 999999 999999 999999 999999 999999 999999 999999 999999 0 999999 11010 12658 16538 14610 14961 11543 14257 15783 19335 15365 11414 17662 14274 19969 16972 14619 11454 19661 18045 13983 17242 12411 19792 19722 15100 12685 19553 11758 15539 17184 11559 10012 13746 15076 13556 10157 16882 19064 14675 13874 10271 13789 13356 11272 14336 14976 19145 13103 11717 12796 999999
999999 999999 999999 999999 999999 999999 999999 999999 999999 999999 999999 999999 999999 999999 999999 999999 999999 999999 999999 999999 999999 999999 999999 999999 999999 999999 999999 999999 999999 999999 999999 999999 999999 999999 999999 999999 999999 999999 999999 999999 999999 999999 999999 999999 999999 999999 999999 999999 999999 999999 999999 999999 999999 999999 999999 999999 999999 999999 999999 999999 999999 999999 999999 999999 999999 999999 999999 999999 999999 999999 999999 999999 999999 999999 999999 999999 999999 999999 999999 999999 999999 999999 999999 999999 999999 999999 999999 999999 999999 999999 999999 999999 999999 999999 999999 999999 999999 999999 999999 999999 999999 999999 999999 999999 999999 999999 999999 999999 999999 999999 999999 999999 999999 999999 999999 999999 999999 999999 999999 999999 999999 999999 999999 999999 999999 999999 999999 999999 999999 999999 999999 999999 999999 999999 999999 999999 999999 999999 999999 999999 0 14471 17687 17216 15019 13097 11889 19807 16408 13804 12596 18093 11968 18324 14983 14592 15143 10249 15804 16683 16559 10399 19536 14342 10601 16188 18796 14128 13679 11299 11835 18959 19870 18749 11969 18271 12513 10299 14538 19759 11190 17840 16863 16744 15145 16980 17353 13424 18652 19792 10976 999999
999999 15508 15772 12404 15938 18951 11290 14664 13501 16344 15107 11628 11877 17204 13247 16823 17623 10902 19105 15825 12306 18966 17986 11079 19183 11571 19463 11022 16901 18966 15276 19081 15660 14711 16063 17456 11559 12863 15438 13471 11086 17910 18681 14348 16680 12384 18182 16910 12140 18934 10049 17791 12210 17869 18136 16944 16314 11456 10970 10277 11795 10081 18439 19601 13696 12992 11981 13414 16093 16071 19196 19723 18145 17669 14360 17576 12111 11189 12599 15322 18157 11092 13875 16299 17930 12691 13826 11471 15441 18977 10706 19315 14522 19529 16132 10296 19548 18236 17758 13475 14660 15437 10300 13264 12258 16693 14608 16085 10855 10081 17335 19951 14801 18545 17266 16508 13406 19897 10038 13606 19658 19562 13305 10636 18909 15645 17990 11012 14668 18655 13315 16954 16823 10204 10937 14176 18606 18745 13043 11010 14471 0 999999 999999 999999 999999 999999 999999 999999 999999 999999 999999 999999 999999 999999 999999 999999 999999 999999 999999 999999 999999 999999 999999 999999 999999 999999 999999 999999 999999 999999 999999 999999 999999 999999 999999 999999 999999 999999 999999 999999 999999 999999 999999 999999 999999 999999 999999 999999 999999 999999 12274
999999 12194 13772 15698 18834 18270 14552 17485 13591 16538 17001 19312 17347 12898 12819 15056 11033 18965 14154 15006 18779 15358 12134 13026 16264 11698 12307 14583 17105 12447 11630 18832 12943 10693 18197 14911 19121 10524 13668 10754 12692 19484 16831 17042 18844 17388 18290 19415 14074 19026 15459 12999 12044 13268 12247 10255 18432 12817 15249 13916 16275 11597 13226 14540 19000 10277 19935 16387 16139 13251 16578 17074 14745 11261 12533 18562 12530 12760 17544 10890 12240 13975 16373 18734 16361 11724 12893 18211 10169 17730 10262 13807 12674 19003 12135 15322 11346 17006 14753 19683 10465 19745 15620 17133 13766 18247 10112 17182 16675 10394 10541 10753 12296 13497 19838 14598 12623 18432 10718 19285 16400 12046 14119 18240 18503 18355 18344 10213 18678 13007 16585 11199 17722 17095 11691 12234 15167 18116 10662 12658 17687 999999 0 999999 999999 999999 999999 999999 999999 999999 999999 999999 999999 999999 999999 999999 999999 999999 999999 999999 999999 999999 999999 999999 999999 999999 999999 999999 999999 999999 999999 999999 999999 999999 999999 999999 999999 999999 999999 999999 999999 999999 999999 999999 999999 999999 999999 999999 999999 999999 999999 9773
999999 12612 11072 16118 11502 10093 14878 10514 13148 10343 11720 14553 10742 15144 19981 16247 17276 16092 18200 18568 17295 18814 10594 19351 17424 14477 19941 14570 15463 13048 13506 15728 18714 15450 10006 17103 10915 17457 19398 14036 15470 13226 17463 19079 18202 14763 14002 12148 19098 17519 14440 12974 11084 19216 15226 15108 14268 12352 19180 10174 15751 16561 13116 11609 13348 19407 14039 10454 17298 16467 15412 13153 11618 10631 15298 12963 14495 11344 12203 19815 17963 16131 17640 16901 15662 19712 10852 15788 19678 15901 14968 15395 16014 14636 17880 13120 12903 18174 13612 14071 16941 14838 18320 18184 17525 11300 19535 17648 15057 14480 15639 11870 18294 11943 11446 14875 18800 13746 16114 19964 17750 10804 15152 19731 16358 14298 16889 11153 13656 10846 10578 15458 17081 12249 18661 12427 12846 17881 16551 16538 17216 999999 999999 0 999999 999999 999999 999999 999999 999999 999999 999999 999999 999999 999999 999999 999999 999999 999999 999999 999999 999999 999999 999999 999999 999999 999999 999999 999999 999999 999999 999999 999999 999999 999999 999999 999999 999999 999999 999999 999999 999999 999999 999999 999999 999999 999999 999999 999999 999999 999999 11437
999999 16360 10861 10537 17176 17361 19039 13216 11419 16080 15320 10816 11889 10810 17619 18569 18746 12394 15750 14752 18721 10834 19298 17899 17753 15108 13204 16618 13672 12202 14525 16366 14939 12410 16870 13891 12198 12009 17641 15844 10530 12300 12793 13389 14054 19566 13212 10982 19680 11341 19194 12630 16263 16194 11411 14339 17325 19795 17387 11767 15350 11427 10943 11955 18649 10309 15288 11372 10686 18862 12117 13107 18724 16251 12271 19420 19140 16379 15994 14104 11570 12535 14126 13012 13316 18091 16221 17336 12296 11996 15018 16320 19521 14293 11208 18995 19146 14320 14725 16115 11284 14955 13166 16673 12075 18484 14512 15461 14247 10711 17480 11721 11264 16102 18649 11504 10298 12162 10954 18683 19478 16076 18552 13346 13439 10479 11521 18608 10672 13162 14835 12298 12074 17846 17282 14973 11939 19132 15167 14610 15019 999999 999999 999999 0 999999 999999 999999 999999 999999 999999 999999 999999 999999 999999 999999 999999 999999 999999 999999 999999 999999 999999 999999 999999 999999 999999 999999 999999 999999 999999 999999 999999 999999 999999 999999 999999 999999 999999 999999 999999 999999 999999 999999 999999 999999 999999 999999 999999 999999 999999 13661
999999 13264 10211 19880 10504 13098 10944 19496 11387 11399 14953 11612 19714 16715 19907 13959 18365 15268 15065 12480 13216 12409 11468 18680 17470 19326 18047 14150 14797 15117 14908 16117 17858 13829 18935 13136 11619 19690 10933 12659 11322 12268 18221 12181 11715 11831 10790 14672 14681 14230 11285 13436 11943 13347 16255 16319 17184 16605 17306 15715 10064 11306 17807 14461 10293 16844 14859 12064 17004 15333 18211 13662 19304 13786 19182 11449 18406 17842 19127 18963 16806 10495 17732 15116 11777 17410 10024 18149 14598 19360 13107 11355 13656 11702 11978 12250 10170 15464 16910 14081 10985 12294 13463 13893 15999 15832 14380 15544 11785 15982 16647 17860 18210 17073 15645 10418 13169 14509 16161 12494 13211 11213 19699 16371 15103 19079 14115 18677 14155 15302 10781 14650 17929 11678 12766 14482 14971 17725 15489 14961 13097 999999 999999 999999 999999 0 999999 999999 999999 999999 999999 999999 999999 999999 999999 999999 999999 999999 999999 999999 999999 999999 999999 999999 999999 999999 999999 999999 999999 999999 999999 999999 999999 999999 999999 999999 999999 999999 999999 999999 999999 999999 999999 999999 999999 999999 999999 999999 999999 999999 999999 14793
999999 15192 12607 18627 17849 13020 16560 19077 15249 17481 19659 18312 17703 15651 14411 17530 12958 16354 12576 15767 10589 11339 12550 10051 10051 14906 16881 11338 16932 14451 11383 13975 16207 19028 10564 12925 15270 16236 12674 12786 13974 16957 19915 13085 12887 17801 14708 13688 10065 17329 15861 11076 14783 16054 10103 11490 17437 17328 11527 15804 18523 13917 14037 18963 13751 11440 10073 17925 16423 14323 18768 19413 10487 18925 15060 12634 19692 19386 10572 10662 16930 16703 10150 11332 18653 17137 10648 14060 19617 13467 19214 16385 15762 17272 15358 14167 15239 16744 14564 19525 16765 19549 10851 15952 18419 18567 12658 14644 13955 12619 19569 13745 10929 13733 10688 16421 12111 16858 14670 18149 14723 18507 14827 17774 15294 11260 11412 10822 16142 14901 17214 13762 15044 18390 15563 16197 11714 16601 19910 11543 11889 999999 999999 999999 999999 999999 0 999999 999999 999999 999999 999999 999999 999999 999999 999999 999999 999999 999999 999999 999999 999999 999999 999999 999999 999999 999999 999999 999999 999999 999999 999999 999999 999999 999999 999999 999999 999999 999999 999999 999999 999999 999999 999999 999999 999999 999999 999999 999999 999999 999999 6673
999999 11470 16642 12785 16406 13828 17013 11634 10766 13943 10676 15238 15467 11759 18049 19076 11990 12189 10860 12958 19231 18329 15279 14318 16987 13578 18379 12214 19379 11322 17355 10149 11392 12872 14868 10015 15699 10856 18736 14370 19569 14601 13705 11568 10576 12565 11596 11600 15550 10455 10303 16898 17703 11915 13180 19376 10330 19497 16514 13187 11842 14261 12717 17269 10239 14091 14507 18832 12216 14257 17960 15474 16229 11286 13387 13385 19457 18265 14062 13641 11173 12251 14828 12301 14393 17231 15822 14259 12677 14459 18497 17784 19470 14074 16459 17961 14252 13382 11082 19399 15215 10395 17254 11115 10420 14435 16724 19683 16184 14143 19919 15927 19345 15159 16437 11760 18494 18359 12850 19276 19056 15374 11077 11518 12929 19356 15172 19951 18541 11167 12391 10771 14659 11511 15637 15772 13656 15868 11618 14257 19807 999999 999999 999999 999999 999999 999999 0 999999 999999 999999 999999 999999 999999 999999 999999 999999 999999 999999 999999 999999 999999 999999 999999 999999 999999 999999 999999 999999 999999 999999 999999 999999 999999 999999 999999 999999 999999 999999 999999 999999 999999 999999 999999 999999 999999 999999 999999 999999 999999 999999 5920
999999 18338 11018 16783 17411 16626 16979 14670 19160 10350 14190 17099 17682 17610 12171 10260 15318 14573 14495 14224 16817 15041 14228 18064 17946 13009 12255 19633 10441 13333 11432 12659 10554 10195 13924 14938 18725 15498 13252 16616 17130 18237 15535 11130 14795 19843 13638 10444 16737 19114 13217 15772 13987 19111 17300 16037 19635 19913 14741 13601 13156 12338 19876 13563 17850 14064 16383 10102 16316 13857 16027 19216 12358 17282 15413 15717 17953 19600 18258 16739 19856 11494 13743 10374 18736 11868 18663 14872 18249 17712 15769 10387 15130 16237 17707 16475 13639 15025 17914 13952 14450 17949 10802 12703 13239 12588 11708 18314 16325 11406 15280 13995 13203 12077 18109 19580 18814 10339 12341 13459 17728 12778 11826 11210 18078 17869 12136 17767 16248 13997 16025 19792 15906 10339 17994 11205 10988 10270 13901 15783 16408 999999 999999 999999 999999 999999 999999 999999 0 999999 999999 999999 999999 999999 999999 999999 999999 999999 999999 999999 999999 999999 999999 999999 999999 999999 999999 999999 999999 999999 999999 999999 999999 999999 999999 999999 999999 999999 999999 999999 999999 999999 999999 999999 999999 999999 999999 999999 999999 999999 999999 12169
999999 19925 13212 12261 19384 14599 12337 18658 17454 15578 15348 11058 14990 10842 15923 13278 10484 15385 11006 10247 14752 16461 10641 12324 16946 19073 15930 11119 13426 15925 18845 12065 17024 17565 14837 19080 10220 13801 12202 17646 10527 13189 10578 13515 19023 16381 11376 11924 10900 17703 18722 11897 12813 10146 19110 14408 10124 18723 17938 13731 12006 15907 17574 16559 12235 15289 10179 16840 18076 15035 15527 16101 16874 11995 11003 14497 14798 17726 16471 15936 11589 11573 16912 14989 11598 11036 17237 15723 15812 18512 14174 18098 17098 11174 13826 13073 13272 10219 11128 10813 11763 11626 11759 14243 17530 19756 14285 16072 11954 17233 10463 11126 12196 13545 11236 11811 13386 10825 15977 11156 13409 13051 18487 11462 11903 14100 16251 15191 10586 10847 15226 16805 16734 16292 19226 11859 13316 18182 13011 19335 13804 999999 999999 999999 999999 999999 999999 999999 999999 0 999999 999999 999999 999999 999999 999999 999999 999999 999999 999999 999999 999999 999999 999999 999999 999999 999999 999999 999999 999999 999999 999999 999999 999999 999999 999999 999999 999999 999999 999999 999999 999999 999999 999999 999999 999999 999999 999999 999999 999999 999999 12175
999999 18692 15867 11027 12642 12489 13153 17150 11766 11951 12365 12548 15434 19410 10382 16895 10115 13963 19433 13427 10984 15707 11158 10201 19548 17697 19551 16927 11072 13585 14448 18220 13230 12144 17399 18866 19541 19153 11340 14860 10115 11493 10853 11189 11042 18583 11594 14540 11107 14719 15882 15932 17746 10820 18901 12749 10734 19541 19930 18108 18806 14314 14635 15340 19209 12566 15852 15812 12767 19777 19447 10037 16790 11309 15206 19151 15662 16159 17047 19005 16425 11746 13443 16591 13661 16842 15158 19135 17632 19249 13020 10692 13474 12595 19963 13656 10886 12392 17332 15339 18975 17157 17966 12167 19678 16108 15938 13998 13911 11498 15050 14311 13822 16643 14552 15604 18400 19566 18912 13126 11763 12169 15264 12839 14864 18648 17914 16470 17796 10184 16942 16620 11406 19190 10162 13936 16715 13190 16973 15365 12596 999999 999999 999999 999999 999999 999999 999999 999999 999999 0 999999 999999 999999 999999 999999 999999 999999 999999 999999 999999 999999 999999 999999 999999 999999 999999 999999 999999 999999 999999 999999 999999 999999 999999 999999 999999 999999 999999 999999 999999 999999 999999 999999 999999 999999 999999 999999 999999 999999 999999 12340
999999 11590 19635 14480 10888 14794 15365 18185 12833 17390 19574 15756 16329 12393 12420 12037 11309 12414 11536 13924 14131 18636 14480 13132 15485 11232 10366 10078 11641 12065 16050 13531 13693 18300 15588 11510 13348 14868 11210 16712 11504 10526 17810 17758 15200 12634 19071 14216 10042 14100 17044 18440 15771 15115 10726 15165 12040 10617 13464 13552 12051 10089 10935 18935 11490 13684 18350 11687 13891 12465 18662 14710 19785 15122 19768 15029 13229 19244 11648 12130 18148 19330 11186 18846 13649 11013 19915 17068 11288 12244 18757 15430 12541 14278 13790 16185 10865 14857 12796 16929 15647 14805 12662 13448 10353 12003 18668 16193 16963 16771 13320 13974 13515 13757 18519 12674 11251 12590 10667 16372 16237 17248 11115 15065 14123 15147 10998 18258 11425 10976 12872 10810 10827 14852 14559 16935 19628 13121 12229 11414 18093 999999 999999 999999 999999 999999 999999 999999 999999 999999 999999 0 999999 999999 999999 999999 999999 999999 999999 999999 999999 999999 999999 999999 999999 999999 999999 999999 999999 999999 999999 999999 999999 999999 999999 999999 999999 999999 999999 999999 999999 999999 999999 999999 999999 999999 999999 999999 999999 999999 999999 12704
999999 12928 18292 16425 17092 10952 11583 19887 10912 16712 19683 16343 14942 16881 12844 17854 11897 19374 13284 12206 11117 10055 17080 15031 10727 16132 16643 15213 18396 14683 12302 13948 15011 17759 13804 16596 13513 11372 11591 14801 16348 19804 13069 18465 18317 16007 17827 17468 18858 10738 18165 19038 10969 15414 15417 15641 13810 18176 19591 15685 12924 17063 11314 17265 16053 16994 16131 17432 19391 16793 16426 19413 17024 18184 19702 10222 15174 19946 13801 15319 15986 11448 17649 18696 13305 14167 12827 10645 16522 12663 19681 10107 15179 12749 13230 15906 15031 10005 14612 19245 17156 12116 14473 14964 14334 17199 15869 16065 10048 12748 16077 12364 10097 19588 12315 10582 10862 12973 14236 15471 10514 12164 15832 11049 11203 12922 15806 18840 14046 14636 12352 12426 17605 19950 18271 18477 11413 11431 19321 17662 11968 999999 999999 999999 999999 999999 999999 999999 999999 999999 999999 999999 0 999999 999999 999999 999999 999999 999999 999999 999999 999999 999999 999999 999999 999999 999999 999999 999999 999999 999999 999999 999999 999999 999999 999999 999999 999999 999999 999999 999999 999999 999999 999999 999999 999999 999999 999999 999999 999999 999999 12670
999999 12592 10479 17295 10599 10627 16814 18851 12805 15068 18403 11910 12545 14126 10020 19480 11659 18352 14603 16740 15268 17504 14978 14968 13386 17922 19112 11015 14523 16761 12799 19880 12992 15540 10297 19620 15341 12495 19825 12254 18203 17132 10880 13727 13658 17868 18458 11870 15094 16638 11054 16679 13003 18990 18445 10924 19593 15230 14624 18053 11122 10311 16803 15112 13254 19573 14121 10932 13344 15909 12396 11755 19706 15876 13143 15690 12694 12834 10743 14825 15376 12302 13547 11466 19551 14664 19655 14267 10718 14301 17129 10185 14937 13097 18385 11685 16496 18711 17953 10429 13304 17734 16779 19640 11643 16278 16338 13114 13204 10032 17924 12892 16830 14023 13320 12430 14837 15603 19325 10188 18276 16219 10421 19140 16924 12106 10005 14092 17322 14713 16874 10474 13259 16309 13681 11331 19812 18402 16053 14274 18324 999999 999999 999999 999999 999999 999999 999999 999999 999999 999999 999999 999999 0 999999 999999 999999 999999 999999 999999 999999 999999 999999 999999 999999 999999 999999 999999 999999 999999 999999 999999 999999 999999 999999 999999 999999 999999 999999 999999 999999 999999 999999 999999 999999 999999 999999 999999 999999 999999 999999 5158
999999 12052 17844 17020 11688 19116 11178 14328 14711 16936 14712 19285 15943 17364 18932 13886 15640 19211 12276 10393 10000 16720 12966 15915 18414 12039 14725 19976 15007 16531 13893 15948 13394 15026 18945 16169 14218 19496 11143 11494 11841 16592 17556 14043 18731 18273 18722 15735 19255 13344 14308 19910 15841 15262 12368 13929 10798 14389 12850 15913 16797 12217 14137 19803 18984 19491 18424 10791 14045 11711 16554 19518 10839 11105 15555 13284 16368 17160 11034 16550 15241 12782 12448 19789 15862 14224 15507 13116 12503 10337 16936 16389 17456 18395 18477 15080 16729 11641 10518 17704 12462 19071 18233 12582 19354 15138 10472 19979 10250 12369 12046 10007 13619 12141 16639 18178 13000 15030 14452 14538 14516 13428 17884 17263 14069 19993 10687 18119 12124 17276 14268 10807 18295 13728 12995 11088 16267 14245 18082 19969 14983 999999 999999 999999 999999 999999 999999 999999 999999 999999 999999 999999 999999 999999 0 999999 999999 999999 999999 999999 999999 999999 999999 999999 999999 999999 999999 999999 999999 999999 999999 999999 999999 999999 999999 999999 999999 999999 999999 999999 999999 999999 999999 999999 999999 999999 999999 999999 999999 999999 999999 6033
999999 13183 13226 15000 14813 10303 13890 10428 11828 15697 11154 19210 15479 10862 15395 18605 13657 13370 13470 10189 18958 17844 17930 16264 12162 14609 19380 10298 12646 13268 16338 15188 14691 14759 18499 14646 11525 16541 14384 13496 18191 12828 16562 13074 13052 15276 17568 11747 11506 15779 17008 11027 11383 17298 10876 10705 13898 15976 12829 19010 17382 17075 19967 10387 10087 14489 18990 18509 19146 19977 10254 14088 13200 18698 19809 11171 15801 17254 16039 12262 16056 14365 19414 14687 17688 18847 11408 17847 17641 16864 11108 13240 17481 19812 12468 12788 15365 12579 19474 14133 17018 17022 17714 14296 14286 15061 18337 10704 19052 12951 14554 14730 19541 11971 15412 11798 19394 13762 11230 19617 11120 10785 12189 12095 12474 19101 16985 14288 19913 17173 15965 17367 10000 10441 14462 16768 14430 16532 13458 16972 14592 999999 999999 999999 999999 999999 999999 999999 999999 999999 999999 999999 999999 999999 999999 0 999999 999999 999999 999999 999999 999999 999999 999999 999999 999999 999999 999999 999999 999999 999999 999999 999999 999999 999999 999999 999999 999999 999999 999999 999999 999999 999999 999999 999999 999999 999999 999999 999999 999999 999999 8061
999999 13254 13004 18127 11578 16995 14905 16027 11689 15141 17732 14792 16865 11488 19416 10598 13990 18110 19534 12843 10023 18477 13615 19712 19225 14282 10728 10918 18622 18757 12647 17197 12460 18950 16943 17749 11606 14565 11419 17454 16853 15908 16301 10521 16679 16513 11238 14026 17707 16964 12353 17473 14626 12879 18776 17377 13899 18521 11216 14400 16095 12992 13793 14341 13846 17848 18658 18237 11783 13665 14972 12392 18445 17243 18636 18807 11077 17380 14910 14767 17238 17593 12768 15177 14445 19251 18514 16610 13538 12237 10129 18912 11482 14267 13427 15443 12614 18854 13326 13895 17363 10619 19351 19581 10650 11322 12698 16736 12351 16899 15222 15452 12989 14467 17133 10671 10627 10657 16744 19914 18313 19908 13534 12342 16670 11773 17740 18360 13173 14679 11037 13457 16737 18457 12244 11618 16284 12220 18629 14619 15143 999999 999999 999999 999999 999999 999999 999999 999999 999999 999999 999999 999999 999999 999999 999999 0 999999 999999 999999 999999 999999 999999 999999 999999 999999 999999 999999 999999 999999 999999 999999 999999 999999 999999 999999 999999 999999 999999 999999 999999 999999 999999 999999 999999 999999 999999 999999 999999 999999 999999 10960
999999 14821 10503 17580 18136 16711 18458 13103 14800 18925 11485 17409 10780 10786 18220 15237 15468 10697 12629 15480 18005 13097 19596 17551 16785 12821 11997 12421 18675 17475 12175 14175 19244 15697 10999 12832 14132 14170 18253 19068 11234 17795 11144 12998 13645 19626 15149 19830 15786 13978 10592 19443 18311 15202 12157 15922 16102 17137 13271 19691 13053 15510 13308 14273 10042 14298 10957 14624 18423 12368 13692 17519 19009 15992 16680 10783 13922 16656 19778 11573 12759 12203 19816 17595 19944 14926 15577 19771 16701 11075 11197 17948 16855 19815 15342 14846 10864 18507 13555 12047 11635 19609 15743 14960 15548 16378 15868 19367 12277 13220 10046 13868 17412 18884 13944 14907 18305 14820 12541 17974 14809 11470 19840 17426 15421 13845 19444 13141 12495 19853 19800 16444 19680 14854 17573 11355 15963 18192 16087 11454 10249 999999 999999 999999 999999 999999 999999 999999 999999 999999 999999 999999 999999 999999 999999 999999 999999 0 999999 999999 999999 999999 999999 999999 999999 999999 999999 999999 999999 999999 999999 999999 999999 999999 999999 999999 999999 999999 999999 999999 999999 999999 999999 999999 999999 999999 999999 999999 999999 999999 999999 8046
999999 11255 14917 17589 14504 15560 14113 16521 10395 17314 19606 13762 15059 10980 12895 19322 13598 18256 18562 19035 17054 18799 19553 15610 19579 18370 15334 15394 15086 10890 13945 15823 19850 11365 14736 18916 16365 10073 12947 11547 12277 19485 11364 12125 19706 11320 13567 14038 16819 19645 10991 15444 10388 13833 13409 14674 16893 17407 14525 17064 17365 15945 14720 15958 19197 19509 17184 19888 13533 12624 13222 19980 10076 14674 10712 19865 17803 14679 10415 15988 11487 19847 15126 13851 10378 13884 19324 16671 11572 16911 15383 16116 15495 13792 18914 10479 17362 19693 12756 10362 19729 15002 12545 10394 18568 16162 11245 13525 14827 10660 11038 17191 12083 16691 18909 15980 11718 15735 10815 13468 12358 15195 13675 14332 12844 16849 14345 11493 14968 18615 17681 19367 12664 11100 19107 16869 12328 11823 10762 19661 15804 999999 999999 999999 999999 999999 999999 999999 999999 999999 999999 999999 999999 999999 999999 999999 999999 999999 0 999999 999999 999999 999999 999999 999999 999999 999999 999999 999999 999999 999999 999999 999999 999999 999999 999999 999999 999999 999999 999999 999999 999999 999999 999999 999999 999999 999999 999999 999999 999999 999999 8671
999999 10053 17436 15452 12693 17296 15393 19785 14376 15957 14785 16932 11262 18664 18514 16290 13271 10508 14912 19980 16153 16884 10342 18457 13288 10362 17230 15109 10422 16086 12540 19127 19545 12394 15727 14600 18972 14125 17969 16413 12014 15797 11923 15658 19609 13648 16545 19822 16617 19037 15781 10285 19448 18750 19210 18394 12618 16682 10416 19616 18264 15158 13272 10348 11900 17235 15431 19425 14197 10617 13431 15206 15521 13015 10830 14483 15772 12798 10454 11663 17798 19617 18231 13695 14132 10048 10749 14178 17557 18103 11848 17672 16428 12287 14824 14661 13133 10368 14588 12808 19870 18918 18682 17416 14974 16131 14079 15875 14537 18410 16480 17043 16116 13081 14472 12237 17126 10080 10316 18167 10728 16682 15017 14893 16032 14715 11287 10606 13247 11488 11699 11379 18507 19166 11329 11118 15319 17859 11079 18045 16683 999999 999999 999999 999999 999999 999999 999999 999999 999999 999999 999999 999999 999999 999999 999999 999999 999999 999999 0 999999 999999 999999 999999 999999 999999 999999 999999 999999 999999 999999 999999 999999 999999 999999 999999 999999 999999 999999 999999 999999 999999 999999 999999 999999 999999 999999 999999 999999 999999 999999 5356
999999 19945 16078 12820 15430 14952 14422 17848 15845 14325 15464 13958 16450 12329 11431 12376 16498 18113 15763 15855 10597 14483 18775 19190 11206 16982 10105 18148 10171 16050 10874 17637 12618 19587 12436 13529 10873 14264 12398 10627 17568 17674 17025 19436 17618 14490 18522 19245 17069 11987 16873 12108 14956 14496 15599 19029 15575 12698 19488 18030 17921 17200 11249 19354 18634 10723 17380 18025 10556 14527 19723 18363 14177 11158 19438 13119 11400 12009 16488 14206 14726 10194 10861 14011 14239 16528 10962 11276 19957 14824 11505 16181 14750 10219 15241 10151 17630 12698 10430 16109 11693 11946 14393 17247 16190 10295 16726 11427 12349 16686 11258 14740 15685 12275 19835 19728 10693 14344 14609 13748 18444 11943 18743 14817 15421 17448 17145 12479 14134 18280 18583 13301 16024 15869 17586 18329 19521 15625 16834 13983 16559 999999 999999 999999 999999 999999 999999 999999 999999 999999 999999 999999 999999 999999 999999 999999 999999 999999 999999 999999 0 999999 999999 999999 999999 999999 999999 999999 999999 999999 999999 999999 999999 999999 999999 999999 999999 999999 999999 999999 999999 999999 999999 999999 999999 999999 999999 999999 999999 999999 999999 7591
999999 12222 17689 10657 10252 12109 16540 15122 17799 14273 15440 14934 16273 11699 14702 12701 14228 14208 19632 16816 13370 13622 12530 19133 12458 19248 16651 15204 19850 11590 12660 16919 12742 19865 14971 15598 19653 19378 10848 11251 17154 16597 17541 15511 12132 19986 16606 13920 16905 19474 11197 14672 14821 13150 11227 15658 19885 11013 19765 15643 12906 15892 15287 15403 11750 10339 18769 17517 19433 17400 11436 18480 17890 13970 12713 14748 10937 13799 18848 14197 13715 10502 11156 15481 13724 12297 12816 18448 10372 16298 19353 11384 15855 13791 17146 19295 14038 10555 19273 11482 11601 15274 17462 18021 19825 13349 16772 13721 10519 14236 12149 15377 18773 17749 16235 17666 17426 12941 14365 10747 18238 14702 12434 11910 14849 12077 19380 18318 12241 17771 15988 16785 13321 15681 17077 17620 12356 10110 13721 17242 10399 999999 999999 999999 999999 999999 999999 999999 999999 999999 999999 999999 999999 999999 999999 999999 999999 999999 999999 999999 999999 0 999999 999999 999999 999999 999999 999999 999999 999999 999999 999999 999999 999999 999999 999999 999999 999999 999999 999999 999999 999999 999999 999999 999999 999999 999999 999999 999999 999999 999999 12401
999999 12236 14936 18920 18880 11240 14692 16512 13842 12879 14424 16695 11990 16206 17018 13218 17891 11520 13741 16931 14888 12955 14115 18836 16886 18092 18600 14851 18660 11226 11625 10043 15226 19855 14355 19455 19248 10740 11799 17883 17233 11992 15031 18526 17309 11953 17937 11583 11643 19839 13565 11272 19660 16084 16142 15371 16630 12098 17533 15855 16706 19153 13904 13343 16628 16033 12335 15837 14354 17450 19443 11719 19094 19112 12751 16445 17815 11489 18547 12930 13007 14855 15210 12096 11399 17345 15704 17300 16610 13757 14816 12429 18793 14531 18524 17105 14151 15979 10585 10317 18336 15779 18507 11295 18651 16536 19835 15684 15546 16798 14613 17946 13719 17630 10810 19202 14632 12105 16932 10899 18886 18850 14189 13582 19741 14343 12778 11181 12286 13991 16248 19139 16731 14141 16204 19155 18975 11016 10088 12411 19536 999999 999999 999999 999999 999999 999999 999999 999999 999999 999999 999999 999999 999999 999999 999999 999999 999999 999999 999999 999999 999999 0 999999 999999 999999 999999 999999 999999 999999 999999 999999 999999 999999 999999 999999 999999 999999 999999 999999 999999 999999 999999 999999 999999 999999 999999 999999 999999 999999 999999 14833
999999 17494 17997 14754 10457 19664 19730 11473 18168 19642 19946 18770 14497 13839 12168 13966 14078 11589 10951 13583 18348 14909 17363 19853 13627 11575 10506 15177 11107 13852 15694 17538 18076 19550 10298 14838 18045 14442 11720 12012 17709 13008 11613 13543 17165 15360 15482 16877 11605 12050 14028 12334 10532 16747 11065 10933 13528 14477 19341 13257 19130 17865 12759 12199 14454 16909 11563 19115 18732 16779 12146 10258 18070 16867 17858 18477 13632 18823 13458 19321 13373 10725 10721 12966 11584 14222 12241 18737 19370 15094 12780 19071 12945 16314 16585 12640 16596 13871 13264 17863 12461 18746 17477 17544 14764 12726 17639 14759 16250 12949 13205 19626 18176 12057 13247 11172 19379 16804 12125 13748 18920 15254 10887 17970 19192 17542 14690 14553 10695 14152 13672 15891 17661 11611 16611 11947 15565 11152 11077 19792 14342 999999 999999 999999 999999 999999 999999 999999 999999 999999 999999 999999 999999 999999 999999 999999 999999 999999 999999 999999 999999 999999 999999 0 999999 999999 999999 999999 999999 999999 999999 999999 999999 999999 999999 999999 999999 999999 999999 999999 999999 999999 999999 999999 999999 999999 999999 999999 999999 999999 999999 6484
999999 11076 14047 16985 10019 10807 14999 10035 12386 14261 18577 14300 11277 10583 13895 12179 11393 11091 17304 12858 19378 17099 14768 10925 14065 13531 17532 14409 19266 14126 10544 19673 13378 16030 10696 19483 15067 14331 18660 10187 16644 16675 18289 14422 12061 17653 10079 15467 18454 18804 14306 16620 11209 19374 17036 13282 16463 19888 16041 18641 16231 18636 15873 11660 15156 12483 12710 19134 10449 14545 19894 12043 13172 12996 12913 15826 13424 19772 14819 11878 16161 19632 13648 11700 14733 13834 18921 19979 12131 17842 17583 19810 11756 18310 12071 10399 13956 11161 13022 15611 18444 10345 12116 10438 10128 13040 11931 14155 10980 18623 17263 15977 13491 10383 11212 14506 17342 11500 15335 11600 10195 15545 18737 17052 11710 19956 12837 14573 18968 15352 12455 12986 13657 12587 13013 14901 18086 14088 12141 19722 10601 999999 999999 999999 999999 999999 999999 999999 999999 999999 999999 999999 999999 999999 999999 999999 999999 999999 999999 999999 999999 999999 999999 999999 0 999999 999999 999999 999999 999999 999999 999999 999999 999999 999999 999999 999999 999999 999999 999999 999999 999999 999999 999999 999999 999999 999999 999999 999999 999999 999999 11133
999999 16456 18496 15053 15119 17004 16437 13700 13869 11322 14248 18802 19914 19536 11558 19640 11209 19719 12504 12358 14849 17838 12167 12293 10249 13120 10818 13458 14447 10384 18672 10779 15649 19733 16076 15162 19944 15564 10770 18092 18425 11770 19194 14189 13177 10256 18423 17954 17761 13451 18285 15540 18645 12784 16958 13489 15905 10496 14656 14962 19729 15837 18257 10455 12259 16194 12169 19792 14251 14734 15598 11864 19281 17696 15474 17557 18577 13342 17847 14610 14017 18085 15900 19462 10104 10521 14425 16900 11690 16814 19744 11420 16305 14939 19991 17976 10376 14458 10731 15943 17873 18392 15346 18114 11623 12583 17288 19162 10144 13344 18004 10265 14041 14269 12786 13768 13333 10154 13566 19904 15811 16351 18508 11906 17830 12764 10137 16737 19013 17630 19386 14329 17586 15002 10012 16964 19802 16769 14666 15100 16188 999999 999999 999999 999999 999999 999999 999999 999999 999999 999999 999999 999999 999999 999999 999999 999999 999999 999999 999999 999999 999999 999999 999999 999999 0 999999 999999 999999 999999 999999 999999 999999 999999 999999 999999 999999 999999 999999 999999 999999 999999 999999 999999 999999 999999 999999 999999 999999 999999 999999 10997
999999 14584 18853 14110 19330 13567 11094 13574 11794 10113 13263 12027 17690 14207 14481 15398 13289 18258 11713 16434 11231 15509 16889 16325 13868 15497 14584 13143 18802 12477 18160 16501 12358 12716 10082 10718 14871 11661 14784 13855 18831 11514 14160 16831 17731 19225 14889 18952 12028 10960 11348 13215 15946 17044 18937 12384 18992 12298 11291 11780 10593 11214 15743 14644 12602 19936 14575 11741 19277 18271 19081 10743 14590 11748 16006 12455 11514 13950 18897 18391 11198 15687 18152 14976 12602 12063 18500 14325 11974 12029 15466 11078 15355 10186 15590 19741 12402 12370 15659 19024 15601 18435 12393 16797 12139 19213 15558 18369 13610 17896 13070 14101 12383 16346 16798 12914 17957 15272 16439 15871 18317 17829 12964 18683 12538 10599 14183 18338 11586 15592 18920 13093 18283 10724 19257 15202 12408 13923 12914 12685 18796 999999 999999 999999 999999 999999 999999 999999 999999 999999 999999 999999 999999 999999 999999 999999 999999 999999 999999 999999 999999 999999 999999 999999 999999 999999 0 999999 999999 999999 999999 999999 999999 999999 999999 999999 999999 999999 999999 999999 999999 999999 999999 999999 999999 999999 999999 999999 999999 999999 999999 9795
999999 18641 15755 16497 14104 18612 10632 16649 10138 13886 12058 13377 15644 12849 11700 16890 12324 13940 15988 10862 12796 19227 14086 16223 17163 10611 11742 11520 14415 19927 18431 15245 15540 13320 18052 15962 12910 11432 13280 18450 11855 11860 12197 12256 16839 14371 13738 11889 19599 17038 14820 15465 10507 13873 17605 12336 19132 16420 13217 19646 12949 19124 13299 10052 16708 10747 11476 14500 18427 10692 19348 17973 18677 12141 11571 16912 10983 15793 19869 15418 18895 16608 17278 17671 15477 15835 11298 12417 15837 10177 19398 14417 13466 18647 16493 16939 13024 13668 12381 11647 11581 12493 15356 16126 17608 18631 17025 13155 17804 11814 17815 19524 14766 18067 19380 14532 12606 19065 10063 11688 18558 15479 15750 10400 11050 17270 11335 19294 17015 17932 12972 16152 12450 15110 15505 13072 16746 16081 16121 19553 14128 999999 999999 999999 999999 999999 999999 999999 999999 999999 999999 999999 999999 999999 999999 999999 999999 999999 999999 999999 999999 999999 999999 999999 999999 999999 999999 0 999999 999999 999999 999999 999999 999999 999999 999999 999999 999999 999999 999999 999999 999999 999999 999999 999999 999999 999999 999999 999999 999999 999999 14203
999999 12930 15752 10909 15514 17342 10261 17302 18901 13215 14356 17397 13907 10177 15493 17962 10824 10880 17380 14402 14479 18654 16363 15837 12464 12027 14711 10821 19737 12798 14249 15510 13335 13704 17811 11965 19817 19801 18770 11780 16472 10200 11868 12615 10161 18402 18229 13518 10275 10651 12780 10094 18569 16841 19162 19865 13874 18995 11268 12303 16764 10818 14195 13748 10424 11525 16130 15598 18251 10357 16893 19265 16349 18207 11282 11856 19797 15750 13042 10354 10199 14537 18491 15249 12004 13019 15770 11564 13383 13747 11177 11202 18000 16796 12960 19734 16861 15598 17614 12544 18918 12270 15816 17177 17258 16682 19701 18806 16585 17227 12062 18410 12063 14156 12753 10073 18533 15336 11291 18772 10230 12617 15680 12798 12312 12809 13647 14278 12170 12245 11678 11922 10755 19714 10323 16521 16865 17190 10983 11758 13679 999999 999999 999999 999999 999999 999999 999999 999999 999999 999999 999999 999999 999999 999999 999999 999999 999999 999999 999999 999999 999999 999999 999999 999999 999999 999999 999999 0 999999 999999 999999 999999 999999 999999 999999 999999 999999 999999 999999 999999 999999 999999 999999 999999 999999 999999 999999 999999 999999 999999 9636
999999 10350 17594 11784 16572 14588 19480 11402 10860 18445 15541 10641 13003 17399 18149 17424 17136 18820 18494 17983 18523 11140 16966 15989 15206 15267 18932 19543 19904 11750 18238 16454 18688 11350 13539 19349 13109 15623 18834 13700 15723 12237 14383 14781 13082 15297 16350 16258 17088 18833 14713 10560 18939 11696 18334 17982 11532 11087 19959 18676 15388 11673 16098 12541 15302 10103 19681 11584 10113 17005 19559 13248 13864 11778 15854 10717 17058 12432 14527 14937 18673 12427 11609 19934 18539 13903 10376 15078 13956 16714 10443 16626 16391 17609 16518 10717 18874 15933 19570 15072 10159 13142 10123 17813 19107 11833 10790 16754 10385 13392 18825 17288 14368 12552 14330 15750 13534 18689 18671 18415 11450 10766 10739 15864 13859 17458 16738 13062 15715 16091 10506 15431 13792 18722 14305 13772 12540 15457 16851 15539 11299 999999 999999 999999 999999 999999 999999 999999 999999 999999 999999 999999 999999 999999 999999 999999 999999 999999 999999 999999 999999 999999 999999 999999 999999 999999 999999 999999 999999 0 999999 999999 999999 999999 999999 999999 999999 999999 999999 999999 999999 999999 999999 999999 999999 999999 999999 999999 999999 999999 999999 14215
999999 12206 18786 16308 17967 11190 18265 16306 14404 13004 16609 17614 15558 11537 12628 12057 11108 15936 12726 19561 16363 11984 11967 11598 13650 12934 18032 12037 15927 19786 16297 19828 12785 17193 15318 19508 15434 13520 11077 11795 14022 14165 15256 13555 15402 12802 12951 10017 16374 12511 19416 10698 14041 14277 12084 12204 11679 14742 18199 19284 16479 15006 14180 13842 17200 16405 10643 18739 13122 14471 15614 18143 10860 13503 10166 11826 12032 16240 13175 12774 16982 14195 15490 18384 11719 12617 11292 12289 14257 19834 11746 13383 19124 16795 17462 10934 13659 17245 13152 17028 11442 12930 11986 17724 14733 14337 13933 13114 14969 19993 19278 16996 10610 14271 16526 11962 12977 12659 19569 17923 13180 15964 15768 10440 19752 17906 18059 14134 16902 17553 15557 19219 12025 17929 14133 16834 13749 17298 11025 17184 11835 999999 999999 999999 999999 999999 999999 999999 999999 999999 999999 999999 999999 999999 999999 999999 999999 999999 999999 999999 999999 999999 999999 999999 999999 999999 999999 999999 999999 999999 0 999999 999999 999999 999999 999999 999999 999999 999999 999999 999999 999999 999999 999999 999999 999999 999999 999999 999999 999999 999999 5381
999999 13169 14907 14798 11960 15548 14731 14569 12495 10604 17465 12049 15949 16557 14347 11901 17559 12349 11997 13456 15705 11945 13216 12475 18749 19761 19879 11282 12043 10337 18418 19147 11324 10053 17191 11966 13170 19166 12439 16619 19021 13704 13847 16963 14950 18172 17256 16879 11514 11343 10346 18375 12699 12719 19229 18337 13025 17165 10607 14434 16179 15870 14981 14906 13183 10416 15289 15395 14051 14139 16789 17248 10325 13102 19857 13971 13184 10558 17993 11492 10343 12148 14107 13541 11753 18561 13471 12393 14657 19731 12666 11805 19482 11146 12105 13781 16437 18415 13240 13017 19837 11900 13494 16769 19658 12171 12751 13741 14242 19457 17394 14483 17564 17158 11874 15287 10889 18126 14495 13519 14502 16977 19179 13193 17290 11684 13336 17220 19881 10516 14035 17960 17689 12585 14133 12273 10800 10099 14073 11559 18959 999999 999999 999999 999999 999999 999999 999999 999999 999999 999999 999999 999999 999999 999999 999999 999999 999999 999999 999999 999999 999999 999999 999999 999999 999999 999999 999999 999999 999999 999999 0 999999 999999 999999 999999 999999 999999 999999 999999 999999 999999 999999 999999 999999 999999 999999 999999 999999 999999 999999 13248
999999 11216 15887 17180 15058 12241 15722 17077 11856 16023 19369 16411 17805 14142 17177 18057 11370 15318 12100 15657 11219 16337 11257 18467 19936 13678 15208 14837 18039 12019 13456 14569 15291 12154 18486 11788 19579 17579 17468 14624 11800 11667 14646 11167 18751 12128 16899 12133 10622 16519 13356 10684 15763 13548 15821 11024 14932 13467 10839 10221 14216 18585 18439 17251 14526 14853 12799 13596 12361 10263 17182 11615 11698 12453 12770 17552 19849 13606 17893 16718 13580 16719 17207 14255 18879 15297 17198 11711 10222 13136 12008 11737 16262 18765 16100 19078 16064 14704 18644 18088 13259 15532 12941 17400 13656 11841 10230 17483 16279 14880 12317 10456 12605 18678 10225 11480 14532 14783 13095 14523 15817 18038 11550 13381 10999 16360 11949 16092 11417 14882 11216 18563 14481 13942 13548 15495 19153 16337 19938 10012 19870 999999 999999 999999 999999 999999 999999 999999 999999 999999 999999 999999 999999 999999 999999 999999 999999 999999 999999 999999 999999 999999 999999 999999 999999 999999 999999 999999 999999 999999 999999 999999 0 999999 999999 999999 999999 999999 999999 999999 999999 999999 999999 999999 999999 999999 999999 999999 999999 999999 999999 10568
999999 12183 19915 17192 13574 16871 19243 11346 10445 18009 14948 19656 11943 19463 13792 16208 18350 12446 13664 19381 11873 11261 16058 16006 14620 13267 17033 14565 18170 12280 19793 15543 11750 12777 15605 15167 12100 12438 19037 15498 10986 14938 13398 10479 17791 14490 10323 18324 19225 12876 17244 15965 10664 16096 14634 19707 11638 17854 16058 15928 13202 14515 18166 19237 15157 18052 13857 13384 15956 17075 10480 13181 15056 13297 18180 11112 17617 14285 19922 19157 13077 15950 11863 11727 10012 14791 16084 12376 14633 16022 18811 12612 11150 18525 19013 19583 11309 10193 19456 11974 19716 16345 17627 16568 10887 15850 17837 16980 18023 12280 12986 13630 17097 15648 15257 13214 18708 19633 10988 12917 10706 18357 14863 19079 16633 10161 13759 13711 11236 19880 13889 15552 17575 17429 15930 19248 14562 12151 15692 13746 18749 999999 999999 999999 999999 999999 999999 999999 999999 999999 999999 999999 999999 999999 999999 999999 999999 999999 999999 999999 999999 999999 999999 999999 999999 999999 999999 999999 999999 999999 999999 999999 999999 0 999999 999999 999999 999999 999999 999999 999999 999999 999999 999999 999999 999999 999999 999999 999999 999999 999999 13152
999999 17857 13093 13401 16460 15921 19322 12685 15856 17118 14607 15285 14614 17568 14517 19905 15757 17186 19620 11905 17966 12322 11063 10899 10989 17456 19493 10493 19007 11333 10775 15936 11347 19708 14408 15989 15606 17168 15778 16231 11005 15310 15140 13446 14107 18704 17281 12656 12653 12357 18764 14820 12857 10963 17327 17539 10857 10684 18609 17185 18674 19844 11832 10707 18826 14106 12863 14865 11043 18261 10623 19285 15495 14846 18364 12293 13099 14043 19491 19354 15006 13119 13566 17648 18405 19319 10973 19102 12852 12143 10063 11533 17889 10661 11086 11936 15377 16827 12057 15603 12293 16391 10223 14438 10309 16765 18338 10737 11290 12960 17653 14678 12844 12464 12474 10323 16933 11988 12225 13644 14513 11565 14633 14344 18120 19408 17917 18589 18051 15476 13516 17650 10306 16839 13680 14070 17949 14301 17765 15076 11969 999999 999999 999999 999999 999999 999999 999999 999999 999999 999999 999999 999999 999999 999999 999999 999999 999999 999999 999999 999999 999999 999999 999999 999999 999999 999999 999999 999999 999999 999999 999999 999999 999999 0 999999 999999 999999 999999 999999 999999 999999 999999 999999 999999 999999 999999 999999 999999 999999 999999 7299
999999 15107 12991 13382 14224 16899 11395 13702 17905 19914 11696 10291 14001 16786 12670 13774 18644 11017 18564 16048 12384 10131 17475 11308 17472 17312 11220 13526 18407 13671 11174 19998 11368 13601 19872 10790 16481 19250 13810 17639 13415 10554 12885 12235 11584 12123 11287 19788 14670 11147 11809 18048 17926 19782 14579 13911 18632 13150 12674 14246 19752 17097 13465 16139 15293 19240 19430 17190 12367 18663 16527 16618 19934 15800 10303 14534 15411 12861 12756 17608 18336 14794 13051 17076 14646 14269 16478 10492 13336 10917 13621 19894 12064 16203 14671 12178 19614 11403 10238 10775 16286 11220 12007 11814 18912 10730 11487 17866 10341 14472 11028 19574 12432 10053 12310 12193 12120 19335 17137 15743 19640 13186 16047 11456 14077 15514 10797 18374 19439 11460 18282 16981 10255 15857 13322 17679 18336 11297 11436 13556 18271 999999 999999 999999 999999 999999 999999 999999 999999 999999 999999 999999 999999 999999 999999 999999 999999 999999 999999 999999 999999 999999 999999 999999 999999 999999 999999 999999 999999 999999 999999 999999 999999 999999 999999 0 999999 999999 999999 999999 999999 999999 999999 999999 999999 999999 999999 999999 999999 999999 999999 5044
999999 18997 12529 18743 16962 13728 13654 18158 15153 16368 14522 14103 13374 12847 14193 10934 16494 16220 16268 15644 17373 16303 12836 19314 14864 13659 18929 19268 19097 16460 13612 11452 10998 12555 12857 13968 12954 14023 18229 18481 15465 16850 12220 15169 18993 14663 16305 16624 16482 17624 18268 10621 12150 18104 12041 13637 15133 11069 14250 16284 15343 15264 16613 11143 16001 18939 14041 14988 19052 16110 16707 15045 19919 10685 10934 16788 16026 17702 14217 10878 13145 11624 12052 13949 17627 10351 19781 18499 13742 11494 15293 19752 10140 13253 18340 18433 16172 10995 11248 10108 10838 13109 14437 10961 18934 13970 12156 15174 19997 14346 17397 13434 16012 11172 12670 15340 13481 14033 19835 13947 11334 11309 18237 10710 10370 16530 16305 13263 18653 12898 16895 18199 18711 15857 12417 12502 15804 10318 18872 10157 12513 999999 999999 999999 999999 999999 999999 999999 999999 999999 999999 999999 999999 999999 999999 999999 999999 999999 999999 999999 999999 999999 999999 999999 999999 999999 999999 999999 999999 999999 999999 999999 999999 999999 999999 999999 0 999999 999999 999999 999999 999999 999999 999999 999999 999999 999999 999999 999999 999999 999999 8241
999999 16335 12209 10246 10301 13601 17065 12761 18354 14030 10682 19271 16757 13242 16170 15048 19460 15564 18462 18046 10250 19392 10195 10670 12753 15026 15667 17080 10346 19708 16010 18221 15765 17625 15870 15953 18913 13904 13183 15578 11637 18140 17842 14079 10736 11663 13578 16855 11140 13004 12301 18836 15410 16824 11709 14144 18533 10621 12644 12593 18044 16544 17110 17073 16318 19818 16851 17901 19518 13425 12366 11156 12150 19271 16293 13350 13626 16795 15826 10739 10451 17079 11357 15910 13717 17210 19245 17690 18169 16803 10157 11699 11532 18438 10070 14032 15722 10124 15730 17154 18917 11801 17073 11500 19674 18935 17366 15376 18772 16457 19384 18277 19854 14399 12070 12337 12450 17819 12568 16352 10900 11979 18681 14532 17613 10611 12497 17720 14935 12080 11304 14889 18273 16819 18217 16201 19180 18029 16383 16882 10299 999999 999999 999999 999999 999999 999999 999999 999999 999999 999999 999999 999999 999999 999999 999999 999999 999999 999999 999999 999999 999999 999999 999999 999999 999999 999999 999999 999999 999999 999999 999999 999999 999999 999999 999999 999999 0 999999 999999 999999 999999 999999 999999 999999 999999 999999 999999 999999 999999 999999 10485
999999 11154 13092 17661 10644 17559 15348 11594 17758 12175 19439 15565 14486 16591 14373 14098 13654 12882 15678 16898 19419 14811 11819 13215 16320 13457 11554 11925 18576 16001 18104 13202 11170 11979 16427 19991 10082 10843 15013 11511 18043 14758 10826 18044 10117 19879 17563 13990 12534 12678 18980 16733 14774 16036 11857 13434 18465 12522 17625 19052 16493 16492 13049 10176 14429 14937 12978 19854 17410 17480 19319 11203 19016 15900 14836 10306 10521 10539 17880 10029 13407 11838 10925 12485 11457 17220 18309 12493 11702 19808 16820 14840 16480 14592 17990 15355 17662 10462 18282 19308 17048 10614 15513 16932 15653 14988 14882 13722 17249 19036 18171 12398 12225 10316 15881 11735 16385 19472 14852 13837 19969 11203 15351 18376 16525 18781 15401 14069 10561 11753 12086 15678 15253 15067 11031 18479 13044 12706 10860 19064 14538 999999 999999 999999 999999 999999 999999 999999 999999 999999 999999 999999 999999 999999 999999 999999 999999 999999 999999 999999 999999 999999 999999 999999 999999 999999 999999 999999 999999 999999 999999 999999 999999 999999 999999 999999 999999 999999 0 999999 999999 999999 999999 999999 999999 999999 999999 999999 999999 999999 999999 5480
999999 11853 15382 15525 14717 14777 18318 10225 14365 16691 14321 13167 15630 11328 13504 13581 12759 10401 13507 18400 13693 10627 15951 19470 11574 18309 17463 14302 18378 16087 19089 17958 18671 15012 16469 15751 19615 11074 14669 11890 10202 15359 13821 11554 11916 16212 12464 18241 18627 13984 13210 12906 17811 16910 19611 11897 10820 11194 13568 13355 16800 19072 17464 12737 19602 16199 18614 18055 13549 16146 10404 11453 11822 13471 13281 14703 17298 15138 14252 16971 18547 11026 17868 12379 11736 17895 13820 14294 18874 15442 15716 17778 12243 19475 10624 14504 13957 13984 12008 14192 16614 11197 19947 14568 17251 11836 11583 16572 15735 14871 17362 16801 15173 11847 16437 17025 14044 15171 18785 13133 16239 12272 17881 17442 13729 11200 19832 12347 14448 18848 12252 11304 19353 18889 11367 11154 12373 17616 11789 14675 19759 999999 999999 999999 999999 999999 999999 999999 999999 999999 999999 999999 999999 999999 999999 999999 999999 999999 999999 999999 999999 999999 999999 999999 999999 999999 999999 999999 999999 999999 999999 999999 999999 999999 999999 999999 999999 999999 999999 0 999999 999999 999999 999999 999999 999999 999999 999999 999999 999999 999999 10396
999999 14049 10681 15810 17302 17138 13616 17602 10057 19604 12587 19224 19622 13876 13958 17195 11509 16926 11418 19920 16295 16712 10951 13539 13759 12755 10967 11433 15742 13283 10729 17109 14853 19501 16591 13549 12893 16638 15864 10670 19888 16518 17367 12655 15296 13987 16174 12331 17168 19503 15246 10225 17253 15868 17600 16235 11872 14235 19236 19326 12111 10280 12578 18085 13667 11260 10206 18125 18359 12971 13079 14385 15747 11879 19144 11333 16318 11436 10218 15813 19698 19413 14035 11639 16435 14219 10201 18296 18575 19506 12606 18298 10785 14253 14478 10031 18503 16885 16254 19409 14458 16636 16807 13566 13066 19901 13245 11712 19254 12988 10444 14601 16663 14304 12138 10166 13076 15401 15131 16538 18037 14502 17911 19931 19714 13886 18434 15335 10778 14067 16109 15314 15468 18024 11028 19019 11671 15971 16688 13874 11190 999999 999999 999999 999999 999999 999999 999999 999999 999999 999999 999999 999999 999999 999999 999999 999999 999999 999999 999999 999999 999999 999999 999999 999999 999999 999999 999999 999999 999999 999999 999999 999999 999999 999999 999999 999999 999999 999999 999999 0 999999 999999 999999 999999 999999 999999 999999 999999 999999 999999 12561
999999 16896 17300 15170 16880 11177 10894 10045 17283 10601 15683 12502 15588 19000 16087 15463 10582 13933 10960 14777 18453 16936 12129 13421 10941 12674 11595 12030 11294 17469 14880 10179 17251 18689 16789 17077 17180 13344 18904 10814 12667 15795 18707 15129 10765 11966 18297 17752 10010 10146 10590 17170 19472 12277 13531 10825 10569 13311 15164 18746 12495 18626 19918 14438 10014 18370 19732 16694 13492 14422 11240 17756 18886 17051 16885 14626 11586 10253 19530 13753 17900 17419 17366 19823 12136 11967 10366 14995 14638 19737 14856 15498 13447 14861 11970 19906 17936 19161 18238 18829 13655 16364 14794 14049 13987 18436 19414 13939 15332 18599 12266 12345 12901 18895 19429 16882 17680 13346 16082 13194 13460 17660 12341 12620 12395 19948 10153 15807 13180 14177 17829 14653 10400 19847 13650 16943 15679 19804 18326 10271 17840 999999 999999 999999 999999 999999 999999 999999 999999 999999 999999 999999 999999 999999 999999 999999 999999 999999 999999 999999 999999 999999 999999 999999 999999 999999 999999 999999 999999 999999 999999 999999 999999 999999 999999 999999 999999 999999 999999 999999 999999 0 999999 999999 999999 999999 999999 999999 999999 999999 999999 5334
999999 18113 15315 17733 15873 12859 12139 14198 17782 19451 11142 11383 17406 13269 10278 10470 16427 10136 15317 15439 12638 19847 13148 14349 13517 14059 13822 13961 18876 16504 11737 15969 15839 14467 18329 13184 19552 10578 14862 13440 12830 16518 15666 18058 17781 16128 16341 11524 11978 10583 10918 18733 15161 13784 18293 10675 13375 19818 12712 16326 14059 14287 18356 13510 16576 19040 16267 13722 11526 18191 17447 15490 13176 15747 19686 13708 18685 19960 15223 15401 15132 10286 16736 18646 12701 12172 19259 12919 13502 11380 10645 12041 13172 14250 11561 18728 19425 18193 12060 15622 18472 11839 17270 14941 19298 19014 10063 11822 18451 10832 13603 12365 15317 18214 16977 11253 12393 14273 16708 15447 10435 15051 17127 10143 18524 11742 12265 10973 16262 14604 14218 14399 18757 16360 19948 14643 14752 16673 18348 13789 16863 999999 999999 999999 999999 999999 999999 999999 999999 999999 999999 999999 999999 999999 999999 999999 999999 999999 999999 999999 999999 999999 999999 999999 999999 999999 999999 999999 999999 999999 999999 999999 999999 999999 999999 999999 999999 999999 999999 999999 999999 999999 0 999999 999999 999999 999999 999999 999999 999999 999999 8313
999999 14920 10264 12024 15711 14173 14351 17445 15553 16793 13503 16300 13626 12943 12310 15702 13119 12293 19333 12751 19451 12995 11723 10029 10113 14961 10035 11293 18721 17969 15692 10982 12077 12991 10096 12871 18787 13476 15984 12328 18719 18926 13877 13512 13564 18282 15398 14843 14770 11282 13653 15385 10128 11911 10949 10319 10011 17136 18137 17301 14561 10892 15103 11438 15331 12817 13401 19924 17463 19749 14401 15728 15445 11627 15481 15196 16633 19692 11361 19977 14312 18012 17062 19594 18327 10715 16347 11764 12602 12938 12668 19889 18041 14296 12419 15386 11541 17171 10450 15748 16657 11061 15286 16457 15792 10410 14039 16890 18149 17816 18437 17149 14013 11992 11078 19916 13506 13992 18973 16387 11293 19013 13422 18394 18106 11923 12308 15133 18673 15560 17666 17395 18491 15154 15106 12696 11011 10421 13246 13356 16744 999999 999999 999999 999999 999999 999999 999999 999999 999999 999999 999999 999999 999999 999999 999999 999999 999999 999999 999999 999999 999999 999999 999999 999999 999999 999999 999999 999999 999999 999999 999999 999999 999999 999999 999999 999999 999999 999999 999999 999999 999999 999999 0 999999 999999 999999 999999 999999 999999 999999 6871
999999 18884 14015 14990 12938 14828 14711 17633 18167 19423 16548 15150 12003 13256 10004 15989 15292 17067 16011 13436 12374 13094 17787 18419 17029 17263 10523 16909 19637 11442 19726 12300 19731 12737 19089 17389 14881 19041 13781 13904 14186 11895 17339 11896 14731 13128 13259 14806 13097 18794 14704 14940 14210 19582 18030 19666 14162 11841 19820 11797 14052 17857 14416 19129 17716 16006 12015 14377 14661 14114 17155 18442 17761 12003 13635 17516 14005 16972 13861 17985 14567 11259 13402 17759 10605 17161 15287 16219 14030 17127 11792 18961 14650 17015 19717 14147 12817 10341 19179 11899 12489 12049 15580 17315 19502 15382 18818 10180 12510 11198 10401 13057 15764 13985 19655 11789 12982 14007 17155 14619 15681 11203 17349 18125 12700 17494 16102 17706 10666 18124 15425 13502 12829 11287 10095 15930 17297 10306 16427 11272 15145 999999 999999 999999 999999 999999 999999 999999 999999 999999 999999 999999 999999 999999 999999 999999 999999 999999 999999 999999 999999 999999 999999 999999 999999 999999 999999 999999 999999 999999 999999 999999 999999 999999 999999 999999 999999 999999 999999 999999 999999 999999 999999 999999 0 999999 999999 999999 999999 999999 999999 13148
999999 10820 19161 15335 19489 18432 11289 12566 10604 17896 12913 17096 18500 13700 19731 16570 17367 10662 17984 16789 19584 10588 15215 15589 13039 14070 14619 10302 15607 13634 13521 15619 16948 19812 16542 16825 17863 14681 10323 15503 17850 17260 15785 16387 19492 14173 18745 18644 11520 11449 17067 10849 16628 13508 11461 14539 13005 17678 14908 12773 15556 18207 16118 10451 17003 10910 13891 13309 18468 14219 12554 16261 18129 14662 11569 19571 15939 16008 16264 19892 19593 16665 18738 19989 16865 18677 17047 12181 18348 15407 13671 11621 15388 16774 17509 19720 18908 12619 19132 17173 17013 10279 12376 10491 16761 15534 14344 12526 12627 11619 16314 19800 17796 13140 17373 17358 13341 11390 12383 11920 11750 19869 17605 11992 19219 10455 16818 18557 18747 11706 11057 17019 17738 12403 19762 15933 17410 13903 17152 14336 16980 999999 999999 999999 999999 999999 999999 999999 999999 999999 999999 999999 999999 999999 999999 999999 999999 999999 999999 999999 999999 999999 999999 999999 999999 999999 999999 999999 999999 999999 999999 999999 999999 999999 999999 999999 999999 999999 999999 999999 999999 999999 999999 999999 999999 0 999999 999999 999999 999999 999999 5672
999999 17462 19814 12434 14685 16347 15789 10939 19827 15289 19566 15663 17087 10457 10792 17238 13113 11082 16516 14576 16749 10505 16141 19940 18983 12084 10227 13206 19293 10265 12948 10514 10016 12666 16057 11169 18278 15478 12445 11542 15898 15655 18980 17441 14723 18549 13258 11403 15199 16558 12587 15733 13401 18865 17258 12802 11487 18733 17896 13176 14252 13696 10831 10191 10485 15155 12670 13873 12604 15492 11193 12818 14006 18722 12927 17579 10270 18047 10613 19862 13580 14670 16877 12903 14313 13646 10856 12029 19651 18937 19378 16011 18892 15860 16477 10132 18346 10791 19874 14207 19177 16193 13164 12945 12905 14386 18042 14817 19562 15301 14352 13585 10704 12287 10853 17023 14349 14574 18294 15161 10681 16443 12879 16263 18507 13817 14020 17670 10043 18155 13421 19339 17448 17923 17507 11362 13677 16297 19539 14976 17353 999999 999999 999999 999999 999999 999999 999999 999999 999999 999999 999999 999999 999999 999999 999999 999999 999999 999999 999999 999999 999999 999999 999999 999999 999999 999999 999999 999999 999999 999999 999999 999999 999999 999999 999999 999999 999999 999999 999999 999999 999999 999999 999999 999999 999999 0 999999 999999 999999 999999 14476
999999 13131 11030 17341 14003 12679 11677 13158 13680 19121 16595 15829 12987 13081 14901 19554 18484 17981 10153 13820 12740 11795 11004 10886 17595 13815 19943 15033 17880 15728 12636 11883 10824 19652 10238 17988 15964 12469 13966 13257 17260 14527 15834 17591 19163 19257 18434 11792 11670 12801 11599 10455 18450 14354 15347 14633 10942 15130 18021 12893 12320 14537 14934 15781 17161 17125 11470 13820 17265 19164 10657 17218 12266 17068 12388 14162 11823 19080 18904 19360 14612 14847 13410 13944 17392 18112 18593 16253 18022 12915 19818 15558 11902 16888 17953 10046 11144 13068 14169 13695 18077 10628 14585 17299 19515 17804 14264 10450 11517 16716 18598 17307 18379 11131 10432 19258 17492 12071 12143 16965 18857 12003 14505 11993 15222 15251 12695 10950 14198 19728 10212 18529 14844 16789 14491 17928 18942 12868 18049 19145 13424 999999 999999 999999 999999 999999 999999 999999 999999 999999 999999 999999 999999 999999 999999 999999 999999 999999 999999 999999 999999 999999 999999 999999 999999 999999 999999 999999 999999 999999 999999 999999 999999 999999 999999 999999 999999 999999 999999 999999 999999 999999 999999 999999 999999 999999 999999 0 999999 999999 999999 8161
999999 16953 14711 14845 12568 12543 15631 14780 17442 16983 11849 15585 11949 10996 15283 19458 11901 17056 16253 19215 12740 17869 10674 15563 15812 19377 15796 18540 16963 10368 11287 16326 12528 12686 11559 13521 17296 12070 17027 16201 10206 15288 18920 14070 10582 18178 19791 16696 13764 13205 13413 15058 16064 16490 14478 15314 12038 18685 19542 14562 16084 14939 12545 13352 13314 11863 11733 11501 12005 12785 19050 12825 15275 17152 10476 10186 12536 18532 17655 15656 13805 19407 19530 13989 12517 16472 12976 13813 17106 18244 14601 14435 14310 11283 15319 17681 13841 10597 18283 17565 14014 18696 11090 12872 14340 11374 17848 14550 19243 17168 17690 16670 12490 18491 14512 12809 10583 12898 11677 16053 15932 11221 17482 16303 18293 15943 15893 12504 13461 18302 18499 17270 18495 12615 18154 15955 16449 14460 11309 13103 18652 999999 999999 999999 999999 999999 999999 999999 999999 999999 999999 999999 999999 999999 999999 999999 999999 999999 999999 999999 999999 999999 999999 999999 999999 999999 999999 999999 999999 999999 999999 999999 999999 999999 999999 999999 999999 999999 999999 999999 999999 999999 999999 999999 999999 999999 999999 999999 0 999999 999999 10019
999999 18824 17656 10058 12715 12388 18093 18102 11497 12862 12275 18585 10389 17006 13898 10570 19010 19105 16048 11070 13062 17947 19172 14996 18779 11421 15371 15204 11992 17122 11226 17449 13129 12726 10110 15384 15690 14667 13089 13325 17574 13147 11622 11193 19918 17046 15807 14395 15955 19388 19477 12466 16075 10758 19210 17253 10472 12597 13818 10058 14939 11894 11831 16106 16826 17217 14799 16424 19955 12342 12809 19074 11536 18986 19651 10597 10992 14932 18502 16485 12404 10856 12770 13557 12126 11092 10260 18897 18858 15222 18526 14885 13799 11643 13103 10845 15180 15100 13609 13887 16709 18003 15426 13790 13833 10448 15081 12397 10986 15200 18454 13480 19504 15029 11342 11082 11453 10875 12601 11970 19658 18041 18287 17786 10613 11154 13618 13408 11357 11376 18945 18395 12549 19499 17912 19693 15128 16096 13145 11717 19792 999999 999999 999999 999999 999999 999999 999999 999999 999999 999999 999999 999999 999999 999999 999999 999999 999999 999999 999999 999999 999999 999999 999999 999999 999999 999999 999999 999999 999999 999999 999999 999999 999999 999999 999999 999999 999999 999999 999999 999999 999999 999999 999999 999999 999999 999999 999999 999999 0 999999 14328
999999 11972 17247 12559 17297 12591 18215 19132 19777 12278 13802 13272 15375 17094 15279 13653 10620 19120 11746 10506 15754 19477 19933 12280 13742 15905 11046 15009 12747 15967 10447 11627 18366 19563 12437 18427 11787 12209 10347 18659 14087 19494 11888 19216 10407 16569 11888 16707 14697 17888 15971 19466 14976 10677 10723 10661 19214 15381 13083 17700 17013 17078 20000 11031 12986 17084 17840 17641 10213 13044 11867 13600 15629 10534 10911 18134 15905 16012 16545 14256 17299 10735 18933 15826 19369 10432 13167 15691 19696 10332 14117 15942 15399 17589 13350 12403 12641 14137 15438 15952 18703 17809 17271 15621 17901 16903 19390 13213 12808 13376 19217 17219 14852 19642 12210 16607 12359 10767 14180 11499 13196 19787 19796 17253 17593 11337 15195 10543 18723 15772 16550 17975 18530 12902 11384 13328 17704 15912 11078 12796 10976 999999 999999 999999 999999 999999 999999 999999 999999 999999 999999 999999 999999 999999 999999 999999 999999 999999 999999 999999 999999 999999 999999 999999 999999 999999 999999 999999 999999 999999 999999 999999 999999 999999 999999 999999 999999 999999 999999 999999 999999 999999 999999 999999 999999 999999 999999 999999 999999 999999 0 14899
1 999999 999999 999999 999999 999999 999999 999999 999999 999999 999999 999999 999999 999999 999999 999999 999999 999999 999999 999999 999999 999999 999999 999999 999999 999999 999999 999999 999999 999999 999999 999999 999999 999999 999999 999999 999999 999999 999999 999999 999999 999999 999999 999999 999999 999999 999999 999999 999999 999999 999999 999999 999999 999999 999999 999999 999999 999999 999999 999999 999999 999999 999999 999999 999999 999999 999999 999999 999999 999999 999999 999999 999999 999999 999999 999999 999999 999999 999999 999999 999999 999999 999999 999999 999999 999999 999999 999999 999999 999999 999999 999999 999999 999999 999999 999999 999999 999999 999999 999999 999999 999999 999999 999999 999999 999999 999999 999999 999999 999999 999999 999999 999999 999999 999999 999999 999999 999999 999999 999999 999999 999999 999999 999999 999999 999999 999999 999999 999999 999999 999999 999999 999999 999999 999999 999999 999999 999999 999999 999999 999999 999999 999999 999999 999999 999999 999999 999999 999999 999999 999999 999999 999999 999999 999999 999999 999999 999999 999999 999999 999999 999999 999999 999999 999999 999999 999999 999999 999999 999999 999999 999999 999999 999999 999999 999999 999999 999999 999999 999999 999999 999999 999999 999999 999999 999999 999999 999999 999999 999999 999999 0
EOF