NAME: GR_1x5x8_KH_5x8_Run_3
TYPE: TSP
COMMENT: BTSP instance |A|=40 GR nodes |B|=40 KH nodes depot=0.0 end=0.0.0
DIMENSION: 82
EDGE_WEIGHT_TYPE: EXPLICIT
EDGE_WEIGHT_FORMAT: FULL_MATRIX
NODE_COORD_TYPE: NO_COORDS
EDGE_WEIGHT_SECTION
0 8203 7852 5527 10277 14415 10806 7531 13987 14342 8072 12489 14957 8920 11661 11847 9982 6636 5226 9282 13601 6153 11070 13688 11695 6871 10512 6183 7542 11123 13441 7599 5251 7403 14698 9843 5887 7321 10671 10621 6049 999999 999999 999999 999999 999999 999999 999999 999999 999999 999999 999999 999999 999999 999999 999999 999999 999999 999999 999999 999999 999999 999999 999999 999999 999999 999999 999999 999999 999999 999999 999999 999999 999999 999999 999999 999999 999999 999999 999999 999999 999999
999999 0 999999 999999 999999 999999 999999 999999 999999 999999 999999 999999 999999 999999 999999 999999 999999 999999 999999 999999 999999 999999 999999 999999 999999 999999 999999 999999 999999 999999 999999 999999 999999 999999 999999 999999 999999 999999 999999 999999 999999 11993 15412 14098 10790 12066 17775 14607 10580 12899 16951 10698 12934 18246 13281 11714 18906 12731 12468 11572 14880 13476 15786 12970 18858 11211 13677 15284 11148 12264 11420 17539 15062 15496 17945 16969 15735 13846 18580 12639 19182 999999
999999 999999 0 999999 999999 999999 999999 999999 999999 999999 999999 999999 999999 999999 999999 999999 999999 999999 999999 999999 999999 999999 999999 999999 999999 999999 999999 999999 999999 999999 999999 999999 999999 999999 999999 999999 999999 999999 999999 999999 999999 11671 18180 19838 14865 13614 10833 10570 13929 17551 19519 11950 14527 13301 14230 11206 15342 13465 10318 16957 10996 19066 16267 17879 10321 14997 10213 18445 16242 11586 18376 11561 16249 14976 18200 11095 19420 15815 11300 10321 17709 999999
999999 999999 999999 0 999999 999999 999999 999999 999999 999999 999999 999999 999999 999999 999999 999999 999999 999999 999999 999999 999999 999999 999999 999999 999999 999999 999999 999999 999999 999999 999999 999999 999999 999999 999999 999999 999999 999999 999999 999999 999999 17195 11133 15339 13570 14182 10640 19844 10290 11097 12282 17644 16949 10917 18238 14697 17750 16277 10031 11424 19413 19375 10681 14976 14258 18462 14876 11611 17717 14821 13897 15413 10868 13732 15861 13931 18009 18539 10237 11161 11663 999999
999999 999999 999999 999999 0 999999 999999 999999 999999 999999 999999 999999 999999 999999 999999 999999 999999 999999 999999 999999 999999 999999 999999 999999 999999 999999 999999 999999 999999 999999 999999 999999 999999 999999 999999 999999 999999 999999 999999 999999 999999 13709 13417 14568 18857 10342 19599 11521 11693 15084 17439 15588 14082 18361 10190 12106 19674 18554 17362 14254 10106 15976 14548 17962 15884 11988 14098 19332 19688 11075 18872 19825 14918 15877 19019 14776 17229 19197 12011 10901 10947 999999
999999 999999 999999 999999 999999 0 999999 999999 999999 999999 999999 999999 999999 999999 999999 999999 999999 999999 999999 999999 999999 999999 999999 999999 999999 999999 999999 999999 999999 999999 999999 999999 999999 999999 999999 999999 999999 999999 999999 999999 999999 11231 10998 10639 10227 12979 12389 16034 15611 11059 16090 11045 14321 15279 14407 10961 16703 19635 12067 15349 15144 14368 10084 19991 14215 11221 18236 12447 17189 14086 12940 13782 17982 17735 15957 17384 17165 10873 14897 14152 11250 999999
999999 999999 999999 999999 999999 999999 0 999999 999999 999999 999999 999999 999999 999999 999999 999999 999999 999999 999999 999999 999999 999999 999999 999999 999999 999999 999999 999999 999999 999999 999999 999999 999999 999999 999999 999999 999999 999999 999999 999999 999999 12900 19343 17734 18828 11057 11009 13587 10844 17121 12456 19510 15875 16691 16976 14325 16065 10941 11170 11075 12611 19201 15569 12299 19670 14323 16761 10369 17986 11311 17031 11975 14209 12262 16097 17722 11027 15590 16860 14083 13806 999999
999999 999999 999999 999999 999999 999999 999999 0 999999 999999 999999 999999 999999 999999 999999 999999 999999 999999 999999 999999 999999 999999 999999 999999 999999 999999 999999 999999 999999 999999 999999 999999 999999 999999 999999 999999 999999 999999 999999 999999 999999 17469 16917 16408 10492 12809 10640 15328 19894 19072 16179 17981 13285 15906 12713 17355 12171 14235 10207 10172 10873 15682 17452 16458 16507 13445 18039 19257 11625 15832 12258 16325 17373 12051 14888 17929 11470 14314 17351 17924 17923 999999
999999 999999 999999 999999 999999 999999 999999 999999 0 999999 999999 999999 999999 999999 999999 999999 999999 999999 999999 999999 999999 999999 999999 999999 999999 999999 999999 999999 999999 999999 999999 999999 999999 999999 999999 999999 999999 999999 999999 999999 999999 12095 14045 11339 14754 10681 17283 18133 14022 14902 19104 14758 19467 15895 11593 18390 17138 13984 18917 15702 15845 19176 17277 13750 14520 15071 13373 12438 14742 18487 11629 13839 10868 13340 13103 13578 18464 14198 14435 13643 15970 999999
999999 999999 999999 999999 999999 999999 999999 999999 999999 0 999999 999999 999999 999999 999999 999999 999999 999999 999999 999999 999999 999999 999999 999999 999999 999999 999999 999999 999999 999999 999999 999999 999999 999999 999999 999999 999999 999999 999999 999999 999999 14994 15174 16346 15526 12157 14422 15227 17136 12973 16250 17711 17486 13164 18102 11284 16331 18348 14256 14903 19722 18445 11711 12352 11480 11121 17812 14077 10720 16863 17480 16118 17265 11100 17601 10916 10792 19965 14390 12154 18592 999999
999999 999999 999999 999999 999999 999999 999999 999999 999999 999999 0 999999 999999 999999 999999 999999 999999 999999 999999 999999 999999 999999 999999 999999 999999 999999 999999 999999 999999 999999 999999 999999 999999 999999 999999 999999 999999 999999 999999 999999 999999 16416 13167 13778 12464 14675 17945 18955 16183 19272 10409 19899 13932 12116 12972 10267 16003 17316 14822 14715 11942 17794 11788 13814 19899 19393 10031 16301 15036 10387 15261 18836 11961 13039 10315 10259 18335 12398 15874 10796 17920 999999
999999 999999 999999 999999 999999 999999 999999 999999 999999 999999 999999 0 999999 999999 999999 999999 999999 999999 999999 999999 999999 999999 999999 999999 999999 999999 999999 999999 999999 999999 999999 999999 999999 999999 999999 999999 999999 999999 999999 999999 999999 13746 18851 14033 17669 12503 18926 14593 14260 10349 18962 17388 16450 16900 14872 19424 11375 15830 12736 10319 17884 20000 13913 11688 15939 15857 15851 12998 13408 13555 18273 12754 14682 12198 15185 17472 12700 11232 15644 13127 17486 999999
999999 999999 999999 999999 999999 999999 999999 999999 999999 999999 999999 999999 0 999999 999999 999999 999999 999999 999999 999999 999999 999999 999999 999999 999999 999999 999999 999999 999999 999999 999999 999999 999999 999999 999999 999999 999999 999999 999999 999999 999999 16071 14352 15020 15277 17019 19402 13015 11981 18859 10680 13409 18795 12541 17802 16997 19730 15204 17910 19367 11332 11414 18937 16844 19081 11360 11014 10709 10548 17758 14022 16826 17068 17059 19087 13140 14855 12982 12716 12577 11434 999999
999999 999999 999999 999999 999999 999999 999999 999999 999999 999999 999999 999999 999999 0 999999 999999 999999 999999 999999 999999 999999 999999 999999 999999 999999 999999 999999 999999 999999 999999 999999 999999 999999 999999 999999 999999 999999 999999 999999 999999 999999 12412 17102 13190 18340 13027 17649 15597 17282 13311 12355 12027 15402 14928 19607 17317 11610 10354 15262 16756 13790 18390 13361 12420 19434 19339 14187 19653 17877 15486 13016 10277 11933 10213 16112 10258 14221 18672 19429 10141 18271 999999
999999 999999 999999 999999 999999 999999 999999 999999 999999 999999 999999 999999 999999 999999 0 999999 999999 999999 999999 999999 999999 999999 999999 999999 999999 999999 999999 999999 999999 999999 999999 999999 999999 999999 999999 999999 999999 999999 999999 999999 999999 12722 17241 18849 12635 17289 14604 14119 15220 17281 10780 17990 17095 10091 15836 18312 15834 13577 19652 11263 11407 13860 14045 10573 14083 17913 12937 18583 16125 13131 17060 14030 17560 19786 15177 13462 19573 19883 19425 14970 16501 999999
999999 999999 999999 999999 999999 999999 999999 999999 999999 999999 999999 999999 999999 999999 999999 0 999999 999999 999999 999999 999999 999999 999999 999999 999999 999999 999999 999999 999999 999999 999999 999999 999999 999999 999999 999999 999999 999999 999999 999999 999999 15745 14386 11548 17172 11508 12114 12741 12605 12113 15413 15767 18850 11344 17192 18004 15252 14610 15042 10758 16258 14124 11594 18454 19853 18258 12123 16079 14099 14206 14316 12567 10587 14575 10541 10331 10823 19476 16485 10695 14217 999999
999999 999999 999999 999999 999999 999999 999999 999999 999999 999999 999999 999999 999999 999999 999999 999999 0 999999 999999 999999 999999 999999 999999 999999 999999 999999 999999 999999 999999 999999 999999 999999 999999 999999 999999 999999 999999 999999 999999 999999 999999 16152 10372 19780 12146 11390 10131 14678 11423 13188 19776 12737 11892 12297 11144 18371 13128 15418 18803 12910 18503 10305 17967 11420 13131 14084 18552 10422 10727 10579 12907 19867 18382 15997 16161 12702 18194 18482 10050 13058 13467 999999
999999 999999 999999 999999 999999 999999 999999 999999 999999 999999 999999 999999 999999 999999 999999 999999 999999 0 999999 999999 999999 999999 999999 999999 999999 999999 999999 999999 999999 999999 999999 999999 999999 999999 999999 999999 999999 999999 999999 999999 999999 19884 18719 13112 17962 13634 15499 16558 15820 17472 18244 11000 18273 12923 13076 10907 16533 16546 12882 13177 17756 18948 10274 19384 14852 17820 18196 16369 19639 14503 12856 18902 12200 11474 16825 16580 15085 15321 13765 16126 19012 999999
999999 999999 999999 999999 999999 999999 999999 999999 999999 999999 999999 999999 999999 999999 999999 999999 999999 999999 0 999999 999999 999999 999999 999999 999999 999999 999999 999999 999999 999999 999999 999999 999999 999999 999999 999999 999999 999999 999999 999999 999999 11279 13720 14799 13418 18680 13439 12046 13339 17127 16301 15724 11796 12233 12286 12443 10305 14986 11267 10488 14292 15364 17929 11693 11697 16620 17535 19994 13885 11151 19603 10722 19991 19884 17459 13633 13990 18977 12727 10646 11228 999999
999999 999999 999999 999999 999999 999999 999999 999999 999999 999999 999999 999999 999999 999999 999999 999999 999999 999999 999999 0 999999 999999 999999 999999 999999 999999 999999 999999 999999 999999 999999 999999 999999 999999 999999 999999 999999 999999 999999 999999 999999 19885 12946 11284 18989 19315 17178 12105 10458 12939 11088 18558 10745 10474 17197 16698 12692 15924 17055 18702 11894 15169 15342 17702 15072 19750 16993 15192 16827 17498 17557 11877 10340 12674 14299 19881 19433 14097 14169 18947 11202 999999
999999 999999 999999 999999 999999 999999 999999 999999 999999 999999 999999 999999 999999 999999 999999 999999 999999 999999 999999 999999 0 999999 999999 999999 999999 999999 999999 999999 999999 999999 999999 999999 999999 999999 999999 999999 999999 999999 999999 999999 999999 19406 16675 15529 17145 14100 11023 11045 19937 13943 10801 10269 17650 11376 16560 17518 10160 16850 13745 12547 15205 12483 13650 12852 14035 18682 12544 15448 19254 18590 11410 13328 15488 14557 15171 17432 17976 19712 15867 19291 12458 999999
999999 999999 999999 999999 999999 999999 999999 999999 999999 999999 999999 999999 999999 999999 999999 999999 999999 999999 999999 999999 999999 0 999999 999999 999999 999999 999999 999999 999999 999999 999999 999999 999999 999999 999999 999999 999999 999999 999999 999999 999999 19613 11649 18140 14386 12365 10600 14749 19616 10331 13196 17662 11147 10084 19349 14111 18780 15695 16595 19460 18993 19067 12523 16742 14660 19832 12227 11229 12292 12473 18270 16143 11733 14414 17817 16336 12511 12530 18784 10910 19215 999999
999999 999999 999999 999999 999999 999999 999999 999999 999999 999999 999999 999999 999999 999999 999999 999999 999999 999999 999999 999999 999999 999999 0 999999 999999 999999 999999 999999 999999 999999 999999 999999 999999 999999 999999 999999 999999 999999 999999 999999 999999 11665 18143 18573 12200 10583 17714 19179 10182 18869 16978 10579 11091 12338 18598 15716 12624 13157 18252 11516 15108 16223 11240 11775 19839 15066 10911 15567 12137 10460 15701 11287 18485 15421 12451 12326 14271 11535 11253 19167 10111 999999
999999 999999 999999 999999 999999 999999 999999 999999 999999 999999 999999 999999 999999 999999 999999 999999 999999 999999 999999 999999 999999 999999 999999 0 999999 999999 999999 999999 999999 999999 999999 999999 999999 999999 999999 999999 999999 999999 999999 999999 999999 15130 14112 18508 12435 15635 14233 12607 13468 18185 10138 15606 16875 18135 10094 13196 10618 14338 16676 10849 12772 18364 18052 13112 16555 18853 14169 14945 14192 14811 12657 17959 17964 19237 11354 18722 11486 18877 15466 17447 13550 999999
999999 999999 999999 999999 999999 999999 999999 999999 999999 999999 999999 999999 999999 999999 999999 999999 999999 999999 999999 999999 999999 999999 999999 999999 0 999999 999999 999999 999999 999999 999999 999999 999999 999999 999999 999999 999999 999999 999999 999999 999999 14476 11310 14193 16296 14815 13293 19222 12860 19580 19386 11414 12909 14346 14262 19601 15849 14807 13789 17360 10705 12047 13775 15569 14542 11527 17027 13455 11300 10103 18813 15991 10077 10878 15499 12574 13828 13340 11443 13688 16357 999999
999999 999999 999999 999999 999999 999999 999999 999999 999999 999999 999999 999999 999999 999999 999999 999999 999999 999999 999999 999999 999999 999999 999999 999999 999999 0 999999 999999 999999 999999 999999 999999 999999 999999 999999 999999 999999 999999 999999 999999 999999 13420 17609 18930 12576 17841 17227 13136 12891 11941 12598 11229 11338 12725 16263 18438 13810 17501 15563 10625 10747 10434 15394 16522 15865 10649 13466 17761 14633 18628 14818 13608 18718 10643 16710 10658 15036 14630 14877 14757 12116 999999
999999 999999 999999 999999 999999 999999 999999 999999 999999 999999 999999 999999 999999 999999 999999 999999 999999 999999 999999 999999 999999 999999 999999 999999 999999 999999 0 999999 999999 999999 999999 999999 999999 999999 999999 999999 999999 999999 999999 999999 999999 16250 15226 11251 13680 13704 18887 15303 12055 11048 11477 17164 17157 13659 15286 19961 19939 13154 14429 18960 17762 19289 19416 18238 14435 15093 10844 11258 18210 18179 13881 10359 10628 13977 15414 12183 12583 14434 17105 14114 13254 999999
999999 999999 999999 999999 999999 999999 999999 999999 999999 999999 999999 999999 999999 999999 999999 999999 999999 999999 999999 999999 999999 999999 999999 999999 999999 999999 999999 0 999999 999999 999999 999999 999999 999999 999999 999999 999999 999999 999999 999999 999999 17877 11176 15419 17660 19592 12579 10290 12142 11033 18271 19236 15970 10264 16992 19395 12928 13148 12264 13304 10110 19780 12038 17542 15056 14482 13544 10254 16439 14574 11587 18195 13604 18606 11454 13678 13405 14557 13417 19456 12912 999999
999999 999999 999999 999999 999999 999999 999999 999999 999999 999999 999999 999999 999999 999999 999999 999999 999999 999999 999999 999999 999999 999999 999999 999999 999999 999999 999999 999999 0 999999 999999 999999 999999 999999 999999 999999 999999 999999 999999 999999 999999 15861 14998 14780 17332 12060 10711 17407 18702 18088 17722 11771 10954 15127 19347 10527 12672 19106 10438 15378 15700 14551 16512 11251 15838 17408 13688 10053 19211 10610 12892 10310 19193 16196 11607 11834 19951 18503 15282 10654 10625 999999
999999 999999 999999 999999 999999 999999 999999 999999 999999 999999 999999 999999 999999 999999 999999 999999 999999 999999 999999 999999 999999 999999 999999 999999 999999 999999 999999 999999 999999 0 999999 999999 999999 999999 999999 999999 999999 999999 999999 999999 999999 12211 17601 12110 15736 15961 10813 18638 15063 12524 11145 18140 19661 17444 10927 14181 13086 11279 13369 10684 11971 16996 11949 14373 13499 19031 15167 17974 18945 15173 14618 18130 10121 17513 14911 12408 11878 11461 17998 17151 12016 999999
999999 999999 999999 999999 999999 999999 999999 999999 999999 999999 999999 999999 999999 999999 999999 999999 999999 999999 999999 999999 999999 999999 999999 999999 999999 999999 999999 999999 999999 999999 0 999999 999999 999999 999999 999999 999999 999999 999999 999999 999999 18620 17389 19640 14120 11806 12063 19926 17700 13554 15633 16562 12730 10056 17208 19303 14429 12027 11069 15505 15486 11602 11961 16075 11938 14240 14445 12556 18144 13569 16227 14569 12357 15190 16437 14051 16739 17428 15188 18181 18372 999999
999999 999999 999999 999999 999999 999999 999999 999999 999999 999999 999999 999999 999999 999999 999999 999999 999999 999999 999999 999999 999999 999999 999999 999999 999999 999999 999999 999999 999999 999999 999999 0 999999 999999 999999 999999 999999 999999 999999 999999 999999 16580 14140 11602 18011 15881 13089 12843 12381 15100 10857 15177 16858 10837 13328 12670 15253 15362 11345 18738 12675 18373 12856 16450 16086 13218 18488 12153 15826 17770 15294 14301 12127 17404 14611 12170 14727 19773 12735 16800 15681 999999
999999 999999 999999 999999 999999 999999 999999 999999 999999 999999 999999 999999 999999 999999 999999 999999 999999 999999 999999 999999 999999 999999 999999 999999 999999 999999 999999 999999 999999 999999 999999 999999 0 999999 999999 999999 999999 999999 999999 999999 999999 14240 18048 12479 13891 19754 18926 17674 14290 18054 15134 10823 12310 19973 17276 10864 12154 16541 13454 16987 13858 19139 19542 17159 16068 13250 18594 12307 19223 16389 16354 10484 17548 13591 14278 14490 16021 19453 16388 11698 11412 999999
999999 999999 999999 999999 999999 999999 999999 999999 999999 999999 999999 999999 999999 999999 999999 999999 999999 999999 999999 999999 999999 999999 999999 999999 999999 999999 999999 999999 999999 999999 999999 999999 999999 0 999999 999999 999999 999999 999999 999999 999999 18974 19059 11326 10382 14094 16715 17984 17545 10793 14925 15556 11545 17646 10395 11794 12547 17669 18608 15895 11001 14954 13601 14177 16544 18301 18387 16809 19329 14280 15401 12853 15816 11527 11410 13695 18919 13636 17309 18292 18019 999999
999999 999999 999999 999999 999999 999999 999999 999999 999999 999999 999999 999999 999999 999999 999999 999999 999999 999999 999999 999999 999999 999999 999999 999999 999999 999999 999999 999999 999999 999999 999999 999999 999999 999999 0 999999 999999 999999 999999 999999 999999 14380 13221 11825 11480 16809 17353 11549 13315 18227 18518 11785 19010 15780 14539 14523 12114 11470 18762 11669 13394 13586 11175 18929 19067 19418 15838 10845 14655 13487 19919 18012 14592 15931 17138 17531 13770 14439 17314 12991 15175 999999
999999 999999 999999 999999 999999 999999 999999 999999 999999 999999 999999 999999 999999 999999 999999 999999 999999 999999 999999 999999 999999 999999 999999 999999 999999 999999 999999 999999 999999 999999 999999 999999 999999 999999 999999 0 999999 999999 999999 999999 999999 15419 19254 15949 11922 19183 15108 17342 17701 18060 13767 12748 19890 13926 17491 14391 17186 16586 13568 16237 13580 10535 15540 18044 14724 18220 19261 11244 15029 18571 17983 11233 19421 12554 16691 10139 19877 10578 17763 14803 10950 999999
999999 999999 999999 999999 999999 999999 999999 999999 999999 999999 999999 999999 999999 999999 999999 999999 999999 999999 999999 999999 999999 999999 999999 999999 999999 999999 999999 999999 999999 999999 999999 999999 999999 999999 999999 999999 0 999999 999999 999999 999999 13811 13603 11935 14938 10353 10020 11804 10401 11757 16728 18606 16663 14355 19499 18821 16491 10917 12320 12914 13044 16506 10634 16103 13292 18025 13972 15888 16351 17227 15661 11558 17641 10289 12502 16161 11151 17618 16194 17639 16121 999999
999999 999999 999999 999999 999999 999999 999999 999999 999999 999999 999999 999999 999999 999999 999999 999999 999999 999999 999999 999999 999999 999999 999999 999999 999999 999999 999999 999999 999999 999999 999999 999999 999999 999999 999999 999999 999999 0 999999 999999 999999 11570 16387 15077 14664 14380 12686 10821 10685 16802 13006 14369 18020 19116 11131 11885 13202 19521 14559 10851 15185 16810 11390 10555 19844 17497 13732 16794 14694 19187 18631 15571 11265 11165 12659 16122 15843 18726 15870 13928 18414 999999
999999 999999 999999 999999 999999 999999 999999 999999 999999 999999 999999 999999 999999 999999 999999 999999 999999 999999 999999 999999 999999 999999 999999 999999 999999 999999 999999 999999 999999 999999 999999 999999 999999 999999 999999 999999 999999 999999 0 999999 999999 10835 19623 13222 10527 16534 13691 10057 13703 13035 14638 11325 17368 12144 14315 18568 15781 11877 19132 12339 19924 11459 11600 19184 18007 13385 12685 19939 18556 10304 19210 19885 10862 14214 16276 11634 10165 16848 12458 13631 12168 999999
999999 999999 999999 999999 999999 999999 999999 999999 999999 999999 999999 999999 999999 999999 999999 999999 999999 999999 999999 999999 999999 999999 999999 999999 999999 999999 999999 999999 999999 999999 999999 999999 999999 999999 999999 999999 999999 999999 999999 0 999999 14187 14303 16964 19392 13025 13409 12297 19470 12319 15414 10222 17497 17298 17985 19719 16302 11851 13688 12293 18398 17708 14403 18312 19457 14978 15474 16991 16899 12639 10008 12543 16806 10848 12234 14850 10154 19750 18034 13009 15211 999999
999999 999999 999999 999999 999999 999999 999999 999999 999999 999999 999999 999999 999999 999999 999999 999999 999999 999999 999999 999999 999999 999999 999999 999999 999999 999999 999999 999999 999999 999999 999999 999999 999999 999999 999999 999999 999999 999999 999999 999999 0 13054 18438 10606 18238 16964 18392 14082 17299 17870 18234 11282 12608 15145 16640 13169 16773 13797 15780 15361 16328 13025 19692 13135 15903 18516 19189 18919 15953 19291 13301 16009 10985 11133 13956 19754 10927 19207 18123 15372 11560 999999
999999 11993 11671 17195 13709 11231 12900 17469 12095 14994 16416 13746 16071 12412 12722 15745 16152 19884 11279 19885 19406 19613 11665 15130 14476 13420 16250 17877 15861 12211 18620 16580 14240 18974 14380 15419 13811 11570 10835 14187 13054 0 999999 999999 999999 999999 999999 999999 999999 999999 999999 999999 999999 999999 999999 999999 999999 999999 999999 999999 999999 999999 999999 999999 999999 999999 999999 999999 999999 999999 999999 999999 999999 999999 999999 999999 999999 999999 999999 999999 999999 11607
999999 15412 18180 11133 13417 10998 19343 16917 14045 15174 13167 18851 14352 17102 17241 14386 10372 18719 13720 12946 16675 11649 18143 14112 11310 17609 15226 11176 14998 17601 17389 14140 18048 19059 13221 19254 13603 16387 19623 14303 18438 999999 0 999999 999999 999999 999999 999999 999999 999999 999999 999999 999999 999999 999999 999999 999999 999999 999999 999999 999999 999999 999999 999999 999999 999999 999999 999999 999999 999999 999999 999999 999999 999999 999999 999999 999999 999999 999999 999999 999999 11130
999999 14098 19838 15339 14568 10639 17734 16408 11339 16346 13778 14033 15020 13190 18849 11548 19780 13112 14799 11284 15529 18140 18573 18508 14193 18930 11251 15419 14780 12110 19640 11602 12479 11326 11825 15949 11935 15077 13222 16964 10606 999999 999999 0 999999 999999 999999 999999 999999 999999 999999 999999 999999 999999 999999 999999 999999 999999 999999 999999 999999 999999 999999 999999 999999 999999 999999 999999 999999 999999 999999 999999 999999 999999 999999 999999 999999 999999 999999 999999 999999 7090
999999 10790 14865 13570 18857 10227 18828 10492 14754 15526 12464 17669 15277 18340 12635 17172 12146 17962 13418 18989 17145 14386 12200 12435 16296 12576 13680 17660 17332 15736 14120 18011 13891 10382 11480 11922 14938 14664 10527 19392 18238 999999 999999 999999 0 999999 999999 999999 999999 999999 999999 999999 999999 999999 999999 999999 999999 999999 999999 999999 999999 999999 999999 999999 999999 999999 999999 999999 999999 999999 999999 999999 999999 999999 999999 999999 999999 999999 999999 999999 999999 8396
999999 12066 13614 14182 10342 12979 11057 12809 10681 12157 14675 12503 17019 13027 17289 11508 11390 13634 18680 19315 14100 12365 10583 15635 14815 17841 13704 19592 12060 15961 11806 15881 19754 14094 16809 19183 10353 14380 16534 13025 16964 999999 999999 999999 999999 0 999999 999999 999999 999999 999999 999999 999999 999999 999999 999999 999999 999999 999999 999999 999999 999999 999999 999999 999999 999999 999999 999999 999999 999999 999999 999999 999999 999999 999999 999999 999999 999999 999999 999999 999999 5422
999999 17775 10833 10640 19599 12389 11009 10640 17283 14422 17945 18926 19402 17649 14604 12114 10131 15499 13439 17178 11023 10600 17714 14233 13293 17227 18887 12579 10711 10813 12063 13089 18926 16715 17353 15108 10020 12686 13691 13409 18392 999999 999999 999999 999999 999999 0 999999 999999 999999 999999 999999 999999 999999 999999 999999 999999 999999 999999 999999 999999 999999 999999 999999 999999 999999 999999 999999 999999 999999 999999 999999 999999 999999 999999 999999 999999 999999 999999 999999 999999 13979
999999 14607 10570 19844 11521 16034 13587 15328 18133 15227 18955 14593 13015 15597 14119 12741 14678 16558 12046 12105 11045 14749 19179 12607 19222 13136 15303 10290 17407 18638 19926 12843 17674 17984 11549 17342 11804 10821 10057 12297 14082 999999 999999 999999 999999 999999 999999 0 999999 999999 999999 999999 999999 999999 999999 999999 999999 999999 999999 999999 999999 999999 999999 999999 999999 999999 999999 999999 999999 999999 999999 999999 999999 999999 999999 999999 999999 999999 999999 999999 999999 6337
999999 10580 13929 10290 11693 15611 10844 19894 14022 17136 16183 14260 11981 17282 15220 12605 11423 15820 13339 10458 19937 19616 10182 13468 12860 12891 12055 12142 18702 15063 17700 12381 14290 17545 13315 17701 10401 10685 13703 19470 17299 999999 999999 999999 999999 999999 999999 999999 0 999999 999999 999999 999999 999999 999999 999999 999999 999999 999999 999999 999999 999999 999999 999999 999999 999999 999999 999999 999999 999999 999999 999999 999999 999999 999999 999999 999999 999999 999999 999999 999999 9338
999999 12899 17551 11097 15084 11059 17121 19072 14902 12973 19272 10349 18859 13311 17281 12113 13188 17472 17127 12939 13943 10331 18869 18185 19580 11941 11048 11033 18088 12524 13554 15100 18054 10793 18227 18060 11757 16802 13035 12319 17870 999999 999999 999999 999999 999999 999999 999999 999999 0 999999 999999 999999 999999 999999 999999 999999 999999 999999 999999 999999 999999 999999 999999 999999 999999 999999 999999 999999 999999 999999 999999 999999 999999 999999 999999 999999 999999 999999 999999 999999 12793
999999 16951 19519 12282 17439 16090 12456 16179 19104 16250 10409 18962 10680 12355 10780 15413 19776 18244 16301 11088 10801 13196 16978 10138 19386 12598 11477 18271 17722 11145 15633 10857 15134 14925 18518 13767 16728 13006 14638 15414 18234 999999 999999 999999 999999 999999 999999 999999 999999 999999 0 999999 999999 999999 999999 999999 999999 999999 999999 999999 999999 999999 999999 999999 999999 999999 999999 999999 999999 999999 999999 999999 999999 999999 999999 999999 999999 999999 999999 999999 999999 11774
999999 10698 11950 17644 15588 11045 19510 17981 14758 17711 19899 17388 13409 12027 17990 15767 12737 11000 15724 18558 10269 17662 10579 15606 11414 11229 17164 19236 11771 18140 16562 15177 10823 15556 11785 12748 18606 14369 11325 10222 11282 999999 999999 999999 999999 999999 999999 999999 999999 999999 999999 0 999999 999999 999999 999999 999999 999999 999999 999999 999999 999999 999999 999999 999999 999999 999999 999999 999999 999999 999999 999999 999999 999999 999999 999999 999999 999999 999999 999999 999999 12941
999999 12934 14527 16949 14082 14321 15875 13285 19467 17486 13932 16450 18795 15402 17095 18850 11892 18273 11796 10745 17650 11147 11091 16875 12909 11338 17157 15970 10954 19661 12730 16858 12310 11545 19010 19890 16663 18020 17368 17497 12608 999999 999999 999999 999999 999999 999999 999999 999999 999999 999999 999999 0 999999 999999 999999 999999 999999 999999 999999 999999 999999 999999 999999 999999 999999 999999 999999 999999 999999 999999 999999 999999 999999 999999 999999 999999 999999 999999 999999 999999 5232
999999 18246 13301 10917 18361 15279 16691 15906 15895 13164 12116 16900 12541 14928 10091 11344 12297 12923 12233 10474 11376 10084 12338 18135 14346 12725 13659 10264 15127 17444 10056 10837 19973 17646 15780 13926 14355 19116 12144 17298 15145 999999 999999 999999 999999 999999 999999 999999 999999 999999 999999 999999 999999 0 999999 999999 999999 999999 999999 999999 999999 999999 999999 999999 999999 999999 999999 999999 999999 999999 999999 999999 999999 999999 999999 999999 999999 999999 999999 999999 999999 13209
999999 13281 14230 18238 10190 14407 16976 12713 11593 18102 12972 14872 17802 19607 15836 17192 11144 13076 12286 17197 16560 19349 18598 10094 14262 16263 15286 16992 19347 10927 17208 13328 17276 10395 14539 17491 19499 11131 14315 17985 16640 999999 999999 999999 999999 999999 999999 999999 999999 999999 999999 999999 999999 999999 0 999999 999999 999999 999999 999999 999999 999999 999999 999999 999999 999999 999999 999999 999999 999999 999999 999999 999999 999999 999999 999999 999999 999999 999999 999999 999999 13006
999999 11714 11206 14697 12106 10961 14325 17355 18390 11284 10267 19424 16997 17317 18312 18004 18371 10907 12443 16698 17518 14111 15716 13196 19601 18438 19961 19395 10527 14181 19303 12670 10864 11794 14523 14391 18821 11885 18568 19719 13169 999999 999999 999999 999999 999999 999999 999999 999999 999999 999999 999999 999999 999999 999999 0 999999 999999 999999 999999 999999 999999 999999 999999 999999 999999 999999 999999 999999 999999 999999 999999 999999 999999 999999 999999 999999 999999 999999 999999 999999 6365
999999 18906 15342 17750 19674 16703 16065 12171 17138 16331 16003 11375 19730 11610 15834 15252 13128 16533 10305 12692 10160 18780 12624 10618 15849 13810 19939 12928 12672 13086 14429 15253 12154 12547 12114 17186 16491 13202 15781 16302 16773 999999 999999 999999 999999 999999 999999 999999 999999 999999 999999 999999 999999 999999 999999 999999 0 999999 999999 999999 999999 999999 999999 999999 999999 999999 999999 999999 999999 999999 999999 999999 999999 999999 999999 999999 999999 999999 999999 999999 999999 8446
999999 12731 13465 16277 18554 19635 10941 14235 13984 18348 17316 15830 15204 10354 13577 14610 15418 16546 14986 15924 16850 15695 13157 14338 14807 17501 13154 13148 19106 11279 12027 15362 16541 17669 11470 16586 10917 19521 11877 11851 13797 999999 999999 999999 999999 999999 999999 999999 999999 999999 999999 999999 999999 999999 999999 999999 999999 0 999999 999999 999999 999999 999999 999999 999999 999999 999999 999999 999999 999999 999999 999999 999999 999999 999999 999999 999999 999999 999999 999999 999999 13625
999999 12468 10318 10031 17362 12067 11170 10207 18917 14256 14822 12736 17910 15262 19652 15042 18803 12882 11267 17055 13745 16595 18252 16676 13789 15563 14429 12264 10438 13369 11069 11345 13454 18608 18762 13568 12320 14559 19132 13688 15780 999999 999999 999999 999999 999999 999999 999999 999999 999999 999999 999999 999999 999999 999999 999999 999999 999999 0 999999 999999 999999 999999 999999 999999 999999 999999 999999 999999 999999 999999 999999 999999 999999 999999 999999 999999 999999 999999 999999 999999 5522
999999 11572 16957 11424 14254 15349 11075 10172 15702 14903 14715 10319 19367 16756 11263 10758 12910 13177 10488 18702 12547 19460 11516 10849 17360 10625 18960 13304 15378 10684 15505 18738 16987 15895 11669 16237 12914 10851 12339 12293 15361 999999 999999 999999 999999 999999 999999 999999 999999 999999 999999 999999 999999 999999 999999 999999 999999 999999 999999 0 999999 999999 999999 999999 999999 999999 999999 999999 999999 999999 999999 999999 999999 999999 999999 999999 999999 999999 999999 999999 999999 7642
999999 14880 10996 19413 10106 15144 12611 10873 15845 19722 11942 17884 11332 13790 11407 16258 18503 17756 14292 11894 15205 18993 15108 12772 10705 10747 17762 10110 15700 11971 15486 12675 13858 11001 13394 13580 13044 15185 19924 18398 16328 999999 999999 999999 999999 999999 999999 999999 999999 999999 999999 999999 999999 999999 999999 999999 999999 999999 999999 999999 0 999999 999999 999999 999999 999999 999999 999999 999999 999999 999999 999999 999999 999999 999999 999999 999999 999999 999999 999999 999999 7515
999999 13476 19066 19375 15976 14368 19201 15682 19176 18445 17794 20000 11414 18390 13860 14124 10305 18948 15364 15169 12483 19067 16223 18364 12047 10434 19289 19780 14551 16996 11602 18373 19139 14954 13586 10535 16506 16810 11459 17708 13025 999999 999999 999999 999999 999999 999999 999999 999999 999999 999999 999999 999999 999999 999999 999999 999999 999999 999999 999999 999999 0 999999 999999 999999 999999 999999 999999 999999 999999 999999 999999 999999 999999 999999 999999 999999 999999 999999 999999 999999 8567
999999 15786 16267 10681 14548 10084 15569 17452 17277 11711 11788 13913 18937 13361 14045 11594 17967 10274 17929 15342 13650 12523 11240 18052 13775 15394 19416 12038 16512 11949 11961 12856 19542 13601 11175 15540 10634 11390 11600 14403 19692 999999 999999 999999 999999 999999 999999 999999 999999 999999 999999 999999 999999 999999 999999 999999 999999 999999 999999 999999 999999 999999 0 999999 999999 999999 999999 999999 999999 999999 999999 999999 999999 999999 999999 999999 999999 999999 999999 999999 999999 10552
999999 12970 17879 14976 17962 19991 12299 16458 13750 12352 13814 11688 16844 12420 10573 18454 11420 19384 11693 17702 12852 16742 11775 13112 15569 16522 18238 17542 11251 14373 16075 16450 17159 14177 18929 18044 16103 10555 19184 18312 13135 999999 999999 999999 999999 999999 999999 999999 999999 999999 999999 999999 999999 999999 999999 999999 999999 999999 999999 999999 999999 999999 999999 0 999999 999999 999999 999999 999999 999999 999999 999999 999999 999999 999999 999999 999999 999999 999999 999999 999999 7165
999999 18858 10321 14258 15884 14215 19670 16507 14520 11480 19899 15939 19081 19434 14083 19853 13131 14852 11697 15072 14035 14660 19839 16555 14542 15865 14435 15056 15838 13499 11938 16086 16068 16544 19067 14724 13292 19844 18007 19457 15903 999999 999999 999999 999999 999999 999999 999999 999999 999999 999999 999999 999999 999999 999999 999999 999999 999999 999999 999999 999999 999999 999999 999999 0 999999 999999 999999 999999 999999 999999 999999 999999 999999 999999 999999 999999 999999 999999 999999 999999 7917
999999 11211 14997 18462 11988 11221 14323 13445 15071 11121 19393 15857 11360 19339 17913 18258 14084 17820 16620 19750 18682 19832 15066 18853 11527 10649 15093 14482 17408 19031 14240 13218 13250 18301 19418 18220 18025 17497 13385 14978 18516 999999 999999 999999 999999 999999 999999 999999 999999 999999 999999 999999 999999 999999 999999 999999 999999 999999 999999 999999 999999 999999 999999 999999 999999 0 999999 999999 999999 999999 999999 999999 999999 999999 999999 999999 999999 999999 999999 999999 999999 14084
999999 13677 10213 14876 14098 18236 16761 18039 13373 17812 10031 15851 11014 14187 12937 12123 18552 18196 17535 16993 12544 12227 10911 14169 17027 13466 10844 13544 13688 15167 14445 18488 18594 18387 15838 19261 13972 13732 12685 15474 19189 999999 999999 999999 999999 999999 999999 999999 999999 999999 999999 999999 999999 999999 999999 999999 999999 999999 999999 999999 999999 999999 999999 999999 999999 999999 0 999999 999999 999999 999999 999999 999999 999999 999999 999999 999999 999999 999999 999999 999999 14839
999999 15284 18445 11611 19332 12447 10369 19257 12438 14077 16301 12998 10709 19653 18583 16079 10422 16369 19994 15192 15448 11229 15567 14945 13455 17761 11258 10254 10053 17974 12556 12153 12307 16809 10845 11244 15888 16794 19939 16991 18919 999999 999999 999999 999999 999999 999999 999999 999999 999999 999999 999999 999999 999999 999999 999999 999999 999999 999999 999999 999999 999999 999999 999999 999999 999999 999999 0 999999 999999 999999 999999 999999 999999 999999 999999 999999 999999 999999 999999 999999 12351
999999 11148 16242 17717 19688 17189 17986 11625 14742 10720 15036 13408 10548 17877 16125 14099 10727 19639 13885 16827 19254 12292 12137 14192 11300 14633 18210 16439 19211 18945 18144 15826 19223 19329 14655 15029 16351 14694 18556 16899 15953 999999 999999 999999 999999 999999 999999 999999 999999 999999 999999 999999 999999 999999 999999 999999 999999 999999 999999 999999 999999 999999 999999 999999 999999 999999 999999 999999 0 999999 999999 999999 999999 999999 999999 999999 999999 999999 999999 999999 999999 13587
999999 12264 11586 14821 11075 14086 11311 15832 18487 16863 10387 13555 17758 15486 13131 14206 10579 14503 11151 17498 18590 12473 10460 14811 10103 18628 18179 14574 10610 15173 13569 17770 16389 14280 13487 18571 17227 19187 10304 12639 19291 999999 999999 999999 999999 999999 999999 999999 999999 999999 999999 999999 999999 999999 999999 999999 999999 999999 999999 999999 999999 999999 999999 999999 999999 999999 999999 999999 999999 0 999999 999999 999999 999999 999999 999999 999999 999999 999999 999999 999999 13914
999999 11420 18376 13897 18872 12940 17031 12258 11629 17480 15261 18273 14022 13016 17060 14316 12907 12856 19603 17557 11410 18270 15701 12657 18813 14818 13881 11587 12892 14618 16227 15294 16354 15401 19919 17983 15661 18631 19210 10008 13301 999999 999999 999999 999999 999999 999999 999999 999999 999999 999999 999999 999999 999999 999999 999999 999999 999999 999999 999999 999999 999999 999999 999999 999999 999999 999999 999999 999999 999999 0 999999 999999 999999 999999 999999 999999 999999 999999 999999 999999 14420
999999 17539 11561 15413 19825 13782 11975 16325 13839 16118 18836 12754 16826 10277 14030 12567 19867 18902 10722 11877 13328 16143 11287 17959 15991 13608 10359 18195 10310 18130 14569 14301 10484 12853 18012 11233 11558 15571 19885 12543 16009 999999 999999 999999 999999 999999 999999 999999 999999 999999 999999 999999 999999 999999 999999 999999 999999 999999 999999 999999 999999 999999 999999 999999 999999 999999 999999 999999 999999 999999 999999 0 999999 999999 999999 999999 999999 999999 999999 999999 999999 7099
999999 15062 16249 10868 14918 17982 14209 17373 10868 17265 11961 14682 17068 11933 17560 10587 18382 12200 19991 10340 15488 11733 18485 17964 10077 18718 10628 13604 19193 10121 12357 12127 17548 15816 14592 19421 17641 11265 10862 16806 10985 999999 999999 999999 999999 999999 999999 999999 999999 999999 999999 999999 999999 999999 999999 999999 999999 999999 999999 999999 999999 999999 999999 999999 999999 999999 999999 999999 999999 999999 999999 999999 0 999999 999999 999999 999999 999999 999999 999999 999999 5475
999999 15496 14976 13732 15877 17735 12262 12051 13340 11100 13039 12198 17059 10213 19786 14575 15997 11474 19884 12674 14557 14414 15421 19237 10878 10643 13977 18606 16196 17513 15190 17404 13591 11527 15931 12554 10289 11165 14214 10848 11133 999999 999999 999999 999999 999999 999999 999999 999999 999999 999999 999999 999999 999999 999999 999999 999999 999999 999999 999999 999999 999999 999999 999999 999999 999999 999999 999999 999999 999999 999999 999999 999999 0 999999 999999 999999 999999 999999 999999 999999 12538
999999 17945 18200 15861 19019 15957 16097 14888 13103 17601 10315 15185 19087 16112 15177 10541 16161 16825 17459 14299 15171 17817 12451 11354 15499 16710 15414 11454 11607 14911 16437 14611 14278 11410 17138 16691 12502 12659 16276 12234 13956 999999 999999 999999 999999 999999 999999 999999 999999 999999 999999 999999 999999 999999 999999 999999 999999 999999 999999 999999 999999 999999 999999 999999 999999 999999 999999 999999 999999 999999 999999 999999 999999 999999 0 999999 999999 999999 999999 999999 999999 7958
999999 16969 11095 13931 14776 17384 17722 17929 13578 10916 10259 17472 13140 10258 13462 10331 12702 16580 13633 19881 17432 16336 12326 18722 12574 10658 12183 13678 11834 12408 14051 12170 14490 13695 17531 10139 16161 16122 11634 14850 19754 999999 999999 999999 999999 999999 999999 999999 999999 999999 999999 999999 999999 999999 999999 999999 999999 999999 999999 999999 999999 999999 999999 999999 999999 999999 999999 999999 999999 999999 999999 999999 999999 999999 999999 0 999999 999999 999999 999999 999999 13959
999999 15735 19420 18009 17229 17165 11027 11470 18464 10792 18335 12700 14855 14221 19573 10823 18194 15085 13990 19433 17976 12511 14271 11486 13828 15036 12583 13405 19951 11878 16739 14727 16021 18919 13770 19877 11151 15843 10165 10154 10927 999999 999999 999999 999999 999999 999999 999999 999999 999999 999999 999999 999999 999999 999999 999999 999999 999999 999999 999999 999999 999999 999999 999999 999999 999999 999999 999999 999999 999999 999999 999999 999999 999999 999999 999999 0 999999 999999 999999 999999 9153
999999 13846 15815 18539 19197 10873 15590 14314 14198 19965 12398 11232 12982 18672 19883 19476 18482 15321 18977 14097 19712 12530 11535 18877 13340 14630 14434 14557 18503 11461 17428 19773 19453 13636 14439 10578 17618 18726 16848 19750 19207 999999 999999 999999 999999 999999 999999 999999 999999 999999 999999 999999 999999 999999 999999 999999 999999 999999 999999 999999 999999 999999 999999 999999 999999 999999 999999 999999 999999 999999 999999 999999 999999 999999 999999 999999 999999 0 999999 999999 999999 7630
999999 18580 11300 10237 12011 14897 16860 17351 14435 14390 15874 15644 12716 19429 19425 16485 10050 13765 12727 14169 15867 18784 11253 15466 11443 14877 17105 13417 15282 17998 15188 12735 16388 17309 17314 17763 16194 15870 12458 18034 18123 999999 999999 999999 999999 999999 999999 999999 999999 999999 999999 999999 999999 999999 999999 999999 999999 999999 999999 999999 999999 999999 999999 999999 999999 999999 999999 999999 999999 999999 999999 999999 999999 999999 999999 999999 999999 999999 0 999999 999999 12674
999999 12639 10321 11161 10901 14152 14083 17924 13643 12154 10796 13127 12577 10141 14970 10695 13058 16126 10646 18947 19291 10910 19167 17447 13688 14757 14114 19456 10654 17151 18181 16800 11698 18292 12991 14803 17639 13928 13631 13009 15372 999999 999999 999999 999999 999999 999999 999999 999999 999999 999999 999999 999999 999999 999999 999999 999999 999999 999999 999999 999999 999999 999999 999999 999999 999999 999999 999999 999999 999999 999999 999999 999999 999999 999999 999999 999999 999999 999999 0 999999 8478
999999 19182 17709 11663 10947 11250 13806 17923 15970 18592 17920 17486 11434 18271 16501 14217 13467 19012 11228 11202 12458 19215 10111 13550 16357 12116 13254 12912 10625 12016 18372 15681 11412 18019 15175 10950 16121 18414 12168 15211 11560 999999 999999 999999 999999 999999 999999 999999 999999 999999 999999 999999 999999 999999 999999 999999 999999 999999 999999 999999 999999 999999 999999 999999 999999 999999 999999 999999 999999 999999 999999 999999 999999 999999 999999 999999 999999 999999 999999 999999 0 9135
1 999999 999999 999999 999999 999999 999999 999999 999999 999999 999999 999999 999999 999999 999999 999999 999999 999999 999999 999999 999999 999999 999999 999999 999999 999999 999999 999999 999999 999999 999999 999999 999999 999999 999999 999999 999999 999999 999999 999999 999999 999999 999999 999999 999999 999999 999999 999999 999999 999999 999999 999999 999999 999999 999999 999999 999999 999999 999999 999999 999999 999999 999999 999999 999999 999999 999999 999999 999999 999999 999999 999999 999999 999999 999999 999999 999999 999999 999999 999999 999999 0
EOF