NAME: GR_1x2x35_KH_5x10_Run_7
TYPE: TSP
COMMENT: BTSP instance |A|=70 GR nodes |B|=50 KH nodes depot=0.0 end=0.0.0
DIMENSION: 122
EDGE_WEIGHT_TYPE: EXPLICIT
EDGE_WEIGHT_FORMAT: FULL_MATRIX
NODE_COORD_TYPE: NO_COORDS
EDGE_WEIGHT_SECTION
0 9323 5506 10415 6868 7874 8890 6903 14731 12283 7428 12247 12728 5134 8472 8168 7651 10171 11120 11954 5245 9921 14305 6978 11220 13778 8904 10570 14988 5011 8593 10180 14945 5996 8420 9977 7719 6082 5874 11660 7281 9945 5804 9469 13575 12727 6543 9865 5263 11467 14797 10816 14909 13127 6029 9819 11272 7838 12816 11619 14905 5642 6748 12726 11202 12529 5567 6587 6494 14297 6626 999999 999999 999999 999999 999999 999999 999999 999999 999999 999999 999999 999999 999999 999999 999999 999999 999999 999999 999999 999999 999999 999999 999999 999999 999999 999999 999999 999999 999999 999999 999999 999999 999999 999999 999999 999999 999999 999999 999999 999999 999999 999999 999999 999999 999999 999999 999999 999999 999999 999999 999999
999999 0 999999 999999 999999 999999 999999 999999 999999 999999 999999 999999 999999 999999 999999 999999 999999 999999 999999 999999 999999 999999 999999 999999 999999 999999 999999 999999 999999 999999 999999 999999 999999 999999 999999 999999 999999 999999 999999 999999 999999 999999 999999 999999 999999 999999 999999 999999 999999 999999 999999 999999 999999 999999 999999 999999 999999 999999 999999 999999 999999 999999 999999 999999 999999 999999 999999 999999 999999 999999 999999 17831 19187 18439 13838 14511 12272 14454 14947 14826 10558 13685 10041 11794 16671 15002 16281 14897 18372 18424 10017 16008 16337 14104 14468 14193 10968 12648 15617 11334 16439 14111 12696 14536 16143 16025 13328 14104 16070 18447 14647 16152 17106 13093 14112 16513 14881 12412 14716 12731 11806 999999
999999 999999 0 999999 999999 999999 999999 999999 999999 999999 999999 999999 999999 999999 999999 999999 999999 999999 999999 999999 999999 999999 999999 999999 999999 999999 999999 999999 999999 999999 999999 999999 999999 999999 999999 999999 999999 999999 999999 999999 999999 999999 999999 999999 999999 999999 999999 999999 999999 999999 999999 999999 999999 999999 999999 999999 999999 999999 999999 999999 999999 999999 999999 999999 999999 999999 999999 999999 999999 999999 999999 16013 11173 16900 13550 19570 10430 14429 16838 16104 11323 19541 13043 19528 12024 13963 18548 17578 14921 11700 19765 17879 15141 11815 13339 13211 10739 17268 12037 15194 10454 14596 14676 16373 18471 16333 17223 14623 13057 17493 17769 13283 19377 17270 14088 18630 16341 17648 19605 14379 11820 999999
999999 999999 999999 0 999999 999999 999999 999999 999999 999999 999999 999999 999999 999999 999999 999999 999999 999999 999999 999999 999999 999999 999999 999999 999999 999999 999999 999999 999999 999999 999999 999999 999999 999999 999999 999999 999999 999999 999999 999999 999999 999999 999999 999999 999999 999999 999999 999999 999999 999999 999999 999999 999999 999999 999999 999999 999999 999999 999999 999999 999999 999999 999999 999999 999999 999999 999999 999999 999999 999999 999999 16202 10989 12147 12313 19611 12085 17702 17603 18995 12463 17080 15899 16310 16645 18847 18770 14261 17531 11693 11342 11985 11208 18210 12313 13852 17311 16303 18726 19310 17453 15722 19535 19531 12822 19690 13092 12231 18357 10349 14400 14167 10132 11383 12760 18136 16383 12716 14128 15135 17173 999999
999999 999999 999999 999999 0 999999 999999 999999 999999 999999 999999 999999 999999 999999 999999 999999 999999 999999 999999 999999 999999 999999 999999 999999 999999 999999 999999 999999 999999 999999 999999 999999 999999 999999 999999 999999 999999 999999 999999 999999 999999 999999 999999 999999 999999 999999 999999 999999 999999 999999 999999 999999 999999 999999 999999 999999 999999 999999 999999 999999 999999 999999 999999 999999 999999 999999 999999 999999 999999 999999 999999 10392 15718 12795 15207 15890 16244 16481 10863 12930 17278 18852 10691 11191 10422 17027 19745 12953 13647 16681 13609 19884 10922 16206 11657 12782 16662 19129 10341 12629 17474 11177 16538 12539 11506 18884 10271 13351 10717 13789 17765 12485 18258 18084 15537 18156 13983 14809 13952 12513 15393 999999
999999 999999 999999 999999 999999 0 999999 999999 999999 999999 999999 999999 999999 999999 999999 999999 999999 999999 999999 999999 999999 999999 999999 999999 999999 999999 999999 999999 999999 999999 999999 999999 999999 999999 999999 999999 999999 999999 999999 999999 999999 999999 999999 999999 999999 999999 999999 999999 999999 999999 999999 999999 999999 999999 999999 999999 999999 999999 999999 999999 999999 999999 999999 999999 999999 999999 999999 999999 999999 999999 999999 16818 18112 19994 16892 13378 19655 19132 15656 18210 16001 15836 18680 14011 12525 14677 13380 13726 16950 19773 11314 14462 17262 16927 19012 18994 10749 17447 16786 18067 14772 17963 16369 19229 14671 17195 19058 16069 10329 15995 15138 14210 18854 11665 14951 18536 12165 14110 15625 19566 17854 999999
999999 999999 999999 999999 999999 999999 0 999999 999999 999999 999999 999999 999999 999999 999999 999999 999999 999999 999999 999999 999999 999999 999999 999999 999999 999999 999999 999999 999999 999999 999999 999999 999999 999999 999999 999999 999999 999999 999999 999999 999999 999999 999999 999999 999999 999999 999999 999999 999999 999999 999999 999999 999999 999999 999999 999999 999999 999999 999999 999999 999999 999999 999999 999999 999999 999999 999999 999999 999999 999999 999999 12115 14092 14849 17238 13958 13712 11327 10099 10927 14212 17032 15767 13166 11916 11455 11602 13876 19779 19707 13646 11240 14795 11089 17023 13752 13722 17104 13149 19328 17781 15188 18656 10553 19837 18354 12978 15412 18085 15457 11176 14883 15889 12435 18865 10132 14153 19056 11298 11771 15655 999999
999999 999999 999999 999999 999999 999999 999999 0 999999 999999 999999 999999 999999 999999 999999 999999 999999 999999 999999 999999 999999 999999 999999 999999 999999 999999 999999 999999 999999 999999 999999 999999 999999 999999 999999 999999 999999 999999 999999 999999 999999 999999 999999 999999 999999 999999 999999 999999 999999 999999 999999 999999 999999 999999 999999 999999 999999 999999 999999 999999 999999 999999 999999 999999 999999 999999 999999 999999 999999 999999 999999 13693 12269 14629 18358 17598 17562 10860 18709 18696 10224 16544 11331 17877 12033 17560 17952 17605 11057 12411 12350 18518 18124 16106 14369 12013 11113 14969 10534 18158 13670 18003 11918 12761 18869 18735 18458 10529 14347 15547 17454 16770 11901 13177 18250 10398 17784 19115 19278 16668 18133 999999
999999 999999 999999 999999 999999 999999 999999 999999 0 999999 999999 999999 999999 999999 999999 999999 999999 999999 999999 999999 999999 999999 999999 999999 999999 999999 999999 999999 999999 999999 999999 999999 999999 999999 999999 999999 999999 999999 999999 999999 999999 999999 999999 999999 999999 999999 999999 999999 999999 999999 999999 999999 999999 999999 999999 999999 999999 999999 999999 999999 999999 999999 999999 999999 999999 999999 999999 999999 999999 999999 999999 18422 18012 11761 13862 17201 12366 12253 13713 17758 15208 14723 18590 16780 12314 15113 16140 15777 11615 18811 11868 14049 17641 16885 12594 10880 18240 10590 19269 14370 11539 14131 19667 16527 13520 14629 12659 18668 15916 14071 14188 13628 10126 10666 17570 14253 19990 15801 17216 10660 19554 999999
999999 999999 999999 999999 999999 999999 999999 999999 999999 0 999999 999999 999999 999999 999999 999999 999999 999999 999999 999999 999999 999999 999999 999999 999999 999999 999999 999999 999999 999999 999999 999999 999999 999999 999999 999999 999999 999999 999999 999999 999999 999999 999999 999999 999999 999999 999999 999999 999999 999999 999999 999999 999999 999999 999999 999999 999999 999999 999999 999999 999999 999999 999999 999999 999999 999999 999999 999999 999999 999999 999999 10406 17387 19769 15705 12249 14587 10838 18345 17558 15030 14062 13677 18892 15819 15652 19798 11884 10397 16513 15027 14873 12668 13087 10180 12574 15041 14984 15247 17336 14512 11478 18681 11110 13819 10407 19306 10454 19778 18140 11112 15850 14224 18613 13707 11114 12268 16778 19459 18317 18388 999999
999999 999999 999999 999999 999999 999999 999999 999999 999999 999999 0 999999 999999 999999 999999 999999 999999 999999 999999 999999 999999 999999 999999 999999 999999 999999 999999 999999 999999 999999 999999 999999 999999 999999 999999 999999 999999 999999 999999 999999 999999 999999 999999 999999 999999 999999 999999 999999 999999 999999 999999 999999 999999 999999 999999 999999 999999 999999 999999 999999 999999 999999 999999 999999 999999 999999 999999 999999 999999 999999 999999 18388 16031 17925 11875 19607 15033 16635 19518 16135 10712 10935 15687 14967 18629 10418 16097 18520 19531 10467 17275 11621 14570 13699 13688 10554 15037 13312 19262 11863 18140 18393 12528 19079 13167 18500 17764 12490 16117 17010 17450 15317 16921 11276 17757 11197 13969 18868 13586 10103 12299 999999
999999 999999 999999 999999 999999 999999 999999 999999 999999 999999 999999 0 999999 999999 999999 999999 999999 999999 999999 999999 999999 999999 999999 999999 999999 999999 999999 999999 999999 999999 999999 999999 999999 999999 999999 999999 999999 999999 999999 999999 999999 999999 999999 999999 999999 999999 999999 999999 999999 999999 999999 999999 999999 999999 999999 999999 999999 999999 999999 999999 999999 999999 999999 999999 999999 999999 999999 999999 999999 999999 999999 16117 14213 18877 11306 16488 15305 17369 12408 13502 11467 15083 18068 17791 11755 12228 11038 19436 19278 19996 11273 19142 19851 11572 15176 14790 17866 18364 18203 19098 17385 17775 11624 12280 18134 13235 17835 17805 15225 10152 17129 17751 13257 16397 12843 19197 17609 13293 15269 17944 15458 999999
999999 999999 999999 999999 999999 999999 999999 999999 999999 999999 999999 999999 0 999999 999999 999999 999999 999999 999999 999999 999999 999999 999999 999999 999999 999999 999999 999999 999999 999999 999999 999999 999999 999999 999999 999999 999999 999999 999999 999999 999999 999999 999999 999999 999999 999999 999999 999999 999999 999999 999999 999999 999999 999999 999999 999999 999999 999999 999999 999999 999999 999999 999999 999999 999999 999999 999999 999999 999999 999999 999999 19714 15120 10958 17828 11971 14153 19747 13359 10151 13721 18900 15084 15708 17584 11219 19027 12863 10910 11756 10803 18090 11609 11956 10968 17013 12563 18941 19967 16636 14601 12671 17160 18481 15558 10408 17500 12561 12640 12151 15867 17796 19956 12090 18174 17737 12905 12667 12608 16876 19617 999999
999999 999999 999999 999999 999999 999999 999999 999999 999999 999999 999999 999999 999999 0 999999 999999 999999 999999 999999 999999 999999 999999 999999 999999 999999 999999 999999 999999 999999 999999 999999 999999 999999 999999 999999 999999 999999 999999 999999 999999 999999 999999 999999 999999 999999 999999 999999 999999 999999 999999 999999 999999 999999 999999 999999 999999 999999 999999 999999 999999 999999 999999 999999 999999 999999 999999 999999 999999 999999 999999 999999 11266 18584 11954 12661 14516 19339 11682 18444 10125 13810 10001 10615 19736 11542 16945 13930 13056 12963 19628 10092 11138 11141 12877 10736 18605 16424 11618 11168 14046 13727 15463 15129 18177 15755 10399 10136 18395 12191 10482 15145 16741 13064 19615 10910 13009 15743 13981 18774 16890 17357 999999
999999 999999 999999 999999 999999 999999 999999 999999 999999 999999 999999 999999 999999 999999 0 999999 999999 999999 999999 999999 999999 999999 999999 999999 999999 999999 999999 999999 999999 999999 999999 999999 999999 999999 999999 999999 999999 999999 999999 999999 999999 999999 999999 999999 999999 999999 999999 999999 999999 999999 999999 999999 999999 999999 999999 999999 999999 999999 999999 999999 999999 999999 999999 999999 999999 999999 999999 999999 999999 999999 999999 15225 18113 16612 15260 14486 19671 19524 15813 15592 10230 18957 19611 10903 13894 17980 16166 10396 10779 17707 17581 10062 16522 19325 17221 15975 18627 19044 11569 20000 15444 13518 14771 11737 16173 19251 13320 17329 19347 14071 19309 17385 13587 18199 10567 10989 18957 12589 14866 13634 11469 999999
999999 999999 999999 999999 999999 999999 999999 999999 999999 999999 999999 999999 999999 999999 999999 0 999999 999999 999999 999999 999999 999999 999999 999999 999999 999999 999999 999999 999999 999999 999999 999999 999999 999999 999999 999999 999999 999999 999999 999999 999999 999999 999999 999999 999999 999999 999999 999999 999999 999999 999999 999999 999999 999999 999999 999999 999999 999999 999999 999999 999999 999999 999999 999999 999999 999999 999999 999999 999999 999999 999999 17093 10312 19963 16080 15026 10637 12255 17635 13060 13566 19195 11275 12441 16380 12763 14705 18343 16714 17206 11315 15905 14223 14557 15741 15046 16261 17827 10600 18263 17443 12608 19537 19616 10327 11000 12328 13535 17451 17739 16092 17921 10691 12708 19649 12186 17009 14298 16023 15659 17001 999999
999999 999999 999999 999999 999999 999999 999999 999999 999999 999999 999999 999999 999999 999999 999999 999999 0 999999 999999 999999 999999 999999 999999 999999 999999 999999 999999 999999 999999 999999 999999 999999 999999 999999 999999 999999 999999 999999 999999 999999 999999 999999 999999 999999 999999 999999 999999 999999 999999 999999 999999 999999 999999 999999 999999 999999 999999 999999 999999 999999 999999 999999 999999 999999 999999 999999 999999 999999 999999 999999 999999 12744 18581 13040 10597 18355 12351 10659 17141 17368 19592 19090 15176 16945 18789 13474 15051 15324 18068 11837 15928 13740 17449 18505 17376 14219 18548 14324 17370 15946 15008 15083 17527 17088 13274 12879 11054 13555 11533 12646 18617 16958 13878 17185 14575 19821 11653 15625 13363 11999 15168 999999
999999 999999 999999 999999 999999 999999 999999 999999 999999 999999 999999 999999 999999 999999 999999 999999 999999 0 999999 999999 999999 999999 999999 999999 999999 999999 999999 999999 999999 999999 999999 999999 999999 999999 999999 999999 999999 999999 999999 999999 999999 999999 999999 999999 999999 999999 999999 999999 999999 999999 999999 999999 999999 999999 999999 999999 999999 999999 999999 999999 999999 999999 999999 999999 999999 999999 999999 999999 999999 999999 999999 12462 10902 11120 12974 15628 19190 18196 18932 13177 13263 14696 16926 16083 17167 11498 17285 19777 18837 16787 13185 18658 14103 16150 16713 11191 16210 14245 17261 14101 18977 11627 14846 17669 18057 11731 18422 10170 17873 10656 12253 18486 17028 13144 14613 17471 18168 10908 10292 15879 17485 999999
999999 999999 999999 999999 999999 999999 999999 999999 999999 999999 999999 999999 999999 999999 999999 999999 999999 999999 0 999999 999999 999999 999999 999999 999999 999999 999999 999999 999999 999999 999999 999999 999999 999999 999999 999999 999999 999999 999999 999999 999999 999999 999999 999999 999999 999999 999999 999999 999999 999999 999999 999999 999999 999999 999999 999999 999999 999999 999999 999999 999999 999999 999999 999999 999999 999999 999999 999999 999999 999999 999999 12311 16420 11771 12589 12806 15509 11131 19508 18778 10954 14097 16622 17596 17512 19134 13578 19002 17576 19368 16060 16354 12936 13280 19980 15271 19390 15779 10535 18551 12573 17872 17937 14345 18234 17711 18533 19657 14586 16747 17768 12295 13146 14953 10866 12175 18160 19439 14907 17420 13020 999999
999999 999999 999999 999999 999999 999999 999999 999999 999999 999999 999999 999999 999999 999999 999999 999999 999999 999999 999999 0 999999 999999 999999 999999 999999 999999 999999 999999 999999 999999 999999 999999 999999 999999 999999 999999 999999 999999 999999 999999 999999 999999 999999 999999 999999 999999 999999 999999 999999 999999 999999 999999 999999 999999 999999 999999 999999 999999 999999 999999 999999 999999 999999 999999 999999 999999 999999 999999 999999 999999 999999 17785 18743 12209 14158 10199 10606 13492 15020 14282 13102 11932 13620 11285 16648 19223 18458 10927 19425 11257 13385 11704 10163 15477 17597 16636 17342 15977 11171 14212 11545 15322 17981 13406 15787 18515 18711 15251 14481 12639 12619 17015 18750 19796 19526 13891 17652 14327 11406 18256 13912 999999
999999 999999 999999 999999 999999 999999 999999 999999 999999 999999 999999 999999 999999 999999 999999 999999 999999 999999 999999 999999 0 999999 999999 999999 999999 999999 999999 999999 999999 999999 999999 999999 999999 999999 999999 999999 999999 999999 999999 999999 999999 999999 999999 999999 999999 999999 999999 999999 999999 999999 999999 999999 999999 999999 999999 999999 999999 999999 999999 999999 999999 999999 999999 999999 999999 999999 999999 999999 999999 999999 999999 19763 10602 19257 13837 17590 15284 19647 11546 12849 15578 18655 14707 17686 12883 15109 14618 12080 14591 11812 17102 19185 16282 16833 17361 12512 15856 12816 14375 16245 19478 16591 12305 10698 14268 18192 19155 17532 11779 11141 11121 10294 11792 14155 15512 13212 17319 18134 14649 16191 19268 999999
999999 999999 999999 999999 999999 999999 999999 999999 999999 999999 999999 999999 999999 999999 999999 999999 999999 999999 999999 999999 999999 0 999999 999999 999999 999999 999999 999999 999999 999999 999999 999999 999999 999999 999999 999999 999999 999999 999999 999999 999999 999999 999999 999999 999999 999999 999999 999999 999999 999999 999999 999999 999999 999999 999999 999999 999999 999999 999999 999999 999999 999999 999999 999999 999999 999999 999999 999999 999999 999999 999999 14612 17136 16802 15641 16428 16177 13485 15058 12023 18149 19524 14260 19594 14222 18745 15528 13668 12807 15843 18105 13861 13681 17780 16822 10673 12513 19856 15321 13963 17529 10410 18860 11275 15015 14031 15675 13698 13084 19488 19034 19951 16644 17011 17557 13958 14784 19683 18053 19416 14983 999999
999999 999999 999999 999999 999999 999999 999999 999999 999999 999999 999999 999999 999999 999999 999999 999999 999999 999999 999999 999999 999999 999999 0 999999 999999 999999 999999 999999 999999 999999 999999 999999 999999 999999 999999 999999 999999 999999 999999 999999 999999 999999 999999 999999 999999 999999 999999 999999 999999 999999 999999 999999 999999 999999 999999 999999 999999 999999 999999 999999 999999 999999 999999 999999 999999 999999 999999 999999 999999 999999 999999 19492 18630 17999 16519 17337 14593 16700 15266 14356 11378 18997 12577 17515 18533 18122 18327 10817 15641 16049 13985 19470 16953 12592 18839 18190 19080 11015 17451 14497 16141 15408 18476 16133 19527 15408 11897 15461 17937 12646 11957 18573 12635 18279 11829 13991 16347 19745 18942 10066 15359 999999
999999 999999 999999 999999 999999 999999 999999 999999 999999 999999 999999 999999 999999 999999 999999 999999 999999 999999 999999 999999 999999 999999 999999 0 999999 999999 999999 999999 999999 999999 999999 999999 999999 999999 999999 999999 999999 999999 999999 999999 999999 999999 999999 999999 999999 999999 999999 999999 999999 999999 999999 999999 999999 999999 999999 999999 999999 999999 999999 999999 999999 999999 999999 999999 999999 999999 999999 999999 999999 999999 999999 18313 10353 15937 19682 12053 10831 16874 11215 15371 17162 13768 19337 19072 16619 15217 17499 17146 13917 14206 17247 17905 14152 18180 18561 13063 17404 15209 12102 17244 16394 16776 19841 11101 19691 18166 17339 19839 17457 12294 12818 14809 19964 13367 16461 14676 19079 11620 18095 15074 15621 999999
999999 999999 999999 999999 999999 999999 999999 999999 999999 999999 999999 999999 999999 999999 999999 999999 999999 999999 999999 999999 999999 999999 999999 999999 0 999999 999999 999999 999999 999999 999999 999999 999999 999999 999999 999999 999999 999999 999999 999999 999999 999999 999999 999999 999999 999999 999999 999999 999999 999999 999999 999999 999999 999999 999999 999999 999999 999999 999999 999999 999999 999999 999999 999999 999999 999999 999999 999999 999999 999999 999999 15009 10305 13965 10610 18643 14482 13712 19426 18709 16985 14970 15886 13854 15481 10375 12098 11215 19779 11372 19756 12980 13159 13594 17349 17184 15902 17485 19211 14961 17551 19658 19340 19243 11795 12710 17964 18527 11484 12250 15545 12276 12251 18205 12443 19665 11167 10271 18205 12231 15201 999999
999999 999999 999999 999999 999999 999999 999999 999999 999999 999999 999999 999999 999999 999999 999999 999999 999999 999999 999999 999999 999999 999999 999999 999999 999999 0 999999 999999 999999 999999 999999 999999 999999 999999 999999 999999 999999 999999 999999 999999 999999 999999 999999 999999 999999 999999 999999 999999 999999 999999 999999 999999 999999 999999 999999 999999 999999 999999 999999 999999 999999 999999 999999 999999 999999 999999 999999 999999 999999 999999 999999 16789 17365 12018 12352 17490 18677 12023 12805 16386 15213 10997 19790 10357 14370 18363 10359 14182 14203 10701 10227 13931 14194 11305 19312 11281 11168 19551 19184 19173 11341 10359 12523 14649 18982 17280 12460 19763 14862 12825 13015 13448 12278 10480 16361 12442 12543 12487 10149 18425 10234 999999
999999 999999 999999 999999 999999 999999 999999 999999 999999 999999 999999 999999 999999 999999 999999 999999 999999 999999 999999 999999 999999 999999 999999 999999 999999 999999 0 999999 999999 999999 999999 999999 999999 999999 999999 999999 999999 999999 999999 999999 999999 999999 999999 999999 999999 999999 999999 999999 999999 999999 999999 999999 999999 999999 999999 999999 999999 999999 999999 999999 999999 999999 999999 999999 999999 999999 999999 999999 999999 999999 999999 15595 11203 15092 19133 15968 16597 11420 15262 16107 15438 17222 12691 15397 14529 12708 13008 16862 11113 18223 19043 11780 18298 19365 10121 10659 14929 15285 10584 14253 11561 14823 14202 18927 10253 11631 16904 13933 11524 10058 19573 12732 14696 14877 12024 15891 13657 18669 10256 10990 10891 999999
999999 999999 999999 999999 999999 999999 999999 999999 999999 999999 999999 999999 999999 999999 999999 999999 999999 999999 999999 999999 999999 999999 999999 999999 999999 999999 999999 0 999999 999999 999999 999999 999999 999999 999999 999999 999999 999999 999999 999999 999999 999999 999999 999999 999999 999999 999999 999999 999999 999999 999999 999999 999999 999999 999999 999999 999999 999999 999999 999999 999999 999999 999999 999999 999999 999999 999999 999999 999999 999999 999999 12221 18924 19227 16712 19550 15076 10112 16245 12660 17301 19160 15250 17402 12916 19991 11845 13577 18689 13572 12402 16290 16728 18955 11185 15501 10174 12337 19623 17662 15433 13305 16228 10141 16548 16326 17581 11550 12858 17325 14511 17721 14857 18662 16291 10041 19627 10686 19347 16611 18540 999999
999999 999999 999999 999999 999999 999999 999999 999999 999999 999999 999999 999999 999999 999999 999999 999999 999999 999999 999999 999999 999999 999999 999999 999999 999999 999999 999999 999999 0 999999 999999 999999 999999 999999 999999 999999 999999 999999 999999 999999 999999 999999 999999 999999 999999 999999 999999 999999 999999 999999 999999 999999 999999 999999 999999 999999 999999 999999 999999 999999 999999 999999 999999 999999 999999 999999 999999 999999 999999 999999 999999 10177 12921 14314 19197 15380 19852 19738 11258 17902 13329 11599 18950 17106 18434 16250 19134 18437 13701 10893 12811 17988 12299 19592 16093 17323 17663 18294 14515 15976 19304 16063 14410 16000 17773 17753 16033 17447 17330 14412 10472 10177 13283 10159 13803 12963 16928 16462 16887 10324 11369 999999
999999 999999 999999 999999 999999 999999 999999 999999 999999 999999 999999 999999 999999 999999 999999 999999 999999 999999 999999 999999 999999 999999 999999 999999 999999 999999 999999 999999 999999 0 999999 999999 999999 999999 999999 999999 999999 999999 999999 999999 999999 999999 999999 999999 999999 999999 999999 999999 999999 999999 999999 999999 999999 999999 999999 999999 999999 999999 999999 999999 999999 999999 999999 999999 999999 999999 999999 999999 999999 999999 999999 13289 12748 16954 12090 11831 15951 19039 18702 10950 17875 16466 10864 14100 10673 19678 14560 19859 15510 19054 19404 19813 16977 12471 19651 18388 12017 18812 13779 18507 11811 19326 13190 10390 18729 11779 11575 11563 14414 15123 14385 18712 13094 18317 16951 15860 10831 17214 15626 15683 19571 999999
999999 999999 999999 999999 999999 999999 999999 999999 999999 999999 999999 999999 999999 999999 999999 999999 999999 999999 999999 999999 999999 999999 999999 999999 999999 999999 999999 999999 999999 999999 0 999999 999999 999999 999999 999999 999999 999999 999999 999999 999999 999999 999999 999999 999999 999999 999999 999999 999999 999999 999999 999999 999999 999999 999999 999999 999999 999999 999999 999999 999999 999999 999999 999999 999999 999999 999999 999999 999999 999999 999999 11562 13981 13971 16559 17499 13356 14315 12501 18899 12333 12059 19832 16305 19288 14542 19174 13020 17444 13652 19544 19992 16162 19948 13523 10771 11898 16735 19622 12008 15703 16843 12453 14512 11498 19212 13507 18286 18380 16126 13149 17249 10757 10907 15812 11714 14305 13092 18866 17203 19109 999999
999999 999999 999999 999999 999999 999999 999999 999999 999999 999999 999999 999999 999999 999999 999999 999999 999999 999999 999999 999999 999999 999999 999999 999999 999999 999999 999999 999999 999999 999999 999999 0 999999 999999 999999 999999 999999 999999 999999 999999 999999 999999 999999 999999 999999 999999 999999 999999 999999 999999 999999 999999 999999 999999 999999 999999 999999 999999 999999 999999 999999 999999 999999 999999 999999 999999 999999 999999 999999 999999 999999 19904 12583 14439 13790 12285 16672 12244 11068 13920 10295 11629 10593 17836 11224 19304 10317 17452 18237 19695 12225 14673 18598 10735 13098 17930 17156 10924 14225 11595 11917 14322 18238 19599 17763 19072 15210 17917 11773 19976 13391 19869 10458 15156 17434 12855 13258 15792 19441 10815 12705 999999
999999 999999 999999 999999 999999 999999 999999 999999 999999 999999 999999 999999 999999 999999 999999 999999 999999 999999 999999 999999 999999 999999 999999 999999 999999 999999 999999 999999 999999 999999 999999 999999 0 999999 999999 999999 999999 999999 999999 999999 999999 999999 999999 999999 999999 999999 999999 999999 999999 999999 999999 999999 999999 999999 999999 999999 999999 999999 999999 999999 999999 999999 999999 999999 999999 999999 999999 999999 999999 999999 999999 11112 11328 14186 11421 11937 10310 16758 11764 17584 11687 17651 12163 15322 17506 14351 12798 18482 18470 13452 12251 19513 10661 16314 16695 14914 19102 11419 19604 11501 13031 17268 17863 16522 10103 14674 15011 16690 19863 16944 12704 14855 14442 12723 19084 10789 14452 15450 14211 10289 14497 999999
999999 999999 999999 999999 999999 999999 999999 999999 999999 999999 999999 999999 999999 999999 999999 999999 999999 999999 999999 999999 999999 999999 999999 999999 999999 999999 999999 999999 999999 999999 999999 999999 999999 0 999999 999999 999999 999999 999999 999999 999999 999999 999999 999999 999999 999999 999999 999999 999999 999999 999999 999999 999999 999999 999999 999999 999999 999999 999999 999999 999999 999999 999999 999999 999999 999999 999999 999999 999999 999999 999999 17570 11153 14515 12880 18703 14988 16969 10306 16282 12772 19255 18290 11698 13369 10780 12015 14055 19114 12739 16378 14056 10542 12745 12794 11665 13642 10381 16670 15639 17564 14535 15912 10674 16239 14607 12968 12232 19279 11657 16762 13420 15815 17005 13089 15982 10061 12733 13538 18198 10858 999999
999999 999999 999999 999999 999999 999999 999999 999999 999999 999999 999999 999999 999999 999999 999999 999999 999999 999999 999999 999999 999999 999999 999999 999999 999999 999999 999999 999999 999999 999999 999999 999999 999999 999999 0 999999 999999 999999 999999 999999 999999 999999 999999 999999 999999 999999 999999 999999 999999 999999 999999 999999 999999 999999 999999 999999 999999 999999 999999 999999 999999 999999 999999 999999 999999 999999 999999 999999 999999 999999 999999 11500 11780 16678 13863 12243 13786 15090 13996 15824 12461 18829 11788 14232 16640 14871 12787 16732 14847 15015 10807 12367 14716 18209 11678 16867 18230 14214 16684 18435 12070 11633 17673 15363 12368 19354 14436 18377 16038 15886 13800 12350 11473 10083 11281 17641 17490 12991 11684 10372 15654 999999
999999 999999 999999 999999 999999 999999 999999 999999 999999 999999 999999 999999 999999 999999 999999 999999 999999 999999 999999 999999 999999 999999 999999 999999 999999 999999 999999 999999 999999 999999 999999 999999 999999 999999 999999 0 999999 999999 999999 999999 999999 999999 999999 999999 999999 999999 999999 999999 999999 999999 999999 999999 999999 999999 999999 999999 999999 999999 999999 999999 999999 999999 999999 999999 999999 999999 999999 999999 999999 999999 999999 14515 19485 18317 15109 11383 17979 15569 18459 11339 15951 15931 19397 14598 13707 16131 10751 17502 10982 14629 13333 18776 17016 16702 10928 18093 12025 10375 11397 16286 15987 19865 13735 17069 17682 19000 13070 13613 10472 10480 13411 10749 12486 12338 15975 15468 18337 18932 14958 14018 14252 999999
999999 999999 999999 999999 999999 999999 999999 999999 999999 999999 999999 999999 999999 999999 999999 999999 999999 999999 999999 999999 999999 999999 999999 999999 999999 999999 999999 999999 999999 999999 999999 999999 999999 999999 999999 999999 0 999999 999999 999999 999999 999999 999999 999999 999999 999999 999999 999999 999999 999999 999999 999999 999999 999999 999999 999999 999999 999999 999999 999999 999999 999999 999999 999999 999999 999999 999999 999999 999999 999999 999999 10821 10920 17312 19162 11476 13158 13585 18369 11016 16882 17521 11708 19650 18728 14542 13368 10210 16057 18370 13594 12849 17148 11541 17688 17391 13166 15488 11948 17116 16870 18802 14067 19873 12071 19647 14293 11047 16264 12333 19430 14322 18290 14314 17392 15524 16955 14932 12197 19731 12491 999999
999999 999999 999999 999999 999999 999999 999999 999999 999999 999999 999999 999999 999999 999999 999999 999999 999999 999999 999999 999999 999999 999999 999999 999999 999999 999999 999999 999999 999999 999999 999999 999999 999999 999999 999999 999999 999999 0 999999 999999 999999 999999 999999 999999 999999 999999 999999 999999 999999 999999 999999 999999 999999 999999 999999 999999 999999 999999 999999 999999 999999 999999 999999 999999 999999 999999 999999 999999 999999 999999 999999 17944 10237 19183 18210 17825 16618 19356 17290 13291 16012 13632 12566 14057 12102 10286 18514 15328 19707 10420 18454 19889 13694 19173 13094 10162 16374 14416 14601 16998 18867 18449 15019 17083 13879 13680 15177 11124 17347 13761 18752 14193 12378 15737 13529 18681 19062 11292 13612 16707 10845 999999
999999 999999 999999 999999 999999 999999 999999 999999 999999 999999 999999 999999 999999 999999 999999 999999 999999 999999 999999 999999 999999 999999 999999 999999 999999 999999 999999 999999 999999 999999 999999 999999 999999 999999 999999 999999 999999 999999 0 999999 999999 999999 999999 999999 999999 999999 999999 999999 999999 999999 999999 999999 999999 999999 999999 999999 999999 999999 999999 999999 999999 999999 999999 999999 999999 999999 999999 999999 999999 999999 999999 13012 14119 17790 15983 13201 16497 18145 11475 16570 13492 11651 15572 12973 19323 18554 17372 18222 10541 19156 14547 11436 19071 11034 10015 14036 11444 19779 11242 18776 17196 12504 11687 11975 10318 17679 15631 19593 18357 15940 11926 19691 12496 17380 15286 15216 15906 11567 19651 19340 18567 999999
999999 999999 999999 999999 999999 999999 999999 999999 999999 999999 999999 999999 999999 999999 999999 999999 999999 999999 999999 999999 999999 999999 999999 999999 999999 999999 999999 999999 999999 999999 999999 999999 999999 999999 999999 999999 999999 999999 999999 0 999999 999999 999999 999999 999999 999999 999999 999999 999999 999999 999999 999999 999999 999999 999999 999999 999999 999999 999999 999999 999999 999999 999999 999999 999999 999999 999999 999999 999999 999999 999999 16352 13973 18557 13703 14138 16844 15222 13222 11237 13538 13246 11473 18019 10616 18352 16888 18399 19389 18422 16677 15813 10719 16198 13323 11373 16042 16000 12926 11130 10414 14592 10235 12502 17279 11730 12825 11437 12525 17385 13320 16939 11316 15912 16769 19698 14023 18811 14485 10705 16335 999999
999999 999999 999999 999999 999999 999999 999999 999999 999999 999999 999999 999999 999999 999999 999999 999999 999999 999999 999999 999999 999999 999999 999999 999999 999999 999999 999999 999999 999999 999999 999999 999999 999999 999999 999999 999999 999999 999999 999999 999999 0 999999 999999 999999 999999 999999 999999 999999 999999 999999 999999 999999 999999 999999 999999 999999 999999 999999 999999 999999 999999 999999 999999 999999 999999 999999 999999 999999 999999 999999 999999 12570 15877 16070 17324 17858 16314 16732 13510 12509 17546 14856 11777 19678 12349 14988 13424 11462 18618 10428 13139 11257 15545 15062 10923 12092 13029 14335 18205 15812 12615 15392 19337 15230 11717 14846 12589 16342 14181 18994 10888 12984 12949 11966 15629 10761 15292 19273 19477 16155 10338 999999
999999 999999 999999 999999 999999 999999 999999 999999 999999 999999 999999 999999 999999 999999 999999 999999 999999 999999 999999 999999 999999 999999 999999 999999 999999 999999 999999 999999 999999 999999 999999 999999 999999 999999 999999 999999 999999 999999 999999 999999 999999 0 999999 999999 999999 999999 999999 999999 999999 999999 999999 999999 999999 999999 999999 999999 999999 999999 999999 999999 999999 999999 999999 999999 999999 999999 999999 999999 999999 999999 999999 12844 18359 14262 19234 11417 19007 12154 19496 14842 11386 17068 16751 19854 19554 19470 15579 15818 19968 16869 12072 12944 12328 13810 17301 12896 14328 19577 10640 11495 15486 19124 15340 18130 13137 12906 19410 17511 19681 13443 19132 12990 12217 16403 10222 14864 10232 15827 14365 10490 14945 999999
999999 999999 999999 999999 999999 999999 999999 999999 999999 999999 999999 999999 999999 999999 999999 999999 999999 999999 999999 999999 999999 999999 999999 999999 999999 999999 999999 999999 999999 999999 999999 999999 999999 999999 999999 999999 999999 999999 999999 999999 999999 999999 0 999999 999999 999999 999999 999999 999999 999999 999999 999999 999999 999999 999999 999999 999999 999999 999999 999999 999999 999999 999999 999999 999999 999999 999999 999999 999999 999999 999999 11698 16479 12349 17610 16189 10611 11653 11897 15569 11170 11420 14815 13650 12519 18620 12749 11235 18429 11291 18665 10061 10582 17323 10588 18711 11024 13810 12091 16456 15001 18549 17355 16863 18032 19302 12085 13445 18429 11516 13323 18111 11761 15289 18000 18197 15453 10026 10410 11413 15946 999999
999999 999999 999999 999999 999999 999999 999999 999999 999999 999999 999999 999999 999999 999999 999999 999999 999999 999999 999999 999999 999999 999999 999999 999999 999999 999999 999999 999999 999999 999999 999999 999999 999999 999999 999999 999999 999999 999999 999999 999999 999999 999999 999999 0 999999 999999 999999 999999 999999 999999 999999 999999 999999 999999 999999 999999 999999 999999 999999 999999 999999 999999 999999 999999 999999 999999 999999 999999 999999 999999 999999 12049 11176 14045 12778 19883 19945 15090 11212 13551 10987 13507 12339 10245 18297 18120 13473 19095 15115 15729 10840 11202 13177 16683 13272 14327 17819 10947 12390 18655 15033 16802 18189 13490 16983 19643 16485 19320 12825 13340 12142 16832 18892 12101 11717 15117 16760 15284 15898 19351 14722 999999
999999 999999 999999 999999 999999 999999 999999 999999 999999 999999 999999 999999 999999 999999 999999 999999 999999 999999 999999 999999 999999 999999 999999 999999 999999 999999 999999 999999 999999 999999 999999 999999 999999 999999 999999 999999 999999 999999 999999 999999 999999 999999 999999 999999 0 999999 999999 999999 999999 999999 999999 999999 999999 999999 999999 999999 999999 999999 999999 999999 999999 999999 999999 999999 999999 999999 999999 999999 999999 999999 999999 15113 10216 15777 11853 16286 10404 12886 12440 19074 11407 19425 18361 11284 19737 18859 17566 13153 16634 14351 15199 17378 17433 12215 11205 18565 10331 14480 10198 19373 18102 16672 19822 17128 17447 15465 10858 12334 11510 19421 17532 10567 13464 12687 10528 19882 16289 10765 13011 17943 17060 999999
999999 999999 999999 999999 999999 999999 999999 999999 999999 999999 999999 999999 999999 999999 999999 999999 999999 999999 999999 999999 999999 999999 999999 999999 999999 999999 999999 999999 999999 999999 999999 999999 999999 999999 999999 999999 999999 999999 999999 999999 999999 999999 999999 999999 999999 0 999999 999999 999999 999999 999999 999999 999999 999999 999999 999999 999999 999999 999999 999999 999999 999999 999999 999999 999999 999999 999999 999999 999999 999999 999999 11977 17816 10649 17925 10790 19487 13021 19756 13637 11794 17295 12721 14365 15855 13611 10265 18119 17466 18624 10394 18765 10575 14953 19693 13057 14066 12899 16389 11818 14088 16417 14011 19250 12193 14081 10185 10615 11701 18971 13387 15639 19075 14832 17096 17892 15726 12191 11350 15791 11605 999999
999999 999999 999999 999999 999999 999999 999999 999999 999999 999999 999999 999999 999999 999999 999999 999999 999999 999999 999999 999999 999999 999999 999999 999999 999999 999999 999999 999999 999999 999999 999999 999999 999999 999999 999999 999999 999999 999999 999999 999999 999999 999999 999999 999999 999999 999999 0 999999 999999 999999 999999 999999 999999 999999 999999 999999 999999 999999 999999 999999 999999 999999 999999 999999 999999 999999 999999 999999 999999 999999 999999 12445 13356 15323 16667 13922 13493 12686 13243 19108 15620 16845 17592 13036 14375 19220 17021 15235 17721 14687 14013 12975 17823 13470 15680 11282 13229 15592 18541 13562 12760 11683 17953 16089 19959 10185 14000 11085 11851 16042 15288 15055 19506 17720 18493 12288 11459 15954 17044 15745 12674 999999
999999 999999 999999 999999 999999 999999 999999 999999 999999 999999 999999 999999 999999 999999 999999 999999 999999 999999 999999 999999 999999 999999 999999 999999 999999 999999 999999 999999 999999 999999 999999 999999 999999 999999 999999 999999 999999 999999 999999 999999 999999 999999 999999 999999 999999 999999 999999 0 999999 999999 999999 999999 999999 999999 999999 999999 999999 999999 999999 999999 999999 999999 999999 999999 999999 999999 999999 999999 999999 999999 999999 19882 15981 18668 15650 19475 18425 16000 19183 12705 10651 13007 16112 16458 15958 16676 13868 12983 12497 18084 10427 11779 17073 13070 12672 12836 14358 15342 17113 12332 12493 13778 11534 12863 10888 16731 11258 19910 18714 14425 14650 17115 17686 19762 15177 11583 10195 16936 16363 16879 16046 999999
999999 999999 999999 999999 999999 999999 999999 999999 999999 999999 999999 999999 999999 999999 999999 999999 999999 999999 999999 999999 999999 999999 999999 999999 999999 999999 999999 999999 999999 999999 999999 999999 999999 999999 999999 999999 999999 999999 999999 999999 999999 999999 999999 999999 999999 999999 999999 999999 0 999999 999999 999999 999999 999999 999999 999999 999999 999999 999999 999999 999999 999999 999999 999999 999999 999999 999999 999999 999999 999999 999999 16323 12414 11798 10394 15393 12019 11358 17523 12656 18275 13217 13042 13512 10213 12416 13580 18219 18141 19067 18749 14281 11144 11709 15627 19679 15911 15002 18116 16882 12790 14654 18421 17941 17118 14702 14283 13080 11640 14214 10609 13487 15600 11716 12842 19595 19506 15368 13924 13605 13636 999999
999999 999999 999999 999999 999999 999999 999999 999999 999999 999999 999999 999999 999999 999999 999999 999999 999999 999999 999999 999999 999999 999999 999999 999999 999999 999999 999999 999999 999999 999999 999999 999999 999999 999999 999999 999999 999999 999999 999999 999999 999999 999999 999999 999999 999999 999999 999999 999999 999999 0 999999 999999 999999 999999 999999 999999 999999 999999 999999 999999 999999 999999 999999 999999 999999 999999 999999 999999 999999 999999 999999 11049 15974 16881 18048 15208 17010 19420 17761 10266 15714 17094 11306 10612 12340 18938 12361 18676 14968 15899 13708 14183 17379 18298 13362 13077 11753 12511 15285 14353 13641 14655 12218 11870 19047 17271 11598 12200 13984 10452 17809 15838 18786 19548 16130 16084 14386 11513 18408 15611 19816 999999
999999 999999 999999 999999 999999 999999 999999 999999 999999 999999 999999 999999 999999 999999 999999 999999 999999 999999 999999 999999 999999 999999 999999 999999 999999 999999 999999 999999 999999 999999 999999 999999 999999 999999 999999 999999 999999 999999 999999 999999 999999 999999 999999 999999 999999 999999 999999 999999 999999 999999 0 999999 999999 999999 999999 999999 999999 999999 999999 999999 999999 999999 999999 999999 999999 999999 999999 999999 999999 999999 999999 10529 12144 12383 16745 15770 14481 12231 13310 18388 19127 10526 10746 10261 19309 10239 11272 13438 11388 19799 15881 11088 19025 18487 10954 13114 19015 15433 17777 10618 18124 15819 15867 17022 15326 19851 10796 13582 10366 12667 13284 18418 14185 15412 10573 10827 13381 18437 14797 19188 16091 999999
999999 999999 999999 999999 999999 999999 999999 999999 999999 999999 999999 999999 999999 999999 999999 999999 999999 999999 999999 999999 999999 999999 999999 999999 999999 999999 999999 999999 999999 999999 999999 999999 999999 999999 999999 999999 999999 999999 999999 999999 999999 999999 999999 999999 999999 999999 999999 999999 999999 999999 999999 0 999999 999999 999999 999999 999999 999999 999999 999999 999999 999999 999999 999999 999999 999999 999999 999999 999999 999999 999999 15248 17843 14399 14457 18934 17395 13365 18117 11645 16512 19632 15299 10795 13332 19166 17274 16358 10741 12183 16490 13005 10383 16390 17196 14622 14500 10814 17545 13632 13435 15455 12107 16096 13557 14693 14540 15008 18706 10050 17382 16849 13907 12854 13674 15020 12071 16599 10082 10673 16124 999999
999999 999999 999999 999999 999999 999999 999999 999999 999999 999999 999999 999999 999999 999999 999999 999999 999999 999999 999999 999999 999999 999999 999999 999999 999999 999999 999999 999999 999999 999999 999999 999999 999999 999999 999999 999999 999999 999999 999999 999999 999999 999999 999999 999999 999999 999999 999999 999999 999999 999999 999999 999999 0 999999 999999 999999 999999 999999 999999 999999 999999 999999 999999 999999 999999 999999 999999 999999 999999 999999 999999 19473 14030 12743 12695 14392 13408 14155 17799 10114 17958 13883 17075 15182 19744 12373 17784 16185 12623 13650 17956 14353 17018 10008 12161 15716 13545 19783 13918 13150 19498 17890 14529 11002 12239 18226 12313 13543 16561 13549 19756 16421 13520 16380 15783 12333 17037 15782 14985 16276 18687 999999
999999 999999 999999 999999 999999 999999 999999 999999 999999 999999 999999 999999 999999 999999 999999 999999 999999 999999 999999 999999 999999 999999 999999 999999 999999 999999 999999 999999 999999 999999 999999 999999 999999 999999 999999 999999 999999 999999 999999 999999 999999 999999 999999 999999 999999 999999 999999 999999 999999 999999 999999 999999 999999 0 999999 999999 999999 999999 999999 999999 999999 999999 999999 999999 999999 999999 999999 999999 999999 999999 999999 14738 16150 12274 13037 10492 14542 16314 14162 11160 11038 18303 13011 12150 12150 16680 15760 15832 16226 16051 17721 11620 17685 12272 19069 18201 15344 11025 13244 10686 19594 17413 13078 19872 10401 19052 19004 18106 18109 13679 14270 13406 11936 18885 12550 14160 16822 13917 13234 16716 11348 999999
999999 999999 999999 999999 999999 999999 999999 999999 999999 999999 999999 999999 999999 999999 999999 999999 999999 999999 999999 999999 999999 999999 999999 999999 999999 999999 999999 999999 999999 999999 999999 999999 999999 999999 999999 999999 999999 999999 999999 999999 999999 999999 999999 999999 999999 999999 999999 999999 999999 999999 999999 999999 999999 999999 0 999999 999999 999999 999999 999999 999999 999999 999999 999999 999999 999999 999999 999999 999999 999999 999999 12531 17171 19683 12211 17414 10241 18175 13601 14281 12557 19359 13890 18007 10549 15877 16688 17761 15737 15624 11418 18244 10287 16167 18033 16031 11283 18972 16860 13863 15663 18362 14501 17672 19271 10058 15185 18283 17668 19014 10418 18240 13132 15042 11172 13897 17466 13343 15077 10760 18784 999999
999999 999999 999999 999999 999999 999999 999999 999999 999999 999999 999999 999999 999999 999999 999999 999999 999999 999999 999999 999999 999999 999999 999999 999999 999999 999999 999999 999999 999999 999999 999999 999999 999999 999999 999999 999999 999999 999999 999999 999999 999999 999999 999999 999999 999999 999999 999999 999999 999999 999999 999999 999999 999999 999999 999999 0 999999 999999 999999 999999 999999 999999 999999 999999 999999 999999 999999 999999 999999 999999 999999 13580 13622 17022 17047 18296 11742 15575 10983 15413 15938 11294 11839 12671 13651 11445 15108 12693 16000 11859 10341 19378 11128 13554 15977 10004 19042 15086 19769 13444 19293 16588 15618 12685 12675 12353 11716 13684 10685 17645 14406 19591 18317 15558 12486 14236 15690 12248 12884 19252 13439 999999
999999 999999 999999 999999 999999 999999 999999 999999 999999 999999 999999 999999 999999 999999 999999 999999 999999 999999 999999 999999 999999 999999 999999 999999 999999 999999 999999 999999 999999 999999 999999 999999 999999 999999 999999 999999 999999 999999 999999 999999 999999 999999 999999 999999 999999 999999 999999 999999 999999 999999 999999 999999 999999 999999 999999 999999 0 999999 999999 999999 999999 999999 999999 999999 999999 999999 999999 999999 999999 999999 999999 13756 15912 10963 12912 19514 10794 15510 14937 12307 17217 15894 19916 12795 12826 15427 10193 11091 12209 12545 18276 14728 14052 11771 17279 13116 13637 14233 17272 14702 19144 12852 10247 18472 10663 12168 18129 16634 17030 13207 16284 13399 12507 17406 11408 18598 12448 12758 10516 16292 19299 999999
999999 999999 999999 999999 999999 999999 999999 999999 999999 999999 999999 999999 999999 999999 999999 999999 999999 999999 999999 999999 999999 999999 999999 999999 999999 999999 999999 999999 999999 999999 999999 999999 999999 999999 999999 999999 999999 999999 999999 999999 999999 999999 999999 999999 999999 999999 999999 999999 999999 999999 999999 999999 999999 999999 999999 999999 999999 0 999999 999999 999999 999999 999999 999999 999999 999999 999999 999999 999999 999999 999999 11356 14610 17441 19297 17642 14219 12629 16170 17046 11107 14840 19987 13325 16485 15862 12274 17724 11593 15908 13183 17299 16725 17659 11454 12466 13818 13957 13265 13723 17359 10464 13730 18731 10322 18977 14875 18048 18053 17538 11450 15360 10068 10112 16690 13616 12892 17671 19929 12923 15157 999999
999999 999999 999999 999999 999999 999999 999999 999999 999999 999999 999999 999999 999999 999999 999999 999999 999999 999999 999999 999999 999999 999999 999999 999999 999999 999999 999999 999999 999999 999999 999999 999999 999999 999999 999999 999999 999999 999999 999999 999999 999999 999999 999999 999999 999999 999999 999999 999999 999999 999999 999999 999999 999999 999999 999999 999999 999999 999999 0 999999 999999 999999 999999 999999 999999 999999 999999 999999 999999 999999 999999 15568 16399 10578 13341 11224 19792 10747 15761 17504 18165 14911 12929 15339 18028 11058 17097 17844 17130 19193 15056 18472 17099 13457 10345 12318 12652 15008 13486 18867 18761 13259 12516 19874 18929 12857 15471 15152 12234 12434 15892 12139 13927 13724 18745 13712 11115 17096 15334 12847 19285 999999
999999 999999 999999 999999 999999 999999 999999 999999 999999 999999 999999 999999 999999 999999 999999 999999 999999 999999 999999 999999 999999 999999 999999 999999 999999 999999 999999 999999 999999 999999 999999 999999 999999 999999 999999 999999 999999 999999 999999 999999 999999 999999 999999 999999 999999 999999 999999 999999 999999 999999 999999 999999 999999 999999 999999 999999 999999 999999 999999 0 999999 999999 999999 999999 999999 999999 999999 999999 999999 999999 999999 17411 12561 13956 15818 13643 12037 12898 17394 17007 11042 18279 14374 14230 13522 18203 13281 17413 16152 11075 14483 16204 11650 18667 19111 18891 15377 16423 16138 16352 13647 14824 14874 14565 13336 12696 14516 15033 19370 14369 15018 12623 14984 12311 14092 19652 17641 18233 10438 13309 16766 999999
999999 999999 999999 999999 999999 999999 999999 999999 999999 999999 999999 999999 999999 999999 999999 999999 999999 999999 999999 999999 999999 999999 999999 999999 999999 999999 999999 999999 999999 999999 999999 999999 999999 999999 999999 999999 999999 999999 999999 999999 999999 999999 999999 999999 999999 999999 999999 999999 999999 999999 999999 999999 999999 999999 999999 999999 999999 999999 999999 999999 0 999999 999999 999999 999999 999999 999999 999999 999999 999999 999999 14506 10973 17842 13606 18019 18980 13107 10794 11188 11388 11966 18957 10118 11480 16039 17768 19878 11191 13916 15744 14615 18852 12856 19250 13609 14310 13976 15910 19730 17394 15211 16578 13093 14525 14965 16289 15162 15840 11888 10236 11178 19863 19216 12875 12466 13956 10218 11377 18843 12932 999999
999999 999999 999999 999999 999999 999999 999999 999999 999999 999999 999999 999999 999999 999999 999999 999999 999999 999999 999999 999999 999999 999999 999999 999999 999999 999999 999999 999999 999999 999999 999999 999999 999999 999999 999999 999999 999999 999999 999999 999999 999999 999999 999999 999999 999999 999999 999999 999999 999999 999999 999999 999999 999999 999999 999999 999999 999999 999999 999999 999999 999999 0 999999 999999 999999 999999 999999 999999 999999 999999 999999 18517 18634 12130 17732 13823 15443 17393 12846 13372 17543 14586 14270 15029 13120 13391 10014 12737 12380 14553 10116 13925 19829 18864 19717 18984 10628 14691 10596 16466 14998 10142 12121 17574 15756 15720 11867 12942 12447 18873 10825 19407 14045 13174 11784 19440 18545 18364 15803 15710 10145 999999
999999 999999 999999 999999 999999 999999 999999 999999 999999 999999 999999 999999 999999 999999 999999 999999 999999 999999 999999 999999 999999 999999 999999 999999 999999 999999 999999 999999 999999 999999 999999 999999 999999 999999 999999 999999 999999 999999 999999 999999 999999 999999 999999 999999 999999 999999 999999 999999 999999 999999 999999 999999 999999 999999 999999 999999 999999 999999 999999 999999 999999 999999 0 999999 999999 999999 999999 999999 999999 999999 999999 11966 15517 15466 17767 19122 18489 11762 10568 17711 14039 17828 15958 18219 17841 18207 10118 12614 18966 10096 14215 14517 17533 18123 11749 17573 10869 17859 10454 11442 16448 13728 14426 13096 13156 19258 13317 13536 17569 19208 19739 15765 10491 14948 16899 13192 10809 16697 17677 17563 15973 999999
999999 999999 999999 999999 999999 999999 999999 999999 999999 999999 999999 999999 999999 999999 999999 999999 999999 999999 999999 999999 999999 999999 999999 999999 999999 999999 999999 999999 999999 999999 999999 999999 999999 999999 999999 999999 999999 999999 999999 999999 999999 999999 999999 999999 999999 999999 999999 999999 999999 999999 999999 999999 999999 999999 999999 999999 999999 999999 999999 999999 999999 999999 999999 0 999999 999999 999999 999999 999999 999999 999999 15357 17415 14222 13504 18967 11637 12441 14943 15600 12208 15412 13734 10862 17430 14764 19629 16195 17894 14458 10583 18799 19208 18730 10024 12436 10942 15777 18345 14964 18580 10618 19081 19648 18828 16425 14322 16403 17199 19761 15106 13919 17740 19226 19752 13224 15530 15749 12453 17707 11609 999999
999999 999999 999999 999999 999999 999999 999999 999999 999999 999999 999999 999999 999999 999999 999999 999999 999999 999999 999999 999999 999999 999999 999999 999999 999999 999999 999999 999999 999999 999999 999999 999999 999999 999999 999999 999999 999999 999999 999999 999999 999999 999999 999999 999999 999999 999999 999999 999999 999999 999999 999999 999999 999999 999999 999999 999999 999999 999999 999999 999999 999999 999999 999999 999999 0 999999 999999 999999 999999 999999 999999 16249 15369 15718 15811 14339 14123 12444 19922 17930 11638 11534 11268 18825 10819 16788 15969 17757 19520 17088 13097 11741 19371 14195 12643 19596 14028 19230 12256 14032 12043 19515 13333 13818 19346 14844 19581 11642 13755 10186 14157 10783 15780 17795 18238 19258 15412 16212 16002 18822 18205 999999
999999 999999 999999 999999 999999 999999 999999 999999 999999 999999 999999 999999 999999 999999 999999 999999 999999 999999 999999 999999 999999 999999 999999 999999 999999 999999 999999 999999 999999 999999 999999 999999 999999 999999 999999 999999 999999 999999 999999 999999 999999 999999 999999 999999 999999 999999 999999 999999 999999 999999 999999 999999 999999 999999 999999 999999 999999 999999 999999 999999 999999 999999 999999 999999 999999 0 999999 999999 999999 999999 999999 10973 11732 13182 10947 17144 11872 12961 14707 11674 18249 17663 12127 15813 18937 18994 17491 18863 12151 14716 10361 10383 11265 13803 15670 17208 11305 11760 11656 15891 10948 18147 15405 11164 15676 14583 16892 10581 12775 10914 10332 11474 14377 10897 12617 19698 13800 12053 19043 15933 13921 999999
999999 999999 999999 999999 999999 999999 999999 999999 999999 999999 999999 999999 999999 999999 999999 999999 999999 999999 999999 999999 999999 999999 999999 999999 999999 999999 999999 999999 999999 999999 999999 999999 999999 999999 999999 999999 999999 999999 999999 999999 999999 999999 999999 999999 999999 999999 999999 999999 999999 999999 999999 999999 999999 999999 999999 999999 999999 999999 999999 999999 999999 999999 999999 999999 999999 999999 0 999999 999999 999999 999999 17346 15881 11855 18909 14604 10991 18081 16122 13926 11400 19765 16044 18266 13891 15154 10565 19267 10133 17878 16033 17915 15149 18191 15337 17638 18312 19027 15030 18727 10876 15531 13442 15616 16678 19469 14007 17862 18427 14258 17871 17498 11878 16602 19664 13301 12595 10729 17153 10941 10573 999999
999999 999999 999999 999999 999999 999999 999999 999999 999999 999999 999999 999999 999999 999999 999999 999999 999999 999999 999999 999999 999999 999999 999999 999999 999999 999999 999999 999999 999999 999999 999999 999999 999999 999999 999999 999999 999999 999999 999999 999999 999999 999999 999999 999999 999999 999999 999999 999999 999999 999999 999999 999999 999999 999999 999999 999999 999999 999999 999999 999999 999999 999999 999999 999999 999999 999999 999999 0 999999 999999 999999 16250 16403 18565 10785 14727 11968 18907 18421 14800 11233 19354 19691 14276 17105 19929 13475 18877 18555 13543 16112 17834 11001 14481 19349 17995 12528 12589 17688 12923 14440 12189 11430 18629 18602 13881 17089 12274 16370 11959 14771 17386 14453 17593 13561 17359 13607 14711 15519 17413 14066 999999
999999 999999 999999 999999 999999 999999 999999 999999 999999 999999 999999 999999 999999 999999 999999 999999 999999 999999 999999 999999 999999 999999 999999 999999 999999 999999 999999 999999 999999 999999 999999 999999 999999 999999 999999 999999 999999 999999 999999 999999 999999 999999 999999 999999 999999 999999 999999 999999 999999 999999 999999 999999 999999 999999 999999 999999 999999 999999 999999 999999 999999 999999 999999 999999 999999 999999 999999 999999 0 999999 999999 13227 13656 13211 19538 15195 11893 17134 11002 10863 14161 12605 11030 13226 19360 15532 15302 13117 18766 18770 15432 17107 12940 15951 12668 10148 10575 14233 10164 19214 14416 17183 12261 15309 10033 14810 14881 13343 11531 14166 18561 19469 11920 18629 10034 16121 18113 19821 19308 14574 11885 999999
999999 999999 999999 999999 999999 999999 999999 999999 999999 999999 999999 999999 999999 999999 999999 999999 999999 999999 999999 999999 999999 999999 999999 999999 999999 999999 999999 999999 999999 999999 999999 999999 999999 999999 999999 999999 999999 999999 999999 999999 999999 999999 999999 999999 999999 999999 999999 999999 999999 999999 999999 999999 999999 999999 999999 999999 999999 999999 999999 999999 999999 999999 999999 999999 999999 999999 999999 999999 999999 0 999999 17425 12527 14956 16529 15834 11112 18206 19834 12921 19005 10040 16565 17311 14350 12221 16772 15583 10517 13441 19550 11791 19338 12520 12157 11681 13909 13285 17427 14191 18455 14104 12044 17593 15490 10668 19386 19639 17808 13511 17576 16328 16598 14602 13344 16463 19994 12820 18363 13456 14683 999999
999999 999999 999999 999999 999999 999999 999999 999999 999999 999999 999999 999999 999999 999999 999999 999999 999999 999999 999999 999999 999999 999999 999999 999999 999999 999999 999999 999999 999999 999999 999999 999999 999999 999999 999999 999999 999999 999999 999999 999999 999999 999999 999999 999999 999999 999999 999999 999999 999999 999999 999999 999999 999999 999999 999999 999999 999999 999999 999999 999999 999999 999999 999999 999999 999999 999999 999999 999999 999999 999999 0 10064 10947 14674 13860 10928 18972 13416 18935 16551 16344 10461 16493 11536 17409 14434 12569 13214 17737 19062 13770 15954 17804 14081 10811 19159 14776 17031 11834 18159 18614 19018 13129 14086 12126 13925 17835 15581 19795 15484 12915 10654 12200 12985 19812 14709 17893 18546 12798 15636 10591 999999
999999 17831 16013 16202 10392 16818 12115 13693 18422 10406 18388 16117 19714 11266 15225 17093 12744 12462 12311 17785 19763 14612 19492 18313 15009 16789 15595 12221 10177 13289 11562 19904 11112 17570 11500 14515 10821 17944 13012 16352 12570 12844 11698 12049 15113 11977 12445 19882 16323 11049 10529 15248 19473 14738 12531 13580 13756 11356 15568 17411 14506 18517 11966 15357 16249 10973 17346 16250 13227 17425 10064 0 999999 999999 999999 999999 999999 999999 999999 999999 999999 999999 999999 999999 999999 999999 999999 999999 999999 999999 999999 999999 999999 999999 999999 999999 999999 999999 999999 999999 999999 999999 999999 999999 999999 999999 999999 999999 999999 999999 999999 999999 999999 999999 999999 999999 999999 999999 999999 999999 999999 13551
999999 19187 11173 10989 15718 18112 14092 12269 18012 17387 16031 14213 15120 18584 18113 10312 18581 10902 16420 18743 10602 17136 18630 10353 10305 17365 11203 18924 12921 12748 13981 12583 11328 11153 11780 19485 10920 10237 14119 13973 15877 18359 16479 11176 10216 17816 13356 15981 12414 15974 12144 17843 14030 16150 17171 13622 15912 14610 16399 12561 10973 18634 15517 17415 15369 11732 15881 16403 13656 12527 10947 999999 0 999999 999999 999999 999999 999999 999999 999999 999999 999999 999999 999999 999999 999999 999999 999999 999999 999999 999999 999999 999999 999999 999999 999999 999999 999999 999999 999999 999999 999999 999999 999999 999999 999999 999999 999999 999999 999999 999999 999999 999999 999999 999999 999999 999999 999999 999999 999999 999999 10414
999999 18439 16900 12147 12795 19994 14849 14629 11761 19769 17925 18877 10958 11954 16612 19963 13040 11120 11771 12209 19257 16802 17999 15937 13965 12018 15092 19227 14314 16954 13971 14439 14186 14515 16678 18317 17312 19183 17790 18557 16070 14262 12349 14045 15777 10649 15323 18668 11798 16881 12383 14399 12743 12274 19683 17022 10963 17441 10578 13956 17842 12130 15466 14222 15718 13182 11855 18565 13211 14956 14674 999999 999999 0 999999 999999 999999 999999 999999 999999 999999 999999 999999 999999 999999 999999 999999 999999 999999 999999 999999 999999 999999 999999 999999 999999 999999 999999 999999 999999 999999 999999 999999 999999 999999 999999 999999 999999 999999 999999 999999 999999 999999 999999 999999 999999 999999 999999 999999 999999 999999 7831
999999 13838 13550 12313 15207 16892 17238 18358 13862 15705 11875 11306 17828 12661 15260 16080 10597 12974 12589 14158 13837 15641 16519 19682 10610 12352 19133 16712 19197 12090 16559 13790 11421 12880 13863 15109 19162 18210 15983 13703 17324 19234 17610 12778 11853 17925 16667 15650 10394 18048 16745 14457 12695 13037 12211 17047 12912 19297 13341 15818 13606 17732 17767 13504 15811 10947 18909 10785 19538 16529 13860 999999 999999 999999 0 999999 999999 999999 999999 999999 999999 999999 999999 999999 999999 999999 999999 999999 999999 999999 999999 999999 999999 999999 999999 999999 999999 999999 999999 999999 999999 999999 999999 999999 999999 999999 999999 999999 999999 999999 999999 999999 999999 999999 999999 999999 999999 999999 999999 999999 999999 8831
999999 14511 19570 19611 15890 13378 13958 17598 17201 12249 19607 16488 11971 14516 14486 15026 18355 15628 12806 10199 17590 16428 17337 12053 18643 17490 15968 19550 15380 11831 17499 12285 11937 18703 12243 11383 11476 17825 13201 14138 17858 11417 16189 19883 16286 10790 13922 19475 15393 15208 15770 18934 14392 10492 17414 18296 19514 17642 11224 13643 18019 13823 19122 18967 14339 17144 14604 14727 15195 15834 10928 999999 999999 999999 999999 0 999999 999999 999999 999999 999999 999999 999999 999999 999999 999999 999999 999999 999999 999999 999999 999999 999999 999999 999999 999999 999999 999999 999999 999999 999999 999999 999999 999999 999999 999999 999999 999999 999999 999999 999999 999999 999999 999999 999999 999999 999999 999999 999999 999999 999999 10864
999999 12272 10430 12085 16244 19655 13712 17562 12366 14587 15033 15305 14153 19339 19671 10637 12351 19190 15509 10606 15284 16177 14593 10831 14482 18677 16597 15076 19852 15951 13356 16672 10310 14988 13786 17979 13158 16618 16497 16844 16314 19007 10611 19945 10404 19487 13493 18425 12019 17010 14481 17395 13408 14542 10241 11742 10794 14219 19792 12037 18980 15443 18489 11637 14123 11872 10991 11968 11893 11112 18972 999999 999999 999999 999999 999999 0 999999 999999 999999 999999 999999 999999 999999 999999 999999 999999 999999 999999 999999 999999 999999 999999 999999 999999 999999 999999 999999 999999 999999 999999 999999 999999 999999 999999 999999 999999 999999 999999 999999 999999 999999 999999 999999 999999 999999 999999 999999 999999 999999 999999 14756
999999 14454 14429 17702 16481 19132 11327 10860 12253 10838 16635 17369 19747 11682 19524 12255 10659 18196 11131 13492 19647 13485 16700 16874 13712 12023 11420 10112 19738 19039 14315 12244 16758 16969 15090 15569 13585 19356 18145 15222 16732 12154 11653 15090 12886 13021 12686 16000 11358 19420 12231 13365 14155 16314 18175 15575 15510 12629 10747 12898 13107 17393 11762 12441 12444 12961 18081 18907 17134 18206 13416 999999 999999 999999 999999 999999 999999 0 999999 999999 999999 999999 999999 999999 999999 999999 999999 999999 999999 999999 999999 999999 999999 999999 999999 999999 999999 999999 999999 999999 999999 999999 999999 999999 999999 999999 999999 999999 999999 999999 999999 999999 999999 999999 999999 999999 999999 999999 999999 999999 999999 6912
999999 14947 16838 17603 10863 15656 10099 18709 13713 18345 19518 12408 13359 18444 15813 17635 17141 18932 19508 15020 11546 15058 15266 11215 19426 12805 15262 16245 11258 18702 12501 11068 11764 10306 13996 18459 18369 17290 11475 13222 13510 19496 11897 11212 12440 19756 13243 19183 17523 17761 13310 18117 17799 14162 13601 10983 14937 16170 15761 17394 10794 12846 10568 14943 19922 14707 16122 18421 11002 19834 18935 999999 999999 999999 999999 999999 999999 999999 0 999999 999999 999999 999999 999999 999999 999999 999999 999999 999999 999999 999999 999999 999999 999999 999999 999999 999999 999999 999999 999999 999999 999999 999999 999999 999999 999999 999999 999999 999999 999999 999999 999999 999999 999999 999999 999999 999999 999999 999999 999999 999999 6221
999999 14826 16104 18995 12930 18210 10927 18696 17758 17558 16135 13502 10151 10125 15592 13060 17368 13177 18778 14282 12849 12023 14356 15371 18709 16386 16107 12660 17902 10950 18899 13920 17584 16282 15824 11339 11016 13291 16570 11237 12509 14842 15569 13551 19074 13637 19108 12705 12656 10266 18388 11645 10114 11160 14281 15413 12307 17046 17504 17007 11188 13372 17711 15600 17930 11674 13926 14800 10863 12921 16551 999999 999999 999999 999999 999999 999999 999999 999999 0 999999 999999 999999 999999 999999 999999 999999 999999 999999 999999 999999 999999 999999 999999 999999 999999 999999 999999 999999 999999 999999 999999 999999 999999 999999 999999 999999 999999 999999 999999 999999 999999 999999 999999 999999 999999 999999 999999 999999 999999 999999 5149
999999 10558 11323 12463 17278 16001 14212 10224 15208 15030 10712 11467 13721 13810 10230 13566 19592 13263 10954 13102 15578 18149 11378 17162 16985 15213 15438 17301 13329 17875 12333 10295 11687 12772 12461 15951 16882 16012 13492 13538 17546 11386 11170 10987 11407 11794 15620 10651 18275 15714 19127 16512 17958 11038 12557 15938 17217 11107 18165 11042 11388 17543 14039 12208 11638 18249 11400 11233 14161 19005 16344 999999 999999 999999 999999 999999 999999 999999 999999 999999 0 999999 999999 999999 999999 999999 999999 999999 999999 999999 999999 999999 999999 999999 999999 999999 999999 999999 999999 999999 999999 999999 999999 999999 999999 999999 999999 999999 999999 999999 999999 999999 999999 999999 999999 999999 999999 999999 999999 999999 999999 12552
999999 13685 19541 17080 18852 15836 17032 16544 14723 14062 10935 15083 18900 10001 18957 19195 19090 14696 14097 11932 18655 19524 18997 13768 14970 10997 17222 19160 11599 16466 12059 11629 17651 19255 18829 15931 17521 13632 11651 13246 14856 17068 11420 13507 19425 17295 16845 13007 13217 17094 10526 19632 13883 18303 19359 11294 15894 14840 14911 18279 11966 14586 17828 15412 11534 17663 19765 19354 12605 10040 10461 999999 999999 999999 999999 999999 999999 999999 999999 999999 999999 0 999999 999999 999999 999999 999999 999999 999999 999999 999999 999999 999999 999999 999999 999999 999999 999999 999999 999999 999999 999999 999999 999999 999999 999999 999999 999999 999999 999999 999999 999999 999999 999999 999999 999999 999999 999999 999999 999999 999999 7809
999999 10041 13043 15899 10691 18680 15767 11331 18590 13677 15687 18068 15084 10615 19611 11275 15176 16926 16622 13620 14707 14260 12577 19337 15886 19790 12691 15250 18950 10864 19832 10593 12163 18290 11788 19397 11708 12566 15572 11473 11777 16751 14815 12339 18361 12721 17592 16112 13042 11306 10746 15299 17075 13011 13890 11839 19916 19987 12929 14374 18957 14270 15958 13734 11268 12127 16044 19691 11030 16565 16493 999999 999999 999999 999999 999999 999999 999999 999999 999999 999999 999999 0 999999 999999 999999 999999 999999 999999 999999 999999 999999 999999 999999 999999 999999 999999 999999 999999 999999 999999 999999 999999 999999 999999 999999 999999 999999 999999 999999 999999 999999 999999 999999 999999 999999 999999 999999 999999 999999 999999 14498
999999 11794 19528 16310 11191 14011 13166 17877 16780 18892 14967 17791 15708 19736 10903 12441 16945 16083 17596 11285 17686 19594 17515 19072 13854 10357 15397 17402 17106 14100 16305 17836 15322 11698 14232 14598 19650 14057 12973 18019 19678 19854 13650 10245 11284 14365 13036 16458 13512 10612 10261 10795 15182 12150 18007 12671 12795 13325 15339 14230 10118 15029 18219 10862 18825 15813 18266 14276 13226 17311 11536 999999 999999 999999 999999 999999 999999 999999 999999 999999 999999 999999 999999 0 999999 999999 999999 999999 999999 999999 999999 999999 999999 999999 999999 999999 999999 999999 999999 999999 999999 999999 999999 999999 999999 999999 999999 999999 999999 999999 999999 999999 999999 999999 999999 999999 999999 999999 999999 999999 999999 14236
999999 16671 12024 16645 10422 12525 11916 12033 12314 15819 18629 11755 17584 11542 13894 16380 18789 17167 17512 16648 12883 14222 18533 16619 15481 14370 14529 12916 18434 10673 19288 11224 17506 13369 16640 13707 18728 12102 19323 10616 12349 19554 12519 18297 19737 15855 14375 15958 10213 12340 19309 13332 19744 12150 10549 13651 12826 16485 18028 13522 11480 13120 17841 17430 10819 18937 13891 17105 19360 14350 17409 999999 999999 999999 999999 999999 999999 999999 999999 999999 999999 999999 999999 999999 0 999999 999999 999999 999999 999999 999999 999999 999999 999999 999999 999999 999999 999999 999999 999999 999999 999999 999999 999999 999999 999999 999999 999999 999999 999999 999999 999999 999999 999999 999999 999999 999999 999999 999999 999999 999999 14725
999999 15002 13963 18847 17027 14677 11455 17560 15113 15652 10418 12228 11219 16945 17980 12763 13474 11498 19134 19223 15109 18745 18122 15217 10375 18363 12708 19991 16250 19678 14542 19304 14351 10780 14871 16131 14542 10286 18554 18352 14988 19470 18620 18120 18859 13611 19220 16676 12416 18938 10239 19166 12373 16680 15877 11445 15427 15862 11058 18203 16039 13391 18207 14764 16788 18994 15154 19929 15532 12221 14434 999999 999999 999999 999999 999999 999999 999999 999999 999999 999999 999999 999999 999999 999999 0 999999 999999 999999 999999 999999 999999 999999 999999 999999 999999 999999 999999 999999 999999 999999 999999 999999 999999 999999 999999 999999 999999 999999 999999 999999 999999 999999 999999 999999 999999 999999 999999 999999 999999 999999 13447
999999 16281 18548 18770 19745 13380 11602 17952 16140 19798 16097 11038 19027 13930 16166 14705 15051 17285 13578 18458 14618 15528 18327 17499 12098 10359 13008 11845 19134 14560 19174 10317 12798 12015 12787 10751 13368 18514 17372 16888 13424 15579 12749 13473 17566 10265 17021 13868 13580 12361 11272 17274 17784 15760 16688 15108 10193 12274 17097 13281 17768 10014 10118 19629 15969 17491 10565 13475 15302 16772 12569 999999 999999 999999 999999 999999 999999 999999 999999 999999 999999 999999 999999 999999 999999 999999 0 999999 999999 999999 999999 999999 999999 999999 999999 999999 999999 999999 999999 999999 999999 999999 999999 999999 999999 999999 999999 999999 999999 999999 999999 999999 999999 999999 999999 999999 999999 999999 999999 999999 999999 9366
999999 14897 17578 14261 12953 13726 13876 17605 15777 11884 18520 19436 12863 13056 10396 18343 15324 19777 19002 10927 12080 13668 10817 17146 11215 14182 16862 13577 18437 19859 13020 17452 18482 14055 16732 17502 10210 15328 18222 18399 11462 15818 11235 19095 13153 18119 15235 12983 18219 18676 13438 16358 16185 15832 17761 12693 11091 17724 17844 17413 19878 12737 12614 16195 17757 18863 19267 18877 13117 15583 13214 999999 999999 999999 999999 999999 999999 999999 999999 999999 999999 999999 999999 999999 999999 999999 999999 0 999999 999999 999999 999999 999999 999999 999999 999999 999999 999999 999999 999999 999999 999999 999999 999999 999999 999999 999999 999999 999999 999999 999999 999999 999999 999999 999999 999999 999999 999999 999999 999999 999999 12960
999999 18372 14921 17531 13647 16950 19779 11057 11615 10397 19531 19278 10910 12963 10779 16714 18068 18837 17576 19425 14591 12807 15641 13917 19779 14203 11113 18689 13701 15510 17444 18237 18470 19114 14847 10982 16057 19707 10541 19389 18618 19968 18429 15115 16634 17466 17721 12497 18141 14968 11388 10741 12623 16226 15737 16000 12209 11593 17130 16152 11191 12380 18966 17894 19520 12151 10133 18555 18766 10517 17737 999999 999999 999999 999999 999999 999999 999999 999999 999999 999999 999999 999999 999999 999999 999999 999999 999999 0 999999 999999 999999 999999 999999 999999 999999 999999 999999 999999 999999 999999 999999 999999 999999 999999 999999 999999 999999 999999 999999 999999 999999 999999 999999 999999 999999 999999 999999 999999 999999 999999 12810
999999 18424 11700 11693 16681 19773 19707 12411 18811 16513 10467 19996 11756 19628 17707 17206 11837 16787 19368 11257 11812 15843 16049 14206 11372 10701 18223 13572 10893 19054 13652 19695 13452 12739 15015 14629 18370 10420 19156 18422 10428 16869 11291 15729 14351 18624 14687 18084 19067 15899 19799 12183 13650 16051 15624 11859 12545 15908 19193 11075 13916 14553 10096 14458 17088 14716 17878 13543 18770 13441 19062 999999 999999 999999 999999 999999 999999 999999 999999 999999 999999 999999 999999 999999 999999 999999 999999 999999 999999 0 999999 999999 999999 999999 999999 999999 999999 999999 999999 999999 999999 999999 999999 999999 999999 999999 999999 999999 999999 999999 999999 999999 999999 999999 999999 999999 999999 999999 999999 999999 999999 12761
999999 10017 19765 11342 13609 11314 13646 12350 11868 15027 17275 11273 10803 10092 17581 11315 15928 13185 16060 13385 17102 18105 13985 17247 19756 10227 19043 12402 12811 19404 19544 12225 12251 16378 10807 13333 13594 18454 14547 16677 13139 12072 18665 10840 15199 10394 14013 10427 18749 13708 15881 16490 17956 17721 11418 10341 18276 13183 15056 14483 15744 10116 14215 10583 13097 10361 16033 16112 15432 19550 13770 999999 999999 999999 999999 999999 999999 999999 999999 999999 999999 999999 999999 999999 999999 999999 999999 999999 999999 999999 0 999999 999999 999999 999999 999999 999999 999999 999999 999999 999999 999999 999999 999999 999999 999999 999999 999999 999999 999999 999999 999999 999999 999999 999999 999999 999999 999999 999999 999999 999999 5193
999999 16008 17879 11985 19884 14462 11240 18518 14049 14873 11621 19142 18090 11138 10062 15905 13740 18658 16354 11704 19185 13861 19470 17905 12980 13931 11780 16290 17988 19813 19992 14673 19513 14056 12367 18776 12849 19889 11436 15813 11257 12944 10061 11202 17378 18765 12975 11779 14281 14183 11088 13005 14353 11620 18244 19378 14728 17299 18472 16204 14615 13925 14517 18799 11741 10383 17915 17834 17107 11791 15954 999999 999999 999999 999999 999999 999999 999999 999999 999999 999999 999999 999999 999999 999999 999999 999999 999999 999999 999999 999999 0 999999 999999 999999 999999 999999 999999 999999 999999 999999 999999 999999 999999 999999 999999 999999 999999 999999 999999 999999 999999 999999 999999 999999 999999 999999 999999 999999 999999 999999 12140
999999 16337 15141 11208 10922 17262 14795 18124 17641 12668 14570 19851 11609 11141 16522 14223 17449 14103 12936 10163 16282 13681 16953 14152 13159 14194 18298 16728 12299 16977 16162 18598 10661 10542 14716 17016 17148 13694 19071 10719 15545 12328 10582 13177 17433 10575 17823 17073 11144 17379 19025 10383 17018 17685 10287 11128 14052 16725 17099 11650 18852 19829 17533 19208 19371 11265 15149 11001 12940 19338 17804 999999 999999 999999 999999 999999 999999 999999 999999 999999 999999 999999 999999 999999 999999 999999 999999 999999 999999 999999 999999 999999 0 999999 999999 999999 999999 999999 999999 999999 999999 999999 999999 999999 999999 999999 999999 999999 999999 999999 999999 999999 999999 999999 999999 999999 999999 999999 999999 999999 999999 5114
999999 14104 11815 18210 16206 16927 11089 16106 16885 13087 13699 11572 11956 12877 19325 14557 18505 16150 13280 15477 16833 17780 12592 18180 13594 11305 19365 18955 19592 12471 19948 10735 16314 12745 18209 16702 11541 19173 11034 16198 15062 13810 17323 16683 12215 14953 13470 13070 11709 18298 18487 16390 10008 12272 16167 13554 11771 17659 13457 18667 12856 18864 18123 18730 14195 13803 18191 14481 15951 12520 14081 999999 999999 999999 999999 999999 999999 999999 999999 999999 999999 999999 999999 999999 999999 999999 999999 999999 999999 999999 999999 999999 999999 0 999999 999999 999999 999999 999999 999999 999999 999999 999999 999999 999999 999999 999999 999999 999999 999999 999999 999999 999999 999999 999999 999999 999999 999999 999999 999999 999999 9348
999999 14468 13339 12313 11657 19012 17023 14369 12594 10180 13688 15176 10968 10736 17221 15741 17376 16713 19980 17597 17361 16822 18839 18561 17349 19312 10121 11185 16093 19651 13523 13098 16695 12794 11678 10928 17688 13094 10015 13323 10923 17301 10588 13272 11205 19693 15680 12672 15627 13362 10954 17196 12161 19069 18033 15977 17279 11454 10345 19111 19250 19717 11749 10024 12643 15670 15337 19349 12668 12157 10811 999999 999999 999999 999999 999999 999999 999999 999999 999999 999999 999999 999999 999999 999999 999999 999999 999999 999999 999999 999999 999999 999999 999999 0 999999 999999 999999 999999 999999 999999 999999 999999 999999 999999 999999 999999 999999 999999 999999 999999 999999 999999 999999 999999 999999 999999 999999 999999 999999 999999 5478
999999 14193 13211 13852 12782 18994 13752 12013 10880 12574 10554 14790 17013 18605 15975 15046 14219 11191 15271 16636 12512 10673 18190 13063 17184 11281 10659 15501 17323 18388 10771 17930 14914 11665 16867 18093 17391 10162 14036 11373 12092 12896 18711 14327 18565 13057 11282 12836 19679 13077 13114 14622 15716 18201 16031 10004 13116 12466 12318 18891 13609 18984 17573 12436 19596 17208 17638 17995 10148 11681 19159 999999 999999 999999 999999 999999 999999 999999 999999 999999 999999 999999 999999 999999 999999 999999 999999 999999 999999 999999 999999 999999 999999 999999 999999 0 999999 999999 999999 999999 999999 999999 999999 999999 999999 999999 999999 999999 999999 999999 999999 999999 999999 999999 999999 999999 999999 999999 999999 999999 999999 7719
999999 10968 10739 17311 16662 10749 13722 11113 18240 15041 15037 17866 12563 16424 18627 16261 18548 16210 19390 17342 15856 12513 19080 17404 15902 11168 14929 10174 17663 12017 11898 17156 19102 13642 18230 12025 13166 16374 11444 16042 13029 14328 11024 17819 10331 14066 13229 14358 15911 11753 19015 14500 13545 15344 11283 19042 13637 13818 12652 15377 14310 10628 10869 10942 14028 11305 18312 12528 10575 13909 14776 999999 999999 999999 999999 999999 999999 999999 999999 999999 999999 999999 999999 999999 999999 999999 999999 999999 999999 999999 999999 999999 999999 999999 999999 999999 0 999999 999999 999999 999999 999999 999999 999999 999999 999999 999999 999999 999999 999999 999999 999999 999999 999999 999999 999999 999999 999999 999999 999999 999999 9159
999999 12648 17268 16303 19129 17447 17104 14969 10590 14984 13312 18364 18941 11618 19044 17827 14324 14245 15779 15977 12816 19856 11015 15209 17485 19551 15285 12337 18294 18812 16735 10924 11419 10381 14214 10375 15488 14416 19779 16000 14335 19577 13810 10947 14480 12899 15592 15342 15002 12511 15433 10814 19783 11025 18972 15086 14233 13957 15008 16423 13976 14691 17859 15777 19230 11760 19027 12589 14233 13285 17031 999999 999999 999999 999999 999999 999999 999999 999999 999999 999999 999999 999999 999999 999999 999999 999999 999999 999999 999999 999999 999999 999999 999999 999999 999999 999999 0 999999 999999 999999 999999 999999 999999 999999 999999 999999 999999 999999 999999 999999 999999 999999 999999 999999 999999 999999 999999 999999 999999 999999 11194
999999 15617 12037 18726 10341 16786 13149 10534 19269 15247 19262 18203 19967 11168 11569 10600 17370 17261 10535 11171 14375 15321 17451 12102 19211 19184 10584 19623 14515 13779 19622 14225 19604 16670 16684 11397 11948 14601 11242 12926 18205 10640 12091 12390 10198 16389 18541 17113 18116 15285 17777 17545 13918 13244 16860 19769 17272 13265 13486 16138 15910 10596 10454 18345 12256 11656 15030 17688 10164 17427 11834 999999 999999 999999 999999 999999 999999 999999 999999 999999 999999 999999 999999 999999 999999 999999 999999 999999 999999 999999 999999 999999 999999 999999 999999 999999 999999 999999 0 999999 999999 999999 999999 999999 999999 999999 999999 999999 999999 999999 999999 999999 999999 999999 999999 999999 999999 999999 999999 999999 999999 13502
999999 11334 15194 19310 12629 18067 19328 18158 14370 17336 11863 19098 16636 14046 20000 18263 15946 14101 18551 14212 16245 13963 14497 17244 14961 19173 14253 17662 15976 18507 12008 11595 11501 15639 18435 16286 17116 16998 18776 11130 15812 11495 16456 18655 19373 11818 13562 12332 16882 14353 10618 13632 13150 10686 13863 13444 14702 13723 18867 16352 19730 16466 11442 14964 14032 15891 18727 12923 19214 14191 18159 999999 999999 999999 999999 999999 999999 999999 999999 999999 999999 999999 999999 999999 999999 999999 999999 999999 999999 999999 999999 999999 999999 999999 999999 999999 999999 999999 999999 0 999999 999999 999999 999999 999999 999999 999999 999999 999999 999999 999999 999999 999999 999999 999999 999999 999999 999999 999999 999999 999999 7467
999999 16439 10454 17453 17474 14772 17781 13670 11539 14512 18140 17385 14601 13727 15444 17443 15008 18977 12573 11545 19478 17529 16141 16394 17551 11341 11561 15433 19304 11811 15703 11917 13031 17564 12070 15987 16870 18867 17196 10414 12615 15486 15001 15033 18102 14088 12760 12493 12790 13641 18124 13435 19498 19594 15663 19293 19144 17359 18761 13647 17394 14998 16448 18580 12043 10948 10876 14440 14416 18455 18614 999999 999999 999999 999999 999999 999999 999999 999999 999999 999999 999999 999999 999999 999999 999999 999999 999999 999999 999999 999999 999999 999999 999999 999999 999999 999999 999999 999999 999999 0 999999 999999 999999 999999 999999 999999 999999 999999 999999 999999 999999 999999 999999 999999 999999 999999 999999 999999 999999 999999 5287
999999 14111 14596 15722 11177 17963 15188 18003 14131 11478 18393 17775 12671 15463 13518 12608 15083 11627 17872 15322 16591 10410 15408 16776 19658 10359 14823 13305 16063 19326 16843 14322 17268 14535 11633 19865 18802 18449 12504 14592 15392 19124 18549 16802 16672 16417 11683 13778 14654 14655 15819 15455 17890 17413 18362 16588 12852 10464 13259 14824 15211 10142 13728 10618 19515 18147 15531 12189 17183 14104 19018 999999 999999 999999 999999 999999 999999 999999 999999 999999 999999 999999 999999 999999 999999 999999 999999 999999 999999 999999 999999 999999 999999 999999 999999 999999 999999 999999 999999 999999 999999 0 999999 999999 999999 999999 999999 999999 999999 999999 999999 999999 999999 999999 999999 999999 999999 999999 999999 999999 999999 13810
999999 12696 14676 19535 16538 16369 18656 11918 19667 18681 12528 11624 17160 15129 14771 19537 17527 14846 17937 17981 12305 18860 18476 19841 19340 12523 14202 16228 14410 13190 12453 18238 17863 15912 17673 13735 14067 15019 11687 10235 19337 15340 17355 18189 19822 14011 17953 11534 18421 12218 15867 12107 14529 13078 14501 15618 10247 13730 12516 14874 16578 12121 14426 19081 13333 15405 13442 11430 12261 12044 13129 999999 999999 999999 999999 999999 999999 999999 999999 999999 999999 999999 999999 999999 999999 999999 999999 999999 999999 999999 999999 999999 999999 999999 999999 999999 999999 999999 999999 999999 999999 999999 0 999999 999999 999999 999999 999999 999999 999999 999999 999999 999999 999999 999999 999999 999999 999999 999999 999999 999999 8553
999999 14536 16373 19531 12539 19229 10553 12761 16527 11110 19079 12280 18481 18177 11737 19616 17088 17669 14345 13406 10698 11275 16133 11101 19243 14649 18927 10141 16000 10390 14512 19599 16522 10674 15363 17069 19873 17083 11975 12502 15230 18130 16863 13490 17128 19250 16089 12863 17941 11870 17022 16096 11002 19872 17672 12685 18472 18731 19874 14565 13093 17574 13096 19648 13818 11164 15616 18629 15309 17593 14086 999999 999999 999999 999999 999999 999999 999999 999999 999999 999999 999999 999999 999999 999999 999999 999999 999999 999999 999999 999999 999999 999999 999999 999999 999999 999999 999999 999999 999999 999999 999999 999999 0 999999 999999 999999 999999 999999 999999 999999 999999 999999 999999 999999 999999 999999 999999 999999 999999 999999 11050
999999 16143 18471 12822 11506 14671 19837 18869 13520 13819 13167 18134 15558 15755 16173 10327 13274 18057 18234 15787 14268 15015 19527 19691 11795 18982 10253 16548 17773 18729 11498 17763 10103 16239 12368 17682 12071 13879 10318 17279 11717 13137 18032 16983 17447 12193 19959 10888 17118 19047 15326 13557 12239 10401 19271 12675 10663 10322 18929 13336 14525 15756 13156 18828 19346 15676 16678 18602 10033 15490 12126 999999 999999 999999 999999 999999 999999 999999 999999 999999 999999 999999 999999 999999 999999 999999 999999 999999 999999 999999 999999 999999 999999 999999 999999 999999 999999 999999 999999 999999 999999 999999 999999 999999 0 999999 999999 999999 999999 999999 999999 999999 999999 999999 999999 999999 999999 999999 999999 999999 999999 12378
999999 16025 16333 19690 18884 17195 18354 18735 14629 10407 18500 13235 10408 10399 19251 11000 12879 11731 17711 18515 18192 14031 15408 18166 12710 17280 11631 16326 17753 11779 19212 19072 14674 14607 19354 19000 19647 13680 17679 11730 14846 12906 19302 19643 15465 14081 10185 16731 14702 17271 19851 14693 18226 19052 10058 12353 12168 18977 12857 12696 14965 15720 19258 16425 14844 14583 19469 13881 14810 10668 13925 999999 999999 999999 999999 999999 999999 999999 999999 999999 999999 999999 999999 999999 999999 999999 999999 999999 999999 999999 999999 999999 999999 999999 999999 999999 999999 999999 999999 999999 999999 999999 999999 999999 999999 0 999999 999999 999999 999999 999999 999999 999999 999999 999999 999999 999999 999999 999999 999999 999999 5791
999999 13328 17223 13092 10271 19058 12978 18458 12659 19306 17764 17835 17500 10136 13320 12328 11054 18422 18533 18711 19155 15675 11897 17339 17964 12460 16904 17581 16033 11575 13507 15210 15011 12968 14436 13070 14293 15177 15631 12825 12589 19410 12085 16485 10858 10185 14000 11258 14283 11598 10796 14540 12313 19004 15185 11716 18129 14875 15471 14516 16289 11867 13317 14322 19581 16892 14007 17089 14881 19386 17835 999999 999999 999999 999999 999999 999999 999999 999999 999999 999999 999999 999999 999999 999999 999999 999999 999999 999999 999999 999999 999999 999999 999999 999999 999999 999999 999999 999999 999999 999999 999999 999999 999999 999999 999999 0 999999 999999 999999 999999 999999 999999 999999 999999 999999 999999 999999 999999 999999 999999 8714
999999 14104 14623 12231 13351 16069 15412 10529 18668 10454 12490 17805 12561 18395 17329 13535 13555 10170 19657 15251 17532 13698 15461 19839 18527 19763 13933 11550 17447 11563 18286 17917 16690 12232 18377 13613 11047 11124 19593 11437 16342 17511 13445 19320 12334 10615 11085 19910 13080 12200 13582 15008 13543 18106 18283 13684 16634 18048 15152 15033 15162 12942 13536 16403 11642 10581 17862 12274 13343 19639 15581 999999 999999 999999 999999 999999 999999 999999 999999 999999 999999 999999 999999 999999 999999 999999 999999 999999 999999 999999 999999 999999 999999 999999 999999 999999 999999 999999 999999 999999 999999 999999 999999 999999 999999 999999 999999 0 999999 999999 999999 999999 999999 999999 999999 999999 999999 999999 999999 999999 999999 11936
999999 16070 13057 18357 10717 10329 18085 14347 15916 19778 16117 15225 12640 12191 19347 17451 11533 17873 14586 14481 11779 13084 17937 17457 11484 14862 11524 12858 17330 14414 18380 11773 19863 19279 16038 10472 16264 17347 18357 12525 14181 19681 18429 12825 11510 11701 11851 18714 11640 13984 10366 18706 16561 18109 17668 10685 17030 18053 12234 19370 15840 12447 17569 17199 13755 12775 18427 16370 11531 17808 19795 999999 999999 999999 999999 999999 999999 999999 999999 999999 999999 999999 999999 999999 999999 999999 999999 999999 999999 999999 999999 999999 999999 999999 999999 999999 999999 999999 999999 999999 999999 999999 999999 999999 999999 999999 999999 999999 0 999999 999999 999999 999999 999999 999999 999999 999999 999999 999999 999999 999999 11508
999999 18447 17493 10349 13789 15995 15457 15547 14071 18140 17010 10152 12151 10482 14071 17739 12646 10656 16747 12639 11141 19488 12646 12294 12250 12825 10058 17325 14412 15123 16126 19976 16944 11657 15886 10480 12333 13761 15940 17385 18994 13443 11516 13340 19421 18971 16042 14425 14214 10452 12667 10050 13549 13679 19014 17645 13207 17538 12434 14369 11888 18873 19208 19761 10186 10914 14258 11959 14166 13511 15484 999999 999999 999999 999999 999999 999999 999999 999999 999999 999999 999999 999999 999999 999999 999999 999999 999999 999999 999999 999999 999999 999999 999999 999999 999999 999999 999999 999999 999999 999999 999999 999999 999999 999999 999999 999999 999999 999999 0 999999 999999 999999 999999 999999 999999 999999 999999 999999 999999 999999 6748
999999 14647 17769 14400 17765 15138 11176 17454 14188 11112 17450 17129 15867 15145 19309 16092 18617 12253 17768 12619 11121 19034 11957 12818 15545 13015 19573 14511 10472 14385 13149 13391 12704 16762 13800 13411 19430 18752 11926 13320 10888 19132 13323 12142 17532 13387 15288 14650 10609 17809 13284 17382 19756 14270 10418 14406 16284 11450 15892 15018 10236 10825 19739 15106 14157 10332 17871 14771 18561 17576 12915 999999 999999 999999 999999 999999 999999 999999 999999 999999 999999 999999 999999 999999 999999 999999 999999 999999 999999 999999 999999 999999 999999 999999 999999 999999 999999 999999 999999 999999 999999 999999 999999 999999 999999 999999 999999 999999 999999 999999 0 999999 999999 999999 999999 999999 999999 999999 999999 999999 999999 6654
999999 16152 13283 14167 12485 14210 14883 16770 13628 15850 15317 17751 17796 16741 17385 17921 16958 18486 12295 17015 10294 19951 18573 14809 12276 13448 12732 17721 10177 18712 17249 19869 14855 13420 12350 10749 14322 14193 19691 16939 12984 12990 18111 16832 10567 15639 15055 17115 13487 15838 18418 16849 16421 13406 18240 19591 13399 15360 12139 12623 11178 19407 15765 13919 10783 11474 17498 17386 19469 16328 10654 999999 999999 999999 999999 999999 999999 999999 999999 999999 999999 999999 999999 999999 999999 999999 999999 999999 999999 999999 999999 999999 999999 999999 999999 999999 999999 999999 999999 999999 999999 999999 999999 999999 999999 999999 999999 999999 999999 999999 999999 0 999999 999999 999999 999999 999999 999999 999999 999999 999999 9110
999999 17106 19377 10132 18258 18854 15889 11901 10126 14224 16921 13257 19956 13064 13587 10691 13878 17028 13146 18750 11792 16644 12635 19964 12251 12278 14696 14857 13283 13094 10757 10458 14442 15815 11473 12486 18290 12378 12496 11316 12949 12217 11761 18892 13464 19075 19506 17686 15600 18786 14185 13907 13520 11936 13132 18317 12507 10068 13927 14984 19863 14045 10491 17740 15780 14377 11878 14453 11920 16598 12200 999999 999999 999999 999999 999999 999999 999999 999999 999999 999999 999999 999999 999999 999999 999999 999999 999999 999999 999999 999999 999999 999999 999999 999999 999999 999999 999999 999999 999999 999999 999999 999999 999999 999999 999999 999999 999999 999999 999999 999999 999999 0 999999 999999 999999 999999 999999 999999 999999 999999 7700
999999 13093 17270 11383 18084 11665 12435 13177 10666 18613 11276 16397 12090 19615 18199 12708 17185 13144 14953 19796 14155 17011 18279 13367 18205 10480 14877 18662 10159 18317 10907 15156 12723 17005 10083 12338 14314 15737 17380 15912 11966 16403 15289 12101 12687 14832 17720 19762 11716 19548 15412 12854 16380 18885 15042 15558 17406 10112 13724 12311 19216 13174 14948 19226 17795 10897 16602 17593 18629 14602 12985 999999 999999 999999 999999 999999 999999 999999 999999 999999 999999 999999 999999 999999 999999 999999 999999 999999 999999 999999 999999 999999 999999 999999 999999 999999 999999 999999 999999 999999 999999 999999 999999 999999 999999 999999 999999 999999 999999 999999 999999 999999 999999 0 999999 999999 999999 999999 999999 999999 999999 8305
999999 14112 14088 12760 15537 14951 18865 18250 17570 13707 17757 12843 18174 10910 10567 19649 14575 14613 10866 19526 15512 17557 11829 16461 12443 16361 12024 16291 13803 16951 15812 17434 19084 13089 11281 15975 17392 13529 15286 16769 15629 10222 18000 11717 10528 17096 18493 15177 12842 16130 10573 13674 15783 12550 11172 12486 11408 16690 18745 14092 12875 11784 16899 19752 18238 12617 19664 13561 10034 13344 19812 999999 999999 999999 999999 999999 999999 999999 999999 999999 999999 999999 999999 999999 999999 999999 999999 999999 999999 999999 999999 999999 999999 999999 999999 999999 999999 999999 999999 999999 999999 999999 999999 999999 999999 999999 999999 999999 999999 999999 999999 999999 999999 999999 0 999999 999999 999999 999999 999999 999999 5064
999999 16513 18630 18136 18156 18536 10132 10398 14253 11114 11197 19197 17737 13009 10989 12186 19821 17471 12175 13891 13212 13958 13991 14676 19665 12442 15891 10041 12963 15860 11714 12855 10789 15982 17641 15468 15524 18681 15216 19698 10761 14864 18197 15117 19882 17892 12288 11583 19595 16084 10827 15020 12333 14160 13897 14236 18598 13616 13712 19652 12466 19440 13192 13224 19258 19698 13301 17359 16121 16463 14709 999999 999999 999999 999999 999999 999999 999999 999999 999999 999999 999999 999999 999999 999999 999999 999999 999999 999999 999999 999999 999999 999999 999999 999999 999999 999999 999999 999999 999999 999999 999999 999999 999999 999999 999999 999999 999999 999999 999999 999999 999999 999999 999999 999999 0 999999 999999 999999 999999 999999 12225
999999 14881 16341 16383 13983 12165 14153 17784 19990 12268 13969 17609 12905 15743 18957 17009 11653 18168 18160 17652 17319 14784 16347 19079 11167 12543 13657 19627 16928 10831 14305 13258 14452 10061 17490 18337 16955 19062 15906 14023 15292 10232 15453 16760 16289 15726 11459 10195 19506 14386 13381 12071 17037 16822 17466 15690 12448 12892 11115 17641 13956 18545 10809 15530 15412 13800 12595 13607 18113 19994 17893 999999 999999 999999 999999 999999 999999 999999 999999 999999 999999 999999 999999 999999 999999 999999 999999 999999 999999 999999 999999 999999 999999 999999 999999 999999 999999 999999 999999 999999 999999 999999 999999 999999 999999 999999 999999 999999 999999 999999 999999 999999 999999 999999 999999 999999 0 999999 999999 999999 999999 7065
999999 12412 17648 12716 14809 14110 19056 19115 15801 16778 18868 13293 12667 13981 12589 14298 15625 10908 19439 14327 18134 19683 19745 11620 10271 12487 18669 10686 16462 17214 13092 15792 15450 12733 12991 18932 14932 11292 11567 18811 19273 15827 10026 15284 10765 12191 15954 16936 15368 11513 18437 16599 15782 13917 13343 12248 12758 17671 17096 18233 10218 18364 16697 15749 16212 12053 10729 14711 19821 12820 18546 999999 999999 999999 999999 999999 999999 999999 999999 999999 999999 999999 999999 999999 999999 999999 999999 999999 999999 999999 999999 999999 999999 999999 999999 999999 999999 999999 999999 999999 999999 999999 999999 999999 999999 999999 999999 999999 999999 999999 999999 999999 999999 999999 999999 999999 999999 0 999999 999999 999999 12990
999999 14716 19605 14128 13952 15625 11298 19278 17216 19459 13586 15269 12608 18774 14866 16023 13363 10292 14907 11406 14649 18053 18942 18095 18205 10149 10256 19347 16887 15626 18866 19441 14211 13538 11684 14958 12197 13612 19651 14485 19477 14365 10410 15898 13011 11350 17044 16363 13924 18408 14797 10082 14985 13234 15077 12884 10516 19929 15334 10438 11377 15803 17677 12453 16002 19043 17153 15519 19308 18363 12798 999999 999999 999999 999999 999999 999999 999999 999999 999999 999999 999999 999999 999999 999999 999999 999999 999999 999999 999999 999999 999999 999999 999999 999999 999999 999999 999999 999999 999999 999999 999999 999999 999999 999999 999999 999999 999999 999999 999999 999999 999999 999999 999999 999999 999999 999999 999999 0 999999 999999 14224
999999 12731 14379 15135 12513 19566 11771 16668 10660 18317 10103 17944 16876 16890 13634 15659 11999 15879 17420 18256 16191 19416 10066 15074 12231 18425 10990 16611 10324 15683 17203 10815 10289 18198 10372 14018 19731 16707 19340 10705 16155 10490 11413 19351 17943 15791 15745 16879 13605 15611 19188 10673 16276 16716 10760 19252 16292 12923 12847 13309 18843 15710 17563 17707 18822 15933 10941 17413 14574 13456 15636 999999 999999 999999 999999 999999 999999 999999 999999 999999 999999 999999 999999 999999 999999 999999 999999 999999 999999 999999 999999 999999 999999 999999 999999 999999 999999 999999 999999 999999 999999 999999 999999 999999 999999 999999 999999 999999 999999 999999 999999 999999 999999 999999 999999 999999 999999 999999 999999 0 999999 13631
999999 11806 11820 17173 15393 17854 15655 18133 19554 18388 12299 15458 19617 17357 11469 17001 15168 17485 13020 13912 19268 14983 15359 15621 15201 10234 10891 18540 11369 19571 19109 12705 14497 10858 15654 14252 12491 10845 18567 16335 10338 14945 15946 14722 17060 11605 12674 16046 13636 19816 16091 16124 18687 11348 18784 13439 19299 15157 19285 16766 12932 10145 15973 11609 18205 13921 10573 14066 11885 14683 10591 999999 999999 999999 999999 999999 999999 999999 999999 999999 999999 999999 999999 999999 999999 999999 999999 999999 999999 999999 999999 999999 999999 999999 999999 999999 999999 999999 999999 999999 999999 999999 999999 999999 999999 999999 999999 999999 999999 999999 999999 999999 999999 999999 999999 999999 999999 999999 999999 999999 0 14868
1 999999 999999 999999 999999 999999 999999 999999 999999 999999 999999 999999 999999 999999 999999 999999 999999 999999 999999 999999 999999 999999 999999 999999 999999 999999 999999 999999 999999 999999 999999 999999 999999 999999 999999 999999 999999 999999 999999 999999 999999 999999 999999 999999 999999 999999 999999 999999 999999 999999 999999 999999 999999 999999 999999 999999 999999 999999 999999 999999 999999 999999 999999 999999 999999 999999 999999 999999 999999 999999 999999 999999 999999 999999 999999 999999 999999 999999 999999 999999 999999 999999 999999 999999 999999 999999 999999 999999 999999 999999 999999 999999 999999 999999 999999 999999 999999 999999 999999 999999 999999 999999 999999 999999 999999 999999 999999 999999 999999 999999 999999 999999 999999 999999 999999 999999 999999 999999 999999 999999 999999 0
EOF