NAME: GR_1x2x10_KH_2x10_Run_3
TYPE: TSP
COMMENT: BTSP instance |A|=20 GR nodes |B|=20 KH nodes depot=0.0 end=0.0.0
DIMENSION: 42
EDGE_WEIGHT_TYPE: EXPLICIT
EDGE_WEIGHT_FORMAT: FULL_MATRIX
NODE_COORD_TYPE: NO_COORDS
EDGE_WEIGHT_SECTION
0 8176 6285 13986 14802 14225 9837 14707 10402 12840 12639 11936 10250 7509 14608 10894 9143 12541 9029 7540 9804 999999 999999 999999 999999 999999 999999 999999 999999 999999 999999 999999 999999 999999 999999 999999 999999 999999 999999 999999 999999 999999
999999 0 999999 999999 999999 999999 999999 999999 999999 999999 999999 999999 999999 999999 999999 999999 999999 999999 999999 999999 999999 14219 14996 12917 15248 10983 19236 15089 17585 17069 17785 12908 19545 11999 14143 17110 13676 17507 18341 19916 16697 999999
999999 999999 0 999999 999999 999999 999999 999999 999999 999999 999999 999999 999999 999999 999999 999999 999999 999999 999999 999999 999999 19206 10024 13697 14812 10687 17990 16511 18623 11323 16013 12576 15648 16138 16594 15346 19948 15226 12175 18530 11935 999999
999999 999999 999999 0 999999 999999 999999 999999 999999 999999 999999 999999 999999 999999 999999 999999 999999 999999 999999 999999 999999 11289 14750 13774 14867 15095 12154 10174 17080 11169 11915 17852 13071 14221 11839 16964 19298 12070 11982 14863 12904 999999
999999 999999 999999 999999 0 999999 999999 999999 999999 999999 999999 999999 999999 999999 999999 999999 999999 999999 999999 999999 999999 15017 14182 15725 13641 12307 11363 16822 14649 13762 17871 12434 12821 14365 15254 12949 11175 11556 13564 18523 18466 999999
999999 999999 999999 999999 999999 0 999999 999999 999999 999999 999999 999999 999999 999999 999999 999999 999999 999999 999999 999999 999999 11200 15787 13289 14906 10352 11054 14751 12279 19605 14321 14087 15079 10144 16030 18910 11864 10724 16735 17466 18009 999999
999999 999999 999999 999999 999999 999999 0 999999 999999 999999 999999 999999 999999 999999 999999 999999 999999 999999 999999 999999 999999 15265 13321 17468 12065 15055 14197 19349 15159 14281 18153 17686 14541 10699 12778 15520 12253 10458 13843 17657 13754 999999
999999 999999 999999 999999 999999 999999 999999 0 999999 999999 999999 999999 999999 999999 999999 999999 999999 999999 999999 999999 999999 10694 12977 18630 18629 17139 19472 17174 12840 17097 14631 12281 10264 18392 18349 19331 10207 17238 12922 16901 14452 999999
999999 999999 999999 999999 999999 999999 999999 999999 0 999999 999999 999999 999999 999999 999999 999999 999999 999999 999999 999999 999999 10300 10746 14860 15169 14439 16431 18126 18544 16072 14939 14387 19042 12734 14983 11790 18920 13534 14437 17921 10729 999999
999999 999999 999999 999999 999999 999999 999999 999999 999999 0 999999 999999 999999 999999 999999 999999 999999 999999 999999 999999 999999 10615 11530 16972 11232 13614 15792 14815 14423 17052 15635 13805 18755 16513 13512 15350 11895 14796 14187 18068 15889 999999
999999 999999 999999 999999 999999 999999 999999 999999 999999 999999 0 999999 999999 999999 999999 999999 999999 999999 999999 999999 999999 14507 10590 12490 18836 16041 17075 17547 10022 11615 14360 18701 18058 14431 16097 11699 10433 13415 17077 16203 13356 999999
999999 999999 999999 999999 999999 999999 999999 999999 999999 999999 999999 0 999999 999999 999999 999999 999999 999999 999999 999999 999999 10423 18079 18674 10137 13394 11906 19948 10413 11053 18397 11396 19945 11211 13758 12025 11536 16748 12558 12636 18649 999999
999999 999999 999999 999999 999999 999999 999999 999999 999999 999999 999999 999999 0 999999 999999 999999 999999 999999 999999 999999 999999 16496 18070 12772 12129 17982 15583 19849 10144 13005 16574 18126 10961 17117 16375 16004 13428 16106 17796 18574 14504 999999
999999 999999 999999 999999 999999 999999 999999 999999 999999 999999 999999 999999 999999 0 999999 999999 999999 999999 999999 999999 999999 18650 12720 13494 16015 17482 19413 13682 12000 10072 16638 14368 19653 19002 18116 17306 11328 10200 14968 16411 16538 999999
999999 999999 999999 999999 999999 999999 999999 999999 999999 999999 999999 999999 999999 999999 0 999999 999999 999999 999999 999999 999999 16952 10289 17270 16614 17928 14467 13275 17050 19780 18575 10622 12465 12138 19424 10435 15412 18286 18194 19949 18414 999999
999999 999999 999999 999999 999999 999999 999999 999999 999999 999999 999999 999999 999999 999999 999999 0 999999 999999 999999 999999 999999 17750 12522 10465 10752 15288 15466 13320 13872 11074 10412 12855 16912 12316 12363 14806 10558 10465 10580 16733 14453 999999
999999 999999 999999 999999 999999 999999 999999 999999 999999 999999 999999 999999 999999 999999 999999 999999 0 999999 999999 999999 999999 12108 11292 10381 11646 14043 14887 16456 15801 12389 18601 10220 10031 10184 18578 17278 18798 11989 13774 13379 18668 999999
999999 999999 999999 999999 999999 999999 999999 999999 999999 999999 999999 999999 999999 999999 999999 999999 999999 0 999999 999999 999999 14406 19763 15613 15112 11086 14282 14737 11487 17107 12669 18268 18859 13725 16654 11675 10639 16212 11540 18431 18648 999999
999999 999999 999999 999999 999999 999999 999999 999999 999999 999999 999999 999999 999999 999999 999999 999999 999999 999999 0 999999 999999 10901 18445 15500 19781 13012 12066 12228 10997 11164 16537 18330 11108 18031 11437 18192 19827 12117 14044 13083 16212 999999
999999 999999 999999 999999 999999 999999 999999 999999 999999 999999 999999 999999 999999 999999 999999 999999 999999 999999 999999 0 999999 14338 19730 11670 14916 19677 16906 18011 10631 14961 11067 19217 19555 19886 12464 19983 10944 15378 12741 19698 11933 999999
999999 999999 999999 999999 999999 999999 999999 999999 999999 999999 999999 999999 999999 999999 999999 999999 999999 999999 999999 999999 0 14877 19407 12876 14097 18713 10215 12225 11957 14598 15839 12439 15846 12155 16882 16677 19591 12889 18210 15734 19735 999999
999999 14219 19206 11289 15017 11200 15265 10694 10300 10615 14507 10423 16496 18650 16952 17750 12108 14406 10901 14338 14877 0 999999 999999 999999 999999 999999 999999 999999 999999 999999 999999 999999 999999 999999 999999 999999 999999 999999 999999 999999 13365
999999 14996 10024 14750 14182 15787 13321 12977 10746 11530 10590 18079 18070 12720 10289 12522 11292 19763 18445 19730 19407 999999 0 999999 999999 999999 999999 999999 999999 999999 999999 999999 999999 999999 999999 999999 999999 999999 999999 999999 999999 5570
999999 12917 13697 13774 15725 13289 17468 18630 14860 16972 12490 18674 12772 13494 17270 10465 10381 15613 15500 11670 12876 999999 999999 0 999999 999999 999999 999999 999999 999999 999999 999999 999999 999999 999999 999999 999999 999999 999999 999999 999999 9530
999999 15248 14812 14867 13641 14906 12065 18629 15169 11232 18836 10137 12129 16015 16614 10752 11646 15112 19781 14916 14097 999999 999999 999999 0 999999 999999 999999 999999 999999 999999 999999 999999 999999 999999 999999 999999 999999 999999 999999 999999 9554
999999 10983 10687 15095 12307 10352 15055 17139 14439 13614 16041 13394 17982 17482 17928 15288 14043 11086 13012 19677 18713 999999 999999 999999 999999 0 999999 999999 999999 999999 999999 999999 999999 999999 999999 999999 999999 999999 999999 999999 999999 12922
999999 19236 17990 12154 11363 11054 14197 19472 16431 15792 17075 11906 15583 19413 14467 15466 14887 14282 12066 16906 10215 999999 999999 999999 999999 999999 0 999999 999999 999999 999999 999999 999999 999999 999999 999999 999999 999999 999999 999999 999999 11052
999999 15089 16511 10174 16822 14751 19349 17174 18126 14815 17547 19948 19849 13682 13275 13320 16456 14737 12228 18011 12225 999999 999999 999999 999999 999999 999999 0 999999 999999 999999 999999 999999 999999 999999 999999 999999 999999 999999 999999 999999 11144
999999 17585 18623 17080 14649 12279 15159 12840 18544 14423 10022 10413 10144 12000 17050 13872 15801 11487 10997 10631 11957 999999 999999 999999 999999 999999 999999 999999 0 999999 999999 999999 999999 999999 999999 999999 999999 999999 999999 999999 999999 14101
999999 17069 11323 11169 13762 19605 14281 17097 16072 17052 11615 11053 13005 10072 19780 11074 12389 17107 11164 14961 14598 999999 999999 999999 999999 999999 999999 999999 999999 0 999999 999999 999999 999999 999999 999999 999999 999999 999999 999999 999999 14279
999999 17785 16013 11915 17871 14321 18153 14631 14939 15635 14360 18397 16574 16638 18575 10412 18601 12669 16537 11067 15839 999999 999999 999999 999999 999999 999999 999999 999999 999999 0 999999 999999 999999 999999 999999 999999 999999 999999 999999 999999 10747
999999 12908 12576 17852 12434 14087 17686 12281 14387 13805 18701 11396 18126 14368 10622 12855 10220 18268 18330 19217 12439 999999 999999 999999 999999 999999 999999 999999 999999 999999 999999 0 999999 999999 999999 999999 999999 999999 999999 999999 999999 14989
999999 19545 15648 13071 12821 15079 14541 10264 19042 18755 18058 19945 10961 19653 12465 16912 10031 18859 11108 19555 15846 999999 999999 999999 999999 999999 999999 999999 999999 999999 999999 999999 0 999999 999999 999999 999999 999999 999999 999999 999999 9091
999999 11999 16138 14221 14365 10144 10699 18392 12734 16513 14431 11211 17117 19002 12138 12316 10184 13725 18031 19886 12155 999999 999999 999999 999999 999999 999999 999999 999999 999999 999999 999999 999999 0 999999 999999 999999 999999 999999 999999 999999 14182
999999 14143 16594 11839 15254 16030 12778 18349 14983 13512 16097 13758 16375 18116 19424 12363 18578 16654 11437 12464 16882 999999 999999 999999 999999 999999 999999 999999 999999 999999 999999 999999 999999 999999 0 999999 999999 999999 999999 999999 999999 6501
999999 17110 15346 16964 12949 18910 15520 19331 11790 15350 11699 12025 16004 17306 10435 14806 17278 11675 18192 19983 16677 999999 999999 999999 999999 999999 999999 999999 999999 999999 999999 999999 999999 999999 999999 0 999999 999999 999999 999999 999999 13002
999999 13676 19948 19298 11175 11864 12253 10207 18920 11895 10433 11536 13428 11328 15412 10558 18798 10639 19827 10944 19591 999999 999999 999999 999999 999999 999999 999999 999999 999999 999999 999999 999999 999999 999999 999999 0 999999 999999 999999 999999 13647
999999 17507 15226 12070 11556 10724 10458 17238 13534 14796 13415 16748 16106 10200 18286 10465 11989 16212 12117 15378 12889 999999 999999 999999 999999 999999 999999 999999 999999 999999 999999 999999 999999 999999 999999 999999 999999 0 999999 999999 999999 7320
999999 18341 12175 11982 13564 16735 13843 12922 14437 14187 17077 12558 17796 14968 18194 10580 13774 11540 14044 12741 18210 999999 999999 999999 999999 999999 999999 999999 999999 999999 999999 999999 999999 999999 999999 999999 999999 999999 0 999999 999999 9371
999999 19916 18530 14863 18523 17466 17657 16901 17921 18068 16203 12636 18574 16411 19949 16733 13379 18431 13083 19698 15734 999999 999999 999999 999999 999999 999999 999999 999999 999999 999999 999999 999999 999999 999999 999999 999999 999999 999999 0 999999 10191
999999 16697 11935 12904 18466 18009 13754 14452 10729 15889 13356 18649 14504 16538 18414 14453 18668 18648 16212 11933 19735 999999 999999 999999 999999 999999 999999 999999 999999 999999 999999 999999 999999 999999 999999 999999 999999 999999 999999 999999 0 12672
1 999999 999999 999999 999999 999999 999999 999999 999999 999999 999999 999999 999999 999999 999999 999999 999999 999999 999999 999999 999999 999999 999999 999999 999999 999999 999999 999999 999999 999999 999999 999999 999999 999999 999999 999999 999999 999999 999999 999999 999999 0
EOF