NAME: GR_1x5x10_KH_5x10_Run_5
TYPE: TSP
COMMENT: BTSP instance |A|=50 GR nodes |B|=50 KH nodes depot=0.0 end=0.0.0
DIMENSION: 102
EDGE_WEIGHT_TYPE: EXPLICIT
EDGE_WEIGHT_FORMAT: FULL_MATRIX
NODE_COORD_TYPE: NO_COORDS
EDGE_WEIGHT_SECTION
0 5422 14573 12234 5531 14145 10490 11278 6445 9274 9693 8017 7582 14401 6692 9221 7989 6121 12803 11448 7766 6772 11970 10236 9108 5637 9426 5289 7758 11070 11900 7852 5026 11082 8072 10232 5193 12788 7701 12899 10351 5516 14835 9152 10967 5781 10094 13812 14709 10176 14723 999999 999999 999999 999999 999999 999999 999999 999999 999999 999999 999999 999999 999999 999999 999999 999999 999999 999999 999999 999999 999999 999999 999999 999999 999999 999999 999999 999999 999999 999999 999999 999999 999999 999999 999999 999999 999999 999999 999999 999999 999999 999999 999999 999999 999999 999999 999999 999999 999999 999999 999999
999999 0 999999 999999 999999 999999 999999 999999 999999 999999 999999 999999 999999 999999 999999 999999 999999 999999 999999 999999 999999 999999 999999 999999 999999 999999 999999 999999 999999 999999 999999 999999 999999 999999 999999 999999 999999 999999 999999 999999 999999 999999 999999 999999 999999 999999 999999 999999 999999 999999 999999 14923 13422 19212 15365 19058 10731 19508 14523 16415 15948 10710 17077 17866 11483 12726 11482 13663 17559 10818 10558 13745 18381 13393 16290 14587 19132 16938 14957 10413 12120 10739 13449 13403 14197 17107 10238 15850 19709 14590 10219 19964 14404 13510 16696 11345 16373 19139 10083 12768 13517 999999
999999 999999 0 999999 999999 999999 999999 999999 999999 999999 999999 999999 999999 999999 999999 999999 999999 999999 999999 999999 999999 999999 999999 999999 999999 999999 999999 999999 999999 999999 999999 999999 999999 999999 999999 999999 999999 999999 999999 999999 999999 999999 999999 999999 999999 999999 999999 999999 999999 999999 999999 13620 19078 15795 19796 13390 19071 14652 10152 13849 19466 14484 10689 13264 11990 12838 12091 14397 14910 13811 18783 11433 17537 12983 19578 14647 10626 12588 19534 18217 18859 18830 18801 11160 13458 12625 12566 18493 18342 17937 16369 18892 19124 17881 11161 16459 15266 10826 14606 14265 11467 999999
999999 999999 999999 0 999999 999999 999999 999999 999999 999999 999999 999999 999999 999999 999999 999999 999999 999999 999999 999999 999999 999999 999999 999999 999999 999999 999999 999999 999999 999999 999999 999999 999999 999999 999999 999999 999999 999999 999999 999999 999999 999999 999999 999999 999999 999999 999999 999999 999999 999999 999999 19139 10281 11483 18410 14177 17800 16687 12552 13523 13265 16875 14192 19696 14949 15488 10234 14823 13313 16745 12211 18768 10117 13298 12944 14262 17552 19535 12914 16008 19906 13053 15133 16538 16142 18413 13309 15224 11664 17044 19923 10134 16451 19010 12295 17527 13206 14956 15668 19547 11128 999999
999999 999999 999999 999999 0 999999 999999 999999 999999 999999 999999 999999 999999 999999 999999 999999 999999 999999 999999 999999 999999 999999 999999 999999 999999 999999 999999 999999 999999 999999 999999 999999 999999 999999 999999 999999 999999 999999 999999 999999 999999 999999 999999 999999 999999 999999 999999 999999 999999 999999 999999 11043 11569 18749 13115 10629 18167 15599 12556 17189 12641 10942 12024 10637 18808 11489 15633 19156 11636 16014 11246 14979 13136 17221 11783 16711 11063 19068 18274 10445 10463 13475 18821 11815 15048 15660 19717 13048 12466 12282 19333 19700 12466 19594 14811 12103 18675 14745 11207 19529 13288 999999
999999 999999 999999 999999 999999 0 999999 999999 999999 999999 999999 999999 999999 999999 999999 999999 999999 999999 999999 999999 999999 999999 999999 999999 999999 999999 999999 999999 999999 999999 999999 999999 999999 999999 999999 999999 999999 999999 999999 999999 999999 999999 999999 999999 999999 999999 999999 999999 999999 999999 999999 10802 13230 12620 15828 19089 16892 16200 19001 12323 16124 12517 17030 19076 13955 12390 10964 12086 15316 12755 17908 17887 18319 11092 10743 15767 15997 18967 14381 19022 18819 18876 16078 17007 15025 13028 14643 17725 15552 10558 12409 18619 17121 19276 11885 18676 19041 19606 16320 18739 13064 999999
999999 999999 999999 999999 999999 999999 0 999999 999999 999999 999999 999999 999999 999999 999999 999999 999999 999999 999999 999999 999999 999999 999999 999999 999999 999999 999999 999999 999999 999999 999999 999999 999999 999999 999999 999999 999999 999999 999999 999999 999999 999999 999999 999999 999999 999999 999999 999999 999999 999999 999999 10938 10570 12418 10949 19370 19875 18480 16696 13439 10969 15406 15188 15342 17811 11677 19528 17567 13606 13960 17364 18209 13194 17899 16284 16754 15402 13137 17514 13971 15212 17181 11063 15519 13927 16849 13853 19960 18380 16195 16166 18322 11238 14043 16045 13790 17760 19238 18010 14370 19654 999999
999999 999999 999999 999999 999999 999999 999999 0 999999 999999 999999 999999 999999 999999 999999 999999 999999 999999 999999 999999 999999 999999 999999 999999 999999 999999 999999 999999 999999 999999 999999 999999 999999 999999 999999 999999 999999 999999 999999 999999 999999 999999 999999 999999 999999 999999 999999 999999 999999 999999 999999 10489 16430 18737 16659 11850 10979 17150 11921 13261 17489 17157 11496 19975 10835 12883 10928 12286 11128 12844 14753 13027 12890 15718 15796 19872 16397 12458 12915 14857 15713 16748 17410 18486 11670 14103 19222 15817 12390 17022 18510 13338 19668 18555 10993 19470 15304 12935 17482 10889 13762 999999
999999 999999 999999 999999 999999 999999 999999 999999 0 999999 999999 999999 999999 999999 999999 999999 999999 999999 999999 999999 999999 999999 999999 999999 999999 999999 999999 999999 999999 999999 999999 999999 999999 999999 999999 999999 999999 999999 999999 999999 999999 999999 999999 999999 999999 999999 999999 999999 999999 999999 999999 10199 15389 11539 15069 13080 14426 16749 14265 11868 16489 16143 14175 19196 12390 14724 16107 12002 15537 15462 16070 10855 19727 15225 16252 10144 12787 11197 13656 15719 16513 15850 12580 17726 12736 12325 11407 15424 10432 18064 18482 15441 18840 16334 13075 14900 11243 13313 12758 16715 17437 999999
999999 999999 999999 999999 999999 999999 999999 999999 999999 0 999999 999999 999999 999999 999999 999999 999999 999999 999999 999999 999999 999999 999999 999999 999999 999999 999999 999999 999999 999999 999999 999999 999999 999999 999999 999999 999999 999999 999999 999999 999999 999999 999999 999999 999999 999999 999999 999999 999999 999999 999999 14042 10814 19312 14196 14158 11648 13234 17138 17804 16212 10981 11464 14129 19023 16475 11286 12578 13625 13458 19053 16759 12518 13481 13320 13558 16162 11383 11123 14514 13571 13102 13345 12178 14424 10618 11418 11015 19073 17766 10794 13976 10425 13182 11911 15959 19957 19253 10477 19957 19026 999999
999999 999999 999999 999999 999999 999999 999999 999999 999999 999999 0 999999 999999 999999 999999 999999 999999 999999 999999 999999 999999 999999 999999 999999 999999 999999 999999 999999 999999 999999 999999 999999 999999 999999 999999 999999 999999 999999 999999 999999 999999 999999 999999 999999 999999 999999 999999 999999 999999 999999 999999 12618 18313 15307 11346 17376 19969 18066 19592 13881 19838 11110 13951 18397 12940 10236 14242 14837 10047 13718 11615 12338 13273 10967 15106 11233 18256 18022 16730 10578 10211 11464 11901 11742 12509 17559 16880 15016 17412 17112 16301 15608 15956 15462 16293 16728 19005 17612 10371 10786 12975 999999
999999 999999 999999 999999 999999 999999 999999 999999 999999 999999 999999 0 999999 999999 999999 999999 999999 999999 999999 999999 999999 999999 999999 999999 999999 999999 999999 999999 999999 999999 999999 999999 999999 999999 999999 999999 999999 999999 999999 999999 999999 999999 999999 999999 999999 999999 999999 999999 999999 999999 999999 10601 17699 19254 10114 16375 11305 15939 10333 18154 19427 11025 15471 16139 12026 12485 13427 10384 18520 18046 18657 17470 19510 13586 17965 14766 17636 15891 18428 15293 19281 11354 15658 17633 15069 19563 12764 12204 19405 11103 12132 13711 19443 13937 11298 16013 11505 17829 13182 16987 13013 999999
999999 999999 999999 999999 999999 999999 999999 999999 999999 999999 999999 999999 0 999999 999999 999999 999999 999999 999999 999999 999999 999999 999999 999999 999999 999999 999999 999999 999999 999999 999999 999999 999999 999999 999999 999999 999999 999999 999999 999999 999999 999999 999999 999999 999999 999999 999999 999999 999999 999999 999999 19995 16182 11031 10230 17527 15379 17165 13588 13340 11128 14589 13377 18425 15779 17163 14670 16568 15943 15392 11664 12441 14215 12201 18107 18514 10746 18641 10690 12369 16246 17399 18746 15563 14990 19590 16680 18598 12995 16739 13964 15906 19608 11098 16735 17832 12247 19778 11274 19329 12254 999999
999999 999999 999999 999999 999999 999999 999999 999999 999999 999999 999999 999999 999999 0 999999 999999 999999 999999 999999 999999 999999 999999 999999 999999 999999 999999 999999 999999 999999 999999 999999 999999 999999 999999 999999 999999 999999 999999 999999 999999 999999 999999 999999 999999 999999 999999 999999 999999 999999 999999 999999 15793 13445 13277 16565 12220 16494 11610 11591 12357 15620 18729 12341 13551 19378 18177 10802 13505 16920 16821 11932 11787 10742 15424 18522 16472 18639 12847 17417 17507 13140 12772 16602 11699 11552 15393 13907 15551 14191 17524 17937 11932 12734 14882 19759 19128 12590 10968 18145 19375 12066 999999
999999 999999 999999 999999 999999 999999 999999 999999 999999 999999 999999 999999 999999 999999 0 999999 999999 999999 999999 999999 999999 999999 999999 999999 999999 999999 999999 999999 999999 999999 999999 999999 999999 999999 999999 999999 999999 999999 999999 999999 999999 999999 999999 999999 999999 999999 999999 999999 999999 999999 999999 18142 19736 19714 18752 19244 16772 11157 18690 13786 11780 19245 16759 10470 11848 11362 18522 15377 16761 14307 14080 19400 13948 15050 13319 18754 13876 10840 15007 19345 12426 14494 11262 18226 11538 11956 19506 11666 14690 19118 18743 15509 10819 15846 14574 12109 11075 17519 14780 10031 16261 999999
999999 999999 999999 999999 999999 999999 999999 999999 999999 999999 999999 999999 999999 999999 999999 0 999999 999999 999999 999999 999999 999999 999999 999999 999999 999999 999999 999999 999999 999999 999999 999999 999999 999999 999999 999999 999999 999999 999999 999999 999999 999999 999999 999999 999999 999999 999999 999999 999999 999999 999999 18804 12064 13730 16826 15420 17469 13595 16212 10335 12299 17325 15708 14667 11563 12062 10544 10478 17929 17432 11935 18184 15198 18417 10486 12662 13062 19633 10589 17305 12172 17563 18128 13666 10849 19220 17186 18474 19792 15571 15662 17582 15069 12446 18719 13478 14077 15069 15629 14431 14517 999999
999999 999999 999999 999999 999999 999999 999999 999999 999999 999999 999999 999999 999999 999999 999999 999999 0 999999 999999 999999 999999 999999 999999 999999 999999 999999 999999 999999 999999 999999 999999 999999 999999 999999 999999 999999 999999 999999 999999 999999 999999 999999 999999 999999 999999 999999 999999 999999 999999 999999 999999 10124 12617 18250 11418 15789 12227 11221 11768 16989 19164 12034 11446 12176 19184 10165 19925 15053 12934 18018 12149 17173 16294 10019 12765 12446 16288 17550 16965 10792 17982 11249 16570 11192 12705 15470 11273 18742 11018 19293 19281 15428 11722 19020 17641 18854 11113 10012 11281 12489 18201 999999
999999 999999 999999 999999 999999 999999 999999 999999 999999 999999 999999 999999 999999 999999 999999 999999 999999 0 999999 999999 999999 999999 999999 999999 999999 999999 999999 999999 999999 999999 999999 999999 999999 999999 999999 999999 999999 999999 999999 999999 999999 999999 999999 999999 999999 999999 999999 999999 999999 999999 999999 17577 11809 19199 10843 17350 12814 19996 16224 19550 10122 11145 19824 19733 10302 19349 17714 16693 12090 11509 11151 14463 18880 16990 13416 13913 16121 10528 16007 10171 17180 15611 11494 19855 19761 12712 12583 11414 13861 11130 18787 16918 12076 19185 14058 12227 12294 18657 13203 15952 19667 999999
999999 999999 999999 999999 999999 999999 999999 999999 999999 999999 999999 999999 999999 999999 999999 999999 999999 999999 0 999999 999999 999999 999999 999999 999999 999999 999999 999999 999999 999999 999999 999999 999999 999999 999999 999999 999999 999999 999999 999999 999999 999999 999999 999999 999999 999999 999999 999999 999999 999999 999999 15599 12770 19991 13804 11118 15060 11147 19723 10664 17900 16000 18387 12305 14040 11626 18635 17939 16680 19181 15448 18358 10673 18485 15739 18160 15964 11333 10354 19339 16396 18939 15893 13380 17875 18385 15490 11105 17561 14883 13738 16209 16124 13453 17202 16899 17126 15045 11793 10422 13778 999999
999999 999999 999999 999999 999999 999999 999999 999999 999999 999999 999999 999999 999999 999999 999999 999999 999999 999999 999999 0 999999 999999 999999 999999 999999 999999 999999 999999 999999 999999 999999 999999 999999 999999 999999 999999 999999 999999 999999 999999 999999 999999 999999 999999 999999 999999 999999 999999 999999 999999 999999 17408 16953 11852 12864 14075 18585 13482 11983 16674 15713 15192 10437 17210 10535 12580 14197 12712 17110 13649 15870 15740 18128 17726 13022 10496 19367 11725 16001 17814 14250 15044 19577 19046 13312 13091 10626 15885 11948 15310 10530 13009 11742 13673 11428 17901 11802 12038 17668 18079 11399 999999
999999 999999 999999 999999 999999 999999 999999 999999 999999 999999 999999 999999 999999 999999 999999 999999 999999 999999 999999 999999 0 999999 999999 999999 999999 999999 999999 999999 999999 999999 999999 999999 999999 999999 999999 999999 999999 999999 999999 999999 999999 999999 999999 999999 999999 999999 999999 999999 999999 999999 999999 14912 12664 10797 14474 18849 18728 10013 14635 13324 12379 11462 10632 10451 10683 14357 18990 19230 12005 12119 16218 12594 19287 18280 11367 10402 17651 11661 16743 10415 17721 16977 14757 12596 14174 12940 13833 16291 18721 17821 17914 10243 15132 10991 12113 13530 16746 19810 16232 11412 18387 999999
999999 999999 999999 999999 999999 999999 999999 999999 999999 999999 999999 999999 999999 999999 999999 999999 999999 999999 999999 999999 999999 0 999999 999999 999999 999999 999999 999999 999999 999999 999999 999999 999999 999999 999999 999999 999999 999999 999999 999999 999999 999999 999999 999999 999999 999999 999999 999999 999999 999999 999999 13264 15345 14862 14832 14569 11029 10187 15463 19563 19763 12261 16801 16230 18702 17648 16723 12663 19394 13241 16276 15972 19258 10798 14652 18180 14008 15517 18052 18300 18231 15971 14270 16272 18167 12235 16446 12926 13271 14779 14664 11117 10111 11169 14651 11746 14460 12824 18333 18971 16016 999999
999999 999999 999999 999999 999999 999999 999999 999999 999999 999999 999999 999999 999999 999999 999999 999999 999999 999999 999999 999999 999999 999999 0 999999 999999 999999 999999 999999 999999 999999 999999 999999 999999 999999 999999 999999 999999 999999 999999 999999 999999 999999 999999 999999 999999 999999 999999 999999 999999 999999 999999 15356 13636 12907 12537 16370 17097 12347 17391 14994 15423 14325 16956 18301 17078 11660 12958 14888 11612 14746 11368 18780 17344 12973 18933 14283 11672 10318 14474 10613 14093 16683 18346 12838 13367 12339 10645 13276 11428 16277 10023 13342 11919 13533 14827 12741 13950 13351 18929 13578 14161 999999
999999 999999 999999 999999 999999 999999 999999 999999 999999 999999 999999 999999 999999 999999 999999 999999 999999 999999 999999 999999 999999 999999 999999 0 999999 999999 999999 999999 999999 999999 999999 999999 999999 999999 999999 999999 999999 999999 999999 999999 999999 999999 999999 999999 999999 999999 999999 999999 999999 999999 999999 18698 18877 15996 17501 19560 14719 15583 11627 17004 18730 13191 13090 11462 11282 19296 12190 13728 17434 11760 10966 10929 17164 18425 19951 10970 13725 19962 10450 14904 11926 11096 19636 12407 17168 15013 12729 15471 19890 14682 15739 16854 17269 18646 18250 18374 10935 12261 15642 16740 14908 999999
999999 999999 999999 999999 999999 999999 999999 999999 999999 999999 999999 999999 999999 999999 999999 999999 999999 999999 999999 999999 999999 999999 999999 999999 0 999999 999999 999999 999999 999999 999999 999999 999999 999999 999999 999999 999999 999999 999999 999999 999999 999999 999999 999999 999999 999999 999999 999999 999999 999999 999999 13910 19250 15316 10713 19934 12395 19729 17200 17935 11898 19367 15415 15975 16992 17576 15968 17958 12100 10802 10409 16486 14368 13503 14828 11970 11123 17825 16398 15736 14518 14592 14195 12124 14316 16563 14553 12434 14661 15050 16030 18949 18407 12665 18660 11491 12533 16076 14087 13289 14022 999999
999999 999999 999999 999999 999999 999999 999999 999999 999999 999999 999999 999999 999999 999999 999999 999999 999999 999999 999999 999999 999999 999999 999999 999999 999999 0 999999 999999 999999 999999 999999 999999 999999 999999 999999 999999 999999 999999 999999 999999 999999 999999 999999 999999 999999 999999 999999 999999 999999 999999 999999 12895 10653 17400 14817 14574 16985 18927 12503 10207 17139 10842 17885 19409 16454 11031 14083 13596 17185 15727 11531 11740 17487 17524 11347 13065 15846 18224 19451 10708 18361 15359 13399 11848 12309 10793 14069 14765 12060 10733 15637 18670 10086 17507 16684 12852 15406 11389 19907 16764 14238 999999
999999 999999 999999 999999 999999 999999 999999 999999 999999 999999 999999 999999 999999 999999 999999 999999 999999 999999 999999 999999 999999 999999 999999 999999 999999 999999 0 999999 999999 999999 999999 999999 999999 999999 999999 999999 999999 999999 999999 999999 999999 999999 999999 999999 999999 999999 999999 999999 999999 999999 999999 15303 15449 15180 11238 13637 15386 18207 10103 15868 12450 16196 16911 15166 10475 16988 14617 11341 17076 14327 18254 18565 11973 14376 19965 13773 14987 16518 17269 18879 18330 12141 16473 17889 17393 12256 10903 13039 11523 15768 18804 11040 13820 10584 13968 16212 17918 17083 16368 18099 12499 999999
999999 999999 999999 999999 999999 999999 999999 999999 999999 999999 999999 999999 999999 999999 999999 999999 999999 999999 999999 999999 999999 999999 999999 999999 999999 999999 999999 0 999999 999999 999999 999999 999999 999999 999999 999999 999999 999999 999999 999999 999999 999999 999999 999999 999999 999999 999999 999999 999999 999999 999999 10334 10977 10278 11121 16674 13936 16432 19204 17988 19137 17726 16252 19954 19178 11726 12425 12504 11647 17550 18783 11958 12364 10795 16297 10954 10037 11683 14047 12093 19814 13788 15779 15451 10876 19719 11063 15346 18725 17901 13788 14802 11220 19614 10684 16524 19689 11597 12908 10371 13574 999999
999999 999999 999999 999999 999999 999999 999999 999999 999999 999999 999999 999999 999999 999999 999999 999999 999999 999999 999999 999999 999999 999999 999999 999999 999999 999999 999999 999999 0 999999 999999 999999 999999 999999 999999 999999 999999 999999 999999 999999 999999 999999 999999 999999 999999 999999 999999 999999 999999 999999 999999 16709 14331 17715 13487 19739 10366 15212 13407 16248 16923 15318 15003 15111 19875 13893 13240 11697 17220 19880 19243 15263 17668 10943 10805 11531 12862 17891 11349 11331 16984 19505 11354 19522 12744 18097 15044 15136 12060 13614 18325 17442 13367 14183 18764 12977 10999 15172 16503 18573 13475 999999
999999 999999 999999 999999 999999 999999 999999 999999 999999 999999 999999 999999 999999 999999 999999 999999 999999 999999 999999 999999 999999 999999 999999 999999 999999 999999 999999 999999 999999 0 999999 999999 999999 999999 999999 999999 999999 999999 999999 999999 999999 999999 999999 999999 999999 999999 999999 999999 999999 999999 999999 14797 15050 14203 15094 18458 11616 15443 14188 12608 15492 13605 10711 10914 16737 17277 15414 10925 15036 13983 19081 17907 18296 19796 13660 11336 16374 10214 18615 16758 15545 13267 19912 17411 11557 15774 10454 11621 13513 15311 14573 16400 18898 10067 18536 19206 11015 15652 11772 17355 17187 999999
999999 999999 999999 999999 999999 999999 999999 999999 999999 999999 999999 999999 999999 999999 999999 999999 999999 999999 999999 999999 999999 999999 999999 999999 999999 999999 999999 999999 999999 999999 0 999999 999999 999999 999999 999999 999999 999999 999999 999999 999999 999999 999999 999999 999999 999999 999999 999999 999999 999999 999999 17578 12130 18883 10800 16050 12838 11016 14693 12001 15456 12056 16815 19429 17457 19027 12166 14678 17124 11501 14990 15613 17365 18218 14070 14601 16089 17015 17571 18440 10640 18042 13831 14655 12630 14639 16005 15287 12167 16995 13173 14224 13630 15777 14157 16401 17088 17608 10937 13675 12015 999999
999999 999999 999999 999999 999999 999999 999999 999999 999999 999999 999999 999999 999999 999999 999999 999999 999999 999999 999999 999999 999999 999999 999999 999999 999999 999999 999999 999999 999999 999999 999999 0 999999 999999 999999 999999 999999 999999 999999 999999 999999 999999 999999 999999 999999 999999 999999 999999 999999 999999 999999 14962 12600 18172 15134 15162 15034 13326 18494 11627 11940 15579 16144 16183 17290 11913 14161 19168 16667 14570 10926 12910 15672 14506 18633 10906 15510 17614 13490 16940 16344 15880 12217 15923 16231 11174 14349 12152 19753 12742 16407 12869 13834 16654 13550 14673 11713 14145 14967 10456 11591 999999
999999 999999 999999 999999 999999 999999 999999 999999 999999 999999 999999 999999 999999 999999 999999 999999 999999 999999 999999 999999 999999 999999 999999 999999 999999 999999 999999 999999 999999 999999 999999 999999 0 999999 999999 999999 999999 999999 999999 999999 999999 999999 999999 999999 999999 999999 999999 999999 999999 999999 999999 10973 11873 17225 14495 11558 17638 14625 14261 18256 10315 19749 16470 10593 18968 18735 14027 10878 19638 18913 11653 19026 11408 10059 19369 11145 19807 12846 13963 15375 13499 13683 15956 12744 15555 16011 19349 13893 11324 13847 15962 15493 10093 13177 10014 16641 13459 12158 18284 15342 18024 999999
999999 999999 999999 999999 999999 999999 999999 999999 999999 999999 999999 999999 999999 999999 999999 999999 999999 999999 999999 999999 999999 999999 999999 999999 999999 999999 999999 999999 999999 999999 999999 999999 999999 0 999999 999999 999999 999999 999999 999999 999999 999999 999999 999999 999999 999999 999999 999999 999999 999999 999999 13432 18607 17690 19663 18719 13743 17022 13198 16199 19991 19411 19417 15390 17576 15284 15158 13874 12322 12810 11085 18098 16027 19297 18201 14783 12070 17971 13845 19857 10359 11039 16342 13215 15020 14667 19334 13170 16351 17186 17575 13158 17042 10509 13377 18947 11725 19559 17399 15250 11274 999999
999999 999999 999999 999999 999999 999999 999999 999999 999999 999999 999999 999999 999999 999999 999999 999999 999999 999999 999999 999999 999999 999999 999999 999999 999999 999999 999999 999999 999999 999999 999999 999999 999999 999999 0 999999 999999 999999 999999 999999 999999 999999 999999 999999 999999 999999 999999 999999 999999 999999 999999 10371 19181 17212 13987 10848 17032 13079 17385 17441 15704 12761 15929 10265 17443 15768 11489 16345 15096 19741 16052 11829 18446 11539 11091 16816 15493 12993 17044 11393 16413 19126 17739 18547 14923 16123 19913 19196 15717 19025 17040 19554 12477 18151 12939 16214 19574 11975 11933 15985 18838 999999
999999 999999 999999 999999 999999 999999 999999 999999 999999 999999 999999 999999 999999 999999 999999 999999 999999 999999 999999 999999 999999 999999 999999 999999 999999 999999 999999 999999 999999 999999 999999 999999 999999 999999 999999 0 999999 999999 999999 999999 999999 999999 999999 999999 999999 999999 999999 999999 999999 999999 999999 19165 11058 18157 12125 19718 10281 12531 14355 16780 14816 18573 14878 18725 13557 16710 17327 19874 13176 15469 14221 16165 17694 18939 16616 13537 12436 14128 14870 14125 19646 15004 12115 16132 12545 12907 17430 18778 10837 13208 14237 19270 11288 10771 16718 13156 15977 11535 11040 19613 12806 999999
999999 999999 999999 999999 999999 999999 999999 999999 999999 999999 999999 999999 999999 999999 999999 999999 999999 999999 999999 999999 999999 999999 999999 999999 999999 999999 999999 999999 999999 999999 999999 999999 999999 999999 999999 999999 0 999999 999999 999999 999999 999999 999999 999999 999999 999999 999999 999999 999999 999999 999999 17751 10188 10120 13623 13687 18168 11535 19261 15318 19221 19611 14558 10036 16722 14515 12060 13457 10998 19067 12662 16970 12533 15229 15770 12388 11193 15031 15814 17832 16447 10812 17785 18061 11110 16953 11424 10470 17802 14471 13591 14140 10114 14367 19914 12243 12950 10169 17111 17299 11604 999999
999999 999999 999999 999999 999999 999999 999999 999999 999999 999999 999999 999999 999999 999999 999999 999999 999999 999999 999999 999999 999999 999999 999999 999999 999999 999999 999999 999999 999999 999999 999999 999999 999999 999999 999999 999999 999999 0 999999 999999 999999 999999 999999 999999 999999 999999 999999 999999 999999 999999 999999 10495 16624 13801 14851 12634 11454 10987 16532 11697 10827 16381 10150 12479 19281 10581 19106 11662 16551 15265 13425 11180 15180 12341 10690 17062 16490 16493 15584 16705 11747 13719 10778 11477 18827 19110 12007 11412 13747 10463 14127 14038 11217 18498 17691 19440 10173 10064 16564 17748 16718 999999
999999 999999 999999 999999 999999 999999 999999 999999 999999 999999 999999 999999 999999 999999 999999 999999 999999 999999 999999 999999 999999 999999 999999 999999 999999 999999 999999 999999 999999 999999 999999 999999 999999 999999 999999 999999 999999 999999 0 999999 999999 999999 999999 999999 999999 999999 999999 999999 999999 999999 999999 16552 16263 19896 14675 10476 14090 14684 17569 19242 15494 15843 17346 12286 11837 16194 19973 15002 14947 19804 10053 15777 15740 18970 11672 16427 15289 16154 12059 12914 10774 11059 19290 17448 12155 11049 18994 18059 18282 14011 14821 14223 10033 16277 16467 12453 12588 18969 14016 10521 16585 999999
999999 999999 999999 999999 999999 999999 999999 999999 999999 999999 999999 999999 999999 999999 999999 999999 999999 999999 999999 999999 999999 999999 999999 999999 999999 999999 999999 999999 999999 999999 999999 999999 999999 999999 999999 999999 999999 999999 999999 0 999999 999999 999999 999999 999999 999999 999999 999999 999999 999999 999999 10145 16012 11369 15471 15513 11100 19080 16298 18379 13414 19488 12760 18433 15059 13715 11542 16002 13117 16530 13339 16463 15051 16324 16738 18735 18524 19495 16041 17694 19334 15774 18444 16977 13615 17252 11225 13963 10468 19063 13727 15933 17317 12821 17178 13283 12361 16931 10532 12864 12956 999999
999999 999999 999999 999999 999999 999999 999999 999999 999999 999999 999999 999999 999999 999999 999999 999999 999999 999999 999999 999999 999999 999999 999999 999999 999999 999999 999999 999999 999999 999999 999999 999999 999999 999999 999999 999999 999999 999999 999999 999999 0 999999 999999 999999 999999 999999 999999 999999 999999 999999 999999 13826 10713 13824 17520 19663 18126 10702 16834 15268 18724 12918 11278 15320 16968 13940 13110 13312 18299 17170 19528 16654 12352 18892 11261 11548 19696 19053 15037 10154 11873 16782 13901 18183 12116 19542 12322 15055 18053 11021 18562 19577 16429 14854 10168 12090 19745 15227 11185 18414 16143 999999
999999 999999 999999 999999 999999 999999 999999 999999 999999 999999 999999 999999 999999 999999 999999 999999 999999 999999 999999 999999 999999 999999 999999 999999 999999 999999 999999 999999 999999 999999 999999 999999 999999 999999 999999 999999 999999 999999 999999 999999 999999 0 999999 999999 999999 999999 999999 999999 999999 999999 999999 15084 17660 13387 14938 16836 10796 16287 11259 17679 12368 18958 12974 11517 16781 11495 11838 10686 13113 12849 17869 13127 15454 18219 18774 13626 11596 15637 10348 17003 18617 14125 11152 14339 14846 18381 15692 10492 15377 16925 18805 19767 15676 18932 12520 14200 16050 12712 17440 11139 10330 999999
999999 999999 999999 999999 999999 999999 999999 999999 999999 999999 999999 999999 999999 999999 999999 999999 999999 999999 999999 999999 999999 999999 999999 999999 999999 999999 999999 999999 999999 999999 999999 999999 999999 999999 999999 999999 999999 999999 999999 999999 999999 999999 0 999999 999999 999999 999999 999999 999999 999999 999999 10978 17619 11746 17023 15496 12409 10094 17930 13496 16582 14475 13674 13026 13839 13980 16280 14210 13955 18352 17597 12095 18478 18787 16519 13310 16708 15532 18637 16971 18268 14638 19612 10279 11067 13197 15244 17325 18035 16578 18426 12817 14386 19453 14497 19282 14384 19292 13114 12303 17829 999999
999999 999999 999999 999999 999999 999999 999999 999999 999999 999999 999999 999999 999999 999999 999999 999999 999999 999999 999999 999999 999999 999999 999999 999999 999999 999999 999999 999999 999999 999999 999999 999999 999999 999999 999999 999999 999999 999999 999999 999999 999999 999999 999999 0 999999 999999 999999 999999 999999 999999 999999 15093 15601 11971 19901 16875 19512 19770 16663 12279 14691 13745 12887 12520 11871 14485 15631 18917 17521 12582 19025 15193 18953 17770 11787 14752 11042 12995 14492 17807 16102 15840 16265 13965 10180 19911 11615 18902 16586 15707 14131 10391 16805 11689 14794 12883 17257 14285 16920 12739 11048 999999
999999 999999 999999 999999 999999 999999 999999 999999 999999 999999 999999 999999 999999 999999 999999 999999 999999 999999 999999 999999 999999 999999 999999 999999 999999 999999 999999 999999 999999 999999 999999 999999 999999 999999 999999 999999 999999 999999 999999 999999 999999 999999 999999 999999 0 999999 999999 999999 999999 999999 999999 12606 16645 10107 13906 16507 15994 15814 12452 11896 17647 16468 12903 14348 15265 16575 16442 11377 10628 11910 18185 13727 15755 11069 15988 17411 15569 18315 13872 15788 18085 17775 15964 16722 15648 14145 10672 15615 14471 14543 14518 18835 14664 11483 19664 16167 13468 12250 10398 10612 19390 999999
999999 999999 999999 999999 999999 999999 999999 999999 999999 999999 999999 999999 999999 999999 999999 999999 999999 999999 999999 999999 999999 999999 999999 999999 999999 999999 999999 999999 999999 999999 999999 999999 999999 999999 999999 999999 999999 999999 999999 999999 999999 999999 999999 999999 999999 0 999999 999999 999999 999999 999999 11409 11506 18130 10296 14627 12116 14894 18403 11457 15994 10519 11941 10795 19443 14325 14291 19702 16343 13772 10111 12943 16769 12271 18123 13295 17988 14845 15222 19734 14642 13605 10588 10738 12768 19179 15349 15329 11954 18561 15939 11841 18811 13430 14477 18674 18647 14756 16173 11277 16463 999999
999999 999999 999999 999999 999999 999999 999999 999999 999999 999999 999999 999999 999999 999999 999999 999999 999999 999999 999999 999999 999999 999999 999999 999999 999999 999999 999999 999999 999999 999999 999999 999999 999999 999999 999999 999999 999999 999999 999999 999999 999999 999999 999999 999999 999999 999999 0 999999 999999 999999 999999 13941 15705 13449 10242 18977 19425 19191 12735 19174 13813 13970 14776 16297 15383 19400 16040 14408 18143 13327 10366 11683 17800 11450 10066 11861 14390 14344 10429 13169 10327 14885 19538 18147 10989 17640 18301 19469 11528 12467 18201 14257 16078 18773 12707 17556 16963 16524 12621 13608 11603 999999
999999 999999 999999 999999 999999 999999 999999 999999 999999 999999 999999 999999 999999 999999 999999 999999 999999 999999 999999 999999 999999 999999 999999 999999 999999 999999 999999 999999 999999 999999 999999 999999 999999 999999 999999 999999 999999 999999 999999 999999 999999 999999 999999 999999 999999 999999 999999 0 999999 999999 999999 14533 14219 11695 16330 14044 17848 11840 18076 10865 18781 14919 17886 14959 18144 10704 19108 12249 12292 12168 10025 18814 13196 18584 15122 19283 14334 10872 18495 10489 18450 16424 11735 11944 18663 13957 15754 19595 17628 16821 19266 14530 14439 14515 16997 12396 18793 10966 14635 17869 17510 999999
999999 999999 999999 999999 999999 999999 999999 999999 999999 999999 999999 999999 999999 999999 999999 999999 999999 999999 999999 999999 999999 999999 999999 999999 999999 999999 999999 999999 999999 999999 999999 999999 999999 999999 999999 999999 999999 999999 999999 999999 999999 999999 999999 999999 999999 999999 999999 999999 0 999999 999999 17381 11776 11625 11664 18578 11034 11766 13869 19214 13439 14469 13882 12222 14919 15462 17269 19924 10743 19295 13019 11431 12378 17858 12818 18499 19533 18570 14604 16322 18140 19301 10877 15447 16595 17180 16542 15317 14542 17779 13075 18887 14468 17416 10847 18390 13683 14690 16287 17231 15696 999999
999999 999999 999999 999999 999999 999999 999999 999999 999999 999999 999999 999999 999999 999999 999999 999999 999999 999999 999999 999999 999999 999999 999999 999999 999999 999999 999999 999999 999999 999999 999999 999999 999999 999999 999999 999999 999999 999999 999999 999999 999999 999999 999999 999999 999999 999999 999999 999999 999999 0 999999 15640 19612 13955 16929 10397 10881 14146 13503 12073 15295 14733 12778 12907 13198 13435 19714 12158 11800 16317 15308 17133 16085 15016 17306 12398 17914 18777 15129 13529 17637 10304 13881 19293 16021 19188 10866 15862 11767 11503 15835 17782 16353 17056 10705 10909 15164 11246 13396 19474 16109 999999
999999 999999 999999 999999 999999 999999 999999 999999 999999 999999 999999 999999 999999 999999 999999 999999 999999 999999 999999 999999 999999 999999 999999 999999 999999 999999 999999 999999 999999 999999 999999 999999 999999 999999 999999 999999 999999 999999 999999 999999 999999 999999 999999 999999 999999 999999 999999 999999 999999 999999 0 15162 10478 14597 11486 16075 10559 14922 18853 19667 18074 14565 10276 11680 11995 14815 13077 17563 18236 14977 10454 13825 10990 10440 17881 12650 13520 10870 12859 13226 17347 19509 12135 17907 19920 12811 19682 15459 16934 17573 14052 14441 14890 10927 11585 14641 11672 12968 17885 19795 18103 999999
999999 14923 13620 19139 11043 10802 10938 10489 10199 14042 12618 10601 19995 15793 18142 18804 10124 17577 15599 17408 14912 13264 15356 18698 13910 12895 15303 10334 16709 14797 17578 14962 10973 13432 10371 19165 17751 10495 16552 10145 13826 15084 10978 15093 12606 11409 13941 14533 17381 15640 15162 0 999999 999999 999999 999999 999999 999999 999999 999999 999999 999999 999999 999999 999999 999999 999999 999999 999999 999999 999999 999999 999999 999999 999999 999999 999999 999999 999999 999999 999999 999999 999999 999999 999999 999999 999999 999999 999999 999999 999999 999999 999999 999999 999999 999999 999999 999999 999999 999999 999999 5619
999999 13422 19078 10281 11569 13230 10570 16430 15389 10814 18313 17699 16182 13445 19736 12064 12617 11809 12770 16953 12664 15345 13636 18877 19250 10653 15449 10977 14331 15050 12130 12600 11873 18607 19181 11058 10188 16624 16263 16012 10713 17660 17619 15601 16645 11506 15705 14219 11776 19612 10478 999999 0 999999 999999 999999 999999 999999 999999 999999 999999 999999 999999 999999 999999 999999 999999 999999 999999 999999 999999 999999 999999 999999 999999 999999 999999 999999 999999 999999 999999 999999 999999 999999 999999 999999 999999 999999 999999 999999 999999 999999 999999 999999 999999 999999 999999 999999 999999 999999 999999 7904
999999 19212 15795 11483 18749 12620 12418 18737 11539 19312 15307 19254 11031 13277 19714 13730 18250 19199 19991 11852 10797 14862 12907 15996 15316 17400 15180 10278 17715 14203 18883 18172 17225 17690 17212 18157 10120 13801 19896 11369 13824 13387 11746 11971 10107 18130 13449 11695 11625 13955 14597 999999 999999 0 999999 999999 999999 999999 999999 999999 999999 999999 999999 999999 999999 999999 999999 999999 999999 999999 999999 999999 999999 999999 999999 999999 999999 999999 999999 999999 999999 999999 999999 999999 999999 999999 999999 999999 999999 999999 999999 999999 999999 999999 999999 999999 999999 999999 999999 999999 999999 7569
999999 15365 19796 18410 13115 15828 10949 16659 15069 14196 11346 10114 10230 16565 18752 16826 11418 10843 13804 12864 14474 14832 12537 17501 10713 14817 11238 11121 13487 15094 10800 15134 14495 19663 13987 12125 13623 14851 14675 15471 17520 14938 17023 19901 13906 10296 10242 16330 11664 16929 11486 999999 999999 999999 0 999999 999999 999999 999999 999999 999999 999999 999999 999999 999999 999999 999999 999999 999999 999999 999999 999999 999999 999999 999999 999999 999999 999999 999999 999999 999999 999999 999999 999999 999999 999999 999999 999999 999999 999999 999999 999999 999999 999999 999999 999999 999999 999999 999999 999999 999999 11552
999999 19058 13390 14177 10629 19089 19370 11850 13080 14158 17376 16375 17527 12220 19244 15420 15789 17350 11118 14075 18849 14569 16370 19560 19934 14574 13637 16674 19739 18458 16050 15162 11558 18719 10848 19718 13687 12634 10476 15513 19663 16836 15496 16875 16507 14627 18977 14044 18578 10397 16075 999999 999999 999999 999999 0 999999 999999 999999 999999 999999 999999 999999 999999 999999 999999 999999 999999 999999 999999 999999 999999 999999 999999 999999 999999 999999 999999 999999 999999 999999 999999 999999 999999 999999 999999 999999 999999 999999 999999 999999 999999 999999 999999 999999 999999 999999 999999 999999 999999 999999 11473
999999 10731 19071 17800 18167 16892 19875 10979 14426 11648 19969 11305 15379 16494 16772 17469 12227 12814 15060 18585 18728 11029 17097 14719 12395 16985 15386 13936 10366 11616 12838 15034 17638 13743 17032 10281 18168 11454 14090 11100 18126 10796 12409 19512 15994 12116 19425 17848 11034 10881 10559 999999 999999 999999 999999 999999 0 999999 999999 999999 999999 999999 999999 999999 999999 999999 999999 999999 999999 999999 999999 999999 999999 999999 999999 999999 999999 999999 999999 999999 999999 999999 999999 999999 999999 999999 999999 999999 999999 999999 999999 999999 999999 999999 999999 999999 999999 999999 999999 999999 999999 9988
999999 19508 14652 16687 15599 16200 18480 17150 16749 13234 18066 15939 17165 11610 11157 13595 11221 19996 11147 13482 10013 10187 12347 15583 19729 18927 18207 16432 15212 15443 11016 13326 14625 17022 13079 12531 11535 10987 14684 19080 10702 16287 10094 19770 15814 14894 19191 11840 11766 14146 14922 999999 999999 999999 999999 999999 999999 0 999999 999999 999999 999999 999999 999999 999999 999999 999999 999999 999999 999999 999999 999999 999999 999999 999999 999999 999999 999999 999999 999999 999999 999999 999999 999999 999999 999999 999999 999999 999999 999999 999999 999999 999999 999999 999999 999999 999999 999999 999999 999999 999999 6437
999999 14523 10152 12552 12556 19001 16696 11921 14265 17138 19592 10333 13588 11591 18690 16212 11768 16224 19723 11983 14635 15463 17391 11627 17200 12503 10103 19204 13407 14188 14693 18494 14261 13198 17385 14355 19261 16532 17569 16298 16834 11259 17930 16663 12452 18403 12735 18076 13869 13503 18853 999999 999999 999999 999999 999999 999999 999999 0 999999 999999 999999 999999 999999 999999 999999 999999 999999 999999 999999 999999 999999 999999 999999 999999 999999 999999 999999 999999 999999 999999 999999 999999 999999 999999 999999 999999 999999 999999 999999 999999 999999 999999 999999 999999 999999 999999 999999 999999 999999 999999 13998
999999 16415 13849 13523 17189 12323 13439 13261 11868 17804 13881 18154 13340 12357 13786 10335 16989 19550 10664 16674 13324 19563 14994 17004 17935 10207 15868 17988 16248 12608 12001 11627 18256 16199 17441 16780 15318 11697 19242 18379 15268 17679 13496 12279 11896 11457 19174 10865 19214 12073 19667 999999 999999 999999 999999 999999 999999 999999 999999 0 999999 999999 999999 999999 999999 999999 999999 999999 999999 999999 999999 999999 999999 999999 999999 999999 999999 999999 999999 999999 999999 999999 999999 999999 999999 999999 999999 999999 999999 999999 999999 999999 999999 999999 999999 999999 999999 999999 999999 999999 999999 9835
999999 15948 19466 13265 12641 16124 10969 17489 16489 16212 19838 19427 11128 15620 11780 12299 19164 10122 17900 15713 12379 19763 15423 18730 11898 17139 12450 19137 16923 15492 15456 11940 10315 19991 15704 14816 19221 10827 15494 13414 18724 12368 16582 14691 17647 15994 13813 18781 13439 15295 18074 999999 999999 999999 999999 999999 999999 999999 999999 999999 0 999999 999999 999999 999999 999999 999999 999999 999999 999999 999999 999999 999999 999999 999999 999999 999999 999999 999999 999999 999999 999999 999999 999999 999999 999999 999999 999999 999999 999999 999999 999999 999999 999999 999999 999999 999999 999999 999999 999999 999999 12723
999999 10710 14484 16875 10942 12517 15406 17157 16143 10981 11110 11025 14589 18729 19245 17325 12034 11145 16000 15192 11462 12261 14325 13191 19367 10842 16196 17726 15318 13605 12056 15579 19749 19411 12761 18573 19611 16381 15843 19488 12918 18958 14475 13745 16468 10519 13970 14919 14469 14733 14565 999999 999999 999999 999999 999999 999999 999999 999999 999999 999999 0 999999 999999 999999 999999 999999 999999 999999 999999 999999 999999 999999 999999 999999 999999 999999 999999 999999 999999 999999 999999 999999 999999 999999 999999 999999 999999 999999 999999 999999 999999 999999 999999 999999 999999 999999 999999 999999 999999 999999 10015
999999 17077 10689 14192 12024 17030 15188 11496 14175 11464 13951 15471 13377 12341 16759 15708 11446 19824 18387 10437 10632 16801 16956 13090 15415 17885 16911 16252 15003 10711 16815 16144 16470 19417 15929 14878 14558 10150 17346 12760 11278 12974 13674 12887 12903 11941 14776 17886 13882 12778 10276 999999 999999 999999 999999 999999 999999 999999 999999 999999 999999 999999 0 999999 999999 999999 999999 999999 999999 999999 999999 999999 999999 999999 999999 999999 999999 999999 999999 999999 999999 999999 999999 999999 999999 999999 999999 999999 999999 999999 999999 999999 999999 999999 999999 999999 999999 999999 999999 999999 999999 5570
999999 17866 13264 19696 10637 19076 15342 19975 19196 14129 18397 16139 18425 13551 10470 14667 12176 19733 12305 17210 10451 16230 18301 11462 15975 19409 15166 19954 15111 10914 19429 16183 10593 15390 10265 18725 10036 12479 12286 18433 15320 11517 13026 12520 14348 10795 16297 14959 12222 12907 11680 999999 999999 999999 999999 999999 999999 999999 999999 999999 999999 999999 999999 0 999999 999999 999999 999999 999999 999999 999999 999999 999999 999999 999999 999999 999999 999999 999999 999999 999999 999999 999999 999999 999999 999999 999999 999999 999999 999999 999999 999999 999999 999999 999999 999999 999999 999999 999999 999999 999999 6665
999999 11483 11990 14949 18808 13955 17811 10835 12390 19023 12940 12026 15779 19378 11848 11563 19184 10302 14040 10535 10683 18702 17078 11282 16992 16454 10475 19178 19875 16737 17457 17290 18968 17576 17443 13557 16722 19281 11837 15059 16968 16781 13839 11871 15265 19443 15383 18144 14919 13198 11995 999999 999999 999999 999999 999999 999999 999999 999999 999999 999999 999999 999999 999999 0 999999 999999 999999 999999 999999 999999 999999 999999 999999 999999 999999 999999 999999 999999 999999 999999 999999 999999 999999 999999 999999 999999 999999 999999 999999 999999 999999 999999 999999 999999 999999 999999 999999 999999 999999 999999 14326
999999 12726 12838 15488 11489 12390 11677 12883 14724 16475 10236 12485 17163 18177 11362 12062 10165 19349 11626 12580 14357 17648 11660 19296 17576 11031 16988 11726 13893 17277 19027 11913 18735 15284 15768 16710 14515 10581 16194 13715 13940 11495 13980 14485 16575 14325 19400 10704 15462 13435 14815 999999 999999 999999 999999 999999 999999 999999 999999 999999 999999 999999 999999 999999 999999 0 999999 999999 999999 999999 999999 999999 999999 999999 999999 999999 999999 999999 999999 999999 999999 999999 999999 999999 999999 999999 999999 999999 999999 999999 999999 999999 999999 999999 999999 999999 999999 999999 999999 999999 999999 14611
999999 11482 12091 10234 15633 10964 19528 10928 16107 11286 14242 13427 14670 10802 18522 10544 19925 17714 18635 14197 18990 16723 12958 12190 15968 14083 14617 12425 13240 15414 12166 14161 14027 15158 11489 17327 12060 19106 19973 11542 13110 11838 16280 15631 16442 14291 16040 19108 17269 19714 13077 999999 999999 999999 999999 999999 999999 999999 999999 999999 999999 999999 999999 999999 999999 999999 0 999999 999999 999999 999999 999999 999999 999999 999999 999999 999999 999999 999999 999999 999999 999999 999999 999999 999999 999999 999999 999999 999999 999999 999999 999999 999999 999999 999999 999999 999999 999999 999999 999999 999999 6187
999999 13663 14397 14823 19156 12086 17567 12286 12002 12578 14837 10384 16568 13505 15377 10478 15053 16693 17939 12712 19230 12663 14888 13728 17958 13596 11341 12504 11697 10925 14678 19168 10878 13874 16345 19874 13457 11662 15002 16002 13312 10686 14210 18917 11377 19702 14408 12249 19924 12158 17563 999999 999999 999999 999999 999999 999999 999999 999999 999999 999999 999999 999999 999999 999999 999999 999999 0 999999 999999 999999 999999 999999 999999 999999 999999 999999 999999 999999 999999 999999 999999 999999 999999 999999 999999 999999 999999 999999 999999 999999 999999 999999 999999 999999 999999 999999 999999 999999 999999 999999 7450
999999 17559 14910 13313 11636 15316 13606 11128 15537 13625 10047 18520 15943 16920 16761 17929 12934 12090 16680 17110 12005 19394 11612 17434 12100 17185 17076 11647 17220 15036 17124 16667 19638 12322 15096 13176 10998 16551 14947 13117 18299 13113 13955 17521 10628 16343 18143 12292 10743 11800 18236 999999 999999 999999 999999 999999 999999 999999 999999 999999 999999 999999 999999 999999 999999 999999 999999 999999 0 999999 999999 999999 999999 999999 999999 999999 999999 999999 999999 999999 999999 999999 999999 999999 999999 999999 999999 999999 999999 999999 999999 999999 999999 999999 999999 999999 999999 999999 999999 999999 999999 11272
999999 10818 13811 16745 16014 12755 13960 12844 15462 13458 13718 18046 15392 16821 14307 17432 18018 11509 19181 13649 12119 13241 14746 11760 10802 15727 14327 17550 19880 13983 11501 14570 18913 12810 19741 15469 19067 15265 19804 16530 17170 12849 18352 12582 11910 13772 13327 12168 19295 16317 14977 999999 999999 999999 999999 999999 999999 999999 999999 999999 999999 999999 999999 999999 999999 999999 999999 999999 999999 0 999999 999999 999999 999999 999999 999999 999999 999999 999999 999999 999999 999999 999999 999999 999999 999999 999999 999999 999999 999999 999999 999999 999999 999999 999999 999999 999999 999999 999999 999999 999999 10130
999999 10558 18783 12211 11246 17908 17364 14753 16070 19053 11615 18657 11664 11932 14080 11935 12149 11151 15448 15870 16218 16276 11368 10966 10409 11531 18254 18783 19243 19081 14990 10926 11653 11085 16052 14221 12662 13425 10053 13339 19528 17869 17597 19025 18185 10111 10366 10025 13019 15308 10454 999999 999999 999999 999999 999999 999999 999999 999999 999999 999999 999999 999999 999999 999999 999999 999999 999999 999999 999999 0 999999 999999 999999 999999 999999 999999 999999 999999 999999 999999 999999 999999 999999 999999 999999 999999 999999 999999 999999 999999 999999 999999 999999 999999 999999 999999 999999 999999 999999 999999 12704
999999 13745 11433 18768 14979 17887 18209 13027 10855 16759 12338 17470 12441 11787 19400 18184 17173 14463 18358 15740 12594 15972 18780 10929 16486 11740 18565 11958 15263 17907 15613 12910 19026 18098 11829 16165 16970 11180 15777 16463 16654 13127 12095 15193 13727 12943 11683 18814 11431 17133 13825 999999 999999 999999 999999 999999 999999 999999 999999 999999 999999 999999 999999 999999 999999 999999 999999 999999 999999 999999 999999 0 999999 999999 999999 999999 999999 999999 999999 999999 999999 999999 999999 999999 999999 999999 999999 999999 999999 999999 999999 999999 999999 999999 999999 999999 999999 999999 999999 999999 999999 5081
999999 18381 17537 10117 13136 18319 13194 12890 19727 12518 13273 19510 14215 10742 13948 15198 16294 18880 10673 18128 19287 19258 17344 17164 14368 17487 11973 12364 17668 18296 17365 15672 11408 16027 18446 17694 12533 15180 15740 15051 12352 15454 18478 18953 15755 16769 17800 13196 12378 16085 10990 999999 999999 999999 999999 999999 999999 999999 999999 999999 999999 999999 999999 999999 999999 999999 999999 999999 999999 999999 999999 999999 0 999999 999999 999999 999999 999999 999999 999999 999999 999999 999999 999999 999999 999999 999999 999999 999999 999999 999999 999999 999999 999999 999999 999999 999999 999999 999999 999999 999999 6903
999999 13393 12983 13298 17221 11092 17899 15718 15225 13481 10967 13586 12201 15424 15050 18417 10019 16990 18485 17726 18280 10798 12973 18425 13503 17524 14376 10795 10943 19796 18218 14506 10059 19297 11539 18939 15229 12341 18970 16324 18892 18219 18787 17770 11069 12271 11450 18584 17858 15016 10440 999999 999999 999999 999999 999999 999999 999999 999999 999999 999999 999999 999999 999999 999999 999999 999999 999999 999999 999999 999999 999999 999999 0 999999 999999 999999 999999 999999 999999 999999 999999 999999 999999 999999 999999 999999 999999 999999 999999 999999 999999 999999 999999 999999 999999 999999 999999 999999 999999 999999 5823
999999 16290 19578 12944 11783 10743 16284 15796 16252 13320 15106 17965 18107 18522 13319 10486 12765 13416 15739 13022 11367 14652 18933 19951 14828 11347 19965 16297 10805 13660 14070 18633 19369 18201 11091 16616 15770 10690 11672 16738 11261 18774 16519 11787 15988 18123 10066 15122 12818 17306 17881 999999 999999 999999 999999 999999 999999 999999 999999 999999 999999 999999 999999 999999 999999 999999 999999 999999 999999 999999 999999 999999 999999 999999 0 999999 999999 999999 999999 999999 999999 999999 999999 999999 999999 999999 999999 999999 999999 999999 999999 999999 999999 999999 999999 999999 999999 999999 999999 999999 999999 8495
999999 14587 14647 14262 16711 15767 16754 19872 10144 13558 11233 14766 18514 16472 18754 12662 12446 13913 18160 10496 10402 18180 14283 10970 11970 13065 13773 10954 11531 11336 14601 10906 11145 14783 16816 13537 12388 17062 16427 18735 11548 13626 13310 14752 17411 13295 11861 19283 18499 12398 12650 999999 999999 999999 999999 999999 999999 999999 999999 999999 999999 999999 999999 999999 999999 999999 999999 999999 999999 999999 999999 999999 999999 999999 999999 0 999999 999999 999999 999999 999999 999999 999999 999999 999999 999999 999999 999999 999999 999999 999999 999999 999999 999999 999999 999999 999999 999999 999999 999999 999999 12907
999999 19132 10626 17552 11063 15997 15402 16397 12787 16162 18256 17636 10746 18639 13876 13062 16288 16121 15964 19367 17651 14008 11672 13725 11123 15846 14987 10037 12862 16374 16089 15510 19807 12070 15493 12436 11193 16490 15289 18524 19696 11596 16708 11042 15569 17988 14390 14334 19533 17914 13520 999999 999999 999999 999999 999999 999999 999999 999999 999999 999999 999999 999999 999999 999999 999999 999999 999999 999999 999999 999999 999999 999999 999999 999999 999999 0 999999 999999 999999 999999 999999 999999 999999 999999 999999 999999 999999 999999 999999 999999 999999 999999 999999 999999 999999 999999 999999 999999 999999 999999 11007
999999 16938 12588 19535 19068 18967 13137 12458 11197 11383 18022 15891 18641 12847 10840 19633 17550 10528 11333 11725 11661 15517 10318 19962 17825 18224 16518 11683 17891 10214 17015 17614 12846 17971 12993 14128 15031 16493 16154 19495 19053 15637 15532 12995 18315 14845 14344 10872 18570 18777 10870 999999 999999 999999 999999 999999 999999 999999 999999 999999 999999 999999 999999 999999 999999 999999 999999 999999 999999 999999 999999 999999 999999 999999 999999 999999 999999 0 999999 999999 999999 999999 999999 999999 999999 999999 999999 999999 999999 999999 999999 999999 999999 999999 999999 999999 999999 999999 999999 999999 999999 13462
999999 14957 19534 12914 18274 14381 17514 12915 13656 11123 16730 18428 10690 17417 15007 10589 16965 16007 10354 16001 16743 18052 14474 10450 16398 19451 17269 14047 11349 18615 17571 13490 13963 13845 17044 14870 15814 15584 12059 16041 15037 10348 18637 14492 13872 15222 10429 18495 14604 15129 12859 999999 999999 999999 999999 999999 999999 999999 999999 999999 999999 999999 999999 999999 999999 999999 999999 999999 999999 999999 999999 999999 999999 999999 999999 999999 999999 999999 0 999999 999999 999999 999999 999999 999999 999999 999999 999999 999999 999999 999999 999999 999999 999999 999999 999999 999999 999999 999999 999999 999999 8111
999999 10413 18217 16008 10445 19022 13971 14857 15719 14514 10578 15293 12369 17507 19345 17305 10792 10171 19339 17814 10415 18300 10613 14904 15736 10708 18879 12093 11331 16758 18440 16940 15375 19857 11393 14125 17832 16705 12914 17694 10154 17003 16971 17807 15788 19734 13169 10489 16322 13529 13226 999999 999999 999999 999999 999999 999999 999999 999999 999999 999999 999999 999999 999999 999999 999999 999999 999999 999999 999999 999999 999999 999999 999999 999999 999999 999999 999999 999999 0 999999 999999 999999 999999 999999 999999 999999 999999 999999 999999 999999 999999 999999 999999 999999 999999 999999 999999 999999 999999 999999 7319
999999 12120 18859 19906 10463 18819 15212 15713 16513 13571 10211 19281 16246 13140 12426 12172 17982 17180 16396 14250 17721 18231 14093 11926 14518 18361 18330 19814 16984 15545 10640 16344 13499 10359 16413 19646 16447 11747 10774 19334 11873 18617 18268 16102 18085 14642 10327 18450 18140 17637 17347 999999 999999 999999 999999 999999 999999 999999 999999 999999 999999 999999 999999 999999 999999 999999 999999 999999 999999 999999 999999 999999 999999 999999 999999 999999 999999 999999 999999 999999 0 999999 999999 999999 999999 999999 999999 999999 999999 999999 999999 999999 999999 999999 999999 999999 999999 999999 999999 999999 999999 14020
999999 10739 18830 13053 13475 18876 17181 16748 15850 13102 11464 11354 17399 12772 14494 17563 11249 15611 18939 15044 16977 15971 16683 11096 14592 15359 12141 13788 19505 13267 18042 15880 13683 11039 19126 15004 10812 13719 11059 15774 16782 14125 14638 15840 17775 13605 14885 16424 19301 10304 19509 999999 999999 999999 999999 999999 999999 999999 999999 999999 999999 999999 999999 999999 999999 999999 999999 999999 999999 999999 999999 999999 999999 999999 999999 999999 999999 999999 999999 999999 999999 0 999999 999999 999999 999999 999999 999999 999999 999999 999999 999999 999999 999999 999999 999999 999999 999999 999999 999999 999999 9867
999999 13449 18801 15133 18821 16078 11063 17410 12580 13345 11901 15658 18746 16602 11262 18128 16570 11494 15893 19577 14757 14270 18346 19636 14195 13399 16473 15779 11354 19912 13831 12217 15956 16342 17739 12115 17785 10778 19290 18444 13901 11152 19612 16265 15964 10588 19538 11735 10877 13881 12135 999999 999999 999999 999999 999999 999999 999999 999999 999999 999999 999999 999999 999999 999999 999999 999999 999999 999999 999999 999999 999999 999999 999999 999999 999999 999999 999999 999999 999999 999999 999999 0 999999 999999 999999 999999 999999 999999 999999 999999 999999 999999 999999 999999 999999 999999 999999 999999 999999 999999 12003
999999 13403 11160 16538 11815 17007 15519 18486 17726 12178 11742 17633 15563 11699 18226 13666 11192 19855 13380 19046 12596 16272 12838 12407 12124 11848 17889 15451 19522 17411 14655 15923 12744 13215 18547 16132 18061 11477 17448 16977 18183 14339 10279 13965 16722 10738 18147 11944 15447 19293 17907 999999 999999 999999 999999 999999 999999 999999 999999 999999 999999 999999 999999 999999 999999 999999 999999 999999 999999 999999 999999 999999 999999 999999 999999 999999 999999 999999 999999 999999 999999 999999 999999 0 999999 999999 999999 999999 999999 999999 999999 999999 999999 999999 999999 999999 999999 999999 999999 999999 999999 6288
999999 14197 13458 16142 15048 15025 13927 11670 12736 14424 12509 15069 14990 11552 11538 10849 12705 19761 17875 13312 14174 18167 13367 17168 14316 12309 17393 10876 12744 11557 12630 16231 15555 15020 14923 12545 11110 18827 12155 13615 12116 14846 11067 10180 15648 12768 10989 18663 16595 16021 19920 999999 999999 999999 999999 999999 999999 999999 999999 999999 999999 999999 999999 999999 999999 999999 999999 999999 999999 999999 999999 999999 999999 999999 999999 999999 999999 999999 999999 999999 999999 999999 999999 999999 0 999999 999999 999999 999999 999999 999999 999999 999999 999999 999999 999999 999999 999999 999999 999999 999999 11013
999999 17107 12625 18413 15660 13028 16849 14103 12325 10618 17559 19563 19590 15393 11956 19220 15470 12712 18385 13091 12940 12235 12339 15013 16563 10793 12256 19719 18097 15774 14639 11174 16011 14667 16123 12907 16953 19110 11049 17252 19542 18381 13197 19911 14145 19179 17640 13957 17180 19188 12811 999999 999999 999999 999999 999999 999999 999999 999999 999999 999999 999999 999999 999999 999999 999999 999999 999999 999999 999999 999999 999999 999999 999999 999999 999999 999999 999999 999999 999999 999999 999999 999999 999999 999999 0 999999 999999 999999 999999 999999 999999 999999 999999 999999 999999 999999 999999 999999 999999 999999 13295
999999 10238 12566 13309 19717 14643 13853 19222 11407 11418 16880 12764 16680 13907 19506 17186 11273 12583 15490 10626 13833 16446 10645 12729 14553 14069 10903 11063 15044 10454 16005 14349 19349 19334 19913 17430 11424 12007 18994 11225 12322 15692 15244 11615 10672 15349 18301 15754 16542 10866 19682 999999 999999 999999 999999 999999 999999 999999 999999 999999 999999 999999 999999 999999 999999 999999 999999 999999 999999 999999 999999 999999 999999 999999 999999 999999 999999 999999 999999 999999 999999 999999 999999 999999 999999 999999 0 999999 999999 999999 999999 999999 999999 999999 999999 999999 999999 999999 999999 999999 999999 5057
999999 15850 18493 15224 13048 17725 19960 15817 15424 11015 15016 12204 18598 15551 11666 18474 18742 11414 11105 15885 16291 12926 13276 15471 12434 14765 13039 15346 15136 11621 15287 12152 13893 13170 19196 18778 10470 11412 18059 13963 15055 10492 17325 18902 15615 15329 19469 19595 15317 15862 15459 999999 999999 999999 999999 999999 999999 999999 999999 999999 999999 999999 999999 999999 999999 999999 999999 999999 999999 999999 999999 999999 999999 999999 999999 999999 999999 999999 999999 999999 999999 999999 999999 999999 999999 999999 999999 0 999999 999999 999999 999999 999999 999999 999999 999999 999999 999999 999999 999999 999999 11959
999999 19709 18342 11664 12466 15552 18380 12390 10432 19073 17412 19405 12995 14191 14690 19792 11018 13861 17561 11948 18721 13271 11428 19890 14661 12060 11523 18725 12060 13513 12167 19753 11324 16351 15717 10837 17802 13747 18282 10468 18053 15377 18035 16586 14471 11954 11528 17628 14542 11767 16934 999999 999999 999999 999999 999999 999999 999999 999999 999999 999999 999999 999999 999999 999999 999999 999999 999999 999999 999999 999999 999999 999999 999999 999999 999999 999999 999999 999999 999999 999999 999999 999999 999999 999999 999999 999999 999999 0 999999 999999 999999 999999 999999 999999 999999 999999 999999 999999 999999 999999 9399
999999 14590 17937 17044 12282 10558 16195 17022 18064 17766 17112 11103 16739 17524 19118 15571 19293 11130 14883 15310 17821 14779 16277 14682 15050 10733 15768 17901 13614 15311 16995 12742 13847 17186 19025 13208 14471 10463 14011 19063 11021 16925 16578 15707 14543 18561 12467 16821 17779 11503 17573 999999 999999 999999 999999 999999 999999 999999 999999 999999 999999 999999 999999 999999 999999 999999 999999 999999 999999 999999 999999 999999 999999 999999 999999 999999 999999 999999 999999 999999 999999 999999 999999 999999 999999 999999 999999 999999 999999 0 999999 999999 999999 999999 999999 999999 999999 999999 999999 999999 999999 9719
999999 10219 16369 19923 19333 12409 16166 18510 18482 10794 16301 12132 13964 17937 18743 15662 19281 18787 13738 10530 17914 14664 10023 15739 16030 15637 18804 13788 18325 14573 13173 16407 15962 17575 17040 14237 13591 14127 14821 13727 18562 18805 18426 14131 14518 15939 18201 19266 13075 15835 14052 999999 999999 999999 999999 999999 999999 999999 999999 999999 999999 999999 999999 999999 999999 999999 999999 999999 999999 999999 999999 999999 999999 999999 999999 999999 999999 999999 999999 999999 999999 999999 999999 999999 999999 999999 999999 999999 999999 999999 0 999999 999999 999999 999999 999999 999999 999999 999999 999999 999999 10105
999999 19964 18892 10134 19700 18619 18322 13338 15441 13976 15608 13711 15906 11932 15509 17582 15428 16918 16209 13009 10243 11117 13342 16854 18949 18670 11040 14802 17442 16400 14224 12869 15493 13158 19554 19270 14140 14038 14223 15933 19577 19767 12817 10391 18835 11841 14257 14530 18887 17782 14441 999999 999999 999999 999999 999999 999999 999999 999999 999999 999999 999999 999999 999999 999999 999999 999999 999999 999999 999999 999999 999999 999999 999999 999999 999999 999999 999999 999999 999999 999999 999999 999999 999999 999999 999999 999999 999999 999999 999999 999999 0 999999 999999 999999 999999 999999 999999 999999 999999 999999 8439
999999 14404 19124 16451 12466 17121 11238 19668 18840 10425 15956 19443 19608 12734 10819 15069 11722 12076 16124 11742 15132 10111 11919 17269 18407 10086 13820 11220 13367 18898 13630 13834 10093 17042 12477 11288 10114 11217 10033 17317 16429 15676 14386 16805 14664 18811 16078 14439 14468 16353 14890 999999 999999 999999 999999 999999 999999 999999 999999 999999 999999 999999 999999 999999 999999 999999 999999 999999 999999 999999 999999 999999 999999 999999 999999 999999 999999 999999 999999 999999 999999 999999 999999 999999 999999 999999 999999 999999 999999 999999 999999 999999 0 999999 999999 999999 999999 999999 999999 999999 999999 10193
999999 13510 17881 19010 19594 19276 14043 18555 16334 13182 15462 13937 11098 14882 15846 12446 19020 19185 13453 13673 10991 11169 13533 18646 12665 17507 10584 19614 14183 10067 15777 16654 13177 10509 18151 10771 14367 18498 16277 12821 14854 18932 19453 11689 11483 13430 18773 14515 17416 17056 10927 999999 999999 999999 999999 999999 999999 999999 999999 999999 999999 999999 999999 999999 999999 999999 999999 999999 999999 999999 999999 999999 999999 999999 999999 999999 999999 999999 999999 999999 999999 999999 999999 999999 999999 999999 999999 999999 999999 999999 999999 999999 999999 0 999999 999999 999999 999999 999999 999999 999999 12015
999999 16696 11161 12295 14811 11885 16045 10993 13075 11911 16293 11298 16735 19759 14574 18719 17641 14058 17202 11428 12113 14651 14827 18250 18660 16684 13968 10684 18764 18536 14157 13550 10014 13377 12939 16718 19914 17691 16467 17178 10168 12520 14497 14794 19664 14477 12707 16997 10847 10705 11585 999999 999999 999999 999999 999999 999999 999999 999999 999999 999999 999999 999999 999999 999999 999999 999999 999999 999999 999999 999999 999999 999999 999999 999999 999999 999999 999999 999999 999999 999999 999999 999999 999999 999999 999999 999999 999999 999999 999999 999999 999999 999999 999999 0 999999 999999 999999 999999 999999 999999 6253
999999 11345 16459 17527 12103 18676 13790 19470 14900 15959 16728 16013 17832 19128 12109 13478 18854 12227 16899 17901 13530 11746 12741 18374 11491 12852 16212 16524 12977 19206 16401 14673 16641 18947 16214 13156 12243 19440 12453 13283 12090 14200 19282 12883 16167 18674 17556 12396 18390 10909 14641 999999 999999 999999 999999 999999 999999 999999 999999 999999 999999 999999 999999 999999 999999 999999 999999 999999 999999 999999 999999 999999 999999 999999 999999 999999 999999 999999 999999 999999 999999 999999 999999 999999 999999 999999 999999 999999 999999 999999 999999 999999 999999 999999 999999 0 999999 999999 999999 999999 999999 7744
999999 16373 15266 13206 18675 19041 17760 15304 11243 19957 19005 11505 12247 12590 11075 14077 11113 12294 17126 11802 16746 14460 13950 10935 12533 15406 17918 19689 10999 11015 17088 11713 13459 11725 19574 15977 12950 10173 12588 12361 19745 16050 14384 17257 13468 18647 16963 18793 13683 15164 11672 999999 999999 999999 999999 999999 999999 999999 999999 999999 999999 999999 999999 999999 999999 999999 999999 999999 999999 999999 999999 999999 999999 999999 999999 999999 999999 999999 999999 999999 999999 999999 999999 999999 999999 999999 999999 999999 999999 999999 999999 999999 999999 999999 999999 999999 0 999999 999999 999999 999999 5101
999999 19139 10826 14956 14745 19606 19238 12935 13313 19253 17612 17829 19778 10968 17519 15069 10012 18657 15045 12038 19810 12824 13351 12261 16076 11389 17083 11597 15172 15652 17608 14145 12158 19559 11975 11535 10169 10064 18969 16931 15227 12712 19292 14285 12250 14756 16524 10966 14690 11246 12968 999999 999999 999999 999999 999999 999999 999999 999999 999999 999999 999999 999999 999999 999999 999999 999999 999999 999999 999999 999999 999999 999999 999999 999999 999999 999999 999999 999999 999999 999999 999999 999999 999999 999999 999999 999999 999999 999999 999999 999999 999999 999999 999999 999999 999999 999999 0 999999 999999 999999 7507
999999 10083 14606 15668 11207 16320 18010 17482 12758 10477 10371 13182 11274 18145 14780 15629 11281 13203 11793 17668 16232 18333 18929 15642 14087 19907 16368 12908 16503 11772 10937 14967 18284 17399 11933 11040 17111 16564 14016 10532 11185 17440 13114 16920 10398 16173 12621 14635 16287 13396 17885 999999 999999 999999 999999 999999 999999 999999 999999 999999 999999 999999 999999 999999 999999 999999 999999 999999 999999 999999 999999 999999 999999 999999 999999 999999 999999 999999 999999 999999 999999 999999 999999 999999 999999 999999 999999 999999 999999 999999 999999 999999 999999 999999 999999 999999 999999 999999 0 999999 999999 12850
999999 12768 14265 19547 19529 18739 14370 10889 16715 19957 10786 16987 19329 19375 10031 14431 12489 15952 10422 18079 11412 18971 13578 16740 13289 16764 18099 10371 18573 17355 13675 10456 15342 15250 15985 19613 17299 17748 10521 12864 18414 11139 12303 12739 10612 11277 13608 17869 17231 19474 19795 999999 999999 999999 999999 999999 999999 999999 999999 999999 999999 999999 999999 999999 999999 999999 999999 999999 999999 999999 999999 999999 999999 999999 999999 999999 999999 999999 999999 999999 999999 999999 999999 999999 999999 999999 999999 999999 999999 999999 999999 999999 999999 999999 999999 999999 999999 999999 999999 0 999999 13294
999999 13517 11467 11128 13288 13064 19654 13762 17437 19026 12975 13013 12254 12066 16261 14517 18201 19667 13778 11399 18387 16016 14161 14908 14022 14238 12499 13574 13475 17187 12015 11591 18024 11274 18838 12806 11604 16718 16585 12956 16143 10330 17829 11048 19390 16463 11603 17510 15696 16109 18103 999999 999999 999999 999999 999999 999999 999999 999999 999999 999999 999999 999999 999999 999999 999999 999999 999999 999999 999999 999999 999999 999999 999999 999999 999999 999999 999999 999999 999999 999999 999999 999999 999999 999999 999999 999999 999999 999999 999999 999999 999999 999999 999999 999999 999999 999999 999999 999999 999999 0 9579
1 999999 999999 999999 999999 999999 999999 999999 999999 999999 999999 999999 999999 999999 999999 999999 999999 999999 999999 999999 999999 999999 999999 999999 999999 999999 999999 999999 999999 999999 999999 999999 999999 999999 999999 999999 999999 999999 999999 999999 999999 999999 999999 999999 999999 999999 999999 999999 999999 999999 999999 999999 999999 999999 999999 999999 999999 999999 999999 999999 999999 999999 999999 999999 999999 999999 999999 999999 999999 999999 999999 999999 999999 999999 999999 999999 999999 999999 999999 999999 999999 999999 999999 999999 999999 999999 999999 999999 999999 999999 999999 999999 999999 999999 999999 999999 999999 999999 999999 999999 999999 0
EOF