NAME: GR_1x5x8_KH_5x8_Run_9
TYPE: TSP
COMMENT: BTSP instance |A|=40 GR nodes |B|=40 KH nodes depot=0.0 end=0.0.0
DIMENSION: 82
EDGE_WEIGHT_TYPE: EXPLICIT
EDGE_WEIGHT_FORMAT: FULL_MATRIX
NODE_COORD_TYPE: NO_COORDS
EDGE_WEIGHT_SECTION
0 11847 7369 12946 6039 7789 11446 7815 10367 13688 6678 6354 14461 11120 11820 13496 8953 5688 8247 6930 6673 6832 10228 5615 9757 11355 7504 6987 13525 11366 5839 14415 7215 10078 13128 6259 14217 7019 6755 11093 8276 999999 999999 999999 999999 999999 999999 999999 999999 999999 999999 999999 999999 999999 999999 999999 999999 999999 999999 999999 999999 999999 999999 999999 999999 999999 999999 999999 999999 999999 999999 999999 999999 999999 999999 999999 999999 999999 999999 999999 999999 999999
999999 0 999999 999999 999999 999999 999999 999999 999999 999999 999999 999999 999999 999999 999999 999999 999999 999999 999999 999999 999999 999999 999999 999999 999999 999999 999999 999999 999999 999999 999999 999999 999999 999999 999999 999999 999999 999999 999999 999999 999999 13891 999999 999999 999999 999999 999999 15689 999999 999999 11545 13982 999999 999999 999999 999999 999999 999999 999999 999999 999999 999999 999999 999999 999999 999999 999999 999999 999999 14889 999999 999999 999999 18994 999999 999999 999999 999999 16773 999999 15036 999999
999999 999999 0 999999 999999 999999 999999 999999 999999 999999 999999 999999 999999 999999 999999 999999 999999 999999 999999 999999 999999 999999 999999 999999 999999 999999 999999 999999 999999 999999 999999 999999 999999 999999 999999 999999 999999 999999 999999 999999 999999 13648 999999 999999 999999 999999 999999 16442 999999 999999 18671 19773 999999 999999 999999 999999 999999 999999 999999 999999 999999 999999 999999 999999 999999 999999 999999 999999 999999 16459 999999 999999 999999 13880 999999 999999 999999 999999 16883 999999 10885 999999
999999 999999 999999 0 999999 999999 999999 999999 999999 999999 999999 999999 999999 999999 999999 999999 999999 999999 999999 999999 999999 999999 999999 999999 999999 999999 999999 999999 999999 999999 999999 999999 999999 999999 999999 999999 999999 999999 999999 999999 999999 19146 999999 999999 999999 999999 999999 12310 999999 999999 13278 11859 999999 999999 999999 999999 999999 999999 999999 999999 999999 999999 999999 999999 999999 999999 999999 999999 999999 13334 999999 999999 999999 13032 999999 999999 999999 999999 11639 999999 12755 999999
999999 999999 999999 999999 0 999999 999999 999999 999999 999999 999999 999999 999999 999999 999999 999999 999999 999999 999999 999999 999999 999999 999999 999999 999999 999999 999999 999999 999999 999999 999999 999999 999999 999999 999999 999999 999999 999999 999999 999999 999999 13508 999999 999999 999999 999999 999999 15793 999999 999999 19333 11962 999999 999999 999999 999999 999999 999999 999999 999999 999999 999999 999999 999999 999999 999999 999999 999999 999999 19805 999999 999999 999999 13769 999999 999999 999999 999999 17737 999999 11884 999999
999999 999999 999999 999999 999999 0 999999 999999 999999 999999 999999 999999 999999 999999 999999 999999 999999 999999 999999 999999 999999 999999 999999 999999 999999 999999 999999 999999 999999 999999 999999 999999 999999 999999 999999 999999 999999 999999 999999 999999 999999 10430 999999 999999 999999 999999 999999 18069 999999 999999 17363 12876 999999 999999 999999 999999 999999 999999 999999 999999 999999 999999 999999 999999 999999 999999 999999 999999 999999 18464 999999 999999 999999 10276 999999 999999 999999 999999 12087 999999 15989 999999
999999 999999 999999 999999 999999 999999 0 999999 999999 999999 999999 999999 999999 999999 999999 999999 999999 999999 999999 999999 999999 999999 999999 999999 999999 999999 999999 999999 999999 999999 999999 999999 999999 999999 999999 999999 999999 999999 999999 999999 999999 14175 999999 999999 999999 999999 999999 10314 999999 999999 18858 19233 999999 999999 999999 999999 999999 999999 999999 999999 999999 999999 999999 999999 999999 999999 999999 999999 999999 17574 999999 999999 999999 12366 999999 999999 999999 999999 10672 999999 12938 999999
999999 999999 999999 999999 999999 999999 999999 0 999999 999999 999999 999999 999999 999999 999999 999999 999999 999999 999999 999999 999999 999999 999999 999999 999999 999999 999999 999999 999999 999999 999999 999999 999999 999999 999999 999999 999999 999999 999999 999999 999999 14584 999999 999999 999999 999999 999999 16499 999999 999999 15092 18138 999999 999999 999999 999999 999999 999999 999999 999999 999999 999999 999999 999999 999999 999999 999999 999999 999999 12406 999999 999999 999999 13096 999999 999999 999999 999999 12972 999999 16924 999999
999999 999999 999999 999999 999999 999999 999999 999999 0 999999 999999 999999 999999 999999 999999 999999 999999 999999 999999 999999 999999 999999 999999 999999 999999 999999 999999 999999 999999 999999 999999 999999 999999 999999 999999 999999 999999 999999 999999 999999 999999 16738 999999 999999 999999 999999 999999 19948 999999 999999 11377 18260 999999 999999 999999 999999 999999 999999 999999 999999 999999 999999 999999 999999 999999 999999 999999 999999 999999 17978 999999 999999 999999 10323 999999 999999 999999 999999 10667 999999 18731 999999
999999 999999 999999 999999 999999 999999 999999 999999 999999 0 999999 999999 999999 999999 999999 999999 999999 999999 999999 999999 999999 999999 999999 999999 999999 999999 999999 999999 999999 999999 999999 999999 999999 999999 999999 999999 999999 999999 999999 999999 999999 999999 999999 999999 999999 999999 999999 999999 999999 13359 999999 999999 999999 11627 999999 999999 19914 999999 999999 999999 999999 999999 15296 12992 999999 11019 999999 17164 999999 999999 999999 999999 999999 999999 999999 999999 15244 999999 999999 999999 999999 999999
999999 999999 999999 999999 999999 999999 999999 999999 999999 999999 0 999999 999999 999999 999999 999999 999999 999999 999999 999999 999999 999999 999999 999999 999999 999999 999999 999999 999999 999999 999999 999999 999999 999999 999999 999999 999999 999999 999999 999999 999999 999999 999999 999999 999999 999999 999999 999999 999999 19443 999999 999999 999999 15330 999999 999999 16624 999999 999999 999999 999999 999999 17397 11783 999999 14792 999999 17490 999999 999999 999999 999999 999999 999999 999999 999999 16592 999999 999999 999999 999999 999999
999999 999999 999999 999999 999999 999999 999999 999999 999999 999999 999999 0 999999 999999 999999 999999 999999 999999 999999 999999 999999 999999 999999 999999 999999 999999 999999 999999 999999 999999 999999 999999 999999 999999 999999 999999 999999 999999 999999 999999 999999 999999 999999 999999 999999 999999 999999 999999 999999 19108 999999 999999 999999 18375 999999 999999 19941 999999 999999 999999 999999 999999 16600 13240 999999 11678 999999 12838 999999 999999 999999 999999 999999 999999 999999 999999 13794 999999 999999 999999 999999 999999
999999 999999 999999 999999 999999 999999 999999 999999 999999 999999 999999 999999 0 999999 999999 999999 999999 999999 999999 999999 999999 999999 999999 999999 999999 999999 999999 999999 999999 999999 999999 999999 999999 999999 999999 999999 999999 999999 999999 999999 999999 999999 999999 999999 999999 999999 999999 999999 999999 12732 999999 999999 999999 14860 999999 999999 11912 999999 999999 999999 999999 999999 19675 10804 999999 13008 999999 13774 999999 999999 999999 999999 999999 999999 999999 999999 12514 999999 999999 999999 999999 999999
999999 999999 999999 999999 999999 999999 999999 999999 999999 999999 999999 999999 999999 0 999999 999999 999999 999999 999999 999999 999999 999999 999999 999999 999999 999999 999999 999999 999999 999999 999999 999999 999999 999999 999999 999999 999999 999999 999999 999999 999999 999999 999999 999999 999999 999999 999999 999999 999999 17591 999999 999999 999999 12669 999999 999999 11335 999999 999999 999999 999999 999999 17790 14310 999999 17410 999999 19126 999999 999999 999999 999999 999999 999999 999999 999999 12505 999999 999999 999999 999999 999999
999999 999999 999999 999999 999999 999999 999999 999999 999999 999999 999999 999999 999999 999999 0 999999 999999 999999 999999 999999 999999 999999 999999 999999 999999 999999 999999 999999 999999 999999 999999 999999 999999 999999 999999 999999 999999 999999 999999 999999 999999 999999 999999 999999 999999 999999 999999 999999 999999 18879 999999 999999 999999 18895 999999 999999 11715 999999 999999 999999 999999 999999 12808 19113 999999 18441 999999 19740 999999 999999 999999 999999 999999 999999 999999 999999 15321 999999 999999 999999 999999 999999
999999 999999 999999 999999 999999 999999 999999 999999 999999 999999 999999 999999 999999 999999 999999 0 999999 999999 999999 999999 999999 999999 999999 999999 999999 999999 999999 999999 999999 999999 999999 999999 999999 999999 999999 999999 999999 999999 999999 999999 999999 999999 999999 999999 999999 999999 999999 999999 999999 17444 999999 999999 999999 10835 999999 999999 15026 999999 999999 999999 999999 999999 19212 15417 999999 13612 999999 10464 999999 999999 999999 999999 999999 999999 999999 999999 19951 999999 999999 999999 999999 999999
999999 999999 999999 999999 999999 999999 999999 999999 999999 999999 999999 999999 999999 999999 999999 999999 0 999999 999999 999999 999999 999999 999999 999999 999999 999999 999999 999999 999999 999999 999999 999999 999999 999999 999999 999999 999999 999999 999999 999999 999999 999999 999999 999999 999999 999999 999999 999999 999999 11120 999999 999999 999999 17798 999999 999999 10951 999999 999999 999999 999999 999999 19230 10670 999999 19485 999999 13858 999999 999999 999999 999999 999999 999999 999999 999999 16054 999999 999999 999999 999999 999999
999999 999999 999999 999999 999999 999999 999999 999999 999999 999999 999999 999999 999999 999999 999999 999999 999999 0 999999 999999 999999 999999 999999 999999 999999 999999 999999 999999 999999 999999 999999 999999 999999 999999 999999 999999 999999 999999 999999 999999 999999 999999 11180 999999 13579 14772 999999 999999 999999 999999 999999 999999 19134 999999 999999 999999 999999 999999 15745 999999 999999 14718 999999 999999 999999 999999 14530 999999 999999 999999 999999 17220 999999 999999 999999 999999 999999 999999 999999 999999 999999 999999
999999 999999 999999 999999 999999 999999 999999 999999 999999 999999 999999 999999 999999 999999 999999 999999 999999 999999 0 999999 999999 999999 999999 999999 999999 999999 999999 999999 999999 999999 999999 999999 999999 999999 999999 999999 999999 999999 999999 999999 999999 999999 13984 999999 13703 14731 999999 999999 999999 999999 999999 999999 18834 999999 999999 999999 999999 999999 19332 999999 999999 10365 999999 999999 999999 999999 16607 999999 999999 999999 999999 15457 999999 999999 999999 999999 999999 999999 999999 999999 999999 999999
999999 999999 999999 999999 999999 999999 999999 999999 999999 999999 999999 999999 999999 999999 999999 999999 999999 999999 999999 0 999999 999999 999999 999999 999999 999999 999999 999999 999999 999999 999999 999999 999999 999999 999999 999999 999999 999999 999999 999999 999999 999999 12214 999999 15194 12046 999999 999999 999999 999999 999999 999999 13122 999999 999999 999999 999999 999999 14610 999999 999999 12474 999999 999999 999999 999999 17651 999999 999999 999999 999999 15259 999999 999999 999999 999999 999999 999999 999999 999999 999999 999999
999999 999999 999999 999999 999999 999999 999999 999999 999999 999999 999999 999999 999999 999999 999999 999999 999999 999999 999999 999999 0 999999 999999 999999 999999 999999 999999 999999 999999 999999 999999 999999 999999 999999 999999 999999 999999 999999 999999 999999 999999 999999 18876 999999 13429 14981 999999 999999 999999 999999 999999 999999 12476 999999 999999 999999 999999 999999 13637 999999 999999 15592 999999 999999 999999 999999 16173 999999 999999 999999 999999 13612 999999 999999 999999 999999 999999 999999 999999 999999 999999 999999
999999 999999 999999 999999 999999 999999 999999 999999 999999 999999 999999 999999 999999 999999 999999 999999 999999 999999 999999 999999 999999 0 999999 999999 999999 999999 999999 999999 999999 999999 999999 999999 999999 999999 999999 999999 999999 999999 999999 999999 999999 999999 19194 999999 17066 17819 999999 999999 999999 999999 999999 999999 16026 999999 999999 999999 999999 999999 18105 999999 999999 15641 999999 999999 999999 999999 11995 999999 999999 999999 999999 18612 999999 999999 999999 999999 999999 999999 999999 999999 999999 999999
999999 999999 999999 999999 999999 999999 999999 999999 999999 999999 999999 999999 999999 999999 999999 999999 999999 999999 999999 999999 999999 999999 0 999999 999999 999999 999999 999999 999999 999999 999999 999999 999999 999999 999999 999999 999999 999999 999999 999999 999999 999999 14148 999999 17338 19182 999999 999999 999999 999999 999999 999999 12073 999999 999999 999999 999999 999999 11247 999999 999999 16124 999999 999999 999999 999999 10982 999999 999999 999999 999999 16265 999999 999999 999999 999999 999999 999999 999999 999999 999999 999999
999999 999999 999999 999999 999999 999999 999999 999999 999999 999999 999999 999999 999999 999999 999999 999999 999999 999999 999999 999999 999999 999999 999999 0 999999 999999 999999 999999 999999 999999 999999 999999 999999 999999 999999 999999 999999 999999 999999 999999 999999 999999 16389 999999 16855 14431 999999 999999 999999 999999 999999 999999 12670 999999 999999 999999 999999 999999 19168 999999 999999 17101 999999 999999 999999 999999 14797 999999 999999 999999 999999 12862 999999 999999 999999 999999 999999 999999 999999 999999 999999 999999
999999 999999 999999 999999 999999 999999 999999 999999 999999 999999 999999 999999 999999 999999 999999 999999 999999 999999 999999 999999 999999 999999 999999 999999 0 999999 999999 999999 999999 999999 999999 999999 999999 999999 999999 999999 999999 999999 999999 999999 999999 999999 18165 999999 18363 16812 999999 999999 999999 999999 999999 999999 11760 999999 999999 999999 999999 999999 18123 999999 999999 19073 999999 999999 999999 999999 11977 999999 999999 999999 999999 15584 999999 999999 999999 999999 999999 999999 999999 999999 999999 999999
999999 999999 999999 999999 999999 999999 999999 999999 999999 999999 999999 999999 999999 999999 999999 999999 999999 999999 999999 999999 999999 999999 999999 999999 999999 0 999999 999999 999999 999999 999999 999999 999999 999999 999999 999999 999999 999999 999999 999999 999999 999999 999999 14317 999999 999999 12382 999999 14167 999999 999999 999999 999999 999999 10000 999999 999999 999999 999999 16790 14739 999999 999999 999999 999999 999999 999999 999999 999999 999999 999999 999999 16758 999999 999999 999999 999999 999999 999999 14816 999999 999999
999999 999999 999999 999999 999999 999999 999999 999999 999999 999999 999999 999999 999999 999999 999999 999999 999999 999999 999999 999999 999999 999999 999999 999999 999999 999999 0 999999 999999 999999 999999 999999 999999 999999 999999 999999 999999 999999 999999 999999 999999 999999 999999 14113 999999 999999 10636 999999 10468 999999 999999 999999 999999 999999 13767 999999 999999 999999 999999 18571 12710 999999 999999 999999 999999 999999 999999 999999 999999 999999 999999 999999 13919 999999 999999 999999 999999 999999 999999 12220 999999 999999
999999 999999 999999 999999 999999 999999 999999 999999 999999 999999 999999 999999 999999 999999 999999 999999 999999 999999 999999 999999 999999 999999 999999 999999 999999 999999 999999 0 999999 999999 999999 999999 999999 999999 999999 999999 999999 999999 999999 999999 999999 999999 999999 10303 999999 999999 12070 999999 17022 999999 999999 999999 999999 999999 15546 999999 999999 999999 999999 18936 14755 999999 999999 999999 999999 999999 999999 999999 999999 999999 999999 999999 17793 999999 999999 999999 999999 999999 999999 10121 999999 999999
999999 999999 999999 999999 999999 999999 999999 999999 999999 999999 999999 999999 999999 999999 999999 999999 999999 999999 999999 999999 999999 999999 999999 999999 999999 999999 999999 999999 0 999999 999999 999999 999999 999999 999999 999999 999999 999999 999999 999999 999999 999999 999999 12676 999999 999999 14629 999999 10006 999999 999999 999999 999999 999999 16573 999999 999999 999999 999999 18161 17120 999999 999999 999999 999999 999999 999999 999999 999999 999999 999999 999999 18582 999999 999999 999999 999999 999999 999999 15597 999999 999999
999999 999999 999999 999999 999999 999999 999999 999999 999999 999999 999999 999999 999999 999999 999999 999999 999999 999999 999999 999999 999999 999999 999999 999999 999999 999999 999999 999999 999999 0 999999 999999 999999 999999 999999 999999 999999 999999 999999 999999 999999 999999 999999 15613 999999 999999 17284 999999 16398 999999 999999 999999 999999 999999 11603 999999 999999 999999 999999 15962 12181 999999 999999 999999 999999 999999 999999 999999 999999 999999 999999 999999 13135 999999 999999 999999 999999 999999 999999 13670 999999 999999
999999 999999 999999 999999 999999 999999 999999 999999 999999 999999 999999 999999 999999 999999 999999 999999 999999 999999 999999 999999 999999 999999 999999 999999 999999 999999 999999 999999 999999 999999 0 999999 999999 999999 999999 999999 999999 999999 999999 999999 999999 999999 999999 16918 999999 999999 12680 999999 11378 999999 999999 999999 999999 999999 15048 999999 999999 999999 999999 19099 11390 999999 999999 999999 999999 999999 999999 999999 999999 999999 999999 999999 14624 999999 999999 999999 999999 999999 999999 15146 999999 999999
999999 999999 999999 999999 999999 999999 999999 999999 999999 999999 999999 999999 999999 999999 999999 999999 999999 999999 999999 999999 999999 999999 999999 999999 999999 999999 999999 999999 999999 999999 999999 0 999999 999999 999999 999999 999999 999999 999999 999999 999999 999999 999999 14193 999999 999999 10402 999999 16457 999999 999999 999999 999999 999999 16085 999999 999999 999999 999999 18206 14453 999999 999999 999999 999999 999999 999999 999999 999999 999999 999999 999999 16449 999999 999999 999999 999999 999999 999999 10265 999999 999999
999999 999999 999999 999999 999999 999999 999999 999999 999999 999999 999999 999999 999999 999999 999999 999999 999999 999999 999999 999999 999999 999999 999999 999999 999999 999999 999999 999999 999999 999999 999999 999999 0 999999 999999 999999 999999 999999 999999 999999 999999 999999 999999 13106 999999 999999 19765 999999 15001 999999 999999 999999 999999 999999 19591 999999 999999 999999 999999 10149 17646 999999 999999 999999 999999 999999 999999 999999 999999 999999 999999 999999 10408 999999 999999 999999 999999 999999 999999 18286 999999 999999
999999 999999 999999 999999 999999 999999 999999 999999 999999 999999 999999 999999 999999 999999 999999 999999 999999 999999 999999 999999 999999 999999 999999 999999 999999 999999 999999 999999 999999 999999 999999 999999 999999 0 999999 999999 999999 999999 999999 999999 999999 999999 999999 999999 999999 999999 999999 999999 999999 999999 999999 999999 999999 999999 999999 13363 999999 18524 999999 999999 999999 999999 999999 999999 13726 999999 999999 999999 13612 999999 12787 999999 999999 999999 19706 19873 999999 17017 999999 999999 999999 999999
999999 999999 999999 999999 999999 999999 999999 999999 999999 999999 999999 999999 999999 999999 999999 999999 999999 999999 999999 999999 999999 999999 999999 999999 999999 999999 999999 999999 999999 999999 999999 999999 999999 999999 0 999999 999999 999999 999999 999999 999999 999999 999999 999999 999999 999999 999999 999999 999999 999999 999999 999999 999999 999999 999999 11795 999999 12261 999999 999999 999999 999999 999999 999999 12993 999999 999999 999999 10866 999999 14205 999999 999999 999999 12542 10207 999999 18319 999999 999999 999999 999999
999999 999999 999999 999999 999999 999999 999999 999999 999999 999999 999999 999999 999999 999999 999999 999999 999999 999999 999999 999999 999999 999999 999999 999999 999999 999999 999999 999999 999999 999999 999999 999999 999999 999999 999999 0 999999 999999 999999 999999 999999 999999 999999 999999 999999 999999 999999 999999 999999 999999 999999 999999 999999 999999 999999 19587 999999 19924 999999 999999 999999 999999 999999 999999 10584 999999 999999 999999 15551 999999 18736 999999 999999 999999 16075 14335 999999 19723 999999 999999 999999 999999
999999 999999 999999 999999 999999 999999 999999 999999 999999 999999 999999 999999 999999 999999 999999 999999 999999 999999 999999 999999 999999 999999 999999 999999 999999 999999 999999 999999 999999 999999 999999 999999 999999 999999 999999 999999 0 999999 999999 999999 999999 999999 999999 999999 999999 999999 999999 999999 999999 999999 999999 999999 999999 999999 999999 17826 999999 12187 999999 999999 999999 999999 999999 999999 13782 999999 999999 999999 15036 999999 14640 999999 999999 999999 16550 18755 999999 15393 999999 999999 999999 999999
999999 999999 999999 999999 999999 999999 999999 999999 999999 999999 999999 999999 999999 999999 999999 999999 999999 999999 999999 999999 999999 999999 999999 999999 999999 999999 999999 999999 999999 999999 999999 999999 999999 999999 999999 999999 999999 0 999999 999999 999999 999999 999999 999999 999999 999999 999999 999999 999999 999999 999999 999999 999999 999999 999999 12798 999999 15645 999999 999999 999999 999999 999999 999999 15248 999999 999999 999999 12194 999999 15395 999999 999999 999999 13935 19127 999999 11008 999999 999999 999999 999999
999999 999999 999999 999999 999999 999999 999999 999999 999999 999999 999999 999999 999999 999999 999999 999999 999999 999999 999999 999999 999999 999999 999999 999999 999999 999999 999999 999999 999999 999999 999999 999999 999999 999999 999999 999999 999999 999999 0 999999 999999 999999 999999 999999 999999 999999 999999 999999 999999 999999 999999 999999 999999 999999 999999 11821 999999 16303 999999 999999 999999 999999 999999 999999 16866 999999 999999 999999 16515 999999 15850 999999 999999 999999 13123 13346 999999 14810 999999 999999 999999 999999
999999 999999 999999 999999 999999 999999 999999 999999 999999 999999 999999 999999 999999 999999 999999 999999 999999 999999 999999 999999 999999 999999 999999 999999 999999 999999 999999 999999 999999 999999 999999 999999 999999 999999 999999 999999 999999 999999 999999 0 999999 999999 999999 999999 999999 999999 999999 999999 999999 999999 999999 999999 999999 999999 999999 14987 999999 15011 999999 999999 999999 999999 999999 999999 10525 999999 999999 999999 11084 999999 13257 999999 999999 999999 16250 10015 999999 20000 999999 999999 999999 999999
999999 999999 999999 999999 999999 999999 999999 999999 999999 999999 999999 999999 999999 999999 999999 999999 999999 999999 999999 999999 999999 999999 999999 999999 999999 999999 999999 999999 999999 999999 999999 999999 999999 999999 999999 999999 999999 999999 999999 999999 0 999999 999999 999999 999999 999999 999999 999999 999999 999999 999999 999999 999999 999999 999999 18985 999999 13897 999999 999999 999999 999999 999999 999999 18112 999999 999999 999999 17527 999999 17558 999999 999999 999999 17560 13620 999999 17004 999999 999999 999999 999999
999999 13891 13648 19146 13508 10430 14175 14584 16738 12908 15073 18347 17973 11990 10367 10204 11187 15857 18812 10788 18338 16937 19380 19688 19408 18124 17170 14650 11874 19968 19689 19153 11441 10356 14752 18569 18667 19471 16739 14110 18547 0 999999 999999 999999 999999 999999 999999 999999 999999 999999 999999 999999 999999 999999 999999 999999 999999 999999 999999 999999 999999 999999 999999 999999 999999 999999 999999 999999 999999 999999 999999 999999 999999 999999 999999 999999 999999 999999 999999 999999 7997
999999 11729 12082 13137 17295 13739 19303 12480 18968 14636 17470 17965 18553 11789 13572 11509 14461 11180 13984 12214 18876 19194 14148 16389 18165 14628 19223 11198 18518 18926 14603 15515 16653 11009 18061 19427 16894 17374 19753 10346 16047 999999 0 999999 999999 999999 999999 999999 999999 999999 999999 999999 999999 999999 999999 999999 999999 999999 999999 999999 999999 999999 999999 999999 999999 999999 999999 999999 999999 999999 999999 999999 999999 999999 999999 999999 999999 999999 999999 999999 999999 9757
999999 14270 19865 16241 13962 16481 17652 14201 19503 16228 13671 16268 17186 13480 19789 12229 10691 11239 10986 13144 16539 14653 16221 13931 14338 14317 14113 10303 12676 15613 16918 14193 13106 11959 15526 18130 14091 14312 17458 19478 10325 999999 999999 0 999999 999999 999999 999999 999999 999999 999999 999999 999999 999999 999999 999999 999999 999999 999999 999999 999999 999999 999999 999999 999999 999999 999999 999999 999999 999999 999999 999999 999999 999999 999999 999999 999999 999999 999999 999999 999999 12946
999999 18399 13408 12163 13088 16440 11703 11493 13753 19100 15179 18727 19392 10907 10328 16854 17225 13579 13703 15194 13429 17066 17338 16855 18363 18448 18015 16321 15635 16525 17597 17080 15974 13366 10329 17261 12679 18813 17038 18420 11850 999999 999999 999999 0 999999 999999 999999 999999 999999 999999 999999 999999 999999 999999 999999 999999 999999 999999 999999 999999 999999 999999 999999 999999 999999 999999 999999 999999 999999 999999 999999 999999 999999 999999 999999 999999 999999 999999 999999 999999 13695
999999 16944 17248 14061 17278 18710 13408 15555 19237 15010 16108 19691 10319 12766 10952 15414 19035 14772 14731 12046 14981 17819 19182 14431 16812 12413 10666 10118 16013 10133 13198 14384 12535 17830 16731 12667 10401 12777 13766 19840 18534 999999 999999 999999 999999 0 999999 999999 999999 999999 999999 999999 999999 999999 999999 999999 999999 999999 999999 999999 999999 999999 999999 999999 999999 999999 999999 999999 999999 999999 999999 999999 999999 999999 999999 999999 999999 999999 999999 999999 999999 9555
999999 16129 18180 16805 15323 10107 19617 18369 11163 19628 11414 13926 17015 10978 16856 18734 16176 12291 11432 13867 18749 15156 11469 14322 12465 12382 10636 12070 14629 17284 12680 10402 19765 16846 12365 18657 14990 12507 17788 11650 15975 999999 999999 999999 999999 999999 0 999999 999999 999999 999999 999999 999999 999999 999999 999999 999999 999999 999999 999999 999999 999999 999999 999999 999999 999999 999999 999999 999999 999999 999999 999999 999999 999999 999999 999999 999999 999999 999999 999999 999999 11751
999999 15689 16442 12310 15793 18069 10314 16499 19948 18529 12436 15237 13161 15982 16857 19144 19698 10562 12109 13916 17254 14440 19129 13781 14950 16948 14501 14752 14385 14704 13345 10004 11084 13971 19215 18530 17966 10146 10163 11266 17660 999999 999999 999999 999999 999999 999999 0 999999 999999 999999 999999 999999 999999 999999 999999 999999 999999 999999 999999 999999 999999 999999 999999 999999 999999 999999 999999 999999 999999 999999 999999 999999 999999 999999 999999 999999 999999 999999 999999 999999 11944
999999 12403 17391 17932 10323 14634 18541 11763 15877 11689 12882 18827 14202 10175 13996 16908 18531 15016 10356 13168 11605 12615 15836 16479 11690 14167 10468 17022 10006 16398 11378 16457 15001 12096 17107 18095 12831 10150 12204 11437 10352 999999 999999 999999 999999 999999 999999 999999 0 999999 999999 999999 999999 999999 999999 999999 999999 999999 999999 999999 999999 999999 999999 999999 999999 999999 999999 999999 999999 999999 999999 999999 999999 999999 999999 999999 999999 999999 999999 999999 999999 9724
999999 12800 15271 17752 18243 10331 15112 19988 16645 13359 19443 19108 12732 17591 18879 17444 11120 11594 14738 19907 10808 13132 19602 11934 12774 19389 11759 12674 18926 13843 19911 19675 14827 16676 14850 18403 17373 17868 17800 19928 12162 999999 999999 999999 999999 999999 999999 999999 999999 0 999999 999999 999999 999999 999999 999999 999999 999999 999999 999999 999999 999999 999999 999999 999999 999999 999999 999999 999999 999999 999999 999999 999999 999999 999999 999999 999999 999999 999999 999999 999999 9036
999999 11545 18671 13278 19333 17363 18858 15092 11377 10436 14378 14265 16202 14765 19663 17288 10349 12050 19610 13942 15330 19641 10626 13785 11063 15605 11080 11052 13273 17095 14760 19592 16776 19273 16334 19490 16155 12905 17275 18003 18047 999999 999999 999999 999999 999999 999999 999999 999999 999999 0 999999 999999 999999 999999 999999 999999 999999 999999 999999 999999 999999 999999 999999 999999 999999 999999 999999 999999 999999 999999 999999 999999 999999 999999 999999 999999 999999 999999 999999 999999 8588
999999 13982 19773 11859 11962 12876 19233 18138 18260 15183 18716 16837 11435 16625 15511 17216 18540 19311 12660 15870 18282 10661 11379 11126 15224 11661 11447 14357 12077 17611 13998 15695 13830 16214 18308 18835 18457 17656 17197 10147 16622 999999 999999 999999 999999 999999 999999 999999 999999 999999 999999 0 999999 999999 999999 999999 999999 999999 999999 999999 999999 999999 999999 999999 999999 999999 999999 999999 999999 999999 999999 999999 999999 999999 999999 999999 999999 999999 999999 999999 999999 13214
999999 11197 10692 17831 16844 19465 14440 17226 17001 11908 19094 15534 18343 17642 10006 10838 18171 19134 18834 13122 12476 16026 12073 12670 11760 18828 10896 11395 11772 13616 16271 11888 13474 10157 10545 16440 16710 14850 14268 17346 18691 999999 999999 999999 999999 999999 999999 999999 999999 999999 999999 999999 0 999999 999999 999999 999999 999999 999999 999999 999999 999999 999999 999999 999999 999999 999999 999999 999999 999999 999999 999999 999999 999999 999999 999999 999999 999999 999999 999999 999999 6111
999999 17501 19307 10096 17362 18066 11603 10570 19987 11627 15330 18375 14860 12669 18895 10835 17798 14450 13428 11536 12519 13284 14773 10319 12927 11861 16852 18980 13227 18039 14891 14553 13319 12730 11491 14676 18788 13112 19693 11948 18304 999999 999999 999999 999999 999999 999999 999999 999999 999999 999999 999999 999999 0 999999 999999 999999 999999 999999 999999 999999 999999 999999 999999 999999 999999 999999 999999 999999 999999 999999 999999 999999 999999 999999 999999 999999 999999 999999 999999 999999 14734
999999 13513 12199 16343 11795 10557 18871 12025 11548 17213 10083 10597 11954 18851 16423 12177 17577 17651 13207 17385 14164 13479 10476 18381 12544 10000 13767 15546 16573 11603 15048 16085 19591 13781 12000 18059 18392 16873 11241 14225 16780 999999 999999 999999 999999 999999 999999 999999 999999 999999 999999 999999 999999 999999 0 999999 999999 999999 999999 999999 999999 999999 999999 999999 999999 999999 999999 999999 999999 999999 999999 999999 999999 999999 999999 999999 999999 999999 999999 999999 999999 13456
999999 12954 16393 18124 18241 13360 12725 12871 11658 16191 15781 11754 18796 13471 18986 19505 14839 11087 11774 16558 10808 11009 17812 18905 14860 15214 14518 11914 18930 10117 13842 12087 19004 13363 11795 19587 17826 12798 11821 14987 18985 999999 999999 999999 999999 999999 999999 999999 999999 999999 999999 999999 999999 999999 999999 0 999999 999999 999999 999999 999999 999999 999999 999999 999999 999999 999999 999999 999999 999999 999999 999999 999999 999999 999999 999999 999999 999999 999999 999999 999999 5528
999999 14235 19878 15596 18269 14786 11094 14711 14827 19914 16624 19941 11912 11335 11715 15026 10951 16049 15457 18879 19271 13670 16630 14395 16493 15706 16642 12360 18948 18071 15194 12134 13831 13485 17091 12974 13597 12971 14275 15223 17202 999999 999999 999999 999999 999999 999999 999999 999999 999999 999999 999999 999999 999999 999999 999999 0 999999 999999 999999 999999 999999 999999 999999 999999 999999 999999 999999 999999 999999 999999 999999 999999 999999 999999 999999 999999 999999 999999 999999 999999 6478
999999 12884 15448 16117 12971 15764 14224 16710 18601 18419 17325 17808 14382 10886 10111 11591 11813 17253 17570 13503 15963 16987 13517 18801 15083 10184 17516 16064 19913 12390 19213 14897 17985 18524 12261 19924 12187 15645 16303 15011 13897 999999 999999 999999 999999 999999 999999 999999 999999 999999 999999 999999 999999 999999 999999 999999 999999 0 999999 999999 999999 999999 999999 999999 999999 999999 999999 999999 999999 999999 999999 999999 999999 999999 999999 999999 999999 999999 999999 999999 999999 6049
999999 17570 10455 12123 19706 15012 19484 13973 17437 10501 13846 12735 18041 18013 14759 16975 13612 15745 19332 14610 13637 18105 11247 19168 18123 14945 12764 12699 12110 10400 11478 13510 16401 15393 19624 12477 16765 15026 13820 14584 16537 999999 999999 999999 999999 999999 999999 999999 999999 999999 999999 999999 999999 999999 999999 999999 999999 999999 0 999999 999999 999999 999999 999999 999999 999999 999999 999999 999999 999999 999999 999999 999999 999999 999999 999999 999999 999999 999999 999999 999999 14709
999999 12872 10049 16086 14823 17178 12207 12863 10252 14149 18317 10986 17754 16431 13022 16206 10760 14096 11745 14078 11152 12691 16589 17543 19970 16790 18571 18936 18161 15962 19099 18206 10149 16103 10878 10177 14535 19050 19960 12334 11011 999999 999999 999999 999999 999999 999999 999999 999999 999999 999999 999999 999999 999999 999999 999999 999999 999999 999999 0 999999 999999 999999 999999 999999 999999 999999 999999 999999 999999 999999 999999 999999 999999 999999 999999 999999 999999 999999 999999 999999 8310
999999 13770 17909 12651 19756 12110 17227 11700 11147 11418 13044 10159 14804 17765 12307 15114 18278 17272 19278 19565 17848 11572 15597 10028 17556 14739 12710 14755 17120 12181 11390 14453 17646 19035 11727 17008 19156 19115 19792 14237 18469 999999 999999 999999 999999 999999 999999 999999 999999 999999 999999 999999 999999 999999 999999 999999 999999 999999 999999 999999 0 999999 999999 999999 999999 999999 999999 999999 999999 999999 999999 999999 999999 999999 999999 999999 999999 999999 999999 999999 999999 9303
999999 16740 10894 11718 14829 14845 13870 14169 11239 12082 11828 14734 13077 11685 13665 19816 14246 14718 10365 12474 15592 15641 16124 17101 19073 10696 10486 10776 13232 12447 18402 18347 13328 11447 18382 14169 11033 16513 19216 16798 15346 999999 999999 999999 999999 999999 999999 999999 999999 999999 999999 999999 999999 999999 999999 999999 999999 999999 999999 999999 999999 0 999999 999999 999999 999999 999999 999999 999999 999999 999999 999999 999999 999999 999999 999999 999999 999999 999999 999999 999999 13594
999999 10744 15386 10036 15797 19485 16348 11191 14528 15296 17397 16600 19675 17790 12808 19212 19230 16309 19955 11795 13957 15878 15885 14379 12968 17303 14229 19769 10263 11460 15873 12167 12794 15362 11780 16451 13094 15429 13448 12099 16997 999999 999999 999999 999999 999999 999999 999999 999999 999999 999999 999999 999999 999999 999999 999999 999999 999999 999999 999999 999999 999999 0 999999 999999 999999 999999 999999 999999 999999 999999 999999 999999 999999 999999 999999 999999 999999 999999 999999 999999 13289
999999 13648 15591 11058 19826 13059 13392 13096 17360 12992 11783 13240 10804 14310 19113 15417 10670 13617 17840 19468 13774 16624 18869 18919 14606 19790 14196 15542 16322 12779 16652 17717 17817 18762 14281 10255 13385 10676 12854 16245 17341 999999 999999 999999 999999 999999 999999 999999 999999 999999 999999 999999 999999 999999 999999 999999 999999 999999 999999 999999 999999 999999 999999 0 999999 999999 999999 999999 999999 999999 999999 999999 999999 999999 999999 999999 999999 999999 999999 999999 999999 5981
999999 10088 19048 12347 19276 12076 11256 15723 17023 13225 13331 15418 12649 10739 18203 16928 19784 12667 13273 12549 14417 10458 14003 14456 11968 14132 19250 13347 11600 17376 19520 10029 12257 13726 12993 10584 13782 15248 16866 10525 18112 999999 999999 999999 999999 999999 999999 999999 999999 999999 999999 999999 999999 999999 999999 999999 999999 999999 999999 999999 999999 999999 999999 999999 0 999999 999999 999999 999999 999999 999999 999999 999999 999999 999999 999999 999999 999999 999999 999999 999999 7326
999999 16769 16133 12321 18188 18925 13826 14871 13665 11019 14792 11678 13008 17410 18441 13612 19485 16313 10105 18454 14323 15464 15290 12832 18492 15107 19264 12456 19563 18878 17777 13008 10176 19884 18530 13399 12115 12739 14303 10733 13727 999999 999999 999999 999999 999999 999999 999999 999999 999999 999999 999999 999999 999999 999999 999999 999999 999999 999999 999999 999999 999999 999999 999999 999999 0 999999 999999 999999 999999 999999 999999 999999 999999 999999 999999 999999 999999 999999 999999 999999 14053
999999 19484 13227 14935 16559 11058 13610 13258 17053 16453 17584 19607 15742 15764 13952 15249 11180 14530 16607 17651 16173 11995 10982 14797 11977 18924 15707 16826 14543 14601 14308 16298 15000 13503 12563 10478 17636 12199 13072 13781 11464 999999 999999 999999 999999 999999 999999 999999 999999 999999 999999 999999 999999 999999 999999 999999 999999 999999 999999 999999 999999 999999 999999 999999 999999 999999 0 999999 999999 999999 999999 999999 999999 999999 999999 999999 999999 999999 999999 999999 999999 5659
999999 13499 18645 16585 19577 11833 10989 10512 17437 17164 17490 12838 13774 19126 19740 10464 13858 11869 19693 17970 11747 15560 12967 10918 17827 10381 18848 12728 15955 13528 11915 16629 15589 11636 15994 12788 17081 13014 18630 12374 17648 999999 999999 999999 999999 999999 999999 999999 999999 999999 999999 999999 999999 999999 999999 999999 999999 999999 999999 999999 999999 999999 999999 999999 999999 999999 999999 0 999999 999999 999999 999999 999999 999999 999999 999999 999999 999999 999999 999999 999999 11182
999999 15511 16506 10659 14581 16931 16748 16394 13813 17820 15991 10637 19407 11854 17049 10288 12095 16120 10965 15095 18131 19135 13277 14461 13150 18400 19298 17835 19347 15888 10066 14543 15404 13612 10866 15551 15036 12194 16515 11084 17527 999999 999999 999999 999999 999999 999999 999999 999999 999999 999999 999999 999999 999999 999999 999999 999999 999999 999999 999999 999999 999999 999999 999999 999999 999999 999999 999999 0 999999 999999 999999 999999 999999 999999 999999 999999 999999 999999 999999 999999 14127
999999 14889 16459 13334 19805 18464 17574 12406 17978 16256 11143 15498 19058 16817 13572 10953 19916 10854 15292 18517 18010 19640 11309 13416 18856 14398 16891 10263 18358 12161 12537 19426 12652 12343 14134 15790 18473 18334 17781 19366 13476 999999 999999 999999 999999 999999 999999 999999 999999 999999 999999 999999 999999 999999 999999 999999 999999 999999 999999 999999 999999 999999 999999 999999 999999 999999 999999 999999 999999 0 999999 999999 999999 999999 999999 999999 999999 999999 999999 999999 999999 14719
999999 11462 14926 18648 14696 10875 19823 13278 19943 19236 13460 11285 18261 17781 16531 13644 12905 14682 17300 17701 14612 12480 12285 15376 10865 10403 17242 17487 15250 19521 14893 10966 13178 12787 14205 18736 14640 15395 15850 13257 17558 999999 999999 999999 999999 999999 999999 999999 999999 999999 999999 999999 999999 999999 999999 999999 999999 999999 999999 999999 999999 999999 999999 999999 999999 999999 999999 999999 999999 999999 0 999999 999999 999999 999999 999999 999999 999999 999999 999999 999999 10407
999999 15532 19702 15631 10046 13310 14847 17768 16158 12421 16648 13228 12354 10749 13443 14063 13779 17220 15457 15259 13612 18612 16265 12862 15584 19732 12556 16962 17106 19013 13981 17284 15716 12354 15380 10865 15030 11947 17416 13582 18702 999999 999999 999999 999999 999999 999999 999999 999999 999999 999999 999999 999999 999999 999999 999999 999999 999999 999999 999999 999999 999999 999999 999999 999999 999999 999999 999999 999999 999999 999999 0 999999 999999 999999 999999 999999 999999 999999 999999 999999 5900
999999 13863 19969 13375 14228 16681 12288 17761 19047 16375 10230 15826 11287 12897 11001 19633 14532 16575 14633 12601 12526 10821 15908 12498 11894 16758 13919 17793 18582 13135 14624 16449 10408 11926 14821 10378 19596 15182 12567 18274 17267 999999 999999 999999 999999 999999 999999 999999 999999 999999 999999 999999 999999 999999 999999 999999 999999 999999 999999 999999 999999 999999 999999 999999 999999 999999 999999 999999 999999 999999 999999 999999 0 999999 999999 999999 999999 999999 999999 999999 999999 12153
999999 18994 13880 13032 13769 10276 12366 13096 10323 15202 17901 12771 16740 15988 12115 18137 19523 15679 15093 13767 19789 19111 18099 14026 12784 14980 19256 16398 10138 15527 15644 18662 17559 13323 17308 16984 19408 14834 14036 11635 17873 999999 999999 999999 999999 999999 999999 999999 999999 999999 999999 999999 999999 999999 999999 999999 999999 999999 999999 999999 999999 999999 999999 999999 999999 999999 999999 999999 999999 999999 999999 999999 999999 0 999999 999999 999999 999999 999999 999999 999999 14892
999999 12003 11597 15490 10092 16752 19382 13502 10568 11848 18657 18562 17899 18432 18825 19889 16061 15620 18418 11516 12044 15312 13399 11383 17120 17121 18670 11701 13003 18046 19263 12924 14865 19706 12542 16075 16550 13935 13123 16250 17560 999999 999999 999999 999999 999999 999999 999999 999999 999999 999999 999999 999999 999999 999999 999999 999999 999999 999999 999999 999999 999999 999999 999999 999999 999999 999999 999999 999999 999999 999999 999999 999999 999999 0 999999 999999 999999 999999 999999 999999 14687
999999 17524 17108 15580 18474 18172 19454 15454 18115 12243 16899 10564 11806 16644 10201 11771 10481 13862 16066 11892 11885 14796 11518 15449 16148 15317 12625 12138 11599 13928 18127 14982 16019 19873 10207 14335 18755 19127 13346 10015 13620 999999 999999 999999 999999 999999 999999 999999 999999 999999 999999 999999 999999 999999 999999 999999 999999 999999 999999 999999 999999 999999 999999 999999 999999 999999 999999 999999 999999 999999 999999 999999 999999 999999 999999 0 999999 999999 999999 999999 999999 7371
999999 18906 16577 16479 18358 18891 10919 10288 18835 15244 16592 13794 12514 12505 15321 19951 16054 16622 17973 14555 16808 15511 19159 19744 14127 12340 10119 10212 17337 12278 13743 17903 10301 11266 18511 16662 10734 19351 12141 16492 16493 999999 999999 999999 999999 999999 999999 999999 999999 999999 999999 999999 999999 999999 999999 999999 999999 999999 999999 999999 999999 999999 999999 999999 999999 999999 999999 999999 999999 999999 999999 999999 999999 999999 999999 999999 0 999999 999999 999999 999999 10156
999999 18770 19258 12955 14010 18323 19759 15604 10393 16036 13306 12630 19913 11593 15050 16378 10659 15528 12778 12212 17207 15088 13031 12377 11961 10185 18243 17591 14904 12311 19814 14976 12877 17017 18319 19723 15393 11008 14810 20000 17004 999999 999999 999999 999999 999999 999999 999999 999999 999999 999999 999999 999999 999999 999999 999999 999999 999999 999999 999999 999999 999999 999999 999999 999999 999999 999999 999999 999999 999999 999999 999999 999999 999999 999999 999999 999999 0 999999 999999 999999 13260
999999 16773 16883 11639 17737 12087 10672 12972 10667 13973 11968 15689 14372 16952 10733 16893 10498 11477 12062 15476 16069 10563 15957 11786 14927 13703 12786 16873 16350 19599 10907 17629 19551 15202 11536 13739 16052 11746 15907 19739 17284 999999 999999 999999 999999 999999 999999 999999 999999 999999 999999 999999 999999 999999 999999 999999 999999 999999 999999 999999 999999 999999 999999 999999 999999 999999 999999 999999 999999 999999 999999 999999 999999 999999 999999 999999 999999 999999 0 999999 999999 5471
999999 19710 14327 19588 17943 13096 19471 17550 12210 16222 19105 18280 11753 10861 11367 11397 17463 18779 19180 10778 14254 10236 12398 17849 14390 14816 12220 10121 15597 13670 15146 10265 18286 13835 16480 10095 10845 18010 13493 10739 11616 999999 999999 999999 999999 999999 999999 999999 999999 999999 999999 999999 999999 999999 999999 999999 999999 999999 999999 999999 999999 999999 999999 999999 999999 999999 999999 999999 999999 999999 999999 999999 999999 999999 999999 999999 999999 999999 999999 0 999999 10169
999999 15036 10885 12755 11884 15989 12938 16924 18731 10300 11170 16623 16859 14419 18679 19113 18067 14821 16894 13748 15100 14484 11571 19839 14785 15229 14271 14921 10961 18484 14588 14835 11581 10656 19027 11174 10309 11999 16455 11987 19621 999999 999999 999999 999999 999999 999999 999999 999999 999999 999999 999999 999999 999999 999999 999999 999999 999999 999999 999999 999999 999999 999999 999999 999999 999999 999999 999999 999999 999999 999999 999999 999999 999999 999999 999999 999999 999999 999999 999999 0 7852
1 999999 999999 999999 999999 999999 999999 999999 999999 999999 999999 999999 999999 999999 999999 999999 999999 999999 999999 999999 999999 999999 999999 999999 999999 999999 999999 999999 999999 999999 999999 999999 999999 999999 999999 999999 999999 999999 999999 999999 999999 999999 999999 999999 999999 999999 999999 999999 999999 999999 999999 999999 999999 999999 999999 999999 999999 999999 999999 999999 999999 999999 999999 999999 999999 999999 999999 999999 999999 999999 999999 999999 999999 999999 999999 999999 999999 999999 999999 999999 999999 0
EOF