NAME: GR_1x5x8_KH_5x8_Run_9
TYPE: TSP
COMMENT: BTSP instance |A|=40 GR nodes |B|=40 KH nodes depot=0.0 end=0.0.0
DIMENSION: 82
EDGE_WEIGHT_TYPE: EXPLICIT
EDGE_WEIGHT_FORMAT: FULL_MATRIX
NODE_COORD_TYPE: NO_COORDS
EDGE_WEIGHT_SECTION
0 11037 10682 14893 7164 13185 8082 12894 6501 9588 11498 9980 11831 6489 10311 5836 12205 9327 10878 6407 6429 13765 9352 11127 8055 10388 14976 10625 13689 7204 8027 12088 14119 11345 12187 12031 11857 6424 9040 7982 8249 999999 999999 999999 999999 999999 999999 999999 999999 999999 999999 999999 999999 999999 999999 999999 999999 999999 999999 999999 999999 999999 999999 999999 999999 999999 999999 999999 999999 999999 999999 999999 999999 999999 999999 999999 999999 999999 999999 999999 999999 999999
999999 0 999999 999999 999999 999999 999999 999999 999999 999999 999999 999999 999999 999999 999999 999999 999999 999999 999999 999999 999999 999999 999999 999999 999999 999999 999999 999999 999999 999999 999999 999999 999999 999999 999999 999999 999999 999999 999999 999999 999999 17800 15736 14416 17034 12950 15528 19968 12336 15702 11231 10791 10434 16992 11266 15459 18965 10816 13218 14584 19863 13202 18489 12714 16862 13029 10230 15969 10486 15225 19296 11864 11503 13184 13540 13324 15274 18517 12277 17773 10374 999999
999999 999999 0 999999 999999 999999 999999 999999 999999 999999 999999 999999 999999 999999 999999 999999 999999 999999 999999 999999 999999 999999 999999 999999 999999 999999 999999 999999 999999 999999 999999 999999 999999 999999 999999 999999 999999 999999 999999 999999 999999 13311 13058 19709 14689 18494 19666 17958 14706 16563 10445 10120 18589 15359 15063 13796 16934 15461 19227 14818 16740 13209 12063 17604 18498 12968 12233 12297 12493 18422 15005 10701 17315 12867 19631 14460 15451 19954 11472 16066 13928 999999
999999 999999 999999 0 999999 999999 999999 999999 999999 999999 999999 999999 999999 999999 999999 999999 999999 999999 999999 999999 999999 999999 999999 999999 999999 999999 999999 999999 999999 999999 999999 999999 999999 999999 999999 999999 999999 999999 999999 999999 999999 15496 13183 17870 16561 10471 15982 12717 15518 11786 10185 18498 16928 11735 16232 10250 18195 14263 19602 12919 15502 15753 12326 11969 13573 19169 12907 14580 13760 11357 17820 12821 14531 17613 16886 13370 13611 18128 13887 18933 14230 999999
999999 999999 999999 999999 0 999999 999999 999999 999999 999999 999999 999999 999999 999999 999999 999999 999999 999999 999999 999999 999999 999999 999999 999999 999999 999999 999999 999999 999999 999999 999999 999999 999999 999999 999999 999999 999999 999999 999999 999999 999999 18249 19975 18671 14569 19624 16933 18599 12891 15199 16589 18815 11840 17946 18720 14377 11526 18318 17267 17669 11836 14806 14257 10355 19723 15338 11516 12559 19492 18887 11167 16636 13834 14768 15809 12261 12707 16073 10675 13933 18643 999999
999999 999999 999999 999999 999999 0 999999 999999 999999 999999 999999 999999 999999 999999 999999 999999 999999 999999 999999 999999 999999 999999 999999 999999 999999 999999 999999 999999 999999 999999 999999 999999 999999 999999 999999 999999 999999 999999 999999 999999 999999 10312 12618 17863 18557 12052 12392 16554 19887 16278 12901 12203 13179 13913 16613 12514 19418 18158 10489 13403 11449 18908 15438 11431 17929 16468 18259 16861 15515 16804 16988 12771 11078 14269 13716 14411 16296 12309 15561 11493 11897 999999
999999 999999 999999 999999 999999 999999 0 999999 999999 999999 999999 999999 999999 999999 999999 999999 999999 999999 999999 999999 999999 999999 999999 999999 999999 999999 999999 999999 999999 999999 999999 999999 999999 999999 999999 999999 999999 999999 999999 999999 999999 13262 16607 19939 16529 19987 13244 13645 14888 18301 14639 19057 18606 16651 10775 17483 14157 12908 15982 12571 14449 13411 11646 10398 14172 11412 15117 16199 16952 15418 11100 15567 14519 11412 19294 15163 10717 14861 15862 11286 15006 999999
999999 999999 999999 999999 999999 999999 999999 0 999999 999999 999999 999999 999999 999999 999999 999999 999999 999999 999999 999999 999999 999999 999999 999999 999999 999999 999999 999999 999999 999999 999999 999999 999999 999999 999999 999999 999999 999999 999999 999999 999999 12929 15437 12609 19739 12753 14356 12829 17181 14617 15749 18301 17078 12162 18667 13577 13565 12443 11431 18245 19096 13127 17323 13168 19592 18318 14163 18978 14858 11893 13584 19168 17317 19095 15968 16112 19213 14903 15423 17949 10013 999999
999999 999999 999999 999999 999999 999999 999999 999999 0 999999 999999 999999 999999 999999 999999 999999 999999 999999 999999 999999 999999 999999 999999 999999 999999 999999 999999 999999 999999 999999 999999 999999 999999 999999 999999 999999 999999 999999 999999 999999 999999 11630 15569 19816 19480 17560 13083 19319 13040 19385 13909 15868 11611 12371 12838 15244 18578 13301 12714 14012 13082 19169 19750 12959 11559 19792 16821 17964 11691 15777 11306 18692 11765 10544 18249 18731 18474 18934 13266 18096 18144 999999
999999 999999 999999 999999 999999 999999 999999 999999 999999 0 999999 999999 999999 999999 999999 999999 999999 999999 999999 999999 999999 999999 999999 999999 999999 999999 999999 999999 999999 999999 999999 999999 999999 999999 999999 999999 999999 999999 999999 999999 999999 13889 15388 15079 17423 10535 18023 12917 11306 17546 18825 15239 15732 16206 11879 17987 10225 19752 16264 18188 12158 14957 16571 13690 11280 11253 15283 11449 18842 12159 12584 19762 13560 18821 10275 12643 12209 18324 10091 13397 16375 999999
999999 999999 999999 999999 999999 999999 999999 999999 999999 999999 0 999999 999999 999999 999999 999999 999999 999999 999999 999999 999999 999999 999999 999999 999999 999999 999999 999999 999999 999999 999999 999999 999999 999999 999999 999999 999999 999999 999999 999999 999999 18024 18363 16891 16308 11452 15054 14711 16362 17993 19854 18470 11380 11653 17270 14744 11083 19414 16092 18671 15508 14242 16917 13966 18349 17288 12430 17057 12839 11173 17673 11318 18210 17629 12426 14525 10061 14117 14773 19404 14329 999999
999999 999999 999999 999999 999999 999999 999999 999999 999999 999999 999999 0 999999 999999 999999 999999 999999 999999 999999 999999 999999 999999 999999 999999 999999 999999 999999 999999 999999 999999 999999 999999 999999 999999 999999 999999 999999 999999 999999 999999 999999 11372 15188 19565 13203 11660 19055 13482 19101 15045 15408 12250 16720 16684 16683 17863 16606 18024 18907 10731 14144 15391 18414 13029 12075 15048 13537 17813 17226 19302 19978 15377 12853 11424 19503 15214 18361 18223 10786 11543 11486 999999
999999 999999 999999 999999 999999 999999 999999 999999 999999 999999 999999 999999 0 999999 999999 999999 999999 999999 999999 999999 999999 999999 999999 999999 999999 999999 999999 999999 999999 999999 999999 999999 999999 999999 999999 999999 999999 999999 999999 999999 999999 15986 11658 18606 12674 13503 16251 13880 14778 10983 12939 13348 14706 14924 14945 11372 19872 16087 16730 11852 14327 12331 13482 14461 13566 18833 18098 14435 15899 11571 11480 19793 19994 19911 12313 19750 16872 18183 19492 17805 17907 999999
999999 999999 999999 999999 999999 999999 999999 999999 999999 999999 999999 999999 999999 0 999999 999999 999999 999999 999999 999999 999999 999999 999999 999999 999999 999999 999999 999999 999999 999999 999999 999999 999999 999999 999999 999999 999999 999999 999999 999999 999999 19949 18581 18308 17635 14337 12803 12825 10288 12783 11464 17507 10061 18178 18479 11280 17351 17863 14506 12417 17416 19882 10209 17988 18350 17193 14585 13934 19537 10933 14625 13233 16046 16192 19101 13282 12140 19143 19802 12807 17966 999999
999999 999999 999999 999999 999999 999999 999999 999999 999999 999999 999999 999999 999999 999999 0 999999 999999 999999 999999 999999 999999 999999 999999 999999 999999 999999 999999 999999 999999 999999 999999 999999 999999 999999 999999 999999 999999 999999 999999 999999 999999 14381 13089 11794 11611 15294 17158 18277 18761 10845 12390 16026 19345 15421 13021 10407 12804 12654 17444 16864 17482 19702 17955 13276 18631 18752 11735 18671 15593 10199 16721 16332 17233 19175 19634 10917 14006 11380 14542 15776 16798 999999
999999 999999 999999 999999 999999 999999 999999 999999 999999 999999 999999 999999 999999 999999 999999 0 999999 999999 999999 999999 999999 999999 999999 999999 999999 999999 999999 999999 999999 999999 999999 999999 999999 999999 999999 999999 999999 999999 999999 999999 999999 18924 12877 18130 18842 15537 14286 19064 13126 14689 14257 19181 11039 18376 15712 19253 14898 18515 15042 16235 13437 15407 14152 11254 11902 10095 19312 12171 19251 11526 16198 16752 13199 10137 17035 13074 15246 11085 11396 11027 11654 999999
999999 999999 999999 999999 999999 999999 999999 999999 999999 999999 999999 999999 999999 999999 999999 999999 0 999999 999999 999999 999999 999999 999999 999999 999999 999999 999999 999999 999999 999999 999999 999999 999999 999999 999999 999999 999999 999999 999999 999999 999999 12596 13207 16892 12999 11111 10739 10466 11659 19250 14884 10836 11876 11986 19300 13063 11806 17331 19723 15837 15603 19685 12416 18938 19600 18710 15474 19670 12607 19299 14920 12480 14960 13338 10013 10989 19961 13715 18804 12926 11995 999999
999999 999999 999999 999999 999999 999999 999999 999999 999999 999999 999999 999999 999999 999999 999999 999999 999999 0 999999 999999 999999 999999 999999 999999 999999 999999 999999 999999 999999 999999 999999 999999 999999 999999 999999 999999 999999 999999 999999 999999 999999 12238 14393 11271 19078 12994 10661 15375 16910 13971 17772 12179 19553 11079 12332 10535 17801 14058 10958 19972 11597 10409 13939 13627 10206 11222 17907 14962 10250 16827 19811 17215 17845 16650 17498 18513 11545 17518 19239 11686 17770 999999
999999 999999 999999 999999 999999 999999 999999 999999 999999 999999 999999 999999 999999 999999 999999 999999 999999 999999 0 999999 999999 999999 999999 999999 999999 999999 999999 999999 999999 999999 999999 999999 999999 999999 999999 999999 999999 999999 999999 999999 999999 13701 14550 15743 13979 11869 12146 18896 11273 16256 14481 11331 11084 12212 17111 17830 13972 13744 19499 10138 16494 19276 19769 15439 17050 13565 17097 18223 18531 13047 14134 11612 15638 16682 15374 19963 15907 15780 18371 11211 10293 999999
999999 999999 999999 999999 999999 999999 999999 999999 999999 999999 999999 999999 999999 999999 999999 999999 999999 999999 999999 0 999999 999999 999999 999999 999999 999999 999999 999999 999999 999999 999999 999999 999999 999999 999999 999999 999999 999999 999999 999999 999999 12844 12377 11408 12332 16327 17572 12824 13756 15446 12707 12816 12371 14084 13632 17494 17109 12546 15789 13584 10500 15994 18185 17912 13523 16707 17489 12567 19859 10259 17938 12511 12862 11669 18496 11423 18126 19722 13724 11728 18594 999999
999999 999999 999999 999999 999999 999999 999999 999999 999999 999999 999999 999999 999999 999999 999999 999999 999999 999999 999999 999999 0 999999 999999 999999 999999 999999 999999 999999 999999 999999 999999 999999 999999 999999 999999 999999 999999 999999 999999 999999 999999 12755 11214 13719 13955 12134 19867 12661 18322 18534 15312 11769 17129 14661 11605 12380 16077 11049 19957 15610 18575 13400 19388 15741 14036 12792 10399 18535 11587 12624 16683 19961 16660 13242 15729 13699 19502 11130 11055 13437 19785 999999
999999 999999 999999 999999 999999 999999 999999 999999 999999 999999 999999 999999 999999 999999 999999 999999 999999 999999 999999 999999 999999 0 999999 999999 999999 999999 999999 999999 999999 999999 999999 999999 999999 999999 999999 999999 999999 999999 999999 999999 999999 14448 17420 11627 13622 16724 17911 13725 17099 14555 12001 14485 17056 12447 16800 15658 15008 12605 14965 15862 19252 16577 19794 15595 14282 17344 10187 11806 15824 17440 10617 17908 11542 16910 10522 12430 11643 11818 17121 13550 13103 999999
999999 999999 999999 999999 999999 999999 999999 999999 999999 999999 999999 999999 999999 999999 999999 999999 999999 999999 999999 999999 999999 999999 0 999999 999999 999999 999999 999999 999999 999999 999999 999999 999999 999999 999999 999999 999999 999999 999999 999999 999999 12360 17624 14036 16493 19439 16442 16297 13026 17581 16995 19183 16127 19055 18257 10000 15754 16770 19709 10763 11871 12051 14119 14483 15536 11840 10466 14467 11949 18228 12010 19827 12327 10759 14760 11742 17673 14924 14800 13581 12161 999999
999999 999999 999999 999999 999999 999999 999999 999999 999999 999999 999999 999999 999999 999999 999999 999999 999999 999999 999999 999999 999999 999999 999999 0 999999 999999 999999 999999 999999 999999 999999 999999 999999 999999 999999 999999 999999 999999 999999 999999 999999 13980 13593 18572 10463 10533 19443 18952 10545 17839 18700 19214 16891 19495 12814 16951 19620 14643 17829 10379 10095 12289 10788 10288 12973 19122 11977 13274 10635 19615 15906 11798 17350 18945 18502 16342 14943 15430 11850 16534 11226 999999
999999 999999 999999 999999 999999 999999 999999 999999 999999 999999 999999 999999 999999 999999 999999 999999 999999 999999 999999 999999 999999 999999 999999 999999 0 999999 999999 999999 999999 999999 999999 999999 999999 999999 999999 999999 999999 999999 999999 999999 999999 12849 14135 12156 19465 14732 17735 19316 18054 10669 10428 18316 10467 16482 17251 11695 18114 13395 10873 18600 17306 13720 18858 18063 13108 16310 14049 19480 14117 14657 19012 13606 12500 14350 10969 11490 13405 17591 17498 15774 10716 999999
999999 999999 999999 999999 999999 999999 999999 999999 999999 999999 999999 999999 999999 999999 999999 999999 999999 999999 999999 999999 999999 999999 999999 999999 999999 0 999999 999999 999999 999999 999999 999999 999999 999999 999999 999999 999999 999999 999999 999999 999999 16114 15543 19413 13444 17571 18212 16607 14879 16947 16197 14663 13621 10942 18795 17664 15633 10053 15217 19909 19650 13216 10216 10088 18626 12741 15240 19038 11701 11467 11407 10180 15986 18508 13862 16676 14720 15157 13615 10721 19146 999999
999999 999999 999999 999999 999999 999999 999999 999999 999999 999999 999999 999999 999999 999999 999999 999999 999999 999999 999999 999999 999999 999999 999999 999999 999999 999999 0 999999 999999 999999 999999 999999 999999 999999 999999 999999 999999 999999 999999 999999 999999 13779 15704 15663 18890 10820 15012 18040 10760 14967 14580 16428 16199 16820 17089 19550 14208 16310 10312 14589 17060 19026 17672 10066 18025 16497 14767 15099 13725 11960 18085 19673 17845 18377 17383 15866 11838 10535 12419 17486 15302 999999
999999 999999 999999 999999 999999 999999 999999 999999 999999 999999 999999 999999 999999 999999 999999 999999 999999 999999 999999 999999 999999 999999 999999 999999 999999 999999 999999 0 999999 999999 999999 999999 999999 999999 999999 999999 999999 999999 999999 999999 999999 14256 17846 19984 17063 15867 15146 14263 18971 19227 13909 11560 14214 12899 12968 16528 12379 14201 19887 11360 19748 13520 15830 15658 19199 18655 16298 13040 15413 11250 10308 12328 15718 14161 14039 15606 14285 14793 12102 13263 13612 999999
999999 999999 999999 999999 999999 999999 999999 999999 999999 999999 999999 999999 999999 999999 999999 999999 999999 999999 999999 999999 999999 999999 999999 999999 999999 999999 999999 999999 0 999999 999999 999999 999999 999999 999999 999999 999999 999999 999999 999999 999999 17515 13931 19769 14218 16572 10062 18727 11854 10014 11138 18593 17250 13257 18078 14228 12055 10311 10346 11664 18865 12345 18421 13180 12247 12550 19694 13679 14178 17762 11702 16495 14996 11425 13697 19138 19912 12043 12087 18725 19305 999999
999999 999999 999999 999999 999999 999999 999999 999999 999999 999999 999999 999999 999999 999999 999999 999999 999999 999999 999999 999999 999999 999999 999999 999999 999999 999999 999999 999999 999999 0 999999 999999 999999 999999 999999 999999 999999 999999 999999 999999 999999 10944 12553 10322 17797 19913 13783 10150 11212 18321 18125 14857 13023 16107 15673 19569 14888 15194 17833 14305 15624 16169 19509 19896 10424 10598 18864 16588 15996 10535 13846 17634 19572 15968 10776 18999 15986 18869 10502 15159 17685 999999
999999 999999 999999 999999 999999 999999 999999 999999 999999 999999 999999 999999 999999 999999 999999 999999 999999 999999 999999 999999 999999 999999 999999 999999 999999 999999 999999 999999 999999 999999 0 999999 999999 999999 999999 999999 999999 999999 999999 999999 999999 16355 17838 11709 11566 10820 13122 16060 14851 17827 12653 10238 13586 12104 18087 18227 16939 12540 14319 18022 15283 15983 10630 14101 15583 11341 13439 16732 13409 11993 17476 12831 10932 16272 18538 17337 13643 13825 10795 18142 19847 999999
999999 999999 999999 999999 999999 999999 999999 999999 999999 999999 999999 999999 999999 999999 999999 999999 999999 999999 999999 999999 999999 999999 999999 999999 999999 999999 999999 999999 999999 999999 999999 0 999999 999999 999999 999999 999999 999999 999999 999999 999999 14138 19962 18615 19751 12784 18500 12870 12872 13003 11746 11407 19526 14473 10580 15644 19409 16296 10128 17282 14766 14911 15577 10764 14454 10106 14529 11512 19578 14594 12752 15342 18701 15310 19267 13774 14242 11159 19558 16751 19412 999999
999999 999999 999999 999999 999999 999999 999999 999999 999999 999999 999999 999999 999999 999999 999999 999999 999999 999999 999999 999999 999999 999999 999999 999999 999999 999999 999999 999999 999999 999999 999999 999999 0 999999 999999 999999 999999 999999 999999 999999 999999 16719 17635 18457 17708 13882 18614 10166 14761 17314 12743 12543 19745 15042 10786 13520 11385 12258 11512 16882 19283 14362 11424 12649 19980 15175 19559 19298 11095 18729 10418 19066 18915 15902 16601 10915 19809 18439 10801 15150 13389 999999
999999 999999 999999 999999 999999 999999 999999 999999 999999 999999 999999 999999 999999 999999 999999 999999 999999 999999 999999 999999 999999 999999 999999 999999 999999 999999 999999 999999 999999 999999 999999 999999 999999 0 999999 999999 999999 999999 999999 999999 999999 13220 16630 19584 14245 16028 14153 10173 15923 13738 17700 12138 18227 14151 18372 14093 16080 15542 17648 16777 14512 18522 12491 12099 18953 11151 15235 15677 18688 15725 19923 19943 10061 12837 10916 10040 16381 15197 13692 12585 15062 999999
999999 999999 999999 999999 999999 999999 999999 999999 999999 999999 999999 999999 999999 999999 999999 999999 999999 999999 999999 999999 999999 999999 999999 999999 999999 999999 999999 999999 999999 999999 999999 999999 999999 999999 0 999999 999999 999999 999999 999999 999999 11617 13087 12197 18867 15382 14209 14003 14363 18264 17258 10726 14771 16608 17491 17467 11880 13103 13148 16870 18583 16784 13916 16527 15265 19743 15008 16610 13070 13263 18327 19596 19753 19932 11206 17215 18792 10419 15921 19219 16457 999999
999999 999999 999999 999999 999999 999999 999999 999999 999999 999999 999999 999999 999999 999999 999999 999999 999999 999999 999999 999999 999999 999999 999999 999999 999999 999999 999999 999999 999999 999999 999999 999999 999999 999999 999999 0 999999 999999 999999 999999 999999 19760 18826 15510 18877 12312 12620 12005 15958 10535 15250 13980 11789 13778 17488 11171 10609 15214 19166 16800 14618 15900 11363 19582 15603 16184 15261 13828 16178 16693 13187 19291 14060 16068 17453 13493 18718 18340 15549 13725 10691 999999
999999 999999 999999 999999 999999 999999 999999 999999 999999 999999 999999 999999 999999 999999 999999 999999 999999 999999 999999 999999 999999 999999 999999 999999 999999 999999 999999 999999 999999 999999 999999 999999 999999 999999 999999 999999 0 999999 999999 999999 999999 16153 14815 16864 12704 12137 11539 12473 13625 18704 19067 15622 14680 18692 17441 18672 12504 18573 17365 13987 18931 15731 19474 15701 11974 16605 16810 19890 15943 14699 12479 19157 14669 11289 14554 16846 19626 10312 15006 16261 11055 999999
999999 999999 999999 999999 999999 999999 999999 999999 999999 999999 999999 999999 999999 999999 999999 999999 999999 999999 999999 999999 999999 999999 999999 999999 999999 999999 999999 999999 999999 999999 999999 999999 999999 999999 999999 999999 999999 0 999999 999999 999999 12519 10696 16991 17082 11914 12027 15957 17064 12079 12254 17528 16787 17685 14116 11578 15735 17964 19024 11919 15396 15941 14543 16354 11211 17538 18572 10478 14728 10706 17925 17190 13919 18516 15546 18938 18021 19015 16830 17075 16317 999999
999999 999999 999999 999999 999999 999999 999999 999999 999999 999999 999999 999999 999999 999999 999999 999999 999999 999999 999999 999999 999999 999999 999999 999999 999999 999999 999999 999999 999999 999999 999999 999999 999999 999999 999999 999999 999999 999999 0 999999 999999 16763 15878 19104 11141 18689 14391 10430 17926 15984 15327 19619 12343 12450 10746 11760 16710 11995 15049 19947 15801 19336 12732 19328 16044 15777 17266 18655 18678 14275 13183 10922 17440 17514 10366 13869 15126 17386 13497 14339 11114 999999
999999 999999 999999 999999 999999 999999 999999 999999 999999 999999 999999 999999 999999 999999 999999 999999 999999 999999 999999 999999 999999 999999 999999 999999 999999 999999 999999 999999 999999 999999 999999 999999 999999 999999 999999 999999 999999 999999 999999 0 999999 16583 18711 15343 19392 17013 13515 18420 14738 13398 10409 19169 16458 16597 13170 18474 14765 17604 13141 15772 13701 10248 18377 11085 15299 17115 11253 11558 15883 14295 19195 17741 10859 14458 19046 14452 10526 16054 16871 15662 10885 999999
999999 999999 999999 999999 999999 999999 999999 999999 999999 999999 999999 999999 999999 999999 999999 999999 999999 999999 999999 999999 999999 999999 999999 999999 999999 999999 999999 999999 999999 999999 999999 999999 999999 999999 999999 999999 999999 999999 999999 999999 0 18175 12932 15381 19203 14474 10120 16755 17466 12606 16430 14333 13443 16699 11315 14674 18439 10912 12441 17550 15790 13754 12259 16051 10165 10129 16253 10956 18187 11822 15128 13553 10787 18459 16628 10071 12859 15545 14578 13879 14913 999999
999999 17800 13311 15496 18249 10312 13262 12929 11630 13889 18024 11372 15986 19949 14381 18924 12596 12238 13701 12844 12755 14448 12360 13980 12849 16114 13779 14256 17515 10944 16355 14138 16719 13220 11617 19760 16153 12519 16763 16583 18175 0 999999 999999 999999 999999 999999 999999 999999 999999 999999 999999 999999 999999 999999 999999 999999 999999 999999 999999 999999 999999 999999 999999 999999 999999 999999 999999 999999 999999 999999 999999 999999 999999 999999 999999 999999 999999 999999 999999 999999 9140
999999 15736 13058 13183 19975 12618 16607 15437 15569 15388 18363 15188 11658 18581 13089 12877 13207 14393 14550 12377 11214 17420 17624 13593 14135 15543 15704 17846 13931 12553 17838 19962 17635 16630 13087 18826 14815 10696 15878 18711 12932 999999 0 999999 999999 999999 999999 999999 999999 999999 999999 999999 999999 999999 999999 999999 999999 999999 999999 999999 999999 999999 999999 999999 999999 999999 999999 999999 999999 999999 999999 999999 999999 999999 999999 999999 999999 999999 999999 999999 999999 13159
999999 14416 19709 17870 18671 17863 19939 12609 19816 15079 16891 19565 18606 18308 11794 18130 16892 11271 15743 11408 13719 11627 14036 18572 12156 19413 15663 19984 19769 10322 11709 18615 18457 19584 12197 15510 16864 16991 19104 15343 15381 999999 999999 0 999999 999999 999999 999999 999999 999999 999999 999999 999999 999999 999999 999999 999999 999999 999999 999999 999999 999999 999999 999999 999999 999999 999999 999999 999999 999999 999999 999999 999999 999999 999999 999999 999999 999999 999999 999999 999999 6707
999999 17034 14689 16561 14569 18557 16529 19739 19480 17423 16308 13203 12674 17635 11611 18842 12999 19078 13979 12332 13955 13622 16493 10463 19465 13444 18890 17063 14218 17797 11566 19751 17708 14245 18867 18877 12704 17082 11141 19392 19203 999999 999999 999999 0 999999 999999 999999 999999 999999 999999 999999 999999 999999 999999 999999 999999 999999 999999 999999 999999 999999 999999 999999 999999 999999 999999 999999 999999 999999 999999 999999 999999 999999 999999 999999 999999 999999 999999 999999 999999 6424
999999 12950 18494 10471 19624 12052 19987 12753 17560 10535 11452 11660 13503 14337 15294 15537 11111 12994 11869 16327 12134 16724 19439 10533 14732 17571 10820 15867 16572 19913 10820 12784 13882 16028 15382 12312 12137 11914 18689 17013 14474 999999 999999 999999 999999 0 999999 999999 999999 999999 999999 999999 999999 999999 999999 999999 999999 999999 999999 999999 999999 999999 999999 999999 999999 999999 999999 999999 999999 999999 999999 999999 999999 999999 999999 999999 999999 999999 999999 999999 999999 11464
999999 15528 19666 15982 16933 12392 13244 14356 13083 18023 15054 19055 16251 12803 17158 14286 10739 10661 12146 17572 19867 17911 16442 19443 17735 18212 15012 15146 10062 13783 13122 18500 18614 14153 14209 12620 11539 12027 14391 13515 10120 999999 999999 999999 999999 999999 0 999999 999999 999999 999999 999999 999999 999999 999999 999999 999999 999999 999999 999999 999999 999999 999999 999999 999999 999999 999999 999999 999999 999999 999999 999999 999999 999999 999999 999999 999999 999999 999999 999999 999999 8454
999999 19968 17958 12717 18599 16554 13645 12829 19319 12917 14711 13482 13880 12825 18277 19064 10466 15375 18896 12824 12661 13725 16297 18952 19316 16607 18040 14263 18727 10150 16060 12870 10166 10173 14003 12005 12473 15957 10430 18420 16755 999999 999999 999999 999999 999999 999999 0 999999 999999 999999 999999 999999 999999 999999 999999 999999 999999 999999 999999 999999 999999 999999 999999 999999 999999 999999 999999 999999 999999 999999 999999 999999 999999 999999 999999 999999 999999 999999 999999 999999 10502
999999 12336 14706 15518 12891 19887 14888 17181 13040 11306 16362 19101 14778 10288 18761 13126 11659 16910 11273 13756 18322 17099 13026 10545 18054 14879 10760 18971 11854 11212 14851 12872 14761 15923 14363 15958 13625 17064 17926 14738 17466 999999 999999 999999 999999 999999 999999 999999 0 999999 999999 999999 999999 999999 999999 999999 999999 999999 999999 999999 999999 999999 999999 999999 999999 999999 999999 999999 999999 999999 999999 999999 999999 999999 999999 999999 999999 999999 999999 999999 999999 9715
999999 15702 16563 11786 15199 16278 18301 14617 19385 17546 17993 15045 10983 12783 10845 14689 19250 13971 16256 15446 18534 14555 17581 17839 10669 16947 14967 19227 10014 18321 17827 13003 17314 13738 18264 10535 18704 12079 15984 13398 12606 999999 999999 999999 999999 999999 999999 999999 999999 0 999999 999999 999999 999999 999999 999999 999999 999999 999999 999999 999999 999999 999999 999999 999999 999999 999999 999999 999999 999999 999999 999999 999999 999999 999999 999999 999999 999999 999999 999999 999999 12301
999999 11231 10445 10185 16589 12901 14639 15749 13909 18825 19854 15408 12939 11464 12390 14257 14884 17772 14481 12707 15312 12001 16995 18700 10428 16197 14580 13909 11138 18125 12653 11746 12743 17700 17258 15250 19067 12254 15327 10409 16430 999999 999999 999999 999999 999999 999999 999999 999999 999999 0 999999 999999 999999 999999 999999 999999 999999 999999 999999 999999 999999 999999 999999 999999 999999 999999 999999 999999 999999 999999 999999 999999 999999 999999 999999 999999 999999 999999 999999 999999 12127
999999 10791 10120 18498 18815 12203 19057 18301 15868 15239 18470 12250 13348 17507 16026 19181 10836 12179 11331 12816 11769 14485 19183 19214 18316 14663 16428 11560 18593 14857 10238 11407 12543 12138 10726 13980 15622 17528 19619 19169 14333 999999 999999 999999 999999 999999 999999 999999 999999 999999 999999 0 999999 999999 999999 999999 999999 999999 999999 999999 999999 999999 999999 999999 999999 999999 999999 999999 999999 999999 999999 999999 999999 999999 999999 999999 999999 999999 999999 999999 999999 6865
999999 10434 18589 16928 11840 13179 18606 17078 11611 15732 11380 16720 14706 10061 19345 11039 11876 19553 11084 12371 17129 17056 16127 16891 10467 13621 16199 14214 17250 13023 13586 19526 19745 18227 14771 11789 14680 16787 12343 16458 13443 999999 999999 999999 999999 999999 999999 999999 999999 999999 999999 999999 0 999999 999999 999999 999999 999999 999999 999999 999999 999999 999999 999999 999999 999999 999999 999999 999999 999999 999999 999999 999999 999999 999999 999999 999999 999999 999999 999999 999999 8441
999999 16992 15359 11735 17946 13913 16651 12162 12371 16206 11653 16684 14924 18178 15421 18376 11986 11079 12212 14084 14661 12447 19055 19495 16482 10942 16820 12899 13257 16107 12104 14473 15042 14151 16608 13778 18692 17685 12450 16597 16699 999999 999999 999999 999999 999999 999999 999999 999999 999999 999999 999999 999999 0 999999 999999 999999 999999 999999 999999 999999 999999 999999 999999 999999 999999 999999 999999 999999 999999 999999 999999 999999 999999 999999 999999 999999 999999 999999 999999 999999 6177
999999 11266 15063 16232 18720 16613 10775 18667 12838 11879 17270 16683 14945 18479 13021 15712 19300 12332 17111 13632 11605 16800 18257 12814 17251 18795 17089 12968 18078 15673 18087 10580 10786 18372 17491 17488 17441 14116 10746 13170 11315 999999 999999 999999 999999 999999 999999 999999 999999 999999 999999 999999 999999 999999 0 999999 999999 999999 999999 999999 999999 999999 999999 999999 999999 999999 999999 999999 999999 999999 999999 999999 999999 999999 999999 999999 999999 999999 999999 999999 999999 5389
999999 15459 13796 10250 14377 12514 17483 13577 15244 17987 14744 17863 11372 11280 10407 19253 13063 10535 17830 17494 12380 15658 10000 16951 11695 17664 19550 16528 14228 19569 18227 15644 13520 14093 17467 11171 18672 11578 11760 18474 14674 999999 999999 999999 999999 999999 999999 999999 999999 999999 999999 999999 999999 999999 999999 0 999999 999999 999999 999999 999999 999999 999999 999999 999999 999999 999999 999999 999999 999999 999999 999999 999999 999999 999999 999999 999999 999999 999999 999999 999999 7330
999999 18965 16934 18195 11526 19418 14157 13565 18578 10225 11083 16606 19872 17351 12804 14898 11806 17801 13972 17109 16077 15008 15754 19620 18114 15633 14208 12379 12055 14888 16939 19409 11385 16080 11880 10609 12504 15735 16710 14765 18439 999999 999999 999999 999999 999999 999999 999999 999999 999999 999999 999999 999999 999999 999999 999999 0 999999 999999 999999 999999 999999 999999 999999 999999 999999 999999 999999 999999 999999 999999 999999 999999 999999 999999 999999 999999 999999 999999 999999 999999 11952
999999 10816 15461 14263 18318 18158 12908 12443 13301 19752 19414 18024 16087 17863 12654 18515 17331 14058 13744 12546 11049 12605 16770 14643 13395 10053 16310 14201 10311 15194 12540 16296 12258 15542 13103 15214 18573 17964 11995 17604 10912 999999 999999 999999 999999 999999 999999 999999 999999 999999 999999 999999 999999 999999 999999 999999 999999 0 999999 999999 999999 999999 999999 999999 999999 999999 999999 999999 999999 999999 999999 999999 999999 999999 999999 999999 999999 999999 999999 999999 999999 10276
999999 13218 19227 19602 17267 10489 15982 11431 12714 16264 16092 18907 16730 14506 17444 15042 19723 10958 19499 15789 19957 14965 19709 17829 10873 15217 10312 19887 10346 17833 14319 10128 11512 17648 13148 19166 17365 19024 15049 13141 12441 999999 999999 999999 999999 999999 999999 999999 999999 999999 999999 999999 999999 999999 999999 999999 999999 999999 0 999999 999999 999999 999999 999999 999999 999999 999999 999999 999999 999999 999999 999999 999999 999999 999999 999999 999999 999999 999999 999999 999999 7626
999999 14584 14818 12919 17669 13403 12571 18245 14012 18188 18671 10731 11852 12417 16864 16235 15837 19972 10138 13584 15610 15862 10763 10379 18600 19909 14589 11360 11664 14305 18022 17282 16882 16777 16870 16800 13987 11919 19947 15772 17550 999999 999999 999999 999999 999999 999999 999999 999999 999999 999999 999999 999999 999999 999999 999999 999999 999999 999999 0 999999 999999 999999 999999 999999 999999 999999 999999 999999 999999 999999 999999 999999 999999 999999 999999 999999 999999 999999 999999 999999 14688
999999 19863 16740 15502 11836 11449 14449 19096 13082 12158 15508 14144 14327 17416 17482 13437 15603 11597 16494 10500 18575 19252 11871 10095 17306 19650 17060 19748 18865 15624 15283 14766 19283 14512 18583 14618 18931 15396 15801 13701 15790 999999 999999 999999 999999 999999 999999 999999 999999 999999 999999 999999 999999 999999 999999 999999 999999 999999 999999 999999 0 999999 999999 999999 999999 999999 999999 999999 999999 999999 999999 999999 999999 999999 999999 999999 999999 999999 999999 999999 999999 13290
999999 13202 13209 15753 14806 18908 13411 13127 19169 14957 14242 15391 12331 19882 19702 15407 19685 10409 19276 15994 13400 16577 12051 12289 13720 13216 19026 13520 12345 16169 15983 14911 14362 18522 16784 15900 15731 15941 19336 10248 13754 999999 999999 999999 999999 999999 999999 999999 999999 999999 999999 999999 999999 999999 999999 999999 999999 999999 999999 999999 999999 0 999999 999999 999999 999999 999999 999999 999999 999999 999999 999999 999999 999999 999999 999999 999999 999999 999999 999999 999999 9975
999999 18489 12063 12326 14257 15438 11646 17323 19750 16571 16917 18414 13482 10209 17955 14152 12416 13939 19769 18185 19388 19794 14119 10788 18858 10216 17672 15830 18421 19509 10630 15577 11424 12491 13916 11363 19474 14543 12732 18377 12259 999999 999999 999999 999999 999999 999999 999999 999999 999999 999999 999999 999999 999999 999999 999999 999999 999999 999999 999999 999999 999999 0 999999 999999 999999 999999 999999 999999 999999 999999 999999 999999 999999 999999 999999 999999 999999 999999 999999 999999 13924
999999 12714 17604 11969 10355 11431 10398 13168 12959 13690 13966 13029 14461 17988 13276 11254 18938 13627 15439 17912 15741 15595 14483 10288 18063 10088 10066 15658 13180 19896 14101 10764 12649 12099 16527 19582 15701 16354 19328 11085 16051 999999 999999 999999 999999 999999 999999 999999 999999 999999 999999 999999 999999 999999 999999 999999 999999 999999 999999 999999 999999 999999 999999 0 999999 999999 999999 999999 999999 999999 999999 999999 999999 999999 999999 999999 999999 999999 999999 999999 999999 5795
999999 16862 18498 13573 19723 17929 14172 19592 11559 11280 18349 12075 13566 18350 18631 11902 19600 10206 17050 13523 14036 14282 15536 12973 13108 18626 18025 19199 12247 10424 15583 14454 19980 18953 15265 15603 11974 11211 16044 15299 10165 999999 999999 999999 999999 999999 999999 999999 999999 999999 999999 999999 999999 999999 999999 999999 999999 999999 999999 999999 999999 999999 999999 999999 0 999999 999999 999999 999999 999999 999999 999999 999999 999999 999999 999999 999999 999999 999999 999999 999999 10623
999999 13029 12968 19169 15338 16468 11412 18318 19792 11253 17288 15048 18833 17193 18752 10095 18710 11222 13565 16707 12792 17344 11840 19122 16310 12741 16497 18655 12550 10598 11341 10106 15175 11151 19743 16184 16605 17538 15777 17115 10129 999999 999999 999999 999999 999999 999999 999999 999999 999999 999999 999999 999999 999999 999999 999999 999999 999999 999999 999999 999999 999999 999999 999999 999999 0 999999 999999 999999 999999 999999 999999 999999 999999 999999 999999 999999 999999 999999 999999 999999 13177
999999 10230 12233 12907 11516 18259 15117 14163 16821 15283 12430 13537 18098 14585 11735 19312 15474 17907 17097 17489 10399 10187 10466 11977 14049 15240 14767 16298 19694 18864 13439 14529 19559 15235 15008 15261 16810 18572 17266 11253 16253 999999 999999 999999 999999 999999 999999 999999 999999 999999 999999 999999 999999 999999 999999 999999 999999 999999 999999 999999 999999 999999 999999 999999 999999 999999 0 999999 999999 999999 999999 999999 999999 999999 999999 999999 999999 999999 999999 999999 999999 12222
999999 15969 12297 14580 12559 16861 16199 18978 17964 11449 17057 17813 14435 13934 18671 12171 19670 14962 18223 12567 18535 11806 14467 13274 19480 19038 15099 13040 13679 16588 16732 11512 19298 15677 16610 13828 19890 10478 18655 11558 10956 999999 999999 999999 999999 999999 999999 999999 999999 999999 999999 999999 999999 999999 999999 999999 999999 999999 999999 999999 999999 999999 999999 999999 999999 999999 999999 0 999999 999999 999999 999999 999999 999999 999999 999999 999999 999999 999999 999999 999999 10552
999999 10486 12493 13760 19492 15515 16952 14858 11691 18842 12839 17226 15899 19537 15593 19251 12607 10250 18531 19859 11587 15824 11949 10635 14117 11701 13725 15413 14178 15996 13409 19578 11095 18688 13070 16178 15943 14728 18678 15883 18187 999999 999999 999999 999999 999999 999999 999999 999999 999999 999999 999999 999999 999999 999999 999999 999999 999999 999999 999999 999999 999999 999999 999999 999999 999999 999999 999999 0 999999 999999 999999 999999 999999 999999 999999 999999 999999 999999 999999 999999 14553
999999 15225 18422 11357 18887 16804 15418 11893 15777 12159 11173 19302 11571 10933 10199 11526 19299 16827 13047 10259 12624 17440 18228 19615 14657 11467 11960 11250 17762 10535 11993 14594 18729 15725 13263 16693 14699 10706 14275 14295 11822 999999 999999 999999 999999 999999 999999 999999 999999 999999 999999 999999 999999 999999 999999 999999 999999 999999 999999 999999 999999 999999 999999 999999 999999 999999 999999 999999 999999 0 999999 999999 999999 999999 999999 999999 999999 999999 999999 999999 999999 6287
999999 19296 15005 17820 11167 16988 11100 13584 11306 12584 17673 19978 11480 14625 16721 16198 14920 19811 14134 17938 16683 10617 12010 15906 19012 11407 18085 10308 11702 13846 17476 12752 10418 19923 18327 13187 12479 17925 13183 19195 15128 999999 999999 999999 999999 999999 999999 999999 999999 999999 999999 999999 999999 999999 999999 999999 999999 999999 999999 999999 999999 999999 999999 999999 999999 999999 999999 999999 999999 999999 0 999999 999999 999999 999999 999999 999999 999999 999999 999999 999999 12272
999999 11864 10701 12821 16636 12771 15567 19168 18692 19762 11318 15377 19793 13233 16332 16752 12480 17215 11612 12511 19961 17908 19827 11798 13606 10180 19673 12328 16495 17634 12831 15342 19066 19943 19596 19291 19157 17190 10922 17741 13553 999999 999999 999999 999999 999999 999999 999999 999999 999999 999999 999999 999999 999999 999999 999999 999999 999999 999999 999999 999999 999999 999999 999999 999999 999999 999999 999999 999999 999999 999999 0 999999 999999 999999 999999 999999 999999 999999 999999 999999 14071
999999 11503 17315 14531 13834 11078 14519 17317 11765 13560 18210 12853 19994 16046 17233 13199 14960 17845 15638 12862 16660 11542 12327 17350 12500 15986 17845 15718 14996 19572 10932 18701 18915 10061 19753 14060 14669 13919 17440 10859 10787 999999 999999 999999 999999 999999 999999 999999 999999 999999 999999 999999 999999 999999 999999 999999 999999 999999 999999 999999 999999 999999 999999 999999 999999 999999 999999 999999 999999 999999 999999 999999 0 999999 999999 999999 999999 999999 999999 999999 999999 6176
999999 13184 12867 17613 14768 14269 11412 19095 10544 18821 17629 11424 19911 16192 19175 10137 13338 16650 16682 11669 13242 16910 10759 18945 14350 18508 18377 14161 11425 15968 16272 15310 15902 12837 19932 16068 11289 18516 17514 14458 18459 999999 999999 999999 999999 999999 999999 999999 999999 999999 999999 999999 999999 999999 999999 999999 999999 999999 999999 999999 999999 999999 999999 999999 999999 999999 999999 999999 999999 999999 999999 999999 999999 0 999999 999999 999999 999999 999999 999999 999999 8231
999999 13540 19631 16886 15809 13716 19294 15968 18249 10275 12426 19503 12313 19101 19634 17035 10013 17498 15374 18496 15729 10522 14760 18502 10969 13862 17383 14039 13697 10776 18538 19267 16601 10916 11206 17453 14554 15546 10366 19046 16628 999999 999999 999999 999999 999999 999999 999999 999999 999999 999999 999999 999999 999999 999999 999999 999999 999999 999999 999999 999999 999999 999999 999999 999999 999999 999999 999999 999999 999999 999999 999999 999999 999999 0 999999 999999 999999 999999 999999 999999 11068
999999 13324 14460 13370 12261 14411 15163 16112 18731 12643 14525 15214 19750 13282 10917 13074 10989 18513 19963 11423 13699 12430 11742 16342 11490 16676 15866 15606 19138 18999 17337 13774 10915 10040 17215 13493 16846 18938 13869 14452 10071 999999 999999 999999 999999 999999 999999 999999 999999 999999 999999 999999 999999 999999 999999 999999 999999 999999 999999 999999 999999 999999 999999 999999 999999 999999 999999 999999 999999 999999 999999 999999 999999 999999 999999 0 999999 999999 999999 999999 999999 14307
999999 15274 15451 13611 12707 16296 10717 19213 18474 12209 10061 18361 16872 12140 14006 15246 19961 11545 15907 18126 19502 11643 17673 14943 13405 14720 11838 14285 19912 15986 13643 14242 19809 16381 18792 18718 19626 18021 15126 10526 12859 999999 999999 999999 999999 999999 999999 999999 999999 999999 999999 999999 999999 999999 999999 999999 999999 999999 999999 999999 999999 999999 999999 999999 999999 999999 999999 999999 999999 999999 999999 999999 999999 999999 999999 999999 0 999999 999999 999999 999999 14317
999999 18517 19954 18128 16073 12309 14861 14903 18934 18324 14117 18223 18183 19143 11380 11085 13715 17518 15780 19722 11130 11818 14924 15430 17591 15157 10535 14793 12043 18869 13825 11159 18439 15197 10419 18340 10312 19015 17386 16054 15545 999999 999999 999999 999999 999999 999999 999999 999999 999999 999999 999999 999999 999999 999999 999999 999999 999999 999999 999999 999999 999999 999999 999999 999999 999999 999999 999999 999999 999999 999999 999999 999999 999999 999999 999999 999999 0 999999 999999 999999 6148
999999 12277 11472 13887 10675 15561 15862 15423 13266 10091 14773 10786 19492 19802 14542 11396 18804 19239 18371 13724 11055 17121 14800 11850 17498 13615 12419 12102 12087 10502 10795 19558 10801 13692 15921 15549 15006 16830 13497 16871 14578 999999 999999 999999 999999 999999 999999 999999 999999 999999 999999 999999 999999 999999 999999 999999 999999 999999 999999 999999 999999 999999 999999 999999 999999 999999 999999 999999 999999 999999 999999 999999 999999 999999 999999 999999 999999 999999 0 999999 999999 7019
999999 17773 16066 18933 13933 11493 11286 17949 18096 13397 19404 11543 17805 12807 15776 11027 12926 11686 11211 11728 13437 13550 13581 16534 15774 10721 17486 13263 18725 15159 18142 16751 15150 12585 19219 13725 16261 17075 14339 15662 13879 999999 999999 999999 999999 999999 999999 999999 999999 999999 999999 999999 999999 999999 999999 999999 999999 999999 999999 999999 999999 999999 999999 999999 999999 999999 999999 999999 999999 999999 999999 999999 999999 999999 999999 999999 999999 999999 999999 0 999999 11451
999999 10374 13928 14230 18643 11897 15006 10013 18144 16375 14329 11486 17907 17966 16798 11654 11995 17770 10293 18594 19785 13103 12161 11226 10716 19146 15302 13612 19305 17685 19847 19412 13389 15062 16457 10691 11055 16317 11114 10885 14913 999999 999999 999999 999999 999999 999999 999999 999999 999999 999999 999999 999999 999999 999999 999999 999999 999999 999999 999999 999999 999999 999999 999999 999999 999999 999999 999999 999999 999999 999999 999999 999999 999999 999999 999999 999999 999999 999999 999999 0 9939
1 999999 999999 999999 999999 999999 999999 999999 999999 999999 999999 999999 999999 999999 999999 999999 999999 999999 999999 999999 999999 999999 999999 999999 999999 999999 999999 999999 999999 999999 999999 999999 999999 999999 999999 999999 999999 999999 999999 999999 999999 999999 999999 999999 999999 999999 999999 999999 999999 999999 999999 999999 999999 999999 999999 999999 999999 999999 999999 999999 999999 999999 999999 999999 999999 999999 999999 999999 999999 999999 999999 999999 999999 999999 999999 999999 999999 999999 999999 999999 999999 0
EOF