NAME: GR_1x5x10_KH_5x10_Run_5
TYPE: TSP
COMMENT: BTSP instance |A|=50 GR nodes |B|=50 KH nodes depot=0.0 end=0.0.0
DIMENSION: 102
EDGE_WEIGHT_TYPE: EXPLICIT
EDGE_WEIGHT_FORMAT: FULL_MATRIX
NODE_COORD_TYPE: NO_COORDS
EDGE_WEIGHT_SECTION
0 8887 14124 6368 7783 6959 10980 14397 12031 8938 6303 5769 11746 12239 6967 14688 8979 11468 7486 7415 9965 10304 13029 7504 8023 7357 5923 9221 10823 6711 8730 12035 8185 10030 10772 11501 9900 12626 6213 7164 11791 5661 12406 10348 11439 9000 14740 14865 10093 10040 5255 999999 999999 999999 999999 999999 999999 999999 999999 999999 999999 999999 999999 999999 999999 999999 999999 999999 999999 999999 999999 999999 999999 999999 999999 999999 999999 999999 999999 999999 999999 999999 999999 999999 999999 999999 999999 999999 999999 999999 999999 999999 999999 999999 999999 999999 999999 999999 999999 999999 999999 999999
999999 0 999999 999999 999999 999999 999999 999999 999999 999999 999999 999999 999999 999999 999999 999999 999999 999999 999999 999999 999999 999999 999999 999999 999999 999999 999999 999999 999999 999999 999999 999999 999999 999999 999999 999999 999999 999999 999999 999999 999999 999999 999999 999999 999999 999999 999999 999999 999999 999999 999999 999999 999999 999999 999999 999999 999999 999999 999999 16130 999999 999999 11307 999999 999999 999999 11473 999999 999999 999999 999999 999999 999999 999999 999999 10697 999999 999999 999999 999999 19152 999999 10444 999999 999999 999999 17449 14824 999999 11112 999999 999999 999999 12688 999999 999999 999999 999999 999999 999999 999999 999999
999999 999999 0 999999 999999 999999 999999 999999 999999 999999 999999 999999 999999 999999 999999 999999 999999 999999 999999 999999 999999 999999 999999 999999 999999 999999 999999 999999 999999 999999 999999 999999 999999 999999 999999 999999 999999 999999 999999 999999 999999 999999 999999 999999 999999 999999 999999 999999 999999 999999 999999 999999 999999 999999 999999 999999 999999 999999 999999 10533 999999 999999 17929 999999 999999 999999 19438 999999 999999 999999 999999 999999 999999 999999 999999 11967 999999 999999 999999 999999 14114 999999 13218 999999 999999 999999 17111 16974 999999 11850 999999 999999 999999 12789 999999 999999 999999 999999 999999 999999 999999 999999
999999 999999 999999 0 999999 999999 999999 999999 999999 999999 999999 999999 999999 999999 999999 999999 999999 999999 999999 999999 999999 999999 999999 999999 999999 999999 999999 999999 999999 999999 999999 999999 999999 999999 999999 999999 999999 999999 999999 999999 999999 999999 999999 999999 999999 999999 999999 999999 999999 999999 999999 999999 999999 999999 999999 999999 999999 999999 999999 19117 999999 999999 15576 999999 999999 999999 13028 999999 999999 999999 999999 999999 999999 999999 999999 16419 999999 999999 999999 999999 12470 999999 12057 999999 999999 999999 15586 11559 999999 11854 999999 999999 999999 13107 999999 999999 999999 999999 999999 999999 999999 999999
999999 999999 999999 999999 0 999999 999999 999999 999999 999999 999999 999999 999999 999999 999999 999999 999999 999999 999999 999999 999999 999999 999999 999999 999999 999999 999999 999999 999999 999999 999999 999999 999999 999999 999999 999999 999999 999999 999999 999999 999999 999999 999999 999999 999999 999999 999999 999999 999999 999999 999999 999999 999999 999999 999999 999999 999999 999999 999999 17277 999999 999999 18001 999999 999999 999999 16537 999999 999999 999999 999999 999999 999999 999999 999999 13123 999999 999999 999999 999999 19886 999999 15132 999999 999999 999999 11823 18510 999999 10521 999999 999999 999999 17836 999999 999999 999999 999999 999999 999999 999999 999999
999999 999999 999999 999999 999999 0 999999 999999 999999 999999 999999 999999 999999 999999 999999 999999 999999 999999 999999 999999 999999 999999 999999 999999 999999 999999 999999 999999 999999 999999 999999 999999 999999 999999 999999 999999 999999 999999 999999 999999 999999 999999 999999 999999 999999 999999 999999 999999 999999 999999 999999 999999 999999 999999 999999 999999 999999 999999 999999 10179 999999 999999 19593 999999 999999 999999 13242 999999 999999 999999 999999 999999 999999 999999 999999 11716 999999 999999 999999 999999 12520 999999 13750 999999 999999 999999 11935 11828 999999 17426 999999 999999 999999 18199 999999 999999 999999 999999 999999 999999 999999 999999
999999 999999 999999 999999 999999 999999 0 999999 999999 999999 999999 999999 999999 999999 999999 999999 999999 999999 999999 999999 999999 999999 999999 999999 999999 999999 999999 999999 999999 999999 999999 999999 999999 999999 999999 999999 999999 999999 999999 999999 999999 999999 999999 999999 999999 999999 999999 999999 999999 999999 999999 999999 999999 999999 999999 999999 999999 999999 999999 15026 999999 999999 16378 999999 999999 999999 11442 999999 999999 999999 999999 999999 999999 999999 999999 13053 999999 999999 999999 999999 10156 999999 15691 999999 999999 999999 17600 11300 999999 13651 999999 999999 999999 15110 999999 999999 999999 999999 999999 999999 999999 999999
999999 999999 999999 999999 999999 999999 999999 0 999999 999999 999999 999999 999999 999999 999999 999999 999999 999999 999999 999999 999999 999999 999999 999999 999999 999999 999999 999999 999999 999999 999999 999999 999999 999999 999999 999999 999999 999999 999999 999999 999999 999999 999999 999999 999999 999999 999999 999999 999999 999999 999999 999999 999999 999999 999999 999999 999999 999999 999999 17871 999999 999999 15438 999999 999999 999999 17421 999999 999999 999999 999999 999999 999999 999999 999999 14704 999999 999999 999999 999999 19833 999999 17337 999999 999999 999999 11762 13748 999999 11952 999999 999999 999999 17201 999999 999999 999999 999999 999999 999999 999999 999999
999999 999999 999999 999999 999999 999999 999999 999999 0 999999 999999 999999 999999 999999 999999 999999 999999 999999 999999 999999 999999 999999 999999 999999 999999 999999 999999 999999 999999 999999 999999 999999 999999 999999 999999 999999 999999 999999 999999 999999 999999 999999 999999 999999 999999 999999 999999 999999 999999 999999 999999 999999 999999 999999 999999 999999 999999 999999 999999 16519 999999 999999 17317 999999 999999 999999 10645 999999 999999 999999 999999 999999 999999 999999 999999 13029 999999 999999 999999 999999 17500 999999 15893 999999 999999 999999 13792 17740 999999 17851 999999 999999 999999 14698 999999 999999 999999 999999 999999 999999 999999 999999
999999 999999 999999 999999 999999 999999 999999 999999 999999 0 999999 999999 999999 999999 999999 999999 999999 999999 999999 999999 999999 999999 999999 999999 999999 999999 999999 999999 999999 999999 999999 999999 999999 999999 999999 999999 999999 999999 999999 999999 999999 999999 999999 999999 999999 999999 999999 999999 999999 999999 999999 999999 999999 999999 999999 999999 999999 999999 999999 18724 999999 999999 18564 999999 999999 999999 18153 999999 999999 999999 999999 999999 999999 999999 999999 11326 999999 999999 999999 999999 19577 999999 17763 999999 999999 999999 18350 11918 999999 16222 999999 999999 999999 16032 999999 999999 999999 999999 999999 999999 999999 999999
999999 999999 999999 999999 999999 999999 999999 999999 999999 999999 0 999999 999999 999999 999999 999999 999999 999999 999999 999999 999999 999999 999999 999999 999999 999999 999999 999999 999999 999999 999999 999999 999999 999999 999999 999999 999999 999999 999999 999999 999999 999999 999999 999999 999999 999999 999999 999999 999999 999999 999999 999999 999999 999999 999999 999999 999999 999999 999999 18028 999999 999999 11523 999999 999999 999999 12004 999999 999999 999999 999999 999999 999999 999999 999999 14225 999999 999999 999999 999999 17659 999999 15996 999999 999999 999999 18982 17125 999999 16632 999999 999999 999999 14985 999999 999999 999999 999999 999999 999999 999999 999999
999999 999999 999999 999999 999999 999999 999999 999999 999999 999999 999999 0 999999 999999 999999 999999 999999 999999 999999 999999 999999 999999 999999 999999 999999 999999 999999 999999 999999 999999 999999 999999 999999 999999 999999 999999 999999 999999 999999 999999 999999 999999 999999 999999 999999 999999 999999 999999 999999 999999 999999 17003 999999 15758 19334 999999 999999 999999 999999 999999 999999 15670 999999 999999 999999 999999 999999 999999 999999 17240 999999 999999 17129 11433 999999 999999 999999 999999 999999 999999 999999 999999 999999 999999 999999 999999 999999 999999 999999 999999 999999 999999 999999 999999 999999 11598 999999 17821 17314 999999 999999 999999
999999 999999 999999 999999 999999 999999 999999 999999 999999 999999 999999 999999 0 999999 999999 999999 999999 999999 999999 999999 999999 999999 999999 999999 999999 999999 999999 999999 999999 999999 999999 999999 999999 999999 999999 999999 999999 999999 999999 999999 999999 999999 999999 999999 999999 999999 999999 999999 999999 999999 999999 16348 999999 15911 14207 999999 999999 999999 999999 999999 999999 10724 999999 999999 999999 999999 999999 999999 999999 16015 999999 999999 17231 11451 999999 999999 999999 999999 999999 999999 999999 999999 999999 999999 999999 999999 999999 999999 999999 999999 999999 999999 999999 999999 999999 12485 999999 15429 15380 999999 999999 999999
999999 999999 999999 999999 999999 999999 999999 999999 999999 999999 999999 999999 999999 0 999999 999999 999999 999999 999999 999999 999999 999999 999999 999999 999999 999999 999999 999999 999999 999999 999999 999999 999999 999999 999999 999999 999999 999999 999999 999999 999999 999999 999999 999999 999999 999999 999999 999999 999999 999999 999999 15374 999999 14902 10350 999999 999999 999999 999999 999999 999999 10472 999999 999999 999999 999999 999999 999999 999999 15466 999999 999999 12906 18422 999999 999999 999999 999999 999999 999999 999999 999999 999999 999999 999999 999999 999999 999999 999999 999999 999999 999999 999999 999999 999999 17870 999999 11224 12370 999999 999999 999999
999999 999999 999999 999999 999999 999999 999999 999999 999999 999999 999999 999999 999999 999999 0 999999 999999 999999 999999 999999 999999 999999 999999 999999 999999 999999 999999 999999 999999 999999 999999 999999 999999 999999 999999 999999 999999 999999 999999 999999 999999 999999 999999 999999 999999 999999 999999 999999 999999 999999 999999 15101 999999 15644 12917 999999 999999 999999 999999 999999 999999 19911 999999 999999 999999 999999 999999 999999 999999 12497 999999 999999 18008 11724 999999 999999 999999 999999 999999 999999 999999 999999 999999 999999 999999 999999 999999 999999 999999 999999 999999 999999 999999 999999 999999 19058 999999 18958 11147 999999 999999 999999
999999 999999 999999 999999 999999 999999 999999 999999 999999 999999 999999 999999 999999 999999 999999 0 999999 999999 999999 999999 999999 999999 999999 999999 999999 999999 999999 999999 999999 999999 999999 999999 999999 999999 999999 999999 999999 999999 999999 999999 999999 999999 999999 999999 999999 999999 999999 999999 999999 999999 999999 14456 999999 16363 19803 999999 999999 999999 999999 999999 999999 16540 999999 999999 999999 999999 999999 999999 999999 12813 999999 999999 10191 16985 999999 999999 999999 999999 999999 999999 999999 999999 999999 999999 999999 999999 999999 999999 999999 999999 999999 999999 999999 999999 999999 14932 999999 16163 16126 999999 999999 999999
999999 999999 999999 999999 999999 999999 999999 999999 999999 999999 999999 999999 999999 999999 999999 999999 0 999999 999999 999999 999999 999999 999999 999999 999999 999999 999999 999999 999999 999999 999999 999999 999999 999999 999999 999999 999999 999999 999999 999999 999999 999999 999999 999999 999999 999999 999999 999999 999999 999999 999999 11780 999999 16370 18840 999999 999999 999999 999999 999999 999999 13854 999999 999999 999999 999999 999999 999999 999999 10657 999999 999999 15131 15563 999999 999999 999999 999999 999999 999999 999999 999999 999999 999999 999999 999999 999999 999999 999999 999999 999999 999999 999999 999999 999999 15544 999999 10108 14835 999999 999999 999999
999999 999999 999999 999999 999999 999999 999999 999999 999999 999999 999999 999999 999999 999999 999999 999999 999999 0 999999 999999 999999 999999 999999 999999 999999 999999 999999 999999 999999 999999 999999 999999 999999 999999 999999 999999 999999 999999 999999 999999 999999 999999 999999 999999 999999 999999 999999 999999 999999 999999 999999 19519 999999 18883 10341 999999 999999 999999 999999 999999 999999 16204 999999 999999 999999 999999 999999 999999 999999 10490 999999 999999 17176 19342 999999 999999 999999 999999 999999 999999 999999 999999 999999 999999 999999 999999 999999 999999 999999 999999 999999 999999 999999 999999 999999 18792 999999 11942 15230 999999 999999 999999
999999 999999 999999 999999 999999 999999 999999 999999 999999 999999 999999 999999 999999 999999 999999 999999 999999 999999 0 999999 999999 999999 999999 999999 999999 999999 999999 999999 999999 999999 999999 999999 999999 999999 999999 999999 999999 999999 999999 999999 999999 999999 999999 999999 999999 999999 999999 999999 999999 999999 999999 19678 999999 14579 16578 999999 999999 999999 999999 999999 999999 15603 999999 999999 999999 999999 999999 999999 999999 13462 999999 999999 18640 10684 999999 999999 999999 999999 999999 999999 999999 999999 999999 999999 999999 999999 999999 999999 999999 999999 999999 999999 999999 999999 999999 13152 999999 12132 13316 999999 999999 999999
999999 999999 999999 999999 999999 999999 999999 999999 999999 999999 999999 999999 999999 999999 999999 999999 999999 999999 999999 0 999999 999999 999999 999999 999999 999999 999999 999999 999999 999999 999999 999999 999999 999999 999999 999999 999999 999999 999999 999999 999999 999999 999999 999999 999999 999999 999999 999999 999999 999999 999999 19237 999999 19296 12168 999999 999999 999999 999999 999999 999999 16345 999999 999999 999999 999999 999999 999999 999999 16284 999999 999999 12418 17509 999999 999999 999999 999999 999999 999999 999999 999999 999999 999999 999999 999999 999999 999999 999999 999999 999999 999999 999999 999999 999999 17923 999999 15328 11432 999999 999999 999999
999999 999999 999999 999999 999999 999999 999999 999999 999999 999999 999999 999999 999999 999999 999999 999999 999999 999999 999999 999999 0 999999 999999 999999 999999 999999 999999 999999 999999 999999 999999 999999 999999 999999 999999 999999 999999 999999 999999 999999 999999 999999 999999 999999 999999 999999 999999 999999 999999 999999 999999 16496 999999 19326 10512 999999 999999 999999 999999 999999 999999 16369 999999 999999 999999 999999 999999 999999 999999 19627 999999 999999 15341 17009 999999 999999 999999 999999 999999 999999 999999 999999 999999 999999 999999 999999 999999 999999 999999 999999 999999 999999 999999 999999 999999 16968 999999 12767 14639 999999 999999 999999
999999 999999 999999 999999 999999 999999 999999 999999 999999 999999 999999 999999 999999 999999 999999 999999 999999 999999 999999 999999 999999 0 999999 999999 999999 999999 999999 999999 999999 999999 999999 999999 999999 999999 999999 999999 999999 999999 999999 999999 999999 999999 999999 999999 999999 999999 999999 999999 999999 999999 999999 999999 999999 999999 999999 999999 999999 999999 999999 999999 999999 999999 999999 999999 999999 17492 999999 999999 999999 999999 12386 15345 999999 999999 999999 999999 13678 999999 11858 13432 999999 999999 999999 999999 12468 999999 999999 999999 14200 999999 999999 13352 999999 999999 999999 999999 999999 999999 999999 17294 999999 999999
999999 999999 999999 999999 999999 999999 999999 999999 999999 999999 999999 999999 999999 999999 999999 999999 999999 999999 999999 999999 999999 999999 0 999999 999999 999999 999999 999999 999999 999999 999999 999999 999999 999999 999999 999999 999999 999999 999999 999999 999999 999999 999999 999999 999999 999999 999999 999999 999999 999999 999999 999999 999999 999999 999999 999999 999999 999999 999999 999999 999999 999999 999999 999999 999999 13687 999999 999999 999999 999999 13437 10811 999999 999999 999999 999999 17678 999999 16515 17530 999999 999999 999999 999999 14739 999999 999999 999999 10802 999999 999999 16873 999999 999999 999999 999999 999999 999999 999999 14219 999999 999999
999999 999999 999999 999999 999999 999999 999999 999999 999999 999999 999999 999999 999999 999999 999999 999999 999999 999999 999999 999999 999999 999999 999999 0 999999 999999 999999 999999 999999 999999 999999 999999 999999 999999 999999 999999 999999 999999 999999 999999 999999 999999 999999 999999 999999 999999 999999 999999 999999 999999 999999 999999 999999 999999 999999 999999 999999 999999 999999 999999 999999 999999 999999 999999 999999 16282 999999 999999 999999 999999 11666 17967 999999 999999 999999 999999 14615 999999 16090 19162 999999 999999 999999 999999 14649 999999 999999 999999 15952 999999 999999 15676 999999 999999 999999 999999 999999 999999 999999 18257 999999 999999
999999 999999 999999 999999 999999 999999 999999 999999 999999 999999 999999 999999 999999 999999 999999 999999 999999 999999 999999 999999 999999 999999 999999 999999 0 999999 999999 999999 999999 999999 999999 999999 999999 999999 999999 999999 999999 999999 999999 999999 999999 999999 999999 999999 999999 999999 999999 999999 999999 999999 999999 999999 999999 999999 999999 999999 999999 999999 999999 999999 999999 999999 999999 999999 999999 15069 999999 999999 999999 999999 16583 15897 999999 999999 999999 999999 13207 999999 11888 17700 999999 999999 999999 999999 12013 999999 999999 999999 18656 999999 999999 11097 999999 999999 999999 999999 999999 999999 999999 11124 999999 999999
999999 999999 999999 999999 999999 999999 999999 999999 999999 999999 999999 999999 999999 999999 999999 999999 999999 999999 999999 999999 999999 999999 999999 999999 999999 0 999999 999999 999999 999999 999999 999999 999999 999999 999999 999999 999999 999999 999999 999999 999999 999999 999999 999999 999999 999999 999999 999999 999999 999999 999999 999999 999999 999999 999999 999999 999999 999999 999999 999999 999999 999999 999999 999999 999999 17194 999999 999999 999999 999999 18192 10431 999999 999999 999999 999999 17495 999999 18524 18323 999999 999999 999999 999999 15884 999999 999999 999999 12271 999999 999999 10106 999999 999999 999999 999999 999999 999999 999999 17859 999999 999999
999999 999999 999999 999999 999999 999999 999999 999999 999999 999999 999999 999999 999999 999999 999999 999999 999999 999999 999999 999999 999999 999999 999999 999999 999999 999999 0 999999 999999 999999 999999 999999 999999 999999 999999 999999 999999 999999 999999 999999 999999 999999 999999 999999 999999 999999 999999 999999 999999 999999 999999 999999 999999 999999 999999 999999 999999 999999 999999 999999 999999 999999 999999 999999 999999 12838 999999 999999 999999 999999 17746 19976 999999 999999 999999 999999 18062 999999 10994 14629 999999 999999 999999 999999 19272 999999 999999 999999 11687 999999 999999 10415 999999 999999 999999 999999 999999 999999 999999 10029 999999 999999
999999 999999 999999 999999 999999 999999 999999 999999 999999 999999 999999 999999 999999 999999 999999 999999 999999 999999 999999 999999 999999 999999 999999 999999 999999 999999 999999 0 999999 999999 999999 999999 999999 999999 999999 999999 999999 999999 999999 999999 999999 999999 999999 999999 999999 999999 999999 999999 999999 999999 999999 999999 999999 999999 999999 999999 999999 999999 999999 999999 999999 999999 999999 999999 999999 10808 999999 999999 999999 999999 17653 10990 999999 999999 999999 999999 17727 999999 18679 15508 999999 999999 999999 999999 14355 999999 999999 999999 15776 999999 999999 16289 999999 999999 999999 999999 999999 999999 999999 18310 999999 999999
999999 999999 999999 999999 999999 999999 999999 999999 999999 999999 999999 999999 999999 999999 999999 999999 999999 999999 999999 999999 999999 999999 999999 999999 999999 999999 999999 999999 0 999999 999999 999999 999999 999999 999999 999999 999999 999999 999999 999999 999999 999999 999999 999999 999999 999999 999999 999999 999999 999999 999999 999999 999999 999999 999999 999999 999999 999999 999999 999999 999999 999999 999999 999999 999999 10103 999999 999999 999999 999999 17379 15582 999999 999999 999999 999999 16751 999999 13235 17832 999999 999999 999999 999999 19795 999999 999999 999999 11259 999999 999999 15758 999999 999999 999999 999999 999999 999999 999999 12407 999999 999999
999999 999999 999999 999999 999999 999999 999999 999999 999999 999999 999999 999999 999999 999999 999999 999999 999999 999999 999999 999999 999999 999999 999999 999999 999999 999999 999999 999999 999999 0 999999 999999 999999 999999 999999 999999 999999 999999 999999 999999 999999 999999 999999 999999 999999 999999 999999 999999 999999 999999 999999 999999 999999 999999 999999 999999 999999 999999 999999 999999 999999 999999 999999 999999 999999 12261 999999 999999 999999 999999 11500 13806 999999 999999 999999 999999 16365 999999 11726 11954 999999 999999 999999 999999 16091 999999 999999 999999 10834 999999 999999 12653 999999 999999 999999 999999 999999 999999 999999 10522 999999 999999
999999 999999 999999 999999 999999 999999 999999 999999 999999 999999 999999 999999 999999 999999 999999 999999 999999 999999 999999 999999 999999 999999 999999 999999 999999 999999 999999 999999 999999 999999 0 999999 999999 999999 999999 999999 999999 999999 999999 999999 999999 999999 999999 999999 999999 999999 999999 999999 999999 999999 999999 999999 999999 999999 999999 999999 999999 999999 999999 999999 999999 999999 999999 999999 999999 13201 999999 999999 999999 999999 19854 16633 999999 999999 999999 999999 19710 999999 14175 11008 999999 999999 999999 999999 10861 999999 999999 999999 16733 999999 999999 15099 999999 999999 999999 999999 999999 999999 999999 13772 999999 999999
999999 999999 999999 999999 999999 999999 999999 999999 999999 999999 999999 999999 999999 999999 999999 999999 999999 999999 999999 999999 999999 999999 999999 999999 999999 999999 999999 999999 999999 999999 999999 0 999999 999999 999999 999999 999999 999999 999999 999999 999999 999999 999999 999999 999999 999999 999999 999999 999999 999999 999999 999999 14152 999999 999999 17538 999999 14731 12472 999999 18923 999999 999999 999999 999999 999999 999999 999999 999999 999999 999999 999999 999999 999999 999999 999999 999999 12780 999999 999999 999999 999999 999999 12251 999999 999999 999999 999999 999999 999999 999999 999999 14664 999999 999999 999999 14556 999999 999999 999999 16903 999999
999999 999999 999999 999999 999999 999999 999999 999999 999999 999999 999999 999999 999999 999999 999999 999999 999999 999999 999999 999999 999999 999999 999999 999999 999999 999999 999999 999999 999999 999999 999999 999999 0 999999 999999 999999 999999 999999 999999 999999 999999 999999 999999 999999 999999 999999 999999 999999 999999 999999 999999 999999 13213 999999 999999 11349 999999 10086 12021 999999 13077 999999 999999 999999 999999 999999 999999 999999 999999 999999 999999 999999 999999 999999 999999 999999 999999 13694 999999 999999 999999 999999 999999 11111 999999 999999 999999 999999 999999 999999 999999 999999 19273 999999 999999 999999 16011 999999 999999 999999 11998 999999
999999 999999 999999 999999 999999 999999 999999 999999 999999 999999 999999 999999 999999 999999 999999 999999 999999 999999 999999 999999 999999 999999 999999 999999 999999 999999 999999 999999 999999 999999 999999 999999 999999 0 999999 999999 999999 999999 999999 999999 999999 999999 999999 999999 999999 999999 999999 999999 999999 999999 999999 999999 13439 999999 999999 19939 999999 17574 18952 999999 19949 999999 999999 999999 999999 999999 999999 999999 999999 999999 999999 999999 999999 999999 999999 999999 999999 13884 999999 999999 999999 999999 999999 13555 999999 999999 999999 999999 999999 999999 999999 999999 18032 999999 999999 999999 10034 999999 999999 999999 17989 999999
999999 999999 999999 999999 999999 999999 999999 999999 999999 999999 999999 999999 999999 999999 999999 999999 999999 999999 999999 999999 999999 999999 999999 999999 999999 999999 999999 999999 999999 999999 999999 999999 999999 999999 0 999999 999999 999999 999999 999999 999999 999999 999999 999999 999999 999999 999999 999999 999999 999999 999999 999999 15917 999999 999999 11071 999999 14891 15973 999999 18657 999999 999999 999999 999999 999999 999999 999999 999999 999999 999999 999999 999999 999999 999999 999999 999999 15046 999999 999999 999999 999999 999999 16921 999999 999999 999999 999999 999999 999999 999999 999999 16416 999999 999999 999999 14429 999999 999999 999999 17116 999999
999999 999999 999999 999999 999999 999999 999999 999999 999999 999999 999999 999999 999999 999999 999999 999999 999999 999999 999999 999999 999999 999999 999999 999999 999999 999999 999999 999999 999999 999999 999999 999999 999999 999999 999999 0 999999 999999 999999 999999 999999 999999 999999 999999 999999 999999 999999 999999 999999 999999 999999 999999 11930 999999 999999 15058 999999 13809 17777 999999 13175 999999 999999 999999 999999 999999 999999 999999 999999 999999 999999 999999 999999 999999 999999 999999 999999 19332 999999 999999 999999 999999 999999 14929 999999 999999 999999 999999 999999 999999 999999 999999 16395 999999 999999 999999 17580 999999 999999 999999 16881 999999
999999 999999 999999 999999 999999 999999 999999 999999 999999 999999 999999 999999 999999 999999 999999 999999 999999 999999 999999 999999 999999 999999 999999 999999 999999 999999 999999 999999 999999 999999 999999 999999 999999 999999 999999 999999 0 999999 999999 999999 999999 999999 999999 999999 999999 999999 999999 999999 999999 999999 999999 999999 19861 999999 999999 10098 999999 15744 15085 999999 13164 999999 999999 999999 999999 999999 999999 999999 999999 999999 999999 999999 999999 999999 999999 999999 999999 13970 999999 999999 999999 999999 999999 12106 999999 999999 999999 999999 999999 999999 999999 999999 12137 999999 999999 999999 19455 999999 999999 999999 12327 999999
999999 999999 999999 999999 999999 999999 999999 999999 999999 999999 999999 999999 999999 999999 999999 999999 999999 999999 999999 999999 999999 999999 999999 999999 999999 999999 999999 999999 999999 999999 999999 999999 999999 999999 999999 999999 999999 0 999999 999999 999999 999999 999999 999999 999999 999999 999999 999999 999999 999999 999999 999999 18199 999999 999999 10397 999999 19631 19648 999999 10885 999999 999999 999999 999999 999999 999999 999999 999999 999999 999999 999999 999999 999999 999999 999999 999999 19990 999999 999999 999999 999999 999999 18694 999999 999999 999999 999999 999999 999999 999999 999999 12235 999999 999999 999999 11696 999999 999999 999999 12856 999999
999999 999999 999999 999999 999999 999999 999999 999999 999999 999999 999999 999999 999999 999999 999999 999999 999999 999999 999999 999999 999999 999999 999999 999999 999999 999999 999999 999999 999999 999999 999999 999999 999999 999999 999999 999999 999999 999999 0 999999 999999 999999 999999 999999 999999 999999 999999 999999 999999 999999 999999 999999 14375 999999 999999 15017 999999 12323 12438 999999 14688 999999 999999 999999 999999 999999 999999 999999 999999 999999 999999 999999 999999 999999 999999 999999 999999 12213 999999 999999 999999 999999 999999 12648 999999 999999 999999 999999 999999 999999 999999 999999 15167 999999 999999 999999 15429 999999 999999 999999 11380 999999
999999 999999 999999 999999 999999 999999 999999 999999 999999 999999 999999 999999 999999 999999 999999 999999 999999 999999 999999 999999 999999 999999 999999 999999 999999 999999 999999 999999 999999 999999 999999 999999 999999 999999 999999 999999 999999 999999 999999 0 999999 999999 999999 999999 999999 999999 999999 999999 999999 999999 999999 999999 19862 999999 999999 14702 999999 11740 15532 999999 10229 999999 999999 999999 999999 999999 999999 999999 999999 999999 999999 999999 999999 999999 999999 999999 999999 18006 999999 999999 999999 999999 999999 13487 999999 999999 999999 999999 999999 999999 999999 999999 18440 999999 999999 999999 11032 999999 999999 999999 18880 999999
999999 999999 999999 999999 999999 999999 999999 999999 999999 999999 999999 999999 999999 999999 999999 999999 999999 999999 999999 999999 999999 999999 999999 999999 999999 999999 999999 999999 999999 999999 999999 999999 999999 999999 999999 999999 999999 999999 999999 999999 0 999999 999999 999999 999999 999999 999999 999999 999999 999999 999999 999999 10891 999999 999999 17585 999999 19380 13662 999999 16396 999999 999999 999999 999999 999999 999999 999999 999999 999999 999999 999999 999999 999999 999999 999999 999999 10505 999999 999999 999999 999999 999999 16301 999999 999999 999999 999999 999999 999999 999999 999999 16919 999999 999999 999999 10801 999999 999999 999999 11057 999999
999999 999999 999999 999999 999999 999999 999999 999999 999999 999999 999999 999999 999999 999999 999999 999999 999999 999999 999999 999999 999999 999999 999999 999999 999999 999999 999999 999999 999999 999999 999999 999999 999999 999999 999999 999999 999999 999999 999999 999999 999999 0 999999 999999 999999 999999 999999 999999 999999 999999 999999 999999 999999 999999 999999 999999 10667 999999 999999 999999 999999 999999 999999 11249 10508 999999 999999 19323 14941 999999 999999 999999 999999 999999 12438 999999 999999 999999 999999 999999 999999 19909 999999 999999 999999 14858 999999 999999 999999 999999 18908 999999 999999 999999 15259 999999 999999 999999 999999 999999 999999 999999
999999 999999 999999 999999 999999 999999 999999 999999 999999 999999 999999 999999 999999 999999 999999 999999 999999 999999 999999 999999 999999 999999 999999 999999 999999 999999 999999 999999 999999 999999 999999 999999 999999 999999 999999 999999 999999 999999 999999 999999 999999 999999 0 999999 999999 999999 999999 999999 999999 999999 999999 999999 999999 999999 999999 999999 13298 999999 999999 999999 999999 999999 999999 16355 10102 999999 999999 17931 11004 999999 999999 999999 999999 999999 12030 999999 999999 999999 999999 999999 999999 19056 999999 999999 999999 18963 999999 999999 999999 999999 15609 999999 999999 999999 13005 999999 999999 999999 999999 999999 999999 999999
999999 999999 999999 999999 999999 999999 999999 999999 999999 999999 999999 999999 999999 999999 999999 999999 999999 999999 999999 999999 999999 999999 999999 999999 999999 999999 999999 999999 999999 999999 999999 999999 999999 999999 999999 999999 999999 999999 999999 999999 999999 999999 999999 0 999999 999999 999999 999999 999999 999999 999999 999999 999999 999999 999999 999999 13139 999999 999999 999999 999999 999999 999999 10473 11615 999999 999999 16682 11782 999999 999999 999999 999999 999999 15056 999999 999999 999999 999999 999999 999999 13935 999999 999999 999999 10909 999999 999999 999999 999999 14153 999999 999999 999999 18444 999999 999999 999999 999999 999999 999999 999999
999999 999999 999999 999999 999999 999999 999999 999999 999999 999999 999999 999999 999999 999999 999999 999999 999999 999999 999999 999999 999999 999999 999999 999999 999999 999999 999999 999999 999999 999999 999999 999999 999999 999999 999999 999999 999999 999999 999999 999999 999999 999999 999999 999999 0 999999 999999 999999 999999 999999 999999 999999 999999 999999 999999 999999 10627 999999 999999 999999 999999 999999 999999 17191 15888 999999 999999 13545 15762 999999 999999 999999 999999 999999 15983 999999 999999 999999 999999 999999 999999 19401 999999 999999 999999 17695 999999 999999 999999 999999 10618 999999 999999 999999 13115 999999 999999 999999 999999 999999 999999 999999
999999 999999 999999 999999 999999 999999 999999 999999 999999 999999 999999 999999 999999 999999 999999 999999 999999 999999 999999 999999 999999 999999 999999 999999 999999 999999 999999 999999 999999 999999 999999 999999 999999 999999 999999 999999 999999 999999 999999 999999 999999 999999 999999 999999 999999 0 999999 999999 999999 999999 999999 999999 999999 999999 999999 999999 14087 999999 999999 999999 999999 999999 999999 15886 12799 999999 999999 14683 12465 999999 999999 999999 999999 999999 12531 999999 999999 999999 999999 999999 999999 11281 999999 999999 999999 12560 999999 999999 999999 999999 14640 999999 999999 999999 15355 999999 999999 999999 999999 999999 999999 999999
999999 999999 999999 999999 999999 999999 999999 999999 999999 999999 999999 999999 999999 999999 999999 999999 999999 999999 999999 999999 999999 999999 999999 999999 999999 999999 999999 999999 999999 999999 999999 999999 999999 999999 999999 999999 999999 999999 999999 999999 999999 999999 999999 999999 999999 999999 0 999999 999999 999999 999999 999999 999999 999999 999999 999999 19933 999999 999999 999999 999999 999999 999999 16008 19845 999999 999999 16545 14678 999999 999999 999999 999999 999999 16867 999999 999999 999999 999999 999999 999999 16344 999999 999999 999999 13230 999999 999999 999999 999999 17765 999999 999999 999999 19432 999999 999999 999999 999999 999999 999999 999999
999999 999999 999999 999999 999999 999999 999999 999999 999999 999999 999999 999999 999999 999999 999999 999999 999999 999999 999999 999999 999999 999999 999999 999999 999999 999999 999999 999999 999999 999999 999999 999999 999999 999999 999999 999999 999999 999999 999999 999999 999999 999999 999999 999999 999999 999999 999999 0 999999 999999 999999 999999 999999 999999 999999 999999 11419 999999 999999 999999 999999 999999 999999 12791 15603 999999 999999 19943 14636 999999 999999 999999 999999 999999 19767 999999 999999 999999 999999 999999 999999 17460 999999 999999 999999 15106 999999 999999 999999 999999 11778 999999 999999 999999 17598 999999 999999 999999 999999 999999 999999 999999
999999 999999 999999 999999 999999 999999 999999 999999 999999 999999 999999 999999 999999 999999 999999 999999 999999 999999 999999 999999 999999 999999 999999 999999 999999 999999 999999 999999 999999 999999 999999 999999 999999 999999 999999 999999 999999 999999 999999 999999 999999 999999 999999 999999 999999 999999 999999 999999 0 999999 999999 999999 999999 999999 999999 999999 15035 999999 999999 999999 999999 999999 999999 18506 17045 999999 999999 19202 15452 999999 999999 999999 999999 999999 15845 999999 999999 999999 999999 999999 999999 19939 999999 999999 999999 12440 999999 999999 999999 999999 14730 999999 999999 999999 17732 999999 999999 999999 999999 999999 999999 999999
999999 999999 999999 999999 999999 999999 999999 999999 999999 999999 999999 999999 999999 999999 999999 999999 999999 999999 999999 999999 999999 999999 999999 999999 999999 999999 999999 999999 999999 999999 999999 999999 999999 999999 999999 999999 999999 999999 999999 999999 999999 999999 999999 999999 999999 999999 999999 999999 999999 0 999999 999999 999999 999999 999999 999999 13698 999999 999999 999999 999999 999999 999999 14402 13698 999999 999999 18864 19038 999999 999999 999999 999999 999999 15846 999999 999999 999999 999999 999999 999999 12334 999999 999999 999999 14495 999999 999999 999999 999999 11532 999999 999999 999999 10702 999999 999999 999999 999999 999999 999999 999999
999999 999999 999999 999999 999999 999999 999999 999999 999999 999999 999999 999999 999999 999999 999999 999999 999999 999999 999999 999999 999999 999999 999999 999999 999999 999999 999999 999999 999999 999999 999999 999999 999999 999999 999999 999999 999999 999999 999999 999999 999999 999999 999999 999999 999999 999999 999999 999999 999999 999999 0 999999 999999 999999 999999 999999 11502 999999 999999 999999 999999 999999 999999 17507 14012 999999 999999 17256 16855 999999 999999 999999 999999 999999 10834 999999 999999 999999 999999 999999 999999 17398 999999 999999 999999 17084 999999 999999 999999 999999 11525 999999 999999 999999 10470 999999 999999 999999 999999 999999 999999 999999
999999 12576 12393 14002 11397 17077 18882 12721 18278 18232 14720 17003 16348 15374 15101 14456 11780 19519 19678 19237 16496 14249 13528 10839 12731 15492 16809 10113 10897 10419 15240 10945 16385 15855 14016 11019 18929 17061 18811 11883 14436 18511 10097 16633 17818 16993 16314 14902 10642 17349 16230 0 999999 999999 999999 999999 999999 999999 999999 999999 999999 999999 999999 999999 999999 999999 999999 999999 999999 999999 999999 999999 999999 999999 999999 999999 999999 999999 999999 999999 999999 999999 999999 999999 999999 999999 999999 999999 999999 999999 999999 999999 999999 999999 999999 999999 999999 999999 999999 999999 999999 7795
999999 10629 14099 15996 13865 17881 18052 15503 14274 12471 18651 11100 19048 10980 13792 16585 19463 10844 16392 13214 19327 16792 19230 19145 12966 12726 13232 12139 19690 15508 19670 14152 13213 13439 15917 11930 19861 18199 14375 19862 10891 16070 10817 17830 19112 11771 15815 12806 11833 16664 19870 999999 0 999999 999999 999999 999999 999999 999999 999999 999999 999999 999999 999999 999999 999999 999999 999999 999999 999999 999999 999999 999999 999999 999999 999999 999999 999999 999999 999999 999999 999999 999999 999999 999999 999999 999999 999999 999999 999999 999999 999999 999999 999999 999999 999999 999999 999999 999999 999999 999999 11354
999999 19746 19910 18081 11519 19767 18962 11038 12711 17349 17410 15758 15911 14902 15644 16363 16370 18883 14579 19296 19326 11844 14809 16470 17327 19580 12046 18489 13222 10425 15289 12612 16508 15576 18215 17729 14461 10237 14514 14539 10190 15843 13654 17504 18590 12661 18313 14882 17483 12934 13195 999999 999999 0 999999 999999 999999 999999 999999 999999 999999 999999 999999 999999 999999 999999 999999 999999 999999 999999 999999 999999 999999 999999 999999 999999 999999 999999 999999 999999 999999 999999 999999 999999 999999 999999 999999 999999 999999 999999 999999 999999 999999 999999 999999 999999 999999 999999 999999 999999 999999 9393
999999 19765 19902 16573 11826 11781 14490 14055 19355 18403 18680 19334 14207 10350 12917 19803 18840 10341 16578 12168 10512 17555 12439 11495 10253 17142 11443 19251 18597 13688 14959 19101 11448 19108 18606 15956 18505 12161 15953 14564 14896 10485 11708 15765 11140 16896 15897 18720 15598 11419 13040 999999 999999 999999 0 999999 999999 999999 999999 999999 999999 999999 999999 999999 999999 999999 999999 999999 999999 999999 999999 999999 999999 999999 999999 999999 999999 999999 999999 999999 999999 999999 999999 999999 999999 999999 999999 999999 999999 999999 999999 999999 999999 999999 999999 999999 999999 999999 999999 999999 999999 14689
999999 11128 13796 19637 14649 10891 10175 12868 18986 10472 13387 19431 17466 16651 10915 19099 19912 13651 18118 15404 17648 15262 13306 15436 12669 13275 16401 13570 16809 17029 14969 17538 11349 19939 11071 15058 10098 10397 15017 14702 17585 15489 16859 13136 14907 11431 12146 15583 13972 11081 17017 999999 999999 999999 999999 0 999999 999999 999999 999999 999999 999999 999999 999999 999999 999999 999999 999999 999999 999999 999999 999999 999999 999999 999999 999999 999999 999999 999999 999999 999999 999999 999999 999999 999999 999999 999999 999999 999999 999999 999999 999999 999999 999999 999999 999999 999999 999999 999999 999999 999999 12339
999999 16808 14610 14476 11604 13126 19421 15822 15950 19621 17257 13794 14886 16731 12775 10530 19474 11203 15780 19873 18579 14360 10476 10844 11197 16854 19848 18921 11748 16661 16716 14767 15123 14649 11938 19355 17395 16519 18088 10822 14563 10667 13298 13139 10627 14087 19933 11419 15035 13698 11502 999999 999999 999999 999999 999999 0 999999 999999 999999 999999 999999 999999 999999 999999 999999 999999 999999 999999 999999 999999 999999 999999 999999 999999 999999 999999 999999 999999 999999 999999 999999 999999 999999 999999 999999 999999 999999 999999 999999 999999 999999 999999 999999 999999 999999 999999 999999 999999 999999 999999 14745
999999 11521 12344 16367 13499 17173 10274 17123 19765 15381 12419 14240 19255 15272 10227 15640 13620 15076 15202 10756 18370 17610 19239 12388 18139 11930 15654 11395 13994 16692 12304 14731 10086 17574 14891 13809 15744 19631 12323 11740 19380 10441 17550 19910 19391 16621 15028 18651 11727 10524 14476 999999 999999 999999 999999 999999 999999 0 999999 999999 999999 999999 999999 999999 999999 999999 999999 999999 999999 999999 999999 999999 999999 999999 999999 999999 999999 999999 999999 999999 999999 999999 999999 999999 999999 999999 999999 999999 999999 999999 999999 999999 999999 999999 999999 999999 999999 999999 999999 999999 999999 11931
999999 17845 17720 15600 11871 16446 10340 18343 19213 10441 16642 13794 11215 16817 18177 18862 11022 12995 17695 19486 11518 19885 18501 19233 12671 16546 15567 17962 11696 16448 17000 12472 12021 18952 15973 17777 15085 19648 12438 15532 13662 16834 14963 18516 19009 17511 11183 18239 13767 18031 12287 999999 999999 999999 999999 999999 999999 999999 0 999999 999999 999999 999999 999999 999999 999999 999999 999999 999999 999999 999999 999999 999999 999999 999999 999999 999999 999999 999999 999999 999999 999999 999999 999999 999999 999999 999999 999999 999999 999999 999999 999999 999999 999999 999999 999999 999999 999999 999999 999999 999999 7761
999999 16130 10533 19117 17277 10179 15026 17871 16519 18724 18028 19236 18530 10320 17712 11600 13350 10016 14571 19228 16040 19027 16965 12962 19396 19449 17405 11178 11552 16411 16266 11917 15906 19874 14125 17787 15606 18239 14369 19990 14934 10498 17308 11133 15876 15372 19282 13317 12023 10297 12999 999999 999999 999999 999999 999999 999999 999999 999999 0 999999 999999 999999 999999 999999 999999 999999 999999 999999 999999 999999 999999 999999 999999 999999 999999 999999 999999 999999 999999 999999 999999 999999 999999 999999 999999 999999 999999 999999 999999 999999 999999 999999 999999 999999 999999 999999 999999 999999 999999 999999 14533
999999 12657 17074 19994 17759 12742 14433 11833 11730 11821 13181 14850 11855 10003 19326 16039 17412 13650 12852 13379 17668 12388 10470 16949 18223 18160 14345 15393 12159 13222 17541 18923 13077 19949 18657 13175 13164 10885 14688 10229 16396 12826 15111 16354 13305 11181 11946 12227 17740 18916 12172 999999 999999 999999 999999 999999 999999 999999 999999 999999 0 999999 999999 999999 999999 999999 999999 999999 999999 999999 999999 999999 999999 999999 999999 999999 999999 999999 999999 999999 999999 999999 999999 999999 999999 999999 999999 999999 999999 999999 999999 999999 999999 999999 999999 999999 999999 999999 999999 999999 999999 8987
999999 19438 11433 17385 11979 13035 10981 15596 15910 17281 13725 15670 10724 10472 19911 16540 13854 16204 15603 16345 16369 14865 17013 14937 16684 13944 14198 13417 16763 15343 10045 10163 17568 18418 19392 15312 11870 16386 17093 12953 17363 12920 18576 13125 17107 10191 19752 14131 10141 19399 19424 999999 999999 999999 999999 999999 999999 999999 999999 999999 999999 0 999999 999999 999999 999999 999999 999999 999999 999999 999999 999999 999999 999999 999999 999999 999999 999999 999999 999999 999999 999999 999999 999999 999999 999999 999999 999999 999999 999999 999999 999999 999999 999999 999999 999999 999999 999999 999999 999999 999999 8013
999999 11307 17929 15576 18001 19593 16378 15438 17317 18564 11523 13614 18176 11109 18622 12542 13522 18496 19458 11069 19167 11391 13513 18621 14398 19535 13847 10698 15961 11359 17801 10614 10202 16474 13607 13371 14476 17637 12649 14890 17569 12162 15068 13945 11364 11644 12302 14516 18654 11823 18304 999999 999999 999999 999999 999999 999999 999999 999999 999999 999999 999999 0 999999 999999 999999 999999 999999 999999 999999 999999 999999 999999 999999 999999 999999 999999 999999 999999 999999 999999 999999 999999 999999 999999 999999 999999 999999 999999 999999 999999 999999 999999 999999 999999 999999 999999 999999 999999 999999 999999 13191
999999 11339 11541 16900 15066 16827 12896 17451 11624 13721 13828 13361 13528 10230 14712 12094 18225 14467 11431 18201 12909 15194 12499 17464 17269 10457 14101 13530 19252 19094 17727 12649 15389 12972 12707 13382 10198 12896 17844 17774 11175 11249 16355 10473 17191 15886 16008 12791 18506 14402 17507 999999 999999 999999 999999 999999 999999 999999 999999 999999 999999 999999 999999 0 999999 999999 999999 999999 999999 999999 999999 999999 999999 999999 999999 999999 999999 999999 999999 999999 999999 999999 999999 999999 999999 999999 999999 999999 999999 999999 999999 999999 999999 999999 999999 999999 999999 999999 999999 999999 999999 9797
999999 17705 19197 18517 12039 16818 12583 19105 18755 17638 10261 13111 18330 18328 16081 14999 13475 14610 18284 13171 12993 10994 10617 10785 14255 13949 18021 17675 13275 16836 18460 18140 16493 10865 15450 19608 16028 10279 19496 16606 12065 10508 10102 11615 15888 12799 19845 15603 17045 13698 14012 999999 999999 999999 999999 999999 999999 999999 999999 999999 999999 999999 999999 999999 0 999999 999999 999999 999999 999999 999999 999999 999999 999999 999999 999999 999999 999999 999999 999999 999999 999999 999999 999999 999999 999999 999999 999999 999999 999999 999999 999999 999999 999999 999999 999999 999999 999999 999999 999999 999999 9678
999999 13369 17006 15616 14028 10015 18670 10744 13907 15528 11742 15579 11591 14577 17571 13384 12137 15008 15171 10865 19277 17492 13687 16282 15069 17194 12838 10808 10103 12261 13201 18527 18488 15423 13494 18942 15529 13347 18982 17446 10240 10115 11798 10155 11092 15149 17637 11117 13684 11832 13047 999999 999999 999999 999999 999999 999999 999999 999999 999999 999999 999999 999999 999999 999999 0 999999 999999 999999 999999 999999 999999 999999 999999 999999 999999 999999 999999 999999 999999 999999 999999 999999 999999 999999 999999 999999 999999 999999 999999 999999 999999 999999 999999 999999 999999 999999 999999 999999 999999 999999 8237
999999 11473 19438 13028 16537 13242 11442 17421 10645 18153 12004 18972 15488 14696 16735 13533 13225 13717 19634 12391 13932 11468 13716 12761 16405 10849 17901 10110 19860 11784 19565 14883 14000 17445 18502 18339 15178 12703 14897 14915 13878 10031 17054 14546 19657 18192 11235 11529 17810 13904 11901 999999 999999 999999 999999 999999 999999 999999 999999 999999 999999 999999 999999 999999 999999 999999 0 999999 999999 999999 999999 999999 999999 999999 999999 999999 999999 999999 999999 999999 999999 999999 999999 999999 999999 999999 999999 999999 999999 999999 999999 999999 999999 999999 999999 999999 999999 999999 999999 999999 999999 7378
999999 16547 14345 18140 13070 13033 19979 14473 19478 13839 11317 10696 19936 15544 18957 18132 18575 19092 17477 18512 10463 12080 10536 10359 16892 15621 14225 14629 18771 11622 19881 15449 17160 16040 19772 16655 11737 12042 12209 19854 18047 19323 17931 16682 13545 14683 16545 19943 19202 18864 17256 999999 999999 999999 999999 999999 999999 999999 999999 999999 999999 999999 999999 999999 999999 999999 999999 0 999999 999999 999999 999999 999999 999999 999999 999999 999999 999999 999999 999999 999999 999999 999999 999999 999999 999999 999999 999999 999999 999999 999999 999999 999999 999999 999999 999999 999999 999999 999999 999999 999999 11998
999999 17312 18566 11461 13213 12926 14523 16116 12884 16212 11361 14950 19796 15758 13570 17726 12490 15930 15713 10845 12441 18590 13355 18085 18772 10780 17463 18529 10720 19661 12919 17627 17966 10207 14663 13462 11472 18735 11924 14140 15707 14941 11004 11782 15762 12465 14678 14636 15452 19038 16855 999999 999999 999999 999999 999999 999999 999999 999999 999999 999999 999999 999999 999999 999999 999999 999999 999999 0 999999 999999 999999 999999 999999 999999 999999 999999 999999 999999 999999 999999 999999 999999 999999 999999 999999 999999 999999 999999 999999 999999 999999 999999 999999 999999 999999 999999 999999 999999 999999 999999 12815
999999 13475 17578 11442 11428 11752 16614 18621 12884 13051 10375 17240 16015 15466 12497 12813 10657 10490 13462 16284 19627 17146 13903 17967 14054 19696 18231 14901 18432 13790 10619 17721 14938 17184 13209 12672 12427 10687 17417 15430 19269 17607 13810 14392 10972 15832 12177 16943 11341 18545 11126 999999 999999 999999 999999 999999 999999 999999 999999 999999 999999 999999 999999 999999 999999 999999 999999 999999 999999 0 999999 999999 999999 999999 999999 999999 999999 999999 999999 999999 999999 999999 999999 999999 999999 999999 999999 999999 999999 999999 999999 999999 999999 999999 999999 999999 999999 999999 999999 999999 999999 12919
999999 13466 10880 19100 18018 16465 18934 14522 12456 17853 10972 13278 15698 14339 16806 11331 14390 14121 13878 12708 17530 12386 13437 11666 16583 18192 17746 17653 17379 11500 19854 17786 16824 16299 12416 14333 12336 14284 10202 18121 18924 12164 10069 11815 14991 13556 10796 14333 16783 18462 13314 999999 999999 999999 999999 999999 999999 999999 999999 999999 999999 999999 999999 999999 999999 999999 999999 999999 999999 999999 0 999999 999999 999999 999999 999999 999999 999999 999999 999999 999999 999999 999999 999999 999999 999999 999999 999999 999999 999999 999999 999999 999999 999999 999999 999999 999999 999999 999999 999999 999999 9852
999999 14391 19901 10960 12592 13249 11795 18983 15267 18881 10194 17160 10421 13317 15587 16914 18858 14061 17040 12742 18024 15345 10811 17967 15897 10431 19976 10990 15582 13806 16633 13817 13544 10730 13924 12807 12979 11429 10282 16554 11838 11369 14648 12730 10168 14933 15455 10689 19183 15749 18522 999999 999999 999999 999999 999999 999999 999999 999999 999999 999999 999999 999999 999999 999999 999999 999999 999999 999999 999999 999999 0 999999 999999 999999 999999 999999 999999 999999 999999 999999 999999 999999 999999 999999 999999 999999 999999 999999 999999 999999 999999 999999 999999 999999 999999 999999 999999 999999 999999 999999 13698
999999 13930 12486 19162 13504 12992 12723 17615 12200 15676 17746 17129 17231 12906 18008 10191 15131 17176 18640 12418 15341 12538 19286 16574 10834 13154 10883 13538 11169 15271 14521 18882 16688 12087 15661 12703 18271 19768 13192 19494 15442 15981 17119 19611 13896 19419 13444 18455 12415 11138 12533 999999 999999 999999 999999 999999 999999 999999 999999 999999 999999 999999 999999 999999 999999 999999 999999 999999 999999 999999 999999 999999 0 999999 999999 999999 999999 999999 999999 999999 999999 999999 999999 999999 999999 999999 999999 999999 999999 999999 999999 999999 999999 999999 999999 999999 999999 999999 999999 999999 999999 14206
999999 18715 13719 10428 17159 17644 10606 15784 11621 19655 11227 11433 11451 18422 11724 16985 15563 19342 10684 17509 17009 10678 12775 18136 10256 11400 10323 10969 10109 17660 14518 12611 15542 16320 17010 14558 13905 17855 17207 11336 18550 12179 13104 13531 17180 14178 11389 11611 17799 19207 17907 999999 999999 999999 999999 999999 999999 999999 999999 999999 999999 999999 999999 999999 999999 999999 999999 999999 999999 999999 999999 999999 999999 0 999999 999999 999999 999999 999999 999999 999999 999999 999999 999999 999999 999999 999999 999999 999999 999999 999999 999999 999999 999999 999999 999999 999999 999999 999999 999999 999999 11247
999999 12065 18179 12408 14411 15958 10312 12166 13288 19816 14398 19682 13683 19530 17618 13829 19458 12654 14963 13612 14574 10067 11938 19828 15630 10920 17766 17037 19066 11735 16702 19216 16534 12724 11347 19383 19419 13083 18041 18509 10026 12438 12030 15056 15983 12531 16867 19767 15845 15846 10834 999999 999999 999999 999999 999999 999999 999999 999999 999999 999999 999999 999999 999999 999999 999999 999999 999999 999999 999999 999999 999999 999999 999999 0 999999 999999 999999 999999 999999 999999 999999 999999 999999 999999 999999 999999 999999 999999 999999 999999 999999 999999 999999 999999 999999 999999 999999 999999 999999 999999 12947
999999 10697 11967 16419 13123 11716 13053 14704 13029 11326 14225 15867 16152 17709 18178 18370 15273 15826 19285 13649 11110 10381 14041 19401 12230 12925 13259 12770 18988 17969 18737 14073 15282 17116 18886 12460 11830 15912 16196 10644 15522 11193 10024 10330 18092 11188 16301 14062 16961 19887 16124 999999 999999 999999 999999 999999 999999 999999 999999 999999 999999 999999 999999 999999 999999 999999 999999 999999 999999 999999 999999 999999 999999 999999 999999 0 999999 999999 999999 999999 999999 999999 999999 999999 999999 999999 999999 999999 999999 999999 999999 999999 999999 999999 999999 999999 999999 999999 999999 999999 999999 11309
999999 12295 18841 18043 15460 10029 14848 16509 19619 15271 15603 14062 14178 16439 11102 14718 14637 16192 13382 17839 17244 13678 17678 14615 13207 17495 18062 17727 16751 16365 19710 17680 16991 18218 14979 16615 11436 11947 14557 10611 14007 17342 15882 11560 17856 13235 18143 16264 16987 19240 14296 999999 999999 999999 999999 999999 999999 999999 999999 999999 999999 999999 999999 999999 999999 999999 999999 999999 999999 999999 999999 999999 999999 999999 999999 999999 0 999999 999999 999999 999999 999999 999999 999999 999999 999999 999999 999999 999999 999999 999999 999999 999999 999999 999999 999999 999999 999999 999999 999999 999999 13493
999999 10868 17064 12050 18408 11757 12525 14728 15850 13572 12065 11696 10302 11043 10532 11113 11373 19926 11784 19444 15903 19551 18422 16211 15982 13630 15774 16822 13127 15646 15419 12780 13694 13884 15046 19332 13970 19990 12213 18006 10505 10248 10128 17597 10565 19260 14794 16249 13676 19922 17430 999999 999999 999999 999999 999999 999999 999999 999999 999999 999999 999999 999999 999999 999999 999999 999999 999999 999999 999999 999999 999999 999999 999999 999999 999999 999999 0 999999 999999 999999 999999 999999 999999 999999 999999 999999 999999 999999 999999 999999 999999 999999 999999 999999 999999 999999 999999 999999 999999 999999 10289
999999 12390 16351 19866 11094 12662 19746 12077 15742 11301 14032 16336 14706 15916 12427 15716 11727 15004 13564 17771 12333 11858 16515 16090 11888 18524 10994 18679 13235 11726 14175 10990 13868 11209 10573 11674 16152 13382 18252 13433 10581 16093 12342 10497 13252 11578 11215 17644 16445 12832 18541 999999 999999 999999 999999 999999 999999 999999 999999 999999 999999 999999 999999 999999 999999 999999 999999 999999 999999 999999 999999 999999 999999 999999 999999 999999 999999 999999 0 999999 999999 999999 999999 999999 999999 999999 999999 999999 999999 999999 999999 999999 999999 999999 999999 999999 999999 999999 999999 999999 999999 11939
999999 12916 15648 16062 15312 13126 15826 13348 11944 18250 11992 15531 13080 17232 19360 12968 17432 19985 11259 11920 16971 13432 17530 19162 17700 18323 14629 15508 17832 11954 11008 12136 15629 13488 11196 18267 15352 14325 16881 15348 15005 10387 13926 12483 11896 11309 16521 14704 11546 13005 10908 999999 999999 999999 999999 999999 999999 999999 999999 999999 999999 999999 999999 999999 999999 999999 999999 999999 999999 999999 999999 999999 999999 999999 999999 999999 999999 999999 999999 0 999999 999999 999999 999999 999999 999999 999999 999999 999999 999999 999999 999999 999999 999999 999999 999999 999999 999999 999999 999999 999999 9769
999999 19152 14114 12470 19886 12520 10156 19833 17500 19577 17659 14823 16224 13833 10556 15515 14872 15956 11379 12552 16956 10616 14968 15653 12892 10444 10433 17795 16321 18326 13644 13689 13814 11392 10847 15557 18215 16712 12347 18787 15654 12115 19809 18927 19991 18298 10403 10685 12816 12875 19226 999999 999999 999999 999999 999999 999999 999999 999999 999999 999999 999999 999999 999999 999999 999999 999999 999999 999999 999999 999999 999999 999999 999999 999999 999999 999999 999999 999999 999999 0 999999 999999 999999 999999 999999 999999 999999 999999 999999 999999 999999 999999 999999 999999 999999 999999 999999 999999 999999 999999 13694
999999 14222 16419 13209 18354 16800 15779 14695 14662 19166 13293 10662 10714 16508 10872 12415 11137 15670 19089 13398 14806 14597 19984 19241 15132 17236 10326 15336 17340 13700 17598 18212 12328 13557 17732 11971 12121 18825 15724 16456 19342 19909 19056 13935 19401 11281 16344 17460 19939 12334 17398 999999 999999 999999 999999 999999 999999 999999 999999 999999 999999 999999 999999 999999 999999 999999 999999 999999 999999 999999 999999 999999 999999 999999 999999 999999 999999 999999 999999 999999 999999 0 999999 999999 999999 999999 999999 999999 999999 999999 999999 999999 999999 999999 999999 999999 999999 999999 999999 999999 999999 6306
999999 10444 13218 12057 15132 13750 15691 17337 15893 17763 15996 12517 11348 18215 16870 19364 12607 12009 12217 10299 19391 10632 18013 19725 17293 19370 13485 18525 15601 11951 11662 18008 10873 18022 18475 16956 19519 11038 13396 10765 13179 19966 12920 19261 19832 11084 19226 15831 10170 14066 19134 999999 999999 999999 999999 999999 999999 999999 999999 999999 999999 999999 999999 999999 999999 999999 999999 999999 999999 999999 999999 999999 999999 999999 999999 999999 999999 999999 999999 999999 999999 999999 0 999999 999999 999999 999999 999999 999999 999999 999999 999999 999999 999999 999999 999999 999999 999999 999999 999999 999999 7736
999999 18495 13793 12162 15141 15290 15825 12371 10633 12842 13534 15777 19026 18071 11382 12260 15485 17630 16903 13657 14295 11525 12062 10474 19229 11257 17348 15369 10482 19849 10314 12251 11111 13555 16921 14929 12106 18694 12648 13487 16301 10949 18574 13114 14695 12283 12060 18086 11533 15384 15444 999999 999999 999999 999999 999999 999999 999999 999999 999999 999999 999999 999999 999999 999999 999999 999999 999999 999999 999999 999999 999999 999999 999999 999999 999999 999999 999999 999999 999999 999999 999999 999999 0 999999 999999 999999 999999 999999 999999 999999 999999 999999 999999 999999 999999 999999 999999 999999 999999 999999 6395
999999 16641 10639 16691 10529 13200 13292 10744 16443 18887 13051 18176 13649 10878 17244 12682 12253 19440 12308 10891 18514 12468 14739 14649 12013 15884 19272 14355 19795 16091 10861 16704 14393 13250 16848 13831 17110 11355 10950 16047 12114 11420 19140 10377 15245 10339 15632 19602 18096 11164 18088 999999 999999 999999 999999 999999 999999 999999 999999 999999 999999 999999 999999 999999 999999 999999 999999 999999 999999 999999 999999 999999 999999 999999 999999 999999 999999 999999 999999 999999 999999 999999 999999 999999 0 999999 999999 999999 999999 999999 999999 999999 999999 999999 999999 999999 999999 999999 999999 999999 999999 8967
999999 11082 14064 12218 18614 16425 12850 15853 18677 13981 15278 19909 18641 12737 14325 13748 16686 11092 14659 12950 18744 12306 18415 13911 16168 11065 15647 19708 19920 14940 12363 14332 16009 19715 11515 10180 13496 11860 18226 12632 16340 14858 18963 10909 17695 12560 13230 15106 12440 14495 17084 999999 999999 999999 999999 999999 999999 999999 999999 999999 999999 999999 999999 999999 999999 999999 999999 999999 999999 999999 999999 999999 999999 999999 999999 999999 999999 999999 999999 999999 999999 999999 999999 999999 999999 0 999999 999999 999999 999999 999999 999999 999999 999999 999999 999999 999999 999999 999999 999999 999999 8170
999999 17449 17111 15586 11823 11935 17600 11762 13792 18350 18982 15276 10143 18732 11122 14667 16821 11630 16010 19367 16644 11931 16451 19102 17071 14871 19655 16075 13601 12099 19676 19025 18290 16274 13386 12269 15894 16243 10865 17403 19149 18343 10129 18012 13372 19612 19651 13894 19687 10286 18939 999999 999999 999999 999999 999999 999999 999999 999999 999999 999999 999999 999999 999999 999999 999999 999999 999999 999999 999999 999999 999999 999999 999999 999999 999999 999999 999999 999999 999999 999999 999999 999999 999999 999999 999999 0 999999 999999 999999 999999 999999 999999 999999 999999 999999 999999 999999 999999 999999 999999 10066
999999 14824 16974 11559 18510 11828 11300 13748 17740 11918 17125 11424 15835 15180 11838 12296 12990 10920 18925 11363 11888 15499 12220 14926 17987 17383 10003 11064 13148 10550 11319 12416 18388 13081 12694 11445 11912 19556 12866 12847 14520 12896 11362 16988 18300 13830 15661 10389 17025 17562 18812 999999 999999 999999 999999 999999 999999 999999 999999 999999 999999 999999 999999 999999 999999 999999 999999 999999 999999 999999 999999 999999 999999 999999 999999 999999 999999 999999 999999 999999 999999 999999 999999 999999 999999 999999 999999 0 999999 999999 999999 999999 999999 999999 999999 999999 999999 999999 999999 999999 999999 12462
999999 15092 19624 18257 17134 14606 19636 13946 16457 10853 16873 10199 11299 12417 13439 17648 15486 18751 14297 13976 10396 14200 10802 15952 18656 12271 11687 15776 11259 10834 16733 15044 19666 17370 15062 17725 14662 13428 19389 12606 19046 12221 19342 13553 17883 17590 17821 18571 12970 17545 16106 999999 999999 999999 999999 999999 999999 999999 999999 999999 999999 999999 999999 999999 999999 999999 999999 999999 999999 999999 999999 999999 999999 999999 999999 999999 999999 999999 999999 999999 999999 999999 999999 999999 999999 999999 999999 999999 0 999999 999999 999999 999999 999999 999999 999999 999999 999999 999999 999999 999999 11094
999999 11112 11850 11854 10521 17426 13651 11952 17851 16222 16632 18623 10323 17361 11470 12645 12554 15667 18489 14970 13037 19771 15342 15075 12493 10781 14564 19290 11716 12039 17747 11169 11366 12790 19284 13080 12539 15087 19188 10563 19038 14407 18963 12053 13814 11539 16070 15373 16280 15154 12920 999999 999999 999999 999999 999999 999999 999999 999999 999999 999999 999999 999999 999999 999999 999999 999999 999999 999999 999999 999999 999999 999999 999999 999999 999999 999999 999999 999999 999999 999999 999999 999999 999999 999999 999999 999999 999999 999999 0 999999 999999 999999 999999 999999 999999 999999 999999 999999 999999 999999 8257
999999 12154 15111 13557 10141 15254 18250 17061 15935 12130 17969 14315 18667 14936 11304 15318 17395 14696 19588 16146 16245 16127 17534 19533 12683 11254 15159 14533 19498 12471 18064 18649 12188 12756 14517 12760 13458 17029 14037 18604 19164 18908 15609 14153 10618 14640 17765 11778 14730 11532 11525 999999 999999 999999 999999 999999 999999 999999 999999 999999 999999 999999 999999 999999 999999 999999 999999 999999 999999 999999 999999 999999 999999 999999 999999 999999 999999 999999 999999 999999 999999 999999 999999 999999 999999 999999 999999 999999 999999 999999 0 999999 999999 999999 999999 999999 999999 999999 999999 999999 999999 12329
999999 10101 18955 11823 19523 18779 17571 15113 12318 11500 12281 10586 16391 18966 11828 17178 19616 16785 12434 18627 16622 13352 16873 15676 11097 10106 10415 16289 15758 12653 15099 13448 19859 14333 10650 18494 18839 15944 12368 13901 10601 12558 19058 17370 19829 10285 18992 14936 16936 19094 13179 999999 999999 999999 999999 999999 999999 999999 999999 999999 999999 999999 999999 999999 999999 999999 999999 999999 999999 999999 999999 999999 999999 999999 999999 999999 999999 999999 999999 999999 999999 999999 999999 999999 999999 999999 999999 999999 999999 999999 999999 0 999999 999999 999999 999999 999999 999999 999999 999999 999999 11009
999999 10967 15593 14068 14230 17450 11217 19496 18578 16255 11953 10603 14732 15273 14203 10870 17421 13524 10224 16456 16662 14192 12362 13271 11480 12700 13714 19089 17863 19394 14234 14664 19273 18032 16416 16395 12137 12235 15167 18440 16919 13560 18510 10177 16847 11856 12940 13224 19389 17364 13074 999999 999999 999999 999999 999999 999999 999999 999999 999999 999999 999999 999999 999999 999999 999999 999999 999999 999999 999999 999999 999999 999999 999999 999999 999999 999999 999999 999999 999999 999999 999999 999999 999999 999999 999999 999999 999999 999999 999999 999999 999999 0 999999 999999 999999 999999 999999 999999 999999 999999 12065
999999 12688 12789 13107 17836 18199 15110 17201 14698 16032 14985 15838 11550 16889 19085 19711 18335 19229 15143 15603 13390 18886 17068 15173 13575 18742 13491 16550 12457 12444 12374 12307 11165 19367 19280 10471 17324 15963 12719 14146 17180 15672 16468 19387 12758 17250 18399 18142 18506 15103 15903 999999 999999 999999 999999 999999 999999 999999 999999 999999 999999 999999 999999 999999 999999 999999 999999 999999 999999 999999 999999 999999 999999 999999 999999 999999 999999 999999 999999 999999 999999 999999 999999 999999 999999 999999 999999 999999 999999 999999 999999 999999 999999 0 999999 999999 999999 999999 999999 999999 999999 6267
999999 19557 14834 12771 14857 14999 19357 13555 16737 13314 14969 13044 11962 10601 14447 12417 13149 17562 19806 15439 11564 10153 13455 17267 11264 14713 14292 17250 11929 13165 14037 11118 12193 13499 17467 12794 19566 17185 15049 15236 13053 15259 13005 18444 13115 15355 19432 17598 17732 10702 10470 999999 999999 999999 999999 999999 999999 999999 999999 999999 999999 999999 999999 999999 999999 999999 999999 999999 999999 999999 999999 999999 999999 999999 999999 999999 999999 999999 999999 999999 999999 999999 999999 999999 999999 999999 999999 999999 999999 999999 999999 999999 999999 999999 0 999999 999999 999999 999999 999999 999999 5745
999999 15544 14715 15419 15809 13218 16693 10135 10654 11808 16205 11598 12485 17870 19058 14932 15544 18792 13152 17923 16968 18493 10085 13974 18917 13639 10232 12867 13279 11925 16279 12763 16721 12782 11833 17048 13091 10099 14672 14364 17109 13416 14704 17453 11323 13301 15345 16769 14392 18254 15841 999999 999999 999999 999999 999999 999999 999999 999999 999999 999999 999999 999999 999999 999999 999999 999999 999999 999999 999999 999999 999999 999999 999999 999999 999999 999999 999999 999999 999999 999999 999999 999999 999999 999999 999999 999999 999999 999999 999999 999999 999999 999999 999999 999999 0 999999 999999 999999 999999 999999 12365
999999 11492 17251 15834 12613 17322 16192 18311 13040 11681 18294 16567 19271 13233 18149 10134 10259 19098 10841 16426 15334 19434 10033 13286 13522 14970 14045 15658 12536 16616 11171 14556 16011 10034 14429 17580 19455 11696 15429 11032 10801 17036 13920 15465 15942 15354 13484 18520 14887 15787 15406 999999 999999 999999 999999 999999 999999 999999 999999 999999 999999 999999 999999 999999 999999 999999 999999 999999 999999 999999 999999 999999 999999 999999 999999 999999 999999 999999 999999 999999 999999 999999 999999 999999 999999 999999 999999 999999 999999 999999 999999 999999 999999 999999 999999 999999 0 999999 999999 999999 999999 11186
999999 12625 13156 13617 17504 18840 18263 16884 11779 11555 10791 17821 15429 11224 18958 16163 10108 11942 12132 15328 12767 11541 12161 10188 16816 12877 19053 19912 11892 15988 18105 17744 14883 10809 18238 11540 13150 10303 16871 11977 12411 14467 15860 12019 15430 17048 17202 18246 15303 10215 14444 999999 999999 999999 999999 999999 999999 999999 999999 999999 999999 999999 999999 999999 999999 999999 999999 999999 999999 999999 999999 999999 999999 999999 999999 999999 999999 999999 999999 999999 999999 999999 999999 999999 999999 999999 999999 999999 999999 999999 999999 999999 999999 999999 999999 999999 999999 0 999999 999999 999999 6058
999999 13443 11474 12163 14164 16518 13308 12073 18031 15972 15087 17314 15380 12370 11147 16126 14835 15230 13316 11432 14639 11490 13116 15401 13168 14359 14264 13252 18088 16653 17492 18919 18775 19021 12506 10510 11605 12785 15580 19006 12638 13351 15337 17789 13875 15692 18220 19543 16895 16125 10640 999999 999999 999999 999999 999999 999999 999999 999999 999999 999999 999999 999999 999999 999999 999999 999999 999999 999999 999999 999999 999999 999999 999999 999999 999999 999999 999999 999999 999999 999999 999999 999999 999999 999999 999999 999999 999999 999999 999999 999999 999999 999999 999999 999999 999999 999999 999999 0 999999 999999 10142
999999 15875 14423 17540 13600 14177 12735 19790 11418 15826 13027 14474 17948 16973 18335 17447 13742 12361 11671 13372 15408 17294 14219 18257 11124 17859 10029 18310 12407 10522 13772 13531 17502 19146 18691 11872 12822 13991 11487 11987 14648 10823 17107 10875 16112 10020 10119 17561 15726 17919 19148 999999 999999 999999 999999 999999 999999 999999 999999 999999 999999 999999 999999 999999 999999 999999 999999 999999 999999 999999 999999 999999 999999 999999 999999 999999 999999 999999 999999 999999 999999 999999 999999 999999 999999 999999 999999 999999 999999 999999 999999 999999 999999 999999 999999 999999 999999 999999 999999 0 999999 10393
999999 16790 17387 17357 14187 19739 16066 18284 12908 19511 10559 11209 11072 13585 15863 13348 11813 17498 11470 17041 11015 11909 12069 12173 10229 11186 16680 11141 15569 19995 12790 16903 11998 17989 17116 16881 12327 12856 11380 18880 11057 18289 18424 15537 14440 19231 16374 18571 12239 19849 10918 999999 999999 999999 999999 999999 999999 999999 999999 999999 999999 999999 999999 999999 999999 999999 999999 999999 999999 999999 999999 999999 999999 999999 999999 999999 999999 999999 999999 999999 999999 999999 999999 999999 999999 999999 999999 999999 999999 999999 999999 999999 999999 999999 999999 999999 999999 999999 999999 999999 0 9025
1 999999 999999 999999 999999 999999 999999 999999 999999 999999 999999 999999 999999 999999 999999 999999 999999 999999 999999 999999 999999 999999 999999 999999 999999 999999 999999 999999 999999 999999 999999 999999 999999 999999 999999 999999 999999 999999 999999 999999 999999 999999 999999 999999 999999 999999 999999 999999 999999 999999 999999 999999 999999 999999 999999 999999 999999 999999 999999 999999 999999 999999 999999 999999 999999 999999 999999 999999 999999 999999 999999 999999 999999 999999 999999 999999 999999 999999 999999 999999 999999 999999 999999 999999 999999 999999 999999 999999 999999 999999 999999 999999 999999 999999 999999 999999 999999 999999 999999 999999 999999 0
EOF