NAME: GR_1x5x8_KH_5x8_Run_8
TYPE: TSP
COMMENT: BTSP instance |A|=40 GR nodes |B|=40 KH nodes depot=0.0 end=0.0.0
DIMENSION: 82
EDGE_WEIGHT_TYPE: EXPLICIT
EDGE_WEIGHT_FORMAT: FULL_MATRIX
NODE_COORD_TYPE: NO_COORDS
EDGE_WEIGHT_SECTION
0 6980 14175 5606 8837 13729 13491 5865 9697 10237 12855 7189 9992 11421 13507 14331 8410 6531 8981 7596 9639 11189 9743 9545 5571 5645 10519 9443 5051 6714 7366 5008 9789 14441 10738 11075 7160 7847 14210 5480 6529 999999 999999 999999 999999 999999 999999 999999 999999 999999 999999 999999 999999 999999 999999 999999 999999 999999 999999 999999 999999 999999 999999 999999 999999 999999 999999 999999 999999 999999 999999 999999 999999 999999 999999 999999 999999 999999 999999 999999 999999 999999
999999 0 999999 999999 999999 999999 999999 999999 999999 999999 999999 999999 999999 999999 999999 999999 999999 999999 999999 999999 999999 999999 999999 999999 999999 999999 999999 999999 999999 999999 999999 999999 999999 999999 999999 999999 999999 999999 999999 999999 999999 14262 16488 17576 10950 13948 12879 16417 15987 18337 18345 18323 12693 11972 10979 17503 13592 17220 19139 17684 14876 16618 11325 16128 11923 11015 13576 14180 10056 18924 11137 18000 15209 15805 19079 15431 17590 14955 12145 18217 10916 999999
999999 999999 0 999999 999999 999999 999999 999999 999999 999999 999999 999999 999999 999999 999999 999999 999999 999999 999999 999999 999999 999999 999999 999999 999999 999999 999999 999999 999999 999999 999999 999999 999999 999999 999999 999999 999999 999999 999999 999999 999999 12648 14700 18034 17648 18661 15510 19256 10538 12851 11004 19628 10670 19687 19628 17283 15859 17826 19232 16492 16704 12021 13004 15990 17211 15513 17319 14732 17063 13005 19573 15923 17404 11390 11752 11949 11844 15156 16252 19597 16714 999999
999999 999999 999999 0 999999 999999 999999 999999 999999 999999 999999 999999 999999 999999 999999 999999 999999 999999 999999 999999 999999 999999 999999 999999 999999 999999 999999 999999 999999 999999 999999 999999 999999 999999 999999 999999 999999 999999 999999 999999 999999 12542 18713 14622 18149 16059 19921 11725 11162 11937 10219 11720 16010 14823 10868 15361 18283 15822 12194 17017 14969 15851 13846 10326 19430 17569 13259 15942 17710 15369 17950 11481 13540 18708 17455 13605 12089 19391 10545 12033 12259 999999
999999 999999 999999 999999 0 999999 999999 999999 999999 999999 999999 999999 999999 999999 999999 999999 999999 999999 999999 999999 999999 999999 999999 999999 999999 999999 999999 999999 999999 999999 999999 999999 999999 999999 999999 999999 999999 999999 999999 999999 999999 16256 17729 11676 12952 10115 10509 13287 11229 13098 13670 14768 11951 10723 18601 17671 15257 13749 19445 10070 17547 19104 14161 14961 13127 18796 15832 12635 15498 18919 13910 13259 12195 19502 17524 12961 14127 13155 12481 18823 13994 999999
999999 999999 999999 999999 999999 0 999999 999999 999999 999999 999999 999999 999999 999999 999999 999999 999999 999999 999999 999999 999999 999999 999999 999999 999999 999999 999999 999999 999999 999999 999999 999999 999999 999999 999999 999999 999999 999999 999999 999999 999999 12881 10004 16738 17060 11540 14888 19634 18921 17933 11534 17593 18691 12082 17040 10767 17630 17607 12287 15176 14541 12690 10726 11426 13672 12631 12584 19336 18464 18966 10132 16609 16725 16181 12893 18926 16936 17134 10666 10415 19925 999999
999999 999999 999999 999999 999999 999999 0 999999 999999 999999 999999 999999 999999 999999 999999 999999 999999 999999 999999 999999 999999 999999 999999 999999 999999 999999 999999 999999 999999 999999 999999 999999 999999 999999 999999 999999 999999 999999 999999 999999 999999 19965 13545 12998 11397 16065 15152 10210 19271 18696 13752 17447 17436 14294 18873 19692 10093 13683 19148 11238 16116 12287 15180 14423 16206 10099 12514 13475 13972 19087 15082 14906 14510 19504 17839 13869 18324 12447 12460 16068 14811 999999
999999 999999 999999 999999 999999 999999 999999 0 999999 999999 999999 999999 999999 999999 999999 999999 999999 999999 999999 999999 999999 999999 999999 999999 999999 999999 999999 999999 999999 999999 999999 999999 999999 999999 999999 999999 999999 999999 999999 999999 999999 12439 18143 12505 17993 13690 12256 13966 16848 18130 14713 17498 14851 15583 11641 19887 10775 12560 11142 14937 15249 15520 12264 10580 10788 15994 11227 18729 18486 14972 13203 15674 16179 19042 15277 12586 19240 15134 14245 11123 10193 999999
999999 999999 999999 999999 999999 999999 999999 999999 0 999999 999999 999999 999999 999999 999999 999999 999999 999999 999999 999999 999999 999999 999999 999999 999999 999999 999999 999999 999999 999999 999999 999999 999999 999999 999999 999999 999999 999999 999999 999999 999999 18081 15952 10696 17853 13316 19506 12768 14651 18632 19730 16983 19008 16053 13862 17546 17514 13914 10209 15943 10354 17223 17454 19744 19860 13907 17540 17624 17700 10190 11399 14417 10949 18375 18237 16035 13942 11796 19920 14406 19327 999999
999999 999999 999999 999999 999999 999999 999999 999999 999999 0 999999 999999 999999 999999 999999 999999 999999 999999 999999 999999 999999 999999 999999 999999 999999 999999 999999 999999 999999 999999 999999 999999 999999 999999 999999 999999 999999 999999 999999 999999 999999 14653 19598 19512 19656 16737 19882 12195 11342 13392 12369 11275 18106 13594 17212 15031 19962 14986 16068 19887 17536 11359 14305 14919 11802 13284 16891 17234 14291 19104 17664 13321 13027 11378 18770 13484 14136 18667 15622 17548 19625 999999
999999 999999 999999 999999 999999 999999 999999 999999 999999 999999 0 999999 999999 999999 999999 999999 999999 999999 999999 999999 999999 999999 999999 999999 999999 999999 999999 999999 999999 999999 999999 999999 999999 999999 999999 999999 999999 999999 999999 999999 999999 16631 13667 10084 19604 10741 12014 15286 11530 12280 15999 16100 17581 10314 16711 10273 19890 13401 18207 18846 18626 12650 18022 12299 15742 19013 12550 19119 11090 11471 11146 19053 19946 15524 14855 10425 15448 17225 10819 19469 10394 999999
999999 999999 999999 999999 999999 999999 999999 999999 999999 999999 999999 0 999999 999999 999999 999999 999999 999999 999999 999999 999999 999999 999999 999999 999999 999999 999999 999999 999999 999999 999999 999999 999999 999999 999999 999999 999999 999999 999999 999999 999999 17253 19254 15235 19775 15927 12782 18303 11208 12263 12629 17546 12778 10567 15896 16330 11119 10949 19880 10119 12666 16478 10655 11242 15200 12960 17184 16149 11081 14066 13448 14896 15748 14464 12865 16859 12817 15346 14947 16679 12155 999999
999999 999999 999999 999999 999999 999999 999999 999999 999999 999999 999999 999999 0 999999 999999 999999 999999 999999 999999 999999 999999 999999 999999 999999 999999 999999 999999 999999 999999 999999 999999 999999 999999 999999 999999 999999 999999 999999 999999 999999 999999 15821 14919 17390 16628 17873 15674 15511 18593 14435 10763 10855 19600 10572 18058 14384 14925 11309 17658 12045 16960 16391 17139 13277 11300 14105 15760 17665 15773 13426 12143 19957 14483 14402 10855 10374 16191 13563 16372 14989 12541 999999
999999 999999 999999 999999 999999 999999 999999 999999 999999 999999 999999 999999 999999 0 999999 999999 999999 999999 999999 999999 999999 999999 999999 999999 999999 999999 999999 999999 999999 999999 999999 999999 999999 999999 999999 999999 999999 999999 999999 999999 999999 15826 19793 12178 12393 14644 19500 15619 15369 14338 10975 16807 10820 12485 11191 16377 18696 18114 13070 16897 12762 13572 12634 10825 14310 18346 11148 10891 11502 16261 14489 13806 18670 11857 13251 16738 16208 15766 12028 19073 18608 999999
999999 999999 999999 999999 999999 999999 999999 999999 999999 999999 999999 999999 999999 999999 0 999999 999999 999999 999999 999999 999999 999999 999999 999999 999999 999999 999999 999999 999999 999999 999999 999999 999999 999999 999999 999999 999999 999999 999999 999999 999999 13620 15697 10070 11678 16526 12215 18223 16696 15956 15791 11702 13248 11997 15524 13386 15980 15509 14807 11504 19313 10693 19873 11721 16108 11539 10764 16408 12578 10673 18686 10013 13929 12533 14027 12466 16529 14060 19158 14047 18822 999999
999999 999999 999999 999999 999999 999999 999999 999999 999999 999999 999999 999999 999999 999999 999999 0 999999 999999 999999 999999 999999 999999 999999 999999 999999 999999 999999 999999 999999 999999 999999 999999 999999 999999 999999 999999 999999 999999 999999 999999 999999 13659 11242 15400 11736 19194 12264 18729 13188 19954 11095 11443 18793 11756 12716 10586 17170 17911 16390 10095 19373 14732 15861 12013 12931 16944 18939 12553 10574 18987 18852 17356 13696 19888 14802 15633 18099 18762 17302 12751 19866 999999
999999 999999 999999 999999 999999 999999 999999 999999 999999 999999 999999 999999 999999 999999 999999 999999 0 999999 999999 999999 999999 999999 999999 999999 999999 999999 999999 999999 999999 999999 999999 999999 999999 999999 999999 999999 999999 999999 999999 999999 999999 18713 19850 16979 16744 18836 15480 16955 18229 12027 12587 16625 18618 17719 12711 16182 11093 18659 19548 15693 14273 12491 11139 15409 15615 17839 17976 13198 19079 15908 18032 14521 16011 17870 10609 17289 16194 10749 16584 16715 17688 999999
999999 999999 999999 999999 999999 999999 999999 999999 999999 999999 999999 999999 999999 999999 999999 999999 999999 0 999999 999999 999999 999999 999999 999999 999999 999999 999999 999999 999999 999999 999999 999999 999999 999999 999999 999999 999999 999999 999999 999999 999999 12711 16190 15957 18481 19340 11519 10975 10105 11092 11151 12350 18562 16181 11199 15179 13264 12637 10062 15294 16012 10985 16422 11542 19037 12612 10541 12168 12369 18341 13416 17875 19289 11548 12231 11369 19673 11430 17213 19223 13575 999999
999999 999999 999999 999999 999999 999999 999999 999999 999999 999999 999999 999999 999999 999999 999999 999999 999999 999999 0 999999 999999 999999 999999 999999 999999 999999 999999 999999 999999 999999 999999 999999 999999 999999 999999 999999 999999 999999 999999 999999 999999 12390 18471 16203 11672 16526 11930 15307 17445 10090 17576 12151 18711 19956 19822 17092 19696 19757 12985 15396 10291 10378 15818 17428 17906 15241 11006 13069 19169 14794 13931 18884 18602 16861 16697 15477 19655 10270 17904 12450 11607 999999
999999 999999 999999 999999 999999 999999 999999 999999 999999 999999 999999 999999 999999 999999 999999 999999 999999 999999 999999 0 999999 999999 999999 999999 999999 999999 999999 999999 999999 999999 999999 999999 999999 999999 999999 999999 999999 999999 999999 999999 999999 14819 19231 12668 12136 19564 17921 11274 11374 15667 13821 12534 16451 18577 16475 10617 13932 17641 18594 13036 19512 14642 14670 10322 14232 15594 12279 16529 12450 12633 15838 18334 12636 16180 16535 15931 17620 16164 16805 16432 15833 999999
999999 999999 999999 999999 999999 999999 999999 999999 999999 999999 999999 999999 999999 999999 999999 999999 999999 999999 999999 999999 0 999999 999999 999999 999999 999999 999999 999999 999999 999999 999999 999999 999999 999999 999999 999999 999999 999999 999999 999999 999999 17682 18385 14776 14613 12703 12194 10337 17869 14447 13392 16864 17109 10187 19735 19046 17125 19825 19320 10756 19562 10072 10708 11856 12443 12811 16558 17252 12910 14396 13206 14918 12989 17930 17608 10864 13572 13191 13267 12429 13559 999999
999999 999999 999999 999999 999999 999999 999999 999999 999999 999999 999999 999999 999999 999999 999999 999999 999999 999999 999999 999999 999999 0 999999 999999 999999 999999 999999 999999 999999 999999 999999 999999 999999 999999 999999 999999 999999 999999 999999 999999 999999 14273 14360 11370 18748 14329 10928 11794 12717 14843 18864 14450 17028 18728 16337 10190 14825 15791 15425 15510 15252 17070 11652 11205 10567 17909 11417 12691 16939 10580 17000 13716 14521 16009 10028 13991 13804 11764 15218 11177 11730 999999
999999 999999 999999 999999 999999 999999 999999 999999 999999 999999 999999 999999 999999 999999 999999 999999 999999 999999 999999 999999 999999 999999 0 999999 999999 999999 999999 999999 999999 999999 999999 999999 999999 999999 999999 999999 999999 999999 999999 999999 999999 18976 12648 11955 17042 11591 16548 14539 12594 10105 14732 17340 17723 11366 13318 19822 15776 17114 14989 10678 11766 10094 10600 10365 17342 10453 10134 14714 16282 10047 18372 15916 12640 16151 18148 16070 13595 12215 17444 18956 17492 999999
999999 999999 999999 999999 999999 999999 999999 999999 999999 999999 999999 999999 999999 999999 999999 999999 999999 999999 999999 999999 999999 999999 999999 0 999999 999999 999999 999999 999999 999999 999999 999999 999999 999999 999999 999999 999999 999999 999999 999999 999999 17292 12955 18719 13951 13914 19665 16917 13959 15155 18327 11734 16083 16163 16560 15217 16340 11362 14643 19152 18709 12494 15126 11362 11002 15787 16486 11182 15937 19883 17222 18724 19741 19247 11570 16628 13721 13283 15578 18858 18893 999999
999999 999999 999999 999999 999999 999999 999999 999999 999999 999999 999999 999999 999999 999999 999999 999999 999999 999999 999999 999999 999999 999999 999999 999999 0 999999 999999 999999 999999 999999 999999 999999 999999 999999 999999 999999 999999 999999 999999 999999 999999 17916 19595 13384 14626 14502 18599 14613 17926 12953 18866 18296 13847 17128 13297 19162 16632 14409 14777 10620 14153 12317 11540 11133 15391 16949 12441 10317 16084 13491 18987 17946 10465 14029 15768 14395 16451 16011 18868 18842 16183 999999
999999 999999 999999 999999 999999 999999 999999 999999 999999 999999 999999 999999 999999 999999 999999 999999 999999 999999 999999 999999 999999 999999 999999 999999 999999 0 999999 999999 999999 999999 999999 999999 999999 999999 999999 999999 999999 999999 999999 999999 999999 17334 15606 16081 14458 13787 11683 10494 14100 17378 18055 13200 14695 10752 17058 17594 10646 18506 13008 19512 12409 11735 17478 11951 15700 13053 18599 17889 19644 14055 16172 18717 14737 15420 11115 14236 18700 18801 12225 17985 12387 999999
999999 999999 999999 999999 999999 999999 999999 999999 999999 999999 999999 999999 999999 999999 999999 999999 999999 999999 999999 999999 999999 999999 999999 999999 999999 999999 0 999999 999999 999999 999999 999999 999999 999999 999999 999999 999999 999999 999999 999999 999999 11262 18372 17939 10818 13711 19247 18804 13510 10570 18322 16924 19065 19348 16946 12266 19881 11274 18137 18292 18030 17957 17327 19145 15226 13487 19491 12162 16022 19406 10749 16113 16135 11029 15764 12044 13372 14694 18985 18597 19464 999999
999999 999999 999999 999999 999999 999999 999999 999999 999999 999999 999999 999999 999999 999999 999999 999999 999999 999999 999999 999999 999999 999999 999999 999999 999999 999999 999999 0 999999 999999 999999 999999 999999 999999 999999 999999 999999 999999 999999 999999 999999 17854 14041 14368 19479 16703 12971 18792 14500 10308 14180 16974 12863 16633 15078 12844 14431 15471 16031 14480 15094 11894 15075 11223 14093 10328 16101 14811 10076 18313 12443 17553 15387 14930 17129 16385 16556 14759 10645 18352 17224 999999
999999 999999 999999 999999 999999 999999 999999 999999 999999 999999 999999 999999 999999 999999 999999 999999 999999 999999 999999 999999 999999 999999 999999 999999 999999 999999 999999 999999 0 999999 999999 999999 999999 999999 999999 999999 999999 999999 999999 999999 999999 10256 14893 11192 17799 14657 16732 18940 14527 14367 11216 16742 17543 15990 15989 13203 18553 18665 13901 17912 16783 19956 11364 11081 16261 18168 14622 16198 11925 11106 11906 18418 10372 19602 19620 16299 13847 10094 16856 12695 13276 999999
999999 999999 999999 999999 999999 999999 999999 999999 999999 999999 999999 999999 999999 999999 999999 999999 999999 999999 999999 999999 999999 999999 999999 999999 999999 999999 999999 999999 999999 0 999999 999999 999999 999999 999999 999999 999999 999999 999999 999999 999999 16349 11526 16812 15268 11948 14101 16772 10587 15473 19295 11372 10301 12466 15214 12063 18887 16321 13718 17316 14448 17775 12948 17817 14542 11462 10357 10491 15597 14946 14334 13084 10481 19137 16353 11638 19432 18030 11949 19929 11228 999999
999999 999999 999999 999999 999999 999999 999999 999999 999999 999999 999999 999999 999999 999999 999999 999999 999999 999999 999999 999999 999999 999999 999999 999999 999999 999999 999999 999999 999999 999999 0 999999 999999 999999 999999 999999 999999 999999 999999 999999 999999 16732 11271 12491 14009 11462 18904 13790 12132 19911 17501 12313 13123 12843 18475 18946 19687 19914 14212 19423 13499 15841 11880 13251 19214 11979 14973 16901 11240 14708 10959 12246 10374 14769 15441 14918 14929 15597 17609 15276 11886 999999
999999 999999 999999 999999 999999 999999 999999 999999 999999 999999 999999 999999 999999 999999 999999 999999 999999 999999 999999 999999 999999 999999 999999 999999 999999 999999 999999 999999 999999 999999 999999 0 999999 999999 999999 999999 999999 999999 999999 999999 999999 16464 11007 18653 13889 18256 12787 12685 14668 18003 17651 11763 15307 16739 10840 11735 14895 14641 19594 15609 14342 14729 15965 10868 14925 12235 14366 13501 11846 10113 15775 14198 18578 15448 13668 16568 11282 19432 16890 12735 12123 999999
999999 999999 999999 999999 999999 999999 999999 999999 999999 999999 999999 999999 999999 999999 999999 999999 999999 999999 999999 999999 999999 999999 999999 999999 999999 999999 999999 999999 999999 999999 999999 999999 0 999999 999999 999999 999999 999999 999999 999999 999999 10503 13267 11963 11471 10501 17149 12492 17605 17680 10684 11392 16352 17835 13686 13607 16286 13550 17362 14561 14927 16519 18539 10665 12136 18842 15986 13756 17014 17458 17003 16893 18270 13735 14951 16985 11549 17640 10446 14384 14653 999999
999999 999999 999999 999999 999999 999999 999999 999999 999999 999999 999999 999999 999999 999999 999999 999999 999999 999999 999999 999999 999999 999999 999999 999999 999999 999999 999999 999999 999999 999999 999999 999999 999999 0 999999 999999 999999 999999 999999 999999 999999 14134 14828 11841 13347 13523 18891 13041 18794 10584 10541 12805 10843 11633 12724 14069 18538 19494 14435 18650 18836 18936 13538 18522 12843 10700 17706 18934 12782 11621 18273 16927 12856 19682 15403 14537 10352 11567 15004 15933 19594 999999
999999 999999 999999 999999 999999 999999 999999 999999 999999 999999 999999 999999 999999 999999 999999 999999 999999 999999 999999 999999 999999 999999 999999 999999 999999 999999 999999 999999 999999 999999 999999 999999 999999 999999 0 999999 999999 999999 999999 999999 999999 19679 17065 19886 19289 13550 10630 10962 11758 15800 11871 16138 10195 17387 10386 11062 13653 11488 19176 19151 18415 18874 17277 16643 12590 15340 11645 19580 17520 13629 14310 16010 12581 18619 19315 12428 11395 12603 18880 13486 18182 999999
999999 999999 999999 999999 999999 999999 999999 999999 999999 999999 999999 999999 999999 999999 999999 999999 999999 999999 999999 999999 999999 999999 999999 999999 999999 999999 999999 999999 999999 999999 999999 999999 999999 999999 999999 0 999999 999999 999999 999999 999999 19887 15440 18636 18478 11509 10595 19898 18034 15142 19266 12348 16946 16015 13146 12316 14169 12317 19047 16362 13721 12042 11802 15579 15618 19140 18937 14316 18880 12510 16480 15893 19627 12777 10904 11801 10317 18511 18016 17673 10709 999999
999999 999999 999999 999999 999999 999999 999999 999999 999999 999999 999999 999999 999999 999999 999999 999999 999999 999999 999999 999999 999999 999999 999999 999999 999999 999999 999999 999999 999999 999999 999999 999999 999999 999999 999999 999999 0 999999 999999 999999 999999 10835 12880 16073 16791 15351 11883 14305 15743 16516 15425 10479 19474 19144 19385 15081 19003 17309 15666 17753 17721 19861 17448 11143 18053 16687 14927 12984 19539 14928 17556 10492 18436 18998 17261 16916 11172 15062 17315 10267 19436 999999
999999 999999 999999 999999 999999 999999 999999 999999 999999 999999 999999 999999 999999 999999 999999 999999 999999 999999 999999 999999 999999 999999 999999 999999 999999 999999 999999 999999 999999 999999 999999 999999 999999 999999 999999 999999 999999 0 999999 999999 999999 17206 17487 19118 17624 10345 16705 15236 12803 12719 15329 14365 19653 19602 14909 19478 14150 13715 15114 19325 14514 16895 12920 13967 16511 19195 18597 17042 14944 18090 19127 11805 18267 17461 11833 17242 14848 16391 14833 12710 18757 999999
999999 999999 999999 999999 999999 999999 999999 999999 999999 999999 999999 999999 999999 999999 999999 999999 999999 999999 999999 999999 999999 999999 999999 999999 999999 999999 999999 999999 999999 999999 999999 999999 999999 999999 999999 999999 999999 999999 0 999999 999999 17314 17578 17826 13948 11865 19653 13932 10153 19818 13705 16878 19724 11352 10819 13928 17437 15060 16307 15771 18481 11680 17794 15044 10870 19410 17661 12306 14281 11488 14024 13620 11338 15279 11675 19825 15036 10983 16106 15602 19844 999999
999999 999999 999999 999999 999999 999999 999999 999999 999999 999999 999999 999999 999999 999999 999999 999999 999999 999999 999999 999999 999999 999999 999999 999999 999999 999999 999999 999999 999999 999999 999999 999999 999999 999999 999999 999999 999999 999999 999999 0 999999 16889 12944 12842 19877 13249 19447 12218 18355 17028 12182 17282 12628 19824 14477 11364 18358 15194 16884 14008 16849 19477 12910 13265 11365 10865 13146 12866 11684 19381 17020 19648 18642 10567 19283 16520 18101 16452 16485 13562 15676 999999
999999 999999 999999 999999 999999 999999 999999 999999 999999 999999 999999 999999 999999 999999 999999 999999 999999 999999 999999 999999 999999 999999 999999 999999 999999 999999 999999 999999 999999 999999 999999 999999 999999 999999 999999 999999 999999 999999 999999 999999 0 18252 16376 10447 12951 12465 18750 16111 13623 19480 16393 13010 15915 15121 16615 10467 16373 10559 13325 17487 12346 11893 15180 11374 16480 19782 10788 13980 13929 18952 10102 19129 17425 13074 12199 16391 18376 16666 15138 18438 16364 999999
999999 14262 12648 12542 16256 12881 19965 12439 18081 14653 16631 17253 15821 15826 13620 13659 18713 12711 12390 14819 17682 14273 18976 17292 17916 17334 11262 17854 10256 16349 16732 16464 10503 14134 19679 19887 10835 17206 17314 16889 18252 0 999999 999999 999999 999999 999999 999999 999999 999999 999999 999999 999999 999999 999999 999999 999999 999999 999999 999999 999999 999999 999999 999999 999999 999999 999999 999999 999999 999999 999999 999999 999999 999999 999999 999999 999999 999999 999999 999999 999999 13331
999999 16488 14700 18713 17729 10004 13545 18143 15952 19598 13667 19254 14919 19793 15697 11242 19850 16190 18471 19231 18385 14360 12648 12955 19595 15606 18372 14041 14893 11526 11271 11007 13267 14828 17065 15440 12880 17487 17578 12944 16376 999999 0 999999 999999 999999 999999 999999 999999 999999 999999 999999 999999 999999 999999 999999 999999 999999 999999 999999 999999 999999 999999 999999 999999 999999 999999 999999 999999 999999 999999 999999 999999 999999 999999 999999 999999 999999 999999 999999 999999 11622
999999 17576 18034 14622 11676 16738 12998 12505 10696 19512 10084 15235 17390 12178 10070 15400 16979 15957 16203 12668 14776 11370 11955 18719 13384 16081 17939 14368 11192 16812 12491 18653 11963 11841 19886 18636 16073 19118 17826 12842 10447 999999 999999 0 999999 999999 999999 999999 999999 999999 999999 999999 999999 999999 999999 999999 999999 999999 999999 999999 999999 999999 999999 999999 999999 999999 999999 999999 999999 999999 999999 999999 999999 999999 999999 999999 999999 999999 999999 999999 999999 6855
999999 10950 17648 18149 12952 17060 11397 17993 17853 19656 19604 19775 16628 12393 11678 11736 16744 18481 11672 12136 14613 18748 17042 13951 14626 14458 10818 19479 17799 15268 14009 13889 11471 13347 19289 18478 16791 17624 13948 19877 12951 999999 999999 999999 0 999999 999999 999999 999999 999999 999999 999999 999999 999999 999999 999999 999999 999999 999999 999999 999999 999999 999999 999999 999999 999999 999999 999999 999999 999999 999999 999999 999999 999999 999999 999999 999999 999999 999999 999999 999999 9922
999999 13948 18661 16059 10115 11540 16065 13690 13316 16737 10741 15927 17873 14644 16526 19194 18836 19340 16526 19564 12703 14329 11591 13914 14502 13787 13711 16703 14657 11948 11462 18256 10501 13523 13550 11509 15351 10345 11865 13249 12465 999999 999999 999999 999999 0 999999 999999 999999 999999 999999 999999 999999 999999 999999 999999 999999 999999 999999 999999 999999 999999 999999 999999 999999 999999 999999 999999 999999 999999 999999 999999 999999 999999 999999 999999 999999 999999 999999 999999 999999 8342
999999 12879 15510 19921 10509 14888 15152 12256 19506 19882 12014 12782 15674 19500 12215 12264 15480 11519 11930 17921 12194 10928 16548 19665 18599 11683 19247 12971 16732 14101 18904 12787 17149 18891 10630 10595 11883 16705 19653 19447 18750 999999 999999 999999 999999 999999 0 999999 999999 999999 999999 999999 999999 999999 999999 999999 999999 999999 999999 999999 999999 999999 999999 999999 999999 999999 999999 999999 999999 999999 999999 999999 999999 999999 999999 999999 999999 999999 999999 999999 999999 14256
999999 16417 19256 11725 13287 19634 10210 13966 12768 12195 15286 18303 15511 15619 18223 18729 16955 10975 15307 11274 10337 11794 14539 16917 14613 10494 18804 18792 18940 16772 13790 12685 12492 13041 10962 19898 14305 15236 13932 12218 16111 999999 999999 999999 999999 999999 999999 0 999999 999999 999999 999999 999999 999999 999999 999999 999999 999999 999999 999999 999999 999999 999999 999999 999999 999999 999999 999999 999999 999999 999999 999999 999999 999999 999999 999999 999999 999999 999999 999999 999999 13349
999999 15987 10538 11162 11229 18921 19271 16848 14651 11342 11530 11208 18593 15369 16696 13188 18229 10105 17445 11374 17869 12717 12594 13959 17926 14100 13510 14500 14527 10587 12132 14668 17605 18794 11758 18034 15743 12803 10153 18355 13623 999999 999999 999999 999999 999999 999999 999999 0 999999 999999 999999 999999 999999 999999 999999 999999 999999 999999 999999 999999 999999 999999 999999 999999 999999 999999 999999 999999 999999 999999 999999 999999 999999 999999 999999 999999 999999 999999 999999 999999 6314
999999 18337 12851 11937 13098 17933 18696 18130 18632 13392 12280 12263 14435 14338 15956 19954 12027 11092 10090 15667 14447 14843 10105 15155 12953 17378 10570 10308 14367 15473 19911 18003 17680 10584 15800 15142 16516 12719 19818 17028 19480 999999 999999 999999 999999 999999 999999 999999 999999 0 999999 999999 999999 999999 999999 999999 999999 999999 999999 999999 999999 999999 999999 999999 999999 999999 999999 999999 999999 999999 999999 999999 999999 999999 999999 999999 999999 999999 999999 999999 999999 10399
999999 18345 11004 10219 13670 11534 13752 14713 19730 12369 15999 12629 10763 10975 15791 11095 12587 11151 17576 13821 13392 18864 14732 18327 18866 18055 18322 14180 11216 19295 17501 17651 10684 10541 11871 19266 15425 15329 13705 12182 16393 999999 999999 999999 999999 999999 999999 999999 999999 999999 0 999999 999999 999999 999999 999999 999999 999999 999999 999999 999999 999999 999999 999999 999999 999999 999999 999999 999999 999999 999999 999999 999999 999999 999999 999999 999999 999999 999999 999999 999999 13738
999999 18323 19628 11720 14768 17593 17447 17498 16983 11275 16100 17546 10855 16807 11702 11443 16625 12350 12151 12534 16864 14450 17340 11734 18296 13200 16924 16974 16742 11372 12313 11763 11392 12805 16138 12348 10479 14365 16878 17282 13010 999999 999999 999999 999999 999999 999999 999999 999999 999999 999999 0 999999 999999 999999 999999 999999 999999 999999 999999 999999 999999 999999 999999 999999 999999 999999 999999 999999 999999 999999 999999 999999 999999 999999 999999 999999 999999 999999 999999 999999 9455
999999 12693 10670 16010 11951 18691 17436 14851 19008 18106 17581 12778 19600 10820 13248 18793 18618 18562 18711 16451 17109 17028 17723 16083 13847 14695 19065 12863 17543 10301 13123 15307 16352 10843 10195 16946 19474 19653 19724 12628 15915 999999 999999 999999 999999 999999 999999 999999 999999 999999 999999 999999 0 999999 999999 999999 999999 999999 999999 999999 999999 999999 999999 999999 999999 999999 999999 999999 999999 999999 999999 999999 999999 999999 999999 999999 999999 999999 999999 999999 999999 11780
999999 11972 19687 14823 10723 12082 14294 15583 16053 13594 10314 10567 10572 12485 11997 11756 17719 16181 19956 18577 10187 18728 11366 16163 17128 10752 19348 16633 15990 12466 12843 16739 17835 11633 17387 16015 19144 19602 11352 19824 15121 999999 999999 999999 999999 999999 999999 999999 999999 999999 999999 999999 999999 0 999999 999999 999999 999999 999999 999999 999999 999999 999999 999999 999999 999999 999999 999999 999999 999999 999999 999999 999999 999999 999999 999999 999999 999999 999999 999999 999999 9617
999999 10979 19628 10868 18601 17040 18873 11641 13862 17212 16711 15896 18058 11191 15524 12716 12711 11199 19822 16475 19735 16337 13318 16560 13297 17058 16946 15078 15989 15214 18475 10840 13686 12724 10386 13146 19385 14909 10819 14477 16615 999999 999999 999999 999999 999999 999999 999999 999999 999999 999999 999999 999999 999999 0 999999 999999 999999 999999 999999 999999 999999 999999 999999 999999 999999 999999 999999 999999 999999 999999 999999 999999 999999 999999 999999 999999 999999 999999 999999 999999 8156
999999 17503 17283 15361 17671 10767 19692 19887 17546 15031 10273 16330 14384 16377 13386 10586 16182 15179 17092 10617 19046 10190 19822 15217 19162 17594 12266 12844 13203 12063 18946 11735 13607 14069 11062 12316 15081 19478 13928 11364 10467 999999 999999 999999 999999 999999 999999 999999 999999 999999 999999 999999 999999 999999 999999 0 999999 999999 999999 999999 999999 999999 999999 999999 999999 999999 999999 999999 999999 999999 999999 999999 999999 999999 999999 999999 999999 999999 999999 999999 999999 9619
999999 13592 15859 18283 15257 17630 10093 10775 17514 19962 19890 11119 14925 18696 15980 17170 11093 13264 19696 13932 17125 14825 15776 16340 16632 10646 19881 14431 18553 18887 19687 14895 16286 18538 13653 14169 19003 14150 17437 18358 16373 999999 999999 999999 999999 999999 999999 999999 999999 999999 999999 999999 999999 999999 999999 999999 0 999999 999999 999999 999999 999999 999999 999999 999999 999999 999999 999999 999999 999999 999999 999999 999999 999999 999999 999999 999999 999999 999999 999999 999999 11318
999999 17220 17826 15822 13749 17607 13683 12560 13914 14986 13401 10949 11309 18114 15509 17911 18659 12637 19757 17641 19825 15791 17114 11362 14409 18506 11274 15471 18665 16321 19914 14641 13550 19494 11488 12317 17309 13715 15060 15194 10559 999999 999999 999999 999999 999999 999999 999999 999999 999999 999999 999999 999999 999999 999999 999999 999999 0 999999 999999 999999 999999 999999 999999 999999 999999 999999 999999 999999 999999 999999 999999 999999 999999 999999 999999 999999 999999 999999 999999 999999 9196
999999 19139 19232 12194 19445 12287 19148 11142 10209 16068 18207 19880 17658 13070 14807 16390 19548 10062 12985 18594 19320 15425 14989 14643 14777 13008 18137 16031 13901 13718 14212 19594 17362 14435 19176 19047 15666 15114 16307 16884 13325 999999 999999 999999 999999 999999 999999 999999 999999 999999 999999 999999 999999 999999 999999 999999 999999 999999 0 999999 999999 999999 999999 999999 999999 999999 999999 999999 999999 999999 999999 999999 999999 999999 999999 999999 999999 999999 999999 999999 999999 8070
999999 17684 16492 17017 10070 15176 11238 14937 15943 19887 18846 10119 12045 16897 11504 10095 15693 15294 15396 13036 10756 15510 10678 19152 10620 19512 18292 14480 17912 17316 19423 15609 14561 18650 19151 16362 17753 19325 15771 14008 17487 999999 999999 999999 999999 999999 999999 999999 999999 999999 999999 999999 999999 999999 999999 999999 999999 999999 999999 0 999999 999999 999999 999999 999999 999999 999999 999999 999999 999999 999999 999999 999999 999999 999999 999999 999999 999999 999999 999999 999999 7179
999999 14876 16704 14969 17547 14541 16116 15249 10354 17536 18626 12666 16960 12762 19313 19373 14273 16012 10291 19512 19562 15252 11766 18709 14153 12409 18030 15094 16783 14448 13499 14342 14927 18836 18415 13721 17721 14514 18481 16849 12346 999999 999999 999999 999999 999999 999999 999999 999999 999999 999999 999999 999999 999999 999999 999999 999999 999999 999999 999999 0 999999 999999 999999 999999 999999 999999 999999 999999 999999 999999 999999 999999 999999 999999 999999 999999 999999 999999 999999 999999 11933
999999 16618 12021 15851 19104 12690 12287 15520 17223 11359 12650 16478 16391 13572 10693 14732 12491 10985 10378 14642 10072 17070 10094 12494 12317 11735 17957 11894 19956 17775 15841 14729 16519 18936 18874 12042 19861 16895 11680 19477 11893 999999 999999 999999 999999 999999 999999 999999 999999 999999 999999 999999 999999 999999 999999 999999 999999 999999 999999 999999 999999 0 999999 999999 999999 999999 999999 999999 999999 999999 999999 999999 999999 999999 999999 999999 999999 999999 999999 999999 999999 9519
999999 11325 13004 13846 14161 10726 15180 12264 17454 14305 18022 10655 17139 12634 19873 15861 11139 16422 15818 14670 10708 11652 10600 15126 11540 17478 17327 15075 11364 12948 11880 15965 18539 13538 17277 11802 17448 12920 17794 12910 15180 999999 999999 999999 999999 999999 999999 999999 999999 999999 999999 999999 999999 999999 999999 999999 999999 999999 999999 999999 999999 999999 0 999999 999999 999999 999999 999999 999999 999999 999999 999999 999999 999999 999999 999999 999999 999999 999999 999999 999999 5119
999999 16128 15990 10326 14961 11426 14423 10580 19744 14919 12299 11242 13277 10825 11721 12013 15409 11542 17428 10322 11856 11205 10365 11362 11133 11951 19145 11223 11081 17817 13251 10868 10665 18522 16643 15579 11143 13967 15044 13265 11374 999999 999999 999999 999999 999999 999999 999999 999999 999999 999999 999999 999999 999999 999999 999999 999999 999999 999999 999999 999999 999999 999999 0 999999 999999 999999 999999 999999 999999 999999 999999 999999 999999 999999 999999 999999 999999 999999 999999 999999 6084
999999 11923 17211 19430 13127 13672 16206 10788 19860 11802 15742 15200 11300 14310 16108 12931 15615 19037 17906 14232 12443 10567 17342 11002 15391 15700 15226 14093 16261 14542 19214 14925 12136 12843 12590 15618 18053 16511 10870 11365 16480 999999 999999 999999 999999 999999 999999 999999 999999 999999 999999 999999 999999 999999 999999 999999 999999 999999 999999 999999 999999 999999 999999 999999 0 999999 999999 999999 999999 999999 999999 999999 999999 999999 999999 999999 999999 999999 999999 999999 999999 9027
999999 11015 15513 17569 18796 12631 10099 15994 13907 13284 19013 12960 14105 18346 11539 16944 17839 12612 15241 15594 12811 17909 10453 15787 16949 13053 13487 10328 18168 11462 11979 12235 18842 10700 15340 19140 16687 19195 19410 10865 19782 999999 999999 999999 999999 999999 999999 999999 999999 999999 999999 999999 999999 999999 999999 999999 999999 999999 999999 999999 999999 999999 999999 999999 999999 0 999999 999999 999999 999999 999999 999999 999999 999999 999999 999999 999999 999999 999999 999999 999999 5210
999999 13576 17319 13259 15832 12584 12514 11227 17540 16891 12550 17184 15760 11148 10764 18939 17976 10541 11006 12279 16558 11417 10134 16486 12441 18599 19491 16101 14622 10357 14973 14366 15986 17706 11645 18937 14927 18597 17661 13146 10788 999999 999999 999999 999999 999999 999999 999999 999999 999999 999999 999999 999999 999999 999999 999999 999999 999999 999999 999999 999999 999999 999999 999999 999999 999999 0 999999 999999 999999 999999 999999 999999 999999 999999 999999 999999 999999 999999 999999 999999 6379
999999 14180 14732 15942 12635 19336 13475 18729 17624 17234 19119 16149 17665 10891 16408 12553 13198 12168 13069 16529 17252 12691 14714 11182 10317 17889 12162 14811 16198 10491 16901 13501 13756 18934 19580 14316 12984 17042 12306 12866 13980 999999 999999 999999 999999 999999 999999 999999 999999 999999 999999 999999 999999 999999 999999 999999 999999 999999 999999 999999 999999 999999 999999 999999 999999 999999 999999 0 999999 999999 999999 999999 999999 999999 999999 999999 999999 999999 999999 999999 999999 5887
999999 10056 17063 17710 15498 18464 13972 18486 17700 14291 11090 11081 15773 11502 12578 10574 19079 12369 19169 12450 12910 16939 16282 15937 16084 19644 16022 10076 11925 15597 11240 11846 17014 12782 17520 18880 19539 14944 14281 11684 13929 999999 999999 999999 999999 999999 999999 999999 999999 999999 999999 999999 999999 999999 999999 999999 999999 999999 999999 999999 999999 999999 999999 999999 999999 999999 999999 999999 0 999999 999999 999999 999999 999999 999999 999999 999999 999999 999999 999999 999999 6975
999999 18924 13005 15369 18919 18966 19087 14972 10190 19104 11471 14066 13426 16261 10673 18987 15908 18341 14794 12633 14396 10580 10047 19883 13491 14055 19406 18313 11106 14946 14708 10113 17458 11621 13629 12510 14928 18090 11488 19381 18952 999999 999999 999999 999999 999999 999999 999999 999999 999999 999999 999999 999999 999999 999999 999999 999999 999999 999999 999999 999999 999999 999999 999999 999999 999999 999999 999999 999999 0 999999 999999 999999 999999 999999 999999 999999 999999 999999 999999 999999 13488
999999 11137 19573 17950 13910 10132 15082 13203 11399 17664 11146 13448 12143 14489 18686 18852 18032 13416 13931 15838 13206 17000 18372 17222 18987 16172 10749 12443 11906 14334 10959 15775 17003 18273 14310 16480 17556 19127 14024 17020 10102 999999 999999 999999 999999 999999 999999 999999 999999 999999 999999 999999 999999 999999 999999 999999 999999 999999 999999 999999 999999 999999 999999 999999 999999 999999 999999 999999 999999 999999 0 999999 999999 999999 999999 999999 999999 999999 999999 999999 999999 14490
999999 18000 15923 11481 13259 16609 14906 15674 14417 13321 19053 14896 19957 13806 10013 17356 14521 17875 18884 18334 14918 13716 15916 18724 17946 18717 16113 17553 18418 13084 12246 14198 16893 16927 16010 15893 10492 11805 13620 19648 19129 999999 999999 999999 999999 999999 999999 999999 999999 999999 999999 999999 999999 999999 999999 999999 999999 999999 999999 999999 999999 999999 999999 999999 999999 999999 999999 999999 999999 999999 999999 0 999999 999999 999999 999999 999999 999999 999999 999999 999999 14174
999999 15209 17404 13540 12195 16725 14510 16179 10949 13027 19946 15748 14483 18670 13929 13696 16011 19289 18602 12636 12989 14521 12640 19741 10465 14737 16135 15387 10372 10481 10374 18578 18270 12856 12581 19627 18436 18267 11338 18642 17425 999999 999999 999999 999999 999999 999999 999999 999999 999999 999999 999999 999999 999999 999999 999999 999999 999999 999999 999999 999999 999999 999999 999999 999999 999999 999999 999999 999999 999999 999999 999999 0 999999 999999 999999 999999 999999 999999 999999 999999 11619
999999 15805 11390 18708 19502 16181 19504 19042 18375 11378 15524 14464 14402 11857 12533 19888 17870 11548 16861 16180 17930 16009 16151 19247 14029 15420 11029 14930 19602 19137 14769 15448 13735 19682 18619 12777 18998 17461 15279 10567 13074 999999 999999 999999 999999 999999 999999 999999 999999 999999 999999 999999 999999 999999 999999 999999 999999 999999 999999 999999 999999 999999 999999 999999 999999 999999 999999 999999 999999 999999 999999 999999 999999 0 999999 999999 999999 999999 999999 999999 999999 6820
999999 19079 11752 17455 17524 12893 17839 15277 18237 18770 14855 12865 10855 13251 14027 14802 10609 12231 16697 16535 17608 10028 18148 11570 15768 11115 15764 17129 19620 16353 15441 13668 14951 15403 19315 10904 17261 11833 11675 19283 12199 999999 999999 999999 999999 999999 999999 999999 999999 999999 999999 999999 999999 999999 999999 999999 999999 999999 999999 999999 999999 999999 999999 999999 999999 999999 999999 999999 999999 999999 999999 999999 999999 999999 0 999999 999999 999999 999999 999999 999999 9565
999999 15431 11949 13605 12961 18926 13869 12586 16035 13484 10425 16859 10374 16738 12466 15633 17289 11369 15477 15931 10864 13991 16070 16628 14395 14236 12044 16385 16299 11638 14918 16568 16985 14537 12428 11801 16916 17242 19825 16520 16391 999999 999999 999999 999999 999999 999999 999999 999999 999999 999999 999999 999999 999999 999999 999999 999999 999999 999999 999999 999999 999999 999999 999999 999999 999999 999999 999999 999999 999999 999999 999999 999999 999999 999999 0 999999 999999 999999 999999 999999 13751
999999 17590 11844 12089 14127 16936 18324 19240 13942 14136 15448 12817 16191 16208 16529 18099 16194 19673 19655 17620 13572 13804 13595 13721 16451 18700 13372 16556 13847 19432 14929 11282 11549 10352 11395 10317 11172 14848 15036 18101 18376 999999 999999 999999 999999 999999 999999 999999 999999 999999 999999 999999 999999 999999 999999 999999 999999 999999 999999 999999 999999 999999 999999 999999 999999 999999 999999 999999 999999 999999 999999 999999 999999 999999 999999 999999 0 999999 999999 999999 999999 8009
999999 14955 15156 19391 13155 17134 12447 15134 11796 18667 17225 15346 13563 15766 14060 18762 10749 11430 10270 16164 13191 11764 12215 13283 16011 18801 14694 14759 10094 18030 15597 19432 17640 11567 12603 18511 15062 16391 10983 16452 16666 999999 999999 999999 999999 999999 999999 999999 999999 999999 999999 999999 999999 999999 999999 999999 999999 999999 999999 999999 999999 999999 999999 999999 999999 999999 999999 999999 999999 999999 999999 999999 999999 999999 999999 999999 999999 0 999999 999999 999999 14359
999999 12145 16252 10545 12481 10666 12460 14245 19920 15622 10819 14947 16372 12028 19158 17302 16584 17213 17904 16805 13267 15218 17444 15578 18868 12225 18985 10645 16856 11949 17609 16890 10446 15004 18880 18016 17315 14833 16106 16485 15138 999999 999999 999999 999999 999999 999999 999999 999999 999999 999999 999999 999999 999999 999999 999999 999999 999999 999999 999999 999999 999999 999999 999999 999999 999999 999999 999999 999999 999999 999999 999999 999999 999999 999999 999999 999999 999999 0 999999 999999 11441
999999 18217 19597 12033 18823 10415 16068 11123 14406 17548 19469 16679 14989 19073 14047 12751 16715 19223 12450 16432 12429 11177 18956 18858 18842 17985 18597 18352 12695 19929 15276 12735 14384 15933 13486 17673 10267 12710 15602 13562 18438 999999 999999 999999 999999 999999 999999 999999 999999 999999 999999 999999 999999 999999 999999 999999 999999 999999 999999 999999 999999 999999 999999 999999 999999 999999 999999 999999 999999 999999 999999 999999 999999 999999 999999 999999 999999 999999 999999 0 999999 12723
999999 10916 16714 12259 13994 19925 14811 10193 19327 19625 10394 12155 12541 18608 18822 19866 17688 13575 11607 15833 13559 11730 17492 18893 16183 12387 19464 17224 13276 11228 11886 12123 14653 19594 18182 10709 19436 18757 19844 15676 16364 999999 999999 999999 999999 999999 999999 999999 999999 999999 999999 999999 999999 999999 999999 999999 999999 999999 999999 999999 999999 999999 999999 999999 999999 999999 999999 999999 999999 999999 999999 999999 999999 999999 999999 999999 999999 999999 999999 999999 0 11024
1 999999 999999 999999 999999 999999 999999 999999 999999 999999 999999 999999 999999 999999 999999 999999 999999 999999 999999 999999 999999 999999 999999 999999 999999 999999 999999 999999 999999 999999 999999 999999 999999 999999 999999 999999 999999 999999 999999 999999 999999 999999 999999 999999 999999 999999 999999 999999 999999 999999 999999 999999 999999 999999 999999 999999 999999 999999 999999 999999 999999 999999 999999 999999 999999 999999 999999 999999 999999 999999 999999 999999 999999 999999 999999 999999 999999 999999 999999 999999 999999 0
EOF