NAME: GR_1x5x10_KH_5x10_Run_3
TYPE: TSP
COMMENT: BTSP instance |A|=50 GR nodes |B|=50 KH nodes depot=0.0 end=0.0.0
DIMENSION: 102
EDGE_WEIGHT_TYPE: EXPLICIT
EDGE_WEIGHT_FORMAT: FULL_MATRIX
NODE_COORD_TYPE: NO_COORDS
EDGE_WEIGHT_SECTION
0 13160 8491 13255 13056 8655 6914 8069 14068 7934 13224 5908 14284 11510 10981 6500 9855 5906 5029 13364 10210 6638 13302 11246 5913 5367 5173 8657 8462 8912 8514 8689 14209 10560 11669 11431 13780 13137 13673 11271 5974 5674 9882 11286 12983 10138 8635 7891 6346 13902 12082 999999 999999 999999 999999 999999 999999 999999 999999 999999 999999 999999 999999 999999 999999 999999 999999 999999 999999 999999 999999 999999 999999 999999 999999 999999 999999 999999 999999 999999 999999 999999 999999 999999 999999 999999 999999 999999 999999 999999 999999 999999 999999 999999 999999 999999 999999 999999 999999 999999 999999 999999
999999 0 999999 999999 999999 999999 999999 999999 999999 999999 999999 999999 999999 999999 999999 999999 999999 999999 999999 999999 999999 999999 999999 999999 999999 999999 999999 999999 999999 999999 999999 999999 999999 999999 999999 999999 999999 999999 999999 999999 999999 999999 999999 999999 999999 999999 999999 999999 999999 999999 999999 999999 11928 999999 999999 999999 999999 999999 999999 999999 999999 999999 999999 999999 999999 13648 999999 999999 18178 999999 999999 999999 999999 19210 999999 999999 18822 999999 11918 11173 10658 999999 14302 999999 999999 999999 999999 999999 999999 999999 999999 999999 999999 999999 999999 999999 999999 999999 999999 999999 17870 999999
999999 999999 0 999999 999999 999999 999999 999999 999999 999999 999999 999999 999999 999999 999999 999999 999999 999999 999999 999999 999999 999999 999999 999999 999999 999999 999999 999999 999999 999999 999999 999999 999999 999999 999999 999999 999999 999999 999999 999999 999999 999999 999999 999999 999999 999999 999999 999999 999999 999999 999999 999999 10004 999999 999999 999999 999999 999999 999999 999999 999999 999999 999999 999999 999999 14146 999999 999999 15463 999999 999999 999999 999999 16018 999999 999999 14902 999999 19334 15384 11168 999999 17040 999999 999999 999999 999999 999999 999999 999999 999999 999999 999999 999999 999999 999999 999999 999999 999999 999999 10677 999999
999999 999999 999999 0 999999 999999 999999 999999 999999 999999 999999 999999 999999 999999 999999 999999 999999 999999 999999 999999 999999 999999 999999 999999 999999 999999 999999 999999 999999 999999 999999 999999 999999 999999 999999 999999 999999 999999 999999 999999 999999 999999 999999 999999 999999 999999 999999 999999 999999 999999 999999 999999 12665 999999 999999 999999 999999 999999 999999 999999 999999 999999 999999 999999 999999 15111 999999 999999 17242 999999 999999 999999 999999 11469 999999 999999 18703 999999 14387 10083 14781 999999 10502 999999 999999 999999 999999 999999 999999 999999 999999 999999 999999 999999 999999 999999 999999 999999 999999 999999 10705 999999
999999 999999 999999 999999 0 999999 999999 999999 999999 999999 999999 999999 999999 999999 999999 999999 999999 999999 999999 999999 999999 999999 999999 999999 999999 999999 999999 999999 999999 999999 999999 999999 999999 999999 999999 999999 999999 999999 999999 999999 999999 999999 999999 999999 999999 999999 999999 999999 999999 999999 999999 999999 16451 999999 999999 999999 999999 999999 999999 999999 999999 999999 999999 999999 999999 12936 999999 999999 10649 999999 999999 999999 999999 17882 999999 999999 19653 999999 13341 12578 13345 999999 16782 999999 999999 999999 999999 999999 999999 999999 999999 999999 999999 999999 999999 999999 999999 999999 999999 999999 19495 999999
999999 999999 999999 999999 999999 0 999999 999999 999999 999999 999999 999999 999999 999999 999999 999999 999999 999999 999999 999999 999999 999999 999999 999999 999999 999999 999999 999999 999999 999999 999999 999999 999999 999999 999999 999999 999999 999999 999999 999999 999999 999999 999999 999999 999999 999999 999999 999999 999999 999999 999999 999999 18975 999999 999999 999999 999999 999999 999999 999999 999999 999999 999999 999999 999999 14818 999999 999999 16556 999999 999999 999999 999999 15132 999999 999999 12500 999999 15010 10533 14311 999999 12788 999999 999999 999999 999999 999999 999999 999999 999999 999999 999999 999999 999999 999999 999999 999999 999999 999999 14974 999999
999999 999999 999999 999999 999999 999999 0 999999 999999 999999 999999 999999 999999 999999 999999 999999 999999 999999 999999 999999 999999 999999 999999 999999 999999 999999 999999 999999 999999 999999 999999 999999 999999 999999 999999 999999 999999 999999 999999 999999 999999 999999 999999 999999 999999 999999 999999 999999 999999 999999 999999 999999 15923 999999 999999 999999 999999 999999 999999 999999 999999 999999 999999 999999 999999 18497 999999 999999 14296 999999 999999 999999 999999 15951 999999 999999 14509 999999 18297 17616 19771 999999 19257 999999 999999 999999 999999 999999 999999 999999 999999 999999 999999 999999 999999 999999 999999 999999 999999 999999 17410 999999
999999 999999 999999 999999 999999 999999 999999 0 999999 999999 999999 999999 999999 999999 999999 999999 999999 999999 999999 999999 999999 999999 999999 999999 999999 999999 999999 999999 999999 999999 999999 999999 999999 999999 999999 999999 999999 999999 999999 999999 999999 999999 999999 999999 999999 999999 999999 999999 999999 999999 999999 999999 15736 999999 999999 999999 999999 999999 999999 999999 999999 999999 999999 999999 999999 16419 999999 999999 14274 999999 999999 999999 999999 11912 999999 999999 13769 999999 10028 13503 19730 999999 15985 999999 999999 999999 999999 999999 999999 999999 999999 999999 999999 999999 999999 999999 999999 999999 999999 999999 16438 999999
999999 999999 999999 999999 999999 999999 999999 999999 0 999999 999999 999999 999999 999999 999999 999999 999999 999999 999999 999999 999999 999999 999999 999999 999999 999999 999999 999999 999999 999999 999999 999999 999999 999999 999999 999999 999999 999999 999999 999999 999999 999999 999999 999999 999999 999999 999999 999999 999999 999999 999999 999999 18386 999999 999999 999999 999999 999999 999999 999999 999999 999999 999999 999999 999999 11114 999999 999999 19595 999999 999999 999999 999999 17428 999999 999999 18151 999999 18325 17422 12481 999999 16965 999999 999999 999999 999999 999999 999999 999999 999999 999999 999999 999999 999999 999999 999999 999999 999999 999999 14055 999999
999999 999999 999999 999999 999999 999999 999999 999999 999999 0 999999 999999 999999 999999 999999 999999 999999 999999 999999 999999 999999 999999 999999 999999 999999 999999 999999 999999 999999 999999 999999 999999 999999 999999 999999 999999 999999 999999 999999 999999 999999 999999 999999 999999 999999 999999 999999 999999 999999 999999 999999 999999 14621 999999 999999 999999 999999 999999 999999 999999 999999 999999 999999 999999 999999 17206 999999 999999 10940 999999 999999 999999 999999 13979 999999 999999 12918 999999 17356 16143 19758 999999 18327 999999 999999 999999 999999 999999 999999 999999 999999 999999 999999 999999 999999 999999 999999 999999 999999 999999 11042 999999
999999 999999 999999 999999 999999 999999 999999 999999 999999 999999 0 999999 999999 999999 999999 999999 999999 999999 999999 999999 999999 999999 999999 999999 999999 999999 999999 999999 999999 999999 999999 999999 999999 999999 999999 999999 999999 999999 999999 999999 999999 999999 999999 999999 999999 999999 999999 999999 999999 999999 999999 999999 15479 999999 999999 999999 999999 999999 999999 999999 999999 999999 999999 999999 999999 14621 999999 999999 14399 999999 999999 999999 999999 13691 999999 999999 12158 999999 14764 10433 13575 999999 17931 999999 999999 999999 999999 999999 999999 999999 999999 999999 999999 999999 999999 999999 999999 999999 999999 999999 18585 999999
999999 999999 999999 999999 999999 999999 999999 999999 999999 999999 999999 0 999999 999999 999999 999999 999999 999999 999999 999999 999999 999999 999999 999999 999999 999999 999999 999999 999999 999999 999999 999999 999999 999999 999999 999999 999999 999999 999999 999999 999999 999999 999999 999999 999999 999999 999999 999999 999999 999999 999999 13424 999999 999999 12826 999999 999999 13022 999999 11871 12182 999999 999999 15531 999999 999999 999999 999999 999999 12394 999999 14183 999999 999999 999999 999999 999999 999999 999999 999999 999999 999999 999999 999999 999999 999999 999999 999999 19928 999999 999999 999999 999999 999999 999999 999999 999999 999999 999999 14646 999999 999999
999999 999999 999999 999999 999999 999999 999999 999999 999999 999999 999999 999999 0 999999 999999 999999 999999 999999 999999 999999 999999 999999 999999 999999 999999 999999 999999 999999 999999 999999 999999 999999 999999 999999 999999 999999 999999 999999 999999 999999 999999 999999 999999 999999 999999 999999 999999 999999 999999 999999 999999 11856 999999 999999 13010 999999 999999 17172 999999 14654 17216 999999 999999 14607 999999 999999 999999 999999 999999 14519 999999 13378 999999 999999 999999 999999 999999 999999 999999 999999 999999 999999 999999 999999 999999 999999 999999 999999 15347 999999 999999 999999 999999 999999 999999 999999 999999 999999 999999 12110 999999 999999
999999 999999 999999 999999 999999 999999 999999 999999 999999 999999 999999 999999 999999 0 999999 999999 999999 999999 999999 999999 999999 999999 999999 999999 999999 999999 999999 999999 999999 999999 999999 999999 999999 999999 999999 999999 999999 999999 999999 999999 999999 999999 999999 999999 999999 999999 999999 999999 999999 999999 999999 19912 999999 999999 17269 999999 999999 13037 999999 17875 19106 999999 999999 14663 999999 999999 999999 999999 999999 19878 999999 12846 999999 999999 999999 999999 999999 999999 999999 999999 999999 999999 999999 999999 999999 999999 999999 999999 19555 999999 999999 999999 999999 999999 999999 999999 999999 999999 999999 16714 999999 999999
999999 999999 999999 999999 999999 999999 999999 999999 999999 999999 999999 999999 999999 999999 0 999999 999999 999999 999999 999999 999999 999999 999999 999999 999999 999999 999999 999999 999999 999999 999999 999999 999999 999999 999999 999999 999999 999999 999999 999999 999999 999999 999999 999999 999999 999999 999999 999999 999999 999999 999999 17288 999999 999999 14320 999999 999999 15044 999999 10287 14297 999999 999999 11331 999999 999999 999999 999999 999999 17989 999999 11380 999999 999999 999999 999999 999999 999999 999999 999999 999999 999999 999999 999999 999999 999999 999999 999999 19665 999999 999999 999999 999999 999999 999999 999999 999999 999999 999999 16314 999999 999999
999999 999999 999999 999999 999999 999999 999999 999999 999999 999999 999999 999999 999999 999999 999999 0 999999 999999 999999 999999 999999 999999 999999 999999 999999 999999 999999 999999 999999 999999 999999 999999 999999 999999 999999 999999 999999 999999 999999 999999 999999 999999 999999 999999 999999 999999 999999 999999 999999 999999 999999 17405 999999 999999 16821 999999 999999 11347 999999 15408 18634 999999 999999 11690 999999 999999 999999 999999 999999 18820 999999 10830 999999 999999 999999 999999 999999 999999 999999 999999 999999 999999 999999 999999 999999 999999 999999 999999 19796 999999 999999 999999 999999 999999 999999 999999 999999 999999 999999 19643 999999 999999
999999 999999 999999 999999 999999 999999 999999 999999 999999 999999 999999 999999 999999 999999 999999 999999 0 999999 999999 999999 999999 999999 999999 999999 999999 999999 999999 999999 999999 999999 999999 999999 999999 999999 999999 999999 999999 999999 999999 999999 999999 999999 999999 999999 999999 999999 999999 999999 999999 999999 999999 15946 999999 999999 19463 999999 999999 16179 999999 17863 10132 999999 999999 15162 999999 999999 999999 999999 999999 18276 999999 19605 999999 999999 999999 999999 999999 999999 999999 999999 999999 999999 999999 999999 999999 999999 999999 999999 15219 999999 999999 999999 999999 999999 999999 999999 999999 999999 999999 14258 999999 999999
999999 999999 999999 999999 999999 999999 999999 999999 999999 999999 999999 999999 999999 999999 999999 999999 999999 0 999999 999999 999999 999999 999999 999999 999999 999999 999999 999999 999999 999999 999999 999999 999999 999999 999999 999999 999999 999999 999999 999999 999999 999999 999999 999999 999999 999999 999999 999999 999999 999999 999999 12589 999999 999999 15798 999999 999999 10779 999999 19097 17980 999999 999999 13581 999999 999999 999999 999999 999999 11669 999999 10093 999999 999999 999999 999999 999999 999999 999999 999999 999999 999999 999999 999999 999999 999999 999999 999999 13308 999999 999999 999999 999999 999999 999999 999999 999999 999999 999999 15600 999999 999999
999999 999999 999999 999999 999999 999999 999999 999999 999999 999999 999999 999999 999999 999999 999999 999999 999999 999999 0 999999 999999 999999 999999 999999 999999 999999 999999 999999 999999 999999 999999 999999 999999 999999 999999 999999 999999 999999 999999 999999 999999 999999 999999 999999 999999 999999 999999 999999 999999 999999 999999 10756 999999 999999 15094 999999 999999 15333 999999 17256 18990 999999 999999 19118 999999 999999 999999 999999 999999 12764 999999 16861 999999 999999 999999 999999 999999 999999 999999 999999 999999 999999 999999 999999 999999 999999 999999 999999 16955 999999 999999 999999 999999 999999 999999 999999 999999 999999 999999 17825 999999 999999
999999 999999 999999 999999 999999 999999 999999 999999 999999 999999 999999 999999 999999 999999 999999 999999 999999 999999 999999 0 999999 999999 999999 999999 999999 999999 999999 999999 999999 999999 999999 999999 999999 999999 999999 999999 999999 999999 999999 999999 999999 999999 999999 999999 999999 999999 999999 999999 999999 999999 999999 14254 999999 999999 11311 999999 999999 11047 999999 17909 10503 999999 999999 10900 999999 999999 999999 999999 999999 12019 999999 19127 999999 999999 999999 999999 999999 999999 999999 999999 999999 999999 999999 999999 999999 999999 999999 999999 16640 999999 999999 999999 999999 999999 999999 999999 999999 999999 999999 10139 999999 999999
999999 999999 999999 999999 999999 999999 999999 999999 999999 999999 999999 999999 999999 999999 999999 999999 999999 999999 999999 999999 0 999999 999999 999999 999999 999999 999999 999999 999999 999999 999999 999999 999999 999999 999999 999999 999999 999999 999999 999999 999999 999999 999999 999999 999999 999999 999999 999999 999999 999999 999999 15747 999999 999999 11543 999999 999999 12944 999999 19072 19825 999999 999999 19955 999999 999999 999999 999999 999999 18360 999999 16519 999999 999999 999999 999999 999999 999999 999999 999999 999999 999999 999999 999999 999999 999999 999999 999999 17900 999999 999999 999999 999999 999999 999999 999999 999999 999999 999999 16533 999999 999999
999999 999999 999999 999999 999999 999999 999999 999999 999999 999999 999999 999999 999999 999999 999999 999999 999999 999999 999999 999999 999999 0 999999 999999 999999 999999 999999 999999 999999 999999 999999 999999 999999 999999 999999 999999 999999 999999 999999 999999 999999 999999 999999 999999 999999 999999 999999 999999 999999 999999 999999 999999 999999 999999 999999 999999 19883 999999 999999 999999 999999 18894 999999 999999 999999 999999 999999 999999 999999 999999 999999 999999 12439 999999 999999 999999 999999 999999 999999 999999 999999 18396 999999 999999 999999 999999 17149 999999 999999 10784 999999 999999 999999 17513 15385 999999 999999 15389 14447 999999 999999 999999
999999 999999 999999 999999 999999 999999 999999 999999 999999 999999 999999 999999 999999 999999 999999 999999 999999 999999 999999 999999 999999 999999 0 999999 999999 999999 999999 999999 999999 999999 999999 999999 999999 999999 999999 999999 999999 999999 999999 999999 999999 999999 999999 999999 999999 999999 999999 999999 999999 999999 999999 999999 999999 999999 999999 999999 10475 999999 999999 999999 999999 12478 999999 999999 999999 999999 999999 999999 999999 999999 999999 999999 16623 999999 999999 999999 999999 999999 999999 999999 999999 12935 999999 999999 999999 999999 17727 999999 999999 19551 999999 999999 999999 11994 15942 999999 999999 12202 17620 999999 999999 999999
999999 999999 999999 999999 999999 999999 999999 999999 999999 999999 999999 999999 999999 999999 999999 999999 999999 999999 999999 999999 999999 999999 999999 0 999999 999999 999999 999999 999999 999999 999999 999999 999999 999999 999999 999999 999999 999999 999999 999999 999999 999999 999999 999999 999999 999999 999999 999999 999999 999999 999999 999999 999999 999999 999999 999999 15723 999999 999999 999999 999999 15076 999999 999999 999999 999999 999999 999999 999999 999999 999999 999999 16235 999999 999999 999999 999999 999999 999999 999999 999999 13352 999999 999999 999999 999999 17590 999999 999999 10815 999999 999999 999999 10338 14477 999999 999999 16953 17761 999999 999999 999999
999999 999999 999999 999999 999999 999999 999999 999999 999999 999999 999999 999999 999999 999999 999999 999999 999999 999999 999999 999999 999999 999999 999999 999999 0 999999 999999 999999 999999 999999 999999 999999 999999 999999 999999 999999 999999 999999 999999 999999 999999 999999 999999 999999 999999 999999 999999 999999 999999 999999 999999 999999 999999 999999 999999 999999 13462 999999 999999 999999 999999 14014 999999 999999 999999 999999 999999 999999 999999 999999 999999 999999 13510 999999 999999 999999 999999 999999 999999 999999 999999 12434 999999 999999 999999 999999 16460 999999 999999 11242 999999 999999 999999 14607 16882 999999 999999 11113 13361 999999 999999 999999
999999 999999 999999 999999 999999 999999 999999 999999 999999 999999 999999 999999 999999 999999 999999 999999 999999 999999 999999 999999 999999 999999 999999 999999 999999 0 999999 999999 999999 999999 999999 999999 999999 999999 999999 999999 999999 999999 999999 999999 999999 999999 999999 999999 999999 999999 999999 999999 999999 999999 999999 999999 999999 999999 999999 999999 15973 999999 999999 999999 999999 14102 999999 999999 999999 999999 999999 999999 999999 999999 999999 999999 12097 999999 999999 999999 999999 999999 999999 999999 999999 16716 999999 999999 999999 999999 17659 999999 999999 12498 999999 999999 999999 14506 13231 999999 999999 15452 12858 999999 999999 999999
999999 999999 999999 999999 999999 999999 999999 999999 999999 999999 999999 999999 999999 999999 999999 999999 999999 999999 999999 999999 999999 999999 999999 999999 999999 999999 0 999999 999999 999999 999999 999999 999999 999999 999999 999999 999999 999999 999999 999999 999999 999999 999999 999999 999999 999999 999999 999999 999999 999999 999999 999999 999999 999999 999999 999999 19336 999999 999999 999999 999999 16305 999999 999999 999999 999999 999999 999999 999999 999999 999999 999999 14522 999999 999999 999999 999999 999999 999999 999999 999999 10166 999999 999999 999999 999999 10708 999999 999999 13212 999999 999999 999999 15939 18610 999999 999999 19907 15558 999999 999999 999999
999999 999999 999999 999999 999999 999999 999999 999999 999999 999999 999999 999999 999999 999999 999999 999999 999999 999999 999999 999999 999999 999999 999999 999999 999999 999999 999999 0 999999 999999 999999 999999 999999 999999 999999 999999 999999 999999 999999 999999 999999 999999 999999 999999 999999 999999 999999 999999 999999 999999 999999 999999 999999 999999 999999 999999 11681 999999 999999 999999 999999 10437 999999 999999 999999 999999 999999 999999 999999 999999 999999 999999 18305 999999 999999 999999 999999 999999 999999 999999 999999 13676 999999 999999 999999 999999 14723 999999 999999 12441 999999 999999 999999 17340 10176 999999 999999 13587 13511 999999 999999 999999
999999 999999 999999 999999 999999 999999 999999 999999 999999 999999 999999 999999 999999 999999 999999 999999 999999 999999 999999 999999 999999 999999 999999 999999 999999 999999 999999 999999 0 999999 999999 999999 999999 999999 999999 999999 999999 999999 999999 999999 999999 999999 999999 999999 999999 999999 999999 999999 999999 999999 999999 999999 999999 999999 999999 999999 18710 999999 999999 999999 999999 19872 999999 999999 999999 999999 999999 999999 999999 999999 999999 999999 12994 999999 999999 999999 999999 999999 999999 999999 999999 17945 999999 999999 999999 999999 18468 999999 999999 18270 999999 999999 999999 19773 17857 999999 999999 11460 17466 999999 999999 999999
999999 999999 999999 999999 999999 999999 999999 999999 999999 999999 999999 999999 999999 999999 999999 999999 999999 999999 999999 999999 999999 999999 999999 999999 999999 999999 999999 999999 999999 0 999999 999999 999999 999999 999999 999999 999999 999999 999999 999999 999999 999999 999999 999999 999999 999999 999999 999999 999999 999999 999999 999999 999999 999999 999999 999999 17500 999999 999999 999999 999999 19697 999999 999999 999999 999999 999999 999999 999999 999999 999999 999999 14730 999999 999999 999999 999999 999999 999999 999999 999999 16676 999999 999999 999999 999999 15737 999999 999999 14179 999999 999999 999999 10569 11396 999999 999999 11240 19279 999999 999999 999999
999999 999999 999999 999999 999999 999999 999999 999999 999999 999999 999999 999999 999999 999999 999999 999999 999999 999999 999999 999999 999999 999999 999999 999999 999999 999999 999999 999999 999999 999999 0 999999 999999 999999 999999 999999 999999 999999 999999 999999 999999 999999 999999 999999 999999 999999 999999 999999 999999 999999 999999 999999 999999 999999 999999 999999 13989 999999 999999 999999 999999 16518 999999 999999 999999 999999 999999 999999 999999 999999 999999 999999 19890 999999 999999 999999 999999 999999 999999 999999 999999 14810 999999 999999 999999 999999 11438 999999 999999 12164 999999 999999 999999 18614 11610 999999 999999 18192 15239 999999 999999 999999
999999 999999 999999 999999 999999 999999 999999 999999 999999 999999 999999 999999 999999 999999 999999 999999 999999 999999 999999 999999 999999 999999 999999 999999 999999 999999 999999 999999 999999 999999 999999 0 999999 999999 999999 999999 999999 999999 999999 999999 999999 999999 999999 999999 999999 999999 999999 999999 999999 999999 999999 999999 999999 16728 999999 999999 999999 999999 999999 999999 999999 999999 999999 999999 999999 999999 10333 999999 999999 999999 15471 999999 999999 999999 999999 999999 999999 16643 999999 999999 999999 999999 999999 999999 17351 999999 999999 14450 999999 999999 19649 13985 999999 999999 999999 11996 10512 999999 999999 999999 999999 999999
999999 999999 999999 999999 999999 999999 999999 999999 999999 999999 999999 999999 999999 999999 999999 999999 999999 999999 999999 999999 999999 999999 999999 999999 999999 999999 999999 999999 999999 999999 999999 999999 0 999999 999999 999999 999999 999999 999999 999999 999999 999999 999999 999999 999999 999999 999999 999999 999999 999999 999999 999999 999999 17689 999999 999999 999999 999999 999999 999999 999999 999999 999999 999999 999999 999999 11793 999999 999999 999999 18827 999999 999999 999999 999999 999999 999999 10305 999999 999999 999999 999999 999999 999999 15884 999999 999999 12370 999999 999999 15950 15550 999999 999999 999999 17927 10864 999999 999999 999999 999999 999999
999999 999999 999999 999999 999999 999999 999999 999999 999999 999999 999999 999999 999999 999999 999999 999999 999999 999999 999999 999999 999999 999999 999999 999999 999999 999999 999999 999999 999999 999999 999999 999999 999999 0 999999 999999 999999 999999 999999 999999 999999 999999 999999 999999 999999 999999 999999 999999 999999 999999 999999 999999 999999 12439 999999 999999 999999 999999 999999 999999 999999 999999 999999 999999 999999 999999 10636 999999 999999 999999 12981 999999 999999 999999 999999 999999 999999 15662 999999 999999 999999 999999 999999 999999 11395 999999 999999 18659 999999 999999 14279 16904 999999 999999 999999 16517 18248 999999 999999 999999 999999 999999
999999 999999 999999 999999 999999 999999 999999 999999 999999 999999 999999 999999 999999 999999 999999 999999 999999 999999 999999 999999 999999 999999 999999 999999 999999 999999 999999 999999 999999 999999 999999 999999 999999 999999 0 999999 999999 999999 999999 999999 999999 999999 999999 999999 999999 999999 999999 999999 999999 999999 999999 999999 999999 14341 999999 999999 999999 999999 999999 999999 999999 999999 999999 999999 999999 999999 15955 999999 999999 999999 18951 999999 999999 999999 999999 999999 999999 15743 999999 999999 999999 999999 999999 999999 12983 999999 999999 15220 999999 999999 19270 16867 999999 999999 999999 19174 17111 999999 999999 999999 999999 999999
999999 999999 999999 999999 999999 999999 999999 999999 999999 999999 999999 999999 999999 999999 999999 999999 999999 999999 999999 999999 999999 999999 999999 999999 999999 999999 999999 999999 999999 999999 999999 999999 999999 999999 999999 0 999999 999999 999999 999999 999999 999999 999999 999999 999999 999999 999999 999999 999999 999999 999999 999999 999999 13311 999999 999999 999999 999999 999999 999999 999999 999999 999999 999999 999999 999999 17089 999999 999999 999999 19952 999999 999999 999999 999999 999999 999999 14391 999999 999999 999999 999999 999999 999999 13435 999999 999999 15084 999999 999999 14531 16729 999999 999999 999999 18517 17494 999999 999999 999999 999999 999999
999999 999999 999999 999999 999999 999999 999999 999999 999999 999999 999999 999999 999999 999999 999999 999999 999999 999999 999999 999999 999999 999999 999999 999999 999999 999999 999999 999999 999999 999999 999999 999999 999999 999999 999999 999999 0 999999 999999 999999 999999 999999 999999 999999 999999 999999 999999 999999 999999 999999 999999 999999 999999 10222 999999 999999 999999 999999 999999 999999 999999 999999 999999 999999 999999 999999 16057 999999 999999 999999 12144 999999 999999 999999 999999 999999 999999 18127 999999 999999 999999 999999 999999 999999 11470 999999 999999 16187 999999 999999 17461 14142 999999 999999 999999 13880 18007 999999 999999 999999 999999 999999
999999 999999 999999 999999 999999 999999 999999 999999 999999 999999 999999 999999 999999 999999 999999 999999 999999 999999 999999 999999 999999 999999 999999 999999 999999 999999 999999 999999 999999 999999 999999 999999 999999 999999 999999 999999 999999 0 999999 999999 999999 999999 999999 999999 999999 999999 999999 999999 999999 999999 999999 999999 999999 16009 999999 999999 999999 999999 999999 999999 999999 999999 999999 999999 999999 999999 11875 999999 999999 999999 10719 999999 999999 999999 999999 999999 999999 13067 999999 999999 999999 999999 999999 999999 13498 999999 999999 17255 999999 999999 16100 10553 999999 999999 999999 10963 17917 999999 999999 999999 999999 999999
999999 999999 999999 999999 999999 999999 999999 999999 999999 999999 999999 999999 999999 999999 999999 999999 999999 999999 999999 999999 999999 999999 999999 999999 999999 999999 999999 999999 999999 999999 999999 999999 999999 999999 999999 999999 999999 999999 0 999999 999999 999999 999999 999999 999999 999999 999999 999999 999999 999999 999999 999999 999999 14776 999999 999999 999999 999999 999999 999999 999999 999999 999999 999999 999999 999999 16813 999999 999999 999999 16621 999999 999999 999999 999999 999999 999999 17201 999999 999999 999999 999999 999999 999999 16556 999999 999999 13540 999999 999999 11832 14425 999999 999999 999999 12405 16747 999999 999999 999999 999999 999999
999999 999999 999999 999999 999999 999999 999999 999999 999999 999999 999999 999999 999999 999999 999999 999999 999999 999999 999999 999999 999999 999999 999999 999999 999999 999999 999999 999999 999999 999999 999999 999999 999999 999999 999999 999999 999999 999999 999999 0 999999 999999 999999 999999 999999 999999 999999 999999 999999 999999 999999 999999 999999 18511 999999 999999 999999 999999 999999 999999 999999 999999 999999 999999 999999 999999 11966 999999 999999 999999 16165 999999 999999 999999 999999 999999 999999 12065 999999 999999 999999 999999 999999 999999 15180 999999 999999 11430 999999 999999 19961 16492 999999 999999 999999 12081 12797 999999 999999 999999 999999 999999
999999 999999 999999 999999 999999 999999 999999 999999 999999 999999 999999 999999 999999 999999 999999 999999 999999 999999 999999 999999 999999 999999 999999 999999 999999 999999 999999 999999 999999 999999 999999 999999 999999 999999 999999 999999 999999 999999 999999 999999 0 999999 999999 999999 999999 999999 999999 999999 999999 999999 999999 999999 999999 14736 999999 999999 999999 999999 999999 999999 999999 999999 999999 999999 999999 999999 19556 999999 999999 999999 12585 999999 999999 999999 999999 999999 999999 17143 999999 999999 999999 999999 999999 999999 16589 999999 999999 17028 999999 999999 10359 15490 999999 999999 999999 19172 13561 999999 999999 999999 999999 999999
999999 999999 999999 999999 999999 999999 999999 999999 999999 999999 999999 999999 999999 999999 999999 999999 999999 999999 999999 999999 999999 999999 999999 999999 999999 999999 999999 999999 999999 999999 999999 999999 999999 999999 999999 999999 999999 999999 999999 999999 999999 0 999999 999999 999999 999999 999999 999999 999999 999999 999999 999999 999999 999999 999999 15469 999999 999999 10028 999999 999999 999999 13445 999999 17242 999999 999999 13278 999999 999999 999999 999999 999999 999999 13585 12978 999999 999999 999999 999999 999999 999999 999999 16518 999999 17545 999999 999999 999999 999999 999999 999999 10308 999999 999999 999999 999999 999999 999999 999999 999999 999999
999999 999999 999999 999999 999999 999999 999999 999999 999999 999999 999999 999999 999999 999999 999999 999999 999999 999999 999999 999999 999999 999999 999999 999999 999999 999999 999999 999999 999999 999999 999999 999999 999999 999999 999999 999999 999999 999999 999999 999999 999999 999999 0 999999 999999 999999 999999 999999 999999 999999 999999 999999 999999 999999 999999 16106 999999 999999 11261 999999 999999 999999 18719 999999 19694 999999 999999 19260 999999 999999 999999 999999 999999 999999 12820 14679 999999 999999 999999 999999 999999 999999 999999 15429 999999 16819 999999 999999 999999 999999 999999 999999 18086 999999 999999 999999 999999 999999 999999 999999 999999 999999
999999 999999 999999 999999 999999 999999 999999 999999 999999 999999 999999 999999 999999 999999 999999 999999 999999 999999 999999 999999 999999 999999 999999 999999 999999 999999 999999 999999 999999 999999 999999 999999 999999 999999 999999 999999 999999 999999 999999 999999 999999 999999 999999 0 999999 999999 999999 999999 999999 999999 999999 999999 999999 999999 999999 17952 999999 999999 18794 999999 999999 999999 18256 999999 15759 999999 999999 14769 999999 999999 999999 999999 999999 999999 17416 11454 999999 999999 999999 999999 999999 999999 999999 13419 999999 19607 999999 999999 999999 999999 999999 999999 17358 999999 999999 999999 999999 999999 999999 999999 999999 999999
999999 999999 999999 999999 999999 999999 999999 999999 999999 999999 999999 999999 999999 999999 999999 999999 999999 999999 999999 999999 999999 999999 999999 999999 999999 999999 999999 999999 999999 999999 999999 999999 999999 999999 999999 999999 999999 999999 999999 999999 999999 999999 999999 999999 0 999999 999999 999999 999999 999999 999999 999999 999999 999999 999999 19084 999999 999999 17392 999999 999999 999999 16085 999999 19696 999999 999999 19723 999999 999999 999999 999999 999999 999999 17232 15041 999999 999999 999999 999999 999999 999999 999999 16683 999999 17173 999999 999999 999999 999999 999999 999999 12812 999999 999999 999999 999999 999999 999999 999999 999999 999999
999999 999999 999999 999999 999999 999999 999999 999999 999999 999999 999999 999999 999999 999999 999999 999999 999999 999999 999999 999999 999999 999999 999999 999999 999999 999999 999999 999999 999999 999999 999999 999999 999999 999999 999999 999999 999999 999999 999999 999999 999999 999999 999999 999999 999999 0 999999 999999 999999 999999 999999 999999 999999 999999 999999 10756 999999 999999 10670 999999 999999 999999 16164 999999 11461 999999 999999 11161 999999 999999 999999 999999 999999 999999 12465 14550 999999 999999 999999 999999 999999 999999 999999 15020 999999 12433 999999 999999 999999 999999 999999 999999 17327 999999 999999 999999 999999 999999 999999 999999 999999 999999
999999 999999 999999 999999 999999 999999 999999 999999 999999 999999 999999 999999 999999 999999 999999 999999 999999 999999 999999 999999 999999 999999 999999 999999 999999 999999 999999 999999 999999 999999 999999 999999 999999 999999 999999 999999 999999 999999 999999 999999 999999 999999 999999 999999 999999 999999 0 999999 999999 999999 999999 999999 999999 999999 999999 13816 999999 999999 15007 999999 999999 999999 10705 999999 10143 999999 999999 11184 999999 999999 999999 999999 999999 999999 13599 14845 999999 999999 999999 999999 999999 999999 999999 17758 999999 10078 999999 999999 999999 999999 999999 999999 10361 999999 999999 999999 999999 999999 999999 999999 999999 999999
999999 999999 999999 999999 999999 999999 999999 999999 999999 999999 999999 999999 999999 999999 999999 999999 999999 999999 999999 999999 999999 999999 999999 999999 999999 999999 999999 999999 999999 999999 999999 999999 999999 999999 999999 999999 999999 999999 999999 999999 999999 999999 999999 999999 999999 999999 999999 0 999999 999999 999999 999999 999999 999999 999999 16170 999999 999999 14209 999999 999999 999999 13387 999999 11405 999999 999999 15745 999999 999999 999999 999999 999999 999999 16242 13224 999999 999999 999999 999999 999999 999999 999999 12486 999999 11822 999999 999999 999999 999999 999999 999999 16162 999999 999999 999999 999999 999999 999999 999999 999999 999999
999999 999999 999999 999999 999999 999999 999999 999999 999999 999999 999999 999999 999999 999999 999999 999999 999999 999999 999999 999999 999999 999999 999999 999999 999999 999999 999999 999999 999999 999999 999999 999999 999999 999999 999999 999999 999999 999999 999999 999999 999999 999999 999999 999999 999999 999999 999999 999999 0 999999 999999 999999 999999 999999 999999 18673 999999 999999 15795 999999 999999 999999 18279 999999 18426 999999 999999 10700 999999 999999 999999 999999 999999 999999 13134 13231 999999 999999 999999 999999 999999 999999 999999 14809 999999 11332 999999 999999 999999 999999 999999 999999 14189 999999 999999 999999 999999 999999 999999 999999 999999 999999
999999 999999 999999 999999 999999 999999 999999 999999 999999 999999 999999 999999 999999 999999 999999 999999 999999 999999 999999 999999 999999 999999 999999 999999 999999 999999 999999 999999 999999 999999 999999 999999 999999 999999 999999 999999 999999 999999 999999 999999 999999 999999 999999 999999 999999 999999 999999 999999 999999 0 999999 999999 999999 999999 999999 12940 999999 999999 12639 999999 999999 999999 19387 999999 15630 999999 999999 16501 999999 999999 999999 999999 999999 999999 18461 19015 999999 999999 999999 999999 999999 999999 999999 13529 999999 14942 999999 999999 999999 999999 999999 999999 18810 999999 999999 999999 999999 999999 999999 999999 999999 999999
999999 999999 999999 999999 999999 999999 999999 999999 999999 999999 999999 999999 999999 999999 999999 999999 999999 999999 999999 999999 999999 999999 999999 999999 999999 999999 999999 999999 999999 999999 999999 999999 999999 999999 999999 999999 999999 999999 999999 999999 999999 999999 999999 999999 999999 999999 999999 999999 999999 999999 0 999999 999999 999999 999999 10601 999999 999999 13723 999999 999999 999999 14471 999999 17182 999999 999999 12233 999999 999999 999999 999999 999999 999999 10727 17411 999999 999999 999999 999999 999999 999999 999999 16742 999999 12185 999999 999999 999999 999999 999999 999999 14876 999999 999999 999999 999999 999999 999999 999999 999999 999999
999999 16513 13521 13893 11762 10765 17494 17448 13612 17882 11049 13424 11856 19912 17288 17405 15946 12589 10756 14254 15747 15328 10231 13806 10069 16671 12485 10125 10501 16897 18510 10916 10727 11533 18017 10962 13814 16759 13550 11663 19337 14265 15437 12878 17640 17697 13802 18896 19825 10496 13406 0 999999 999999 999999 999999 999999 999999 999999 999999 999999 999999 999999 999999 999999 999999 999999 999999 999999 999999 999999 999999 999999 999999 999999 999999 999999 999999 999999 999999 999999 999999 999999 999999 999999 999999 999999 999999 999999 999999 999999 999999 999999 999999 999999 999999 999999 999999 999999 999999 999999 12746
999999 11928 10004 12665 16451 18975 15923 15736 18386 14621 15479 19503 12647 12869 11027 14674 17211 15558 13256 11498 15947 11770 19282 19576 12985 10586 11953 10440 18843 16563 10667 13987 12125 11225 14634 11527 12503 16428 13886 17296 12541 10982 12516 14165 18064 16936 13183 14632 18006 14469 18496 999999 0 999999 999999 999999 999999 999999 999999 999999 999999 999999 999999 999999 999999 999999 999999 999999 999999 999999 999999 999999 999999 999999 999999 999999 999999 999999 999999 999999 999999 999999 999999 999999 999999 999999 999999 999999 999999 999999 999999 999999 999999 999999 999999 999999 999999 999999 999999 999999 999999 13488
999999 15773 12099 17725 13774 16384 12518 14152 18128 12220 17151 12622 12474 13823 12463 17146 12368 13106 17561 19999 16248 12359 14055 19017 13907 17528 15559 12811 11966 11349 11195 16728 17689 12439 14341 13311 10222 16009 14776 18511 14736 18049 13856 10889 14793 12795 15559 14287 12410 11255 14928 999999 999999 0 999999 999999 999999 999999 999999 999999 999999 999999 999999 999999 999999 999999 999999 999999 999999 999999 999999 999999 999999 999999 999999 999999 999999 999999 999999 999999 999999 999999 999999 999999 999999 999999 999999 999999 999999 999999 999999 999999 999999 999999 999999 999999 999999 999999 999999 999999 999999 9520
999999 12849 15865 17229 12148 19948 14107 17511 19742 17103 10881 12826 13010 17269 14320 16821 19463 15798 15094 11311 11543 11642 15067 19844 14354 17865 15767 13555 17390 19333 19617 13213 17917 15379 15929 18321 14507 16195 14333 18376 18694 16396 10057 11661 14468 12328 17420 10505 16666 10807 17002 999999 999999 999999 0 999999 999999 999999 999999 999999 999999 999999 999999 999999 999999 999999 999999 999999 999999 999999 999999 999999 999999 999999 999999 999999 999999 999999 999999 999999 999999 999999 999999 999999 999999 999999 999999 999999 999999 999999 999999 999999 999999 999999 999999 999999 999999 999999 999999 999999 999999 13084
999999 17697 16616 10760 10021 13479 16528 16895 18507 14178 11293 14391 15935 11175 15332 10719 11016 12128 11930 16689 11047 19026 18858 11456 13294 17347 17501 15295 11686 12282 11369 18038 12938 15998 16424 16329 10282 11584 18112 18320 19491 15469 16106 17952 19084 10756 13816 16170 18673 12940 10601 999999 999999 999999 999999 0 999999 999999 999999 999999 999999 999999 999999 999999 999999 999999 999999 999999 999999 999999 999999 999999 999999 999999 999999 999999 999999 999999 999999 999999 999999 999999 999999 999999 999999 999999 999999 999999 999999 999999 999999 999999 999999 999999 999999 999999 999999 999999 999999 999999 999999 6586
999999 12374 13796 13829 11182 13981 14722 18521 16280 13725 14599 18469 17322 17913 18378 15366 12214 11133 14668 13888 12935 19883 10475 15723 13462 15973 19336 11681 18710 17500 13989 17465 16797 19539 10590 17612 18478 19621 19276 14011 12082 10701 18349 16857 13453 15594 11054 13618 14405 17157 13309 999999 999999 999999 999999 999999 0 999999 999999 999999 999999 999999 999999 999999 999999 999999 999999 999999 999999 999999 999999 999999 999999 999999 999999 999999 999999 999999 999999 999999 999999 999999 999999 999999 999999 999999 999999 999999 999999 999999 999999 999999 999999 999999 999999 999999 999999 999999 999999 999999 999999 13302
999999 10654 19350 12371 17775 18755 10646 15701 12658 13827 18110 13022 17172 13037 15044 11347 16179 10779 15333 11047 12944 15194 16259 16792 12387 11529 10593 18270 18468 11235 16519 13533 12413 16316 15009 11618 13413 17018 19351 14703 14226 10400 17572 15006 14537 19041 16586 11797 18354 14664 18771 999999 999999 999999 999999 999999 999999 0 999999 999999 999999 999999 999999 999999 999999 999999 999999 999999 999999 999999 999999 999999 999999 999999 999999 999999 999999 999999 999999 999999 999999 999999 999999 999999 999999 999999 999999 999999 999999 999999 999999 999999 999999 999999 999999 999999 999999 999999 999999 999999 999999 8050
999999 18089 11141 18748 19701 18110 10099 14908 12570 15252 13924 19973 12638 11269 15728 15028 13558 11992 17118 19514 13952 18129 12117 16022 13962 12400 18531 12446 18786 19004 12661 17892 14078 15911 17448 14842 14366 10926 19086 16681 13844 10028 11261 18794 17392 10670 15007 14209 15795 12639 13723 999999 999999 999999 999999 999999 999999 999999 0 999999 999999 999999 999999 999999 999999 999999 999999 999999 999999 999999 999999 999999 999999 999999 999999 999999 999999 999999 999999 999999 999999 999999 999999 999999 999999 999999 999999 999999 999999 999999 999999 999999 999999 999999 999999 999999 999999 999999 999999 999999 999999 7850
999999 17195 10733 11991 16341 11797 10429 11657 19622 16370 17470 11871 14654 17875 10287 15408 17863 19097 17256 17909 19072 18843 18842 12885 15586 10743 14130 13326 16321 19308 19143 15121 14239 16282 18248 15852 11776 12999 10994 18285 16766 19332 11489 13402 16367 11811 13198 17352 15046 15417 16328 999999 999999 999999 999999 999999 999999 999999 999999 0 999999 999999 999999 999999 999999 999999 999999 999999 999999 999999 999999 999999 999999 999999 999999 999999 999999 999999 999999 999999 999999 999999 999999 999999 999999 999999 999999 999999 999999 999999 999999 999999 999999 999999 999999 999999 999999 999999 999999 999999 999999 10106
999999 12284 11672 16398 19775 10227 14684 17086 12158 12410 13892 12182 17216 19106 14297 18634 10132 17980 18990 10503 19825 17147 16030 12946 11994 19524 10440 10109 17406 18409 13725 12315 12957 12277 12837 17469 17639 17774 18491 15717 11779 18875 10975 18531 13761 15743 13586 16763 18031 12171 13848 999999 999999 999999 999999 999999 999999 999999 999999 999999 0 999999 999999 999999 999999 999999 999999 999999 999999 999999 999999 999999 999999 999999 999999 999999 999999 999999 999999 999999 999999 999999 999999 999999 999999 999999 999999 999999 999999 999999 999999 999999 999999 999999 999999 999999 999999 999999 999999 999999 999999 12630
999999 16307 18632 15762 11268 12970 14717 13377 19607 10709 12244 18255 17518 15162 17568 19573 15980 18374 10349 14148 16836 18894 12478 15076 14014 14102 16305 10437 19872 19697 16518 13370 12376 11209 16427 16910 14913 12600 17211 12068 11068 13904 12653 19518 15587 12803 13154 15934 11481 10211 10150 999999 999999 999999 999999 999999 999999 999999 999999 999999 999999 0 999999 999999 999999 999999 999999 999999 999999 999999 999999 999999 999999 999999 999999 999999 999999 999999 999999 999999 999999 999999 999999 999999 999999 999999 999999 999999 999999 999999 999999 999999 999999 999999 999999 999999 999999 999999 999999 999999 999999 5521
999999 16978 15294 18021 15961 12472 11985 15748 16428 14846 10834 12085 19623 19133 18237 12479 18841 11006 13368 18420 12714 18548 13687 19899 12899 17111 11807 13641 16221 19791 15284 13069 13008 12249 18390 10552 10599 17086 13937 13883 17791 13445 18719 18256 16085 16164 10705 13387 18279 19387 14471 999999 999999 999999 999999 999999 999999 999999 999999 999999 999999 999999 0 999999 999999 999999 999999 999999 999999 999999 999999 999999 999999 999999 999999 999999 999999 999999 999999 999999 999999 999999 999999 999999 999999 999999 999999 999999 999999 999999 999999 999999 999999 999999 999999 999999 999999 999999 999999 999999 999999 6362
999999 10947 16331 19249 18549 19524 17916 19857 14204 12430 12718 15531 14607 14663 11331 11690 15162 13581 19118 10900 19955 18734 12129 16907 11374 13145 12542 19176 19551 15689 19652 12308 10146 15861 10417 11414 18340 11475 11773 13660 19749 15885 11427 16174 19936 18708 12014 11129 12374 15644 17708 999999 999999 999999 999999 999999 999999 999999 999999 999999 999999 999999 999999 0 999999 999999 999999 999999 999999 999999 999999 999999 999999 999999 999999 999999 999999 999999 999999 999999 999999 999999 999999 999999 999999 999999 999999 999999 999999 999999 999999 999999 999999 999999 999999 999999 999999 999999 999999 999999 999999 11641
999999 15955 19374 17872 11502 17628 13108 15383 16075 18808 15943 18910 18316 12609 15312 12276 10866 10053 13630 14019 18316 15777 13539 16890 12493 12627 12957 19061 19613 16945 11821 16983 13349 10043 19184 15513 11010 11935 19980 13322 16157 17242 19694 15759 19696 11461 10143 11405 18426 15630 17182 999999 999999 999999 999999 999999 999999 999999 999999 999999 999999 999999 999999 999999 0 999999 999999 999999 999999 999999 999999 999999 999999 999999 999999 999999 999999 999999 999999 999999 999999 999999 999999 999999 999999 999999 999999 999999 999999 999999 999999 999999 999999 999999 999999 999999 999999 999999 999999 999999 999999 14374
999999 13648 14146 15111 12936 14818 18497 16419 11114 17206 14621 14045 11743 18462 19509 15314 12409 11746 12230 11037 19643 12719 15020 10395 19658 12464 18765 18763 19633 15808 19024 17023 16268 11681 13426 13929 17119 14123 16579 15036 17108 17662 13626 17410 19808 15149 12237 10223 15491 17599 11065 999999 999999 999999 999999 999999 999999 999999 999999 999999 999999 999999 999999 999999 999999 0 999999 999999 999999 999999 999999 999999 999999 999999 999999 999999 999999 999999 999999 999999 999999 999999 999999 999999 999999 999999 999999 999999 999999 999999 999999 999999 999999 999999 999999 999999 999999 999999 999999 999999 999999 14759
999999 11821 16528 12891 12370 13611 18832 12768 16167 16587 16073 16734 12177 13130 18032 10806 13629 19479 17531 17725 19411 11376 18288 16259 16249 15026 16952 12073 10884 17444 18064 10333 11793 10636 15955 17089 16057 11875 16813 11966 19556 14326 19788 14964 18266 17289 17211 18477 15966 13576 12354 999999 999999 999999 999999 999999 999999 999999 999999 999999 999999 999999 999999 999999 999999 999999 0 999999 999999 999999 999999 999999 999999 999999 999999 999999 999999 999999 999999 999999 999999 999999 999999 999999 999999 999999 999999 999999 999999 999999 999999 999999 999999 999999 999999 999999 999999 999999 999999 999999 999999 7858
999999 14662 15877 12456 19916 15074 18570 17042 18828 13514 10203 17658 14633 12059 18826 12990 10334 15670 16508 13113 11150 12047 12030 13609 16780 10900 13538 18162 17909 12814 19892 19776 13257 11857 13043 19273 18346 18521 15884 17652 18505 13278 19260 14769 19723 11161 11184 15745 10700 16501 12233 999999 999999 999999 999999 999999 999999 999999 999999 999999 999999 999999 999999 999999 999999 999999 999999 0 999999 999999 999999 999999 999999 999999 999999 999999 999999 999999 999999 999999 999999 999999 999999 999999 999999 999999 999999 999999 999999 999999 999999 999999 999999 999999 999999 999999 999999 999999 999999 999999 999999 11228
999999 18178 15463 17242 10649 16556 14296 14274 19595 10940 14399 11706 10757 10515 16069 11723 16816 19237 12911 18514 10949 18427 16910 12872 16163 13972 16017 16440 19591 18673 17111 14007 14984 17663 14750 13284 13888 11449 15161 16105 17337 13672 17997 16593 12364 11678 14487 18783 14196 10797 12845 999999 999999 999999 999999 999999 999999 999999 999999 999999 999999 999999 999999 999999 999999 999999 999999 999999 0 999999 999999 999999 999999 999999 999999 999999 999999 999999 999999 999999 999999 999999 999999 999999 999999 999999 999999 999999 999999 999999 999999 999999 999999 999999 999999 999999 999999 999999 999999 999999 999999 14736
999999 17599 11518 16916 19338 11377 14246 16237 11371 14539 18736 12394 14519 19878 17989 18820 18276 11669 12764 12019 18360 13148 15303 12124 13521 18117 17959 16960 19973 17052 13536 10903 15556 10055 17599 13802 18229 14021 18770 18632 15701 19054 18046 12752 11261 18003 11786 12052 13926 14047 15948 999999 999999 999999 999999 999999 999999 999999 999999 999999 999999 999999 999999 999999 999999 999999 999999 999999 999999 0 999999 999999 999999 999999 999999 999999 999999 999999 999999 999999 999999 999999 999999 999999 999999 999999 999999 999999 999999 999999 999999 999999 999999 999999 999999 999999 999999 999999 999999 999999 999999 8940
999999 19291 10665 11120 10590 19030 11260 19550 10420 12413 17538 12339 15103 11412 15189 19752 13003 10018 15330 12838 19414 16042 10161 18604 18385 12760 17359 17700 19346 16328 11880 15471 18827 12981 18951 19952 12144 10719 16621 16165 12585 19059 13419 15048 10888 19125 14527 11627 15824 16622 15520 999999 999999 999999 999999 999999 999999 999999 999999 999999 999999 999999 999999 999999 999999 999999 999999 999999 999999 999999 0 999999 999999 999999 999999 999999 999999 999999 999999 999999 999999 999999 999999 999999 999999 999999 999999 999999 999999 999999 999999 999999 999999 999999 999999 999999 999999 999999 999999 999999 999999 8058
999999 10362 14718 16660 17459 12091 10002 11650 13174 12983 11526 14183 13378 12846 11380 10830 19605 10093 16861 19127 16519 14291 19244 16874 13644 16749 10062 16491 18879 16820 17359 15532 14408 12810 13554 10447 17990 13412 13831 12967 19285 10040 11790 19785 11354 17290 16408 12711 10624 10019 16901 999999 999999 999999 999999 999999 999999 999999 999999 999999 999999 999999 999999 999999 999999 999999 999999 999999 999999 999999 999999 0 999999 999999 999999 999999 999999 999999 999999 999999 999999 999999 999999 999999 999999 999999 999999 999999 999999 999999 999999 999999 999999 999999 999999 999999 999999 999999 999999 999999 999999 14172
999999 17760 17906 17001 15811 13915 15748 16871 15985 12105 12948 10609 13503 11282 10963 12057 16888 19197 15329 13034 14378 12439 16623 16235 13510 12097 14522 18305 12994 14730 19890 18748 17417 11189 10025 16984 19453 18970 11675 17466 11958 11317 16691 10110 16333 17959 18853 13453 10540 18105 14768 999999 999999 999999 999999 999999 999999 999999 999999 999999 999999 999999 999999 999999 999999 999999 999999 999999 999999 999999 999999 999999 0 999999 999999 999999 999999 999999 999999 999999 999999 999999 999999 999999 999999 999999 999999 999999 999999 999999 999999 999999 999999 999999 999999 999999 999999 999999 999999 999999 999999 5113
999999 19210 16018 11469 17882 15132 15951 11912 17428 13979 13691 13597 10914 17572 17884 11229 12111 16202 12712 11509 15710 12846 15387 16116 16688 10629 13046 18120 18418 19851 14185 12032 19083 19742 14907 12891 18878 14348 15816 10229 13324 19616 16750 17335 10670 15123 12944 19279 13892 19058 13939 999999 999999 999999 999999 999999 999999 999999 999999 999999 999999 999999 999999 999999 999999 999999 999999 999999 999999 999999 999999 999999 999999 0 999999 999999 999999 999999 999999 999999 999999 999999 999999 999999 999999 999999 999999 999999 999999 999999 999999 999999 999999 999999 999999 999999 999999 999999 999999 999999 999999 9810
999999 15269 15414 14232 15275 17119 18784 18896 15895 16175 17274 12309 19985 16976 11469 11527 10203 15444 13495 13942 12392 10031 11747 10765 10950 15642 14349 15541 13656 19150 16882 14416 10653 17395 13504 16981 19921 14774 15652 17703 12752 13585 12820 17416 17232 12465 13599 16242 13134 18461 10727 999999 999999 999999 999999 999999 999999 999999 999999 999999 999999 999999 999999 999999 999999 999999 999999 999999 999999 999999 999999 999999 999999 999999 0 999999 999999 999999 999999 999999 999999 999999 999999 999999 999999 999999 999999 999999 999999 999999 999999 999999 999999 999999 999999 999999 999999 999999 999999 999999 999999 13456
999999 13134 14167 13086 19485 13355 10276 19613 18506 16128 10755 17944 16332 11420 14682 16537 17850 13282 16183 10559 18985 11079 12280 14738 11520 18561 18861 13606 15641 13164 17253 16783 16949 16899 13963 19221 11006 11768 13965 12630 12624 12978 14679 11454 15041 14550 14845 13224 13231 19015 17411 999999 999999 999999 999999 999999 999999 999999 999999 999999 999999 999999 999999 999999 999999 999999 999999 999999 999999 999999 999999 999999 999999 999999 999999 0 999999 999999 999999 999999 999999 999999 999999 999999 999999 999999 999999 999999 999999 999999 999999 999999 999999 999999 999999 999999 999999 999999 999999 999999 999999 5899
999999 18822 14902 18703 19653 12500 14509 13769 18151 12918 12158 13532 18909 16437 15887 18236 14776 14392 14667 13392 17936 13087 14511 11560 18723 13255 17074 15300 13574 17412 17795 10357 12816 18689 10415 13253 12885 16062 17610 12944 12289 15354 19396 14508 17393 12626 13031 16707 10394 11672 19804 999999 999999 999999 999999 999999 999999 999999 999999 999999 999999 999999 999999 999999 999999 999999 999999 999999 999999 999999 999999 999999 999999 999999 999999 999999 0 999999 999999 999999 999999 999999 999999 999999 999999 999999 999999 999999 999999 999999 999999 999999 999999 999999 999999 999999 999999 999999 999999 999999 999999 5786
999999 12468 10715 19850 14888 17200 14970 13764 15192 12044 16786 18652 11911 10205 13099 15264 12811 18516 12632 17966 13817 17572 16685 15955 12223 12697 17479 15373 19826 12584 17006 16643 10305 15662 15743 14391 18127 13067 17201 12065 17143 14034 14767 15512 10803 16372 17479 13976 19203 14995 15476 999999 999999 999999 999999 999999 999999 999999 999999 999999 999999 999999 999999 999999 999999 999999 999999 999999 999999 999999 999999 999999 999999 999999 999999 999999 999999 0 999999 999999 999999 999999 999999 999999 999999 999999 999999 999999 999999 999999 999999 999999 999999 999999 999999 999999 999999 999999 999999 999999 999999 7051
999999 11918 19334 14387 13341 15010 18297 10028 18325 17356 14764 16098 14508 13203 15623 18972 11925 15514 18831 18972 18474 18001 16972 17594 18765 10363 16137 13008 16481 10859 17093 16972 18204 17742 18442 15790 18790 16023 16732 15310 14483 15582 19830 16853 18246 12196 19568 18161 17607 17249 18608 999999 999999 999999 999999 999999 999999 999999 999999 999999 999999 999999 999999 999999 999999 999999 999999 999999 999999 999999 999999 999999 999999 999999 999999 999999 999999 999999 0 999999 999999 999999 999999 999999 999999 999999 999999 999999 999999 999999 999999 999999 999999 999999 999999 999999 999999 999999 999999 999999 999999 11361
999999 11173 15384 10083 12578 10533 17616 13503 17422 16143 10433 10600 14120 13461 15274 14774 11926 12442 13533 15589 18316 11021 13390 10462 11317 16155 19451 10407 12236 18323 19133 13981 14851 19413 12481 12461 11478 14352 12526 13261 16434 10021 16144 16450 10372 10269 11258 11849 17609 10780 18204 999999 999999 999999 999999 999999 999999 999999 999999 999999 999999 999999 999999 999999 999999 999999 999999 999999 999999 999999 999999 999999 999999 999999 999999 999999 999999 999999 999999 0 999999 999999 999999 999999 999999 999999 999999 999999 999999 999999 999999 999999 999999 999999 999999 999999 999999 999999 999999 999999 999999 7225
999999 10658 11168 14781 13345 14311 19771 19730 12481 19758 13575 19551 12571 16051 10313 14250 12186 18241 18582 12734 14394 18252 14240 13559 13830 11863 14414 12489 13913 13001 18071 10761 12785 11592 19099 16786 17842 12908 11145 14920 13496 11333 10207 17298 18409 16471 12504 12251 11230 18045 15462 999999 999999 999999 999999 999999 999999 999999 999999 999999 999999 999999 999999 999999 999999 999999 999999 999999 999999 999999 999999 999999 999999 999999 999999 999999 999999 999999 999999 999999 0 999999 999999 999999 999999 999999 999999 999999 999999 999999 999999 999999 999999 999999 999999 999999 999999 999999 999999 999999 999999 12575
999999 14444 19208 14910 15226 15064 17913 19211 14640 18342 19975 13164 19485 14631 16392 14684 10532 11576 12043 12226 11262 18396 12935 13352 12434 16716 10166 13676 17945 16676 14810 10686 13638 10997 11872 18038 16909 11626 19017 13973 18741 12074 14936 16105 12386 15270 18248 15746 15649 13137 17878 999999 999999 999999 999999 999999 999999 999999 999999 999999 999999 999999 999999 999999 999999 999999 999999 999999 999999 999999 999999 999999 999999 999999 999999 999999 999999 999999 999999 999999 999999 0 999999 999999 999999 999999 999999 999999 999999 999999 999999 999999 999999 999999 999999 999999 999999 999999 999999 999999 999999 14530
999999 14302 17040 10502 16782 12788 19257 15985 16965 18327 17931 19386 18773 18959 13817 14720 14469 12285 13751 16042 13439 19438 16026 15336 13529 13731 18783 14743 15757 16372 14281 12573 18530 17407 16172 15820 19238 17799 10867 17557 16902 19773 12570 18490 19554 12981 10116 14282 17952 16176 11104 999999 999999 999999 999999 999999 999999 999999 999999 999999 999999 999999 999999 999999 999999 999999 999999 999999 999999 999999 999999 999999 999999 999999 999999 999999 999999 999999 999999 999999 999999 999999 0 999999 999999 999999 999999 999999 999999 999999 999999 999999 999999 999999 999999 999999 999999 999999 999999 999999 999999 12758
999999 12430 15702 11416 17769 14137 15503 14486 18447 14970 12032 16493 19383 15061 14070 14476 17407 19865 17112 19158 11516 12789 15186 18304 14815 17788 13756 14725 17797 19621 15495 17729 16994 15723 15532 11198 10334 17395 11991 15245 13551 16518 15429 13419 16683 15020 17758 12486 14809 13529 16742 999999 999999 999999 999999 999999 999999 999999 999999 999999 999999 999999 999999 999999 999999 999999 999999 999999 999999 999999 999999 999999 999999 999999 999999 999999 999999 999999 999999 999999 999999 999999 999999 0 999999 999999 999999 999999 999999 999999 999999 999999 999999 999999 999999 999999 999999 999999 999999 999999 999999 11621
999999 16560 19925 15357 12188 18538 14125 19351 15864 14435 12090 19687 11247 12836 12626 16914 11399 11197 13119 19626 12046 17070 12755 12055 18256 13983 14587 15666 14532 18324 10449 17351 15884 11395 12983 13435 11470 13498 16556 15180 16589 15994 10385 14821 10975 13081 10396 13360 10606 10437 15652 999999 999999 999999 999999 999999 999999 999999 999999 999999 999999 999999 999999 999999 999999 999999 999999 999999 999999 999999 999999 999999 999999 999999 999999 999999 999999 999999 999999 999999 999999 999999 999999 999999 0 999999 999999 999999 999999 999999 999999 999999 999999 999999 999999 999999 999999 999999 999999 999999 999999 13746
999999 13827 17863 14593 13920 12161 19564 14069 13298 19942 16952 19848 19302 13885 16357 16693 14762 13244 13110 14978 15360 11972 13063 19968 10300 19299 14692 11797 10907 18064 19179 14195 11085 14451 12774 15179 13129 13454 11809 18610 12637 17545 16819 19607 17173 12433 10078 11822 11332 14942 12185 999999 999999 999999 999999 999999 999999 999999 999999 999999 999999 999999 999999 999999 999999 999999 999999 999999 999999 999999 999999 999999 999999 999999 999999 999999 999999 999999 999999 999999 999999 999999 999999 999999 999999 0 999999 999999 999999 999999 999999 999999 999999 999999 999999 999999 999999 999999 999999 999999 999999 10567
999999 13581 15776 19433 17334 19061 16115 18947 18789 19613 15898 12037 15312 17682 11308 15998 13314 10335 17202 17269 18492 17149 17727 17590 16460 17659 10708 14723 18468 15737 11438 18950 17038 11840 14618 14845 16939 13286 12731 17234 16476 17579 16812 13591 12731 18114 13518 16011 17459 19045 13981 999999 999999 999999 999999 999999 999999 999999 999999 999999 999999 999999 999999 999999 999999 999999 999999 999999 999999 999999 999999 999999 999999 999999 999999 999999 999999 999999 999999 999999 999999 999999 999999 999999 999999 999999 0 999999 999999 999999 999999 999999 999999 999999 999999 999999 999999 999999 999999 999999 999999 8805
999999 16752 15816 10792 12165 14897 14085 11482 12473 17953 15157 13199 16518 15806 11732 17632 11187 13646 11982 13873 14401 17242 18612 16080 19929 19073 11195 18533 10080 17255 15075 14450 12370 18659 15220 15084 16187 17255 13540 11430 17028 19641 15557 15502 19930 13724 10750 10601 15431 17441 19355 999999 999999 999999 999999 999999 999999 999999 999999 999999 999999 999999 999999 999999 999999 999999 999999 999999 999999 999999 999999 999999 999999 999999 999999 999999 999999 999999 999999 999999 999999 999999 999999 999999 999999 999999 999999 0 999999 999999 999999 999999 999999 999999 999999 999999 999999 999999 999999 999999 999999 14555
999999 14634 12636 17689 14590 19743 15168 10976 14269 15081 13145 19928 15347 19555 19665 19796 15219 13308 16955 16640 17900 18605 11001 18904 15712 15753 14250 16277 11600 11349 10840 12295 12787 10134 12084 19748 10650 16932 10279 10058 14241 17105 10581 18992 13375 15813 13159 13771 19899 16291 11621 999999 999999 999999 999999 999999 999999 999999 999999 999999 999999 999999 999999 999999 999999 999999 999999 999999 999999 999999 999999 999999 999999 999999 999999 999999 999999 999999 999999 999999 999999 999999 999999 999999 999999 999999 999999 999999 0 999999 999999 999999 999999 999999 999999 999999 999999 999999 999999 999999 999999 7222
999999 12846 16067 12077 19003 17817 15992 13947 10375 13792 18394 10863 15242 14678 10452 13370 17499 18680 15004 11244 19092 10784 19551 10815 11242 12498 13212 12441 18270 14179 12164 11014 10053 18607 18521 19920 11644 15531 15782 12766 17033 13578 16684 19948 13572 17387 19030 17409 12974 16609 11582 999999 999999 999999 999999 999999 999999 999999 999999 999999 999999 999999 999999 999999 999999 999999 999999 999999 999999 999999 999999 999999 999999 999999 999999 999999 999999 999999 999999 999999 999999 999999 999999 999999 999999 999999 999999 999999 999999 0 999999 999999 999999 999999 999999 999999 999999 999999 999999 999999 999999 14446
999999 12206 12265 16251 17602 19866 17997 14957 15218 10771 11599 11076 16064 12836 11264 14444 12369 18269 12251 13587 12149 17314 11730 15519 12167 12056 17764 19507 18424 15908 17583 19649 15950 14279 19270 14531 17461 16100 11832 19961 10359 12579 10722 15191 15539 13071 19145 11389 17687 14073 17597 999999 999999 999999 999999 999999 999999 999999 999999 999999 999999 999999 999999 999999 999999 999999 999999 999999 999999 999999 999999 999999 999999 999999 999999 999999 999999 999999 999999 999999 999999 999999 999999 999999 999999 999999 999999 999999 999999 999999 0 999999 999999 999999 999999 999999 999999 999999 999999 999999 999999 6411
999999 15615 12583 11164 12693 14880 17355 16683 10410 13023 16466 11370 10730 18852 15605 14184 14248 17645 10440 19587 10735 16766 11563 12377 12452 19629 16271 11519 11690 13386 14118 13985 15550 16904 16867 16729 14142 10553 14425 16492 15490 15014 19412 19866 15543 18474 15571 17029 18493 14011 19737 999999 999999 999999 999999 999999 999999 999999 999999 999999 999999 999999 999999 999999 999999 999999 999999 999999 999999 999999 999999 999999 999999 999999 999999 999999 999999 999999 999999 999999 999999 999999 999999 999999 999999 999999 999999 999999 999999 999999 999999 0 999999 999999 999999 999999 999999 999999 999999 999999 999999 12924
999999 16838 14057 15177 16333 10704 13535 19593 12580 13382 14097 12180 18234 10059 18649 17606 16778 12446 15407 17722 15725 12376 10818 18849 18929 15846 15102 10513 19767 16380 12130 16334 13812 14267 10826 16054 13436 19996 14250 11092 11501 10308 18086 17358 12812 17327 10361 16162 14189 18810 14876 999999 999999 999999 999999 999999 999999 999999 999999 999999 999999 999999 999999 999999 999999 999999 999999 999999 999999 999999 999999 999999 999999 999999 999999 999999 999999 999999 999999 999999 999999 999999 999999 999999 999999 999999 999999 999999 999999 999999 999999 999999 0 999999 999999 999999 999999 999999 999999 999999 999999 12857
999999 13063 10131 16280 18598 10709 10867 11110 14840 17436 10738 15939 16788 13764 12534 17743 12683 17558 12688 12039 19995 17513 11994 10338 14607 14506 15939 17340 19773 10569 18614 16791 16836 13847 16747 13436 12885 18351 19205 11768 11760 16730 19689 14904 11921 11553 14303 19364 17917 15952 18843 999999 999999 999999 999999 999999 999999 999999 999999 999999 999999 999999 999999 999999 999999 999999 999999 999999 999999 999999 999999 999999 999999 999999 999999 999999 999999 999999 999999 999999 999999 999999 999999 999999 999999 999999 999999 999999 999999 999999 999999 999999 999999 0 999999 999999 999999 999999 999999 999999 999999 13612
999999 19209 18597 11257 16389 18473 16307 12532 14775 12567 11364 14619 19889 11377 13127 15062 13682 13711 12534 17222 17867 15385 15942 14477 16882 13231 18610 10176 17857 11396 11610 17586 19245 15242 18663 16117 11366 12017 15493 16147 11371 18889 12595 19273 13164 11377 17588 15783 17050 19735 19141 999999 999999 999999 999999 999999 999999 999999 999999 999999 999999 999999 999999 999999 999999 999999 999999 999999 999999 999999 999999 999999 999999 999999 999999 999999 999999 999999 999999 999999 999999 999999 999999 999999 999999 999999 999999 999999 999999 999999 999999 999999 999999 999999 0 999999 999999 999999 999999 999999 999999 9842
999999 14833 14098 16343 16684 17714 10468 16376 14651 18280 19859 10148 14587 14433 17757 15701 18690 19440 14993 15334 11418 16336 11456 13521 16690 19301 14759 17333 14302 13229 17248 11996 17927 16517 19174 18517 13880 10963 12405 12081 19172 19174 13493 11220 16947 15256 11059 13800 10436 11037 16437 999999 999999 999999 999999 999999 999999 999999 999999 999999 999999 999999 999999 999999 999999 999999 999999 999999 999999 999999 999999 999999 999999 999999 999999 999999 999999 999999 999999 999999 999999 999999 999999 999999 999999 999999 999999 999999 999999 999999 999999 999999 999999 999999 999999 0 999999 999999 999999 999999 999999 13584
999999 18380 14703 16785 16497 16223 18193 17597 13097 17397 13846 18667 18253 19522 16003 12473 19778 15814 10418 16710 19619 16799 10272 15406 13170 12984 11852 11084 15889 18772 10497 10512 10864 18248 17111 17494 18007 17917 16747 12797 13561 14162 15260 16161 17759 16188 18884 11355 10848 15347 13657 999999 999999 999999 999999 999999 999999 999999 999999 999999 999999 999999 999999 999999 999999 999999 999999 999999 999999 999999 999999 999999 999999 999999 999999 999999 999999 999999 999999 999999 999999 999999 999999 999999 999999 999999 999999 999999 999999 999999 999999 999999 999999 999999 999999 999999 0 999999 999999 999999 999999 10171
999999 18166 13704 19757 14901 14900 11650 10858 17417 15130 15768 19444 11678 11550 11030 17096 15025 17559 15091 11307 17424 15389 12202 16953 11113 15452 19907 13587 11460 11240 18192 16873 16804 14851 14692 16414 14417 12371 12919 12271 13839 13494 12616 15779 12104 19200 12604 19653 13887 12140 12230 999999 999999 999999 999999 999999 999999 999999 999999 999999 999999 999999 999999 999999 999999 999999 999999 999999 999999 999999 999999 999999 999999 999999 999999 999999 999999 999999 999999 999999 999999 999999 999999 999999 999999 999999 999999 999999 999999 999999 999999 999999 999999 999999 999999 999999 999999 0 999999 999999 999999 13909
999999 11182 15222 14298 10294 16659 15036 12810 10075 19547 17178 14715 18098 14249 14150 15867 12596 19725 14280 13592 11918 14447 17620 17761 13361 12858 15558 13511 17466 19279 15239 18897 12505 13403 14033 15247 11270 14461 16037 16813 12759 11075 19113 18954 12925 17143 15890 11788 14851 11303 11965 999999 999999 999999 999999 999999 999999 999999 999999 999999 999999 999999 999999 999999 999999 999999 999999 999999 999999 999999 999999 999999 999999 999999 999999 999999 999999 999999 999999 999999 999999 999999 999999 999999 999999 999999 999999 999999 999999 999999 999999 999999 999999 999999 999999 999999 999999 999999 0 999999 999999 5308
999999 19270 14952 14287 10930 19170 14678 14328 17627 10000 15823 14646 12110 16714 16314 19643 14258 15600 17825 10139 16533 13269 12613 18183 18995 14720 15356 14750 19002 19484 14834 13992 19931 15975 11428 15071 17723 16847 14945 17375 15899 17089 13189 18153 12999 14016 19406 14667 12412 15987 18088 999999 999999 999999 999999 999999 999999 999999 999999 999999 999999 999999 999999 999999 999999 999999 999999 999999 999999 999999 999999 999999 999999 999999 999999 999999 999999 999999 999999 999999 999999 999999 999999 999999 999999 999999 999999 999999 999999 999999 999999 999999 999999 999999 999999 999999 999999 999999 999999 0 999999 6918
999999 17870 10677 10705 19495 14974 17410 16438 14055 11042 18585 10575 16543 13816 11735 15481 12531 17861 14272 10496 16657 15910 10865 19103 12235 14062 10329 19747 19682 18526 13357 16252 19721 11651 15820 12728 12676 18402 14316 17969 18522 10088 14640 14601 14019 13765 14213 11240 14092 10509 11723 999999 999999 999999 999999 999999 999999 999999 999999 999999 999999 999999 999999 999999 999999 999999 999999 999999 999999 999999 999999 999999 999999 999999 999999 999999 999999 999999 999999 999999 999999 999999 999999 999999 999999 999999 999999 999999 999999 999999 999999 999999 999999 999999 999999 999999 999999 999999 999999 999999 0 8464
1 999999 999999 999999 999999 999999 999999 999999 999999 999999 999999 999999 999999 999999 999999 999999 999999 999999 999999 999999 999999 999999 999999 999999 999999 999999 999999 999999 999999 999999 999999 999999 999999 999999 999999 999999 999999 999999 999999 999999 999999 999999 999999 999999 999999 999999 999999 999999 999999 999999 999999 999999 999999 999999 999999 999999 999999 999999 999999 999999 999999 999999 999999 999999 999999 999999 999999 999999 999999 999999 999999 999999 999999 999999 999999 999999 999999 999999 999999 999999 999999 999999 999999 999999 999999 999999 999999 999999 999999 999999 999999 999999 999999 999999 999999 999999 999999 999999 999999 999999 999999 0
EOF