NAME: GR_1x5x8_KH_5x8_Run_4
TYPE: TSP
COMMENT: BTSP instance |A|=40 GR nodes |B|=40 KH nodes depot=0.0 end=0.0.0
DIMENSION: 82
EDGE_WEIGHT_TYPE: EXPLICIT
EDGE_WEIGHT_FORMAT: FULL_MATRIX
NODE_COORD_TYPE: NO_COORDS
EDGE_WEIGHT_SECTION
0 5413 14410 6000 9139 8890 5665 14335 14955 5186 5927 8464 10898 12105 7200 11593 10568 10799 13863 8825 12079 10197 14327 14542 9864 13774 14343 7634 6454 7197 12711 14635 14627 8091 8512 14555 14539 12414 5617 13712 12064 999999 999999 999999 999999 999999 999999 999999 999999 999999 999999 999999 999999 999999 999999 999999 999999 999999 999999 999999 999999 999999 999999 999999 999999 999999 999999 999999 999999 999999 999999 999999 999999 999999 999999 999999 999999 999999 999999 999999 999999 999999
999999 0 999999 999999 999999 999999 999999 999999 999999 999999 999999 999999 999999 999999 999999 999999 999999 999999 999999 999999 999999 999999 999999 999999 999999 999999 999999 999999 999999 999999 999999 999999 999999 999999 999999 999999 999999 999999 999999 999999 999999 15838 10570 18688 10746 18665 14391 17007 13809 11079 12894 16559 11032 19441 11384 12308 10726 13429 17263 13375 14583 12526 15497 15188 15293 17579 15264 16975 17857 10569 17127 12866 19947 11138 11858 13276 18668 16856 11366 14080 15581 999999
999999 999999 0 999999 999999 999999 999999 999999 999999 999999 999999 999999 999999 999999 999999 999999 999999 999999 999999 999999 999999 999999 999999 999999 999999 999999 999999 999999 999999 999999 999999 999999 999999 999999 999999 999999 999999 999999 999999 999999 999999 16772 14169 17018 14922 12450 12438 11537 16202 10093 17496 19766 13111 19432 18173 10689 17046 13434 17983 10960 12517 11976 10648 17318 11887 16856 15481 10344 15937 16965 12447 11402 11328 13205 17329 15107 19965 10490 16745 16181 14972 999999
999999 999999 999999 0 999999 999999 999999 999999 999999 999999 999999 999999 999999 999999 999999 999999 999999 999999 999999 999999 999999 999999 999999 999999 999999 999999 999999 999999 999999 999999 999999 999999 999999 999999 999999 999999 999999 999999 999999 999999 999999 16607 15998 16887 18156 13508 12158 17537 18738 13284 16218 14793 14346 14076 16520 16761 17341 17966 19141 13585 15426 15152 12642 19967 10531 17962 19851 14085 10625 18909 11522 11229 19258 11086 16134 17750 12464 19330 14504 12307 18389 999999
999999 999999 999999 999999 0 999999 999999 999999 999999 999999 999999 999999 999999 999999 999999 999999 999999 999999 999999 999999 999999 999999 999999 999999 999999 999999 999999 999999 999999 999999 999999 999999 999999 999999 999999 999999 999999 999999 999999 999999 999999 15409 15211 17273 17993 12300 14333 12376 11692 12056 17667 19570 15079 13012 15019 15720 17408 17021 11171 19187 15810 17986 10493 11187 14215 17970 16953 10498 19929 10766 14759 14107 19042 10877 14122 12549 19538 11892 13289 15797 19912 999999
999999 999999 999999 999999 999999 0 999999 999999 999999 999999 999999 999999 999999 999999 999999 999999 999999 999999 999999 999999 999999 999999 999999 999999 999999 999999 999999 999999 999999 999999 999999 999999 999999 999999 999999 999999 999999 999999 999999 999999 999999 15132 17971 16366 18349 12735 19192 11553 18954 16172 17926 13794 10272 14001 15282 16921 18262 17169 12397 19451 19961 17926 18892 15562 17233 11725 13187 10645 14836 15665 14791 12872 19101 19826 12665 13744 11209 10991 15692 13875 14562 999999
999999 999999 999999 999999 999999 999999 0 999999 999999 999999 999999 999999 999999 999999 999999 999999 999999 999999 999999 999999 999999 999999 999999 999999 999999 999999 999999 999999 999999 999999 999999 999999 999999 999999 999999 999999 999999 999999 999999 999999 999999 17706 10807 19778 17521 12459 17864 17950 18870 11695 12384 12799 19142 15868 10183 11225 12609 19729 13369 11188 16558 19428 16962 12358 19734 10583 19711 13106 11334 19940 14073 10230 10746 16857 11574 11083 15283 11581 18784 19352 10295 999999
999999 999999 999999 999999 999999 999999 999999 0 999999 999999 999999 999999 999999 999999 999999 999999 999999 999999 999999 999999 999999 999999 999999 999999 999999 999999 999999 999999 999999 999999 999999 999999 999999 999999 999999 999999 999999 999999 999999 999999 999999 16900 18166 16308 16515 16706 14773 16210 18782 12796 16344 11147 14716 13196 13938 10607 13649 15436 15348 15932 10611 14900 18427 10618 19558 12449 19681 14845 15484 16955 17190 11378 18673 16730 14427 10951 18961 13862 18944 10346 14531 999999
999999 999999 999999 999999 999999 999999 999999 999999 0 999999 999999 999999 999999 999999 999999 999999 999999 999999 999999 999999 999999 999999 999999 999999 999999 999999 999999 999999 999999 999999 999999 999999 999999 999999 999999 999999 999999 999999 999999 999999 999999 13711 15577 11385 13437 12054 14934 14171 12492 13282 19885 14467 15907 13588 11044 10973 16484 15422 14601 13807 10819 14337 12590 10610 18087 12774 11459 12080 11444 12860 17383 15853 14189 17773 14158 17440 17946 13182 10079 14014 14827 999999
999999 999999 999999 999999 999999 999999 999999 999999 999999 0 999999 999999 999999 999999 999999 999999 999999 999999 999999 999999 999999 999999 999999 999999 999999 999999 999999 999999 999999 999999 999999 999999 999999 999999 999999 999999 999999 999999 999999 999999 999999 11659 12838 17959 15266 11251 13332 12184 16911 19785 15931 12959 12686 17880 13777 16677 18275 11588 15319 19881 18733 10705 18346 13762 10312 16075 18904 19843 12079 10431 11463 14321 10911 19946 13042 14190 15050 13754 17539 13465 19538 999999
999999 999999 999999 999999 999999 999999 999999 999999 999999 999999 0 999999 999999 999999 999999 999999 999999 999999 999999 999999 999999 999999 999999 999999 999999 999999 999999 999999 999999 999999 999999 999999 999999 999999 999999 999999 999999 999999 999999 999999 999999 15958 10425 19386 19666 15776 16177 18295 13302 18193 14744 12965 18417 15928 12436 16685 16255 10761 13927 10559 11460 10738 11138 17574 18840 15309 13563 14069 12505 15381 18713 12250 18964 16392 13256 12354 10561 12572 15613 17312 18896 999999
999999 999999 999999 999999 999999 999999 999999 999999 999999 999999 999999 0 999999 999999 999999 999999 999999 999999 999999 999999 999999 999999 999999 999999 999999 999999 999999 999999 999999 999999 999999 999999 999999 999999 999999 999999 999999 999999 999999 999999 999999 17518 16353 11715 16708 15624 10188 15894 11674 16827 14071 16791 11495 10587 13370 14396 19992 19229 16782 17223 10615 10558 15159 16871 17884 11125 12775 19575 12869 12943 10747 17103 11754 16216 19575 19541 10957 12911 13333 12349 12125 999999
999999 999999 999999 999999 999999 999999 999999 999999 999999 999999 999999 999999 0 999999 999999 999999 999999 999999 999999 999999 999999 999999 999999 999999 999999 999999 999999 999999 999999 999999 999999 999999 999999 999999 999999 999999 999999 999999 999999 999999 999999 12091 13371 15975 13690 12513 15634 16161 14918 17602 17792 19567 16684 15117 10262 12146 14185 14829 10949 11427 17958 11537 18888 12240 18206 17829 12920 11630 13920 16304 16841 11420 19456 13303 16709 13313 18174 17352 15384 16127 14509 999999
999999 999999 999999 999999 999999 999999 999999 999999 999999 999999 999999 999999 999999 0 999999 999999 999999 999999 999999 999999 999999 999999 999999 999999 999999 999999 999999 999999 999999 999999 999999 999999 999999 999999 999999 999999 999999 999999 999999 999999 999999 15274 17193 19532 15250 10591 10866 18392 17902 11083 19041 11454 17326 11457 12009 12686 15187 13955 11020 13501 13100 10790 15921 11685 10285 12672 19617 18138 10506 13756 17600 16698 13206 17808 10834 14617 12701 11466 16337 16341 17169 999999
999999 999999 999999 999999 999999 999999 999999 999999 999999 999999 999999 999999 999999 999999 0 999999 999999 999999 999999 999999 999999 999999 999999 999999 999999 999999 999999 999999 999999 999999 999999 999999 999999 999999 999999 999999 999999 999999 999999 999999 999999 12623 19825 12709 16220 14718 17527 14924 16218 14216 13921 10773 11001 18939 17974 19908 17471 18179 14816 17528 17564 15373 19574 10289 14063 19706 13459 16828 17979 17348 18327 19312 11996 15481 15516 11566 10763 19660 13362 14592 19135 999999
999999 999999 999999 999999 999999 999999 999999 999999 999999 999999 999999 999999 999999 999999 999999 0 999999 999999 999999 999999 999999 999999 999999 999999 999999 999999 999999 999999 999999 999999 999999 999999 999999 999999 999999 999999 999999 999999 999999 999999 999999 18242 10764 10250 14931 10707 17076 16859 19685 13983 15374 18124 17372 17570 19390 19258 15914 18151 17059 14265 18722 15392 12570 19908 18431 18972 17351 10283 14313 10036 13525 10172 16403 10140 15402 18697 17223 10626 19062 14711 12954 999999
999999 999999 999999 999999 999999 999999 999999 999999 999999 999999 999999 999999 999999 999999 999999 999999 0 999999 999999 999999 999999 999999 999999 999999 999999 999999 999999 999999 999999 999999 999999 999999 999999 999999 999999 999999 999999 999999 999999 999999 999999 19854 15755 13618 17422 12785 17142 11720 12516 10042 16868 12683 12623 14641 17028 17974 19221 14074 14711 14507 13195 19224 14606 14294 18553 19235 17995 16041 11705 15181 14749 18454 18579 19572 18396 17962 15382 11789 19636 15427 14107 999999
999999 999999 999999 999999 999999 999999 999999 999999 999999 999999 999999 999999 999999 999999 999999 999999 999999 0 999999 999999 999999 999999 999999 999999 999999 999999 999999 999999 999999 999999 999999 999999 999999 999999 999999 999999 999999 999999 999999 999999 999999 12518 19329 12546 18800 11676 17011 10066 18400 19589 12113 14702 11518 16232 11925 14377 13172 17450 14003 13419 10043 16379 15107 18994 12728 14104 12097 14756 14496 19129 17167 12509 13806 16828 14231 14694 13888 19110 19334 11937 16359 999999
999999 999999 999999 999999 999999 999999 999999 999999 999999 999999 999999 999999 999999 999999 999999 999999 999999 999999 0 999999 999999 999999 999999 999999 999999 999999 999999 999999 999999 999999 999999 999999 999999 999999 999999 999999 999999 999999 999999 999999 999999 19921 11440 10746 19954 18587 17857 19871 11113 19210 17721 11459 19877 11118 18644 12674 12073 12613 16412 18735 11692 16035 16547 14770 18363 11655 10209 16680 19198 14079 16384 17027 10576 19063 18903 14817 17959 11799 13778 15617 18723 999999
999999 999999 999999 999999 999999 999999 999999 999999 999999 999999 999999 999999 999999 999999 999999 999999 999999 999999 999999 0 999999 999999 999999 999999 999999 999999 999999 999999 999999 999999 999999 999999 999999 999999 999999 999999 999999 999999 999999 999999 999999 17404 17702 18626 11221 16878 12127 12750 16373 10865 13809 18700 15812 19834 11799 19828 10775 15098 14041 13949 18311 16874 12155 15118 12790 10704 12496 11012 13049 13960 13643 17045 18059 10365 14814 18970 13688 13473 18593 13746 17914 999999
999999 999999 999999 999999 999999 999999 999999 999999 999999 999999 999999 999999 999999 999999 999999 999999 999999 999999 999999 999999 0 999999 999999 999999 999999 999999 999999 999999 999999 999999 999999 999999 999999 999999 999999 999999 999999 999999 999999 999999 999999 11575 11815 17763 14380 19586 18450 14677 15425 19606 12378 16780 12534 13337 14215 17651 18435 10333 19753 12128 11201 14901 12528 12648 10315 11440 11739 14352 11131 17361 10563 10935 14989 15571 13082 10768 19618 12817 13588 15870 12983 999999
999999 999999 999999 999999 999999 999999 999999 999999 999999 999999 999999 999999 999999 999999 999999 999999 999999 999999 999999 999999 999999 0 999999 999999 999999 999999 999999 999999 999999 999999 999999 999999 999999 999999 999999 999999 999999 999999 999999 999999 999999 11746 13070 11253 17213 17656 13138 19300 10768 14898 15692 14215 17530 13167 15267 16166 15431 12050 11079 17571 14430 14303 15709 15979 19018 16982 15064 12023 13938 16209 19920 18701 10330 14039 14255 18622 18866 15108 14631 10656 14924 999999
999999 999999 999999 999999 999999 999999 999999 999999 999999 999999 999999 999999 999999 999999 999999 999999 999999 999999 999999 999999 999999 999999 0 999999 999999 999999 999999 999999 999999 999999 999999 999999 999999 999999 999999 999999 999999 999999 999999 999999 999999 17047 15271 11281 12813 13201 19492 17156 18895 17938 12259 18750 14521 16898 17112 18996 17745 15955 12432 11201 12806 14785 12682 12410 11465 14400 14511 14874 14940 12818 18934 12987 11236 15366 16540 18019 18664 17932 12065 15357 14290 999999
999999 999999 999999 999999 999999 999999 999999 999999 999999 999999 999999 999999 999999 999999 999999 999999 999999 999999 999999 999999 999999 999999 999999 0 999999 999999 999999 999999 999999 999999 999999 999999 999999 999999 999999 999999 999999 999999 999999 999999 999999 18763 14082 17243 14261 17872 15768 19100 12739 13432 14098 14545 16397 12093 15530 13410 10453 18148 12399 14780 13649 11689 13934 19859 13831 19266 11605 11073 15823 18830 14387 13896 14604 12856 19095 18178 14972 16479 18412 12985 15264 999999
999999 999999 999999 999999 999999 999999 999999 999999 999999 999999 999999 999999 999999 999999 999999 999999 999999 999999 999999 999999 999999 999999 999999 999999 0 999999 999999 999999 999999 999999 999999 999999 999999 999999 999999 999999 999999 999999 999999 999999 999999 19963 12960 17748 16269 10111 19305 16733 12809 12122 13500 11940 19579 15899 14351 12263 13667 13941 17027 14192 18550 18215 15804 11401 18442 16338 11323 11407 10652 14906 13983 10290 17030 14777 18436 12413 18904 13270 14786 12386 15893 999999
999999 999999 999999 999999 999999 999999 999999 999999 999999 999999 999999 999999 999999 999999 999999 999999 999999 999999 999999 999999 999999 999999 999999 999999 999999 0 999999 999999 999999 999999 999999 999999 999999 999999 999999 999999 999999 999999 999999 999999 999999 12582 12967 17527 10047 13472 10580 14671 10925 17310 10218 12904 15870 16388 15908 11790 11030 15207 12104 17800 18723 19151 13489 10719 16186 16514 13967 18343 13270 19189 19310 14086 18617 18198 10748 17754 18223 18046 11120 17206 12222 999999
999999 999999 999999 999999 999999 999999 999999 999999 999999 999999 999999 999999 999999 999999 999999 999999 999999 999999 999999 999999 999999 999999 999999 999999 999999 999999 0 999999 999999 999999 999999 999999 999999 999999 999999 999999 999999 999999 999999 999999 999999 19973 13053 18043 18736 17243 14047 19194 17966 19256 14403 11479 19913 18061 13109 16136 13068 16458 10081 18770 17239 14734 14497 10257 10732 11378 16717 18394 12926 18323 17012 14221 13037 14580 16001 15342 16015 13238 15386 11911 15568 999999
999999 999999 999999 999999 999999 999999 999999 999999 999999 999999 999999 999999 999999 999999 999999 999999 999999 999999 999999 999999 999999 999999 999999 999999 999999 999999 999999 0 999999 999999 999999 999999 999999 999999 999999 999999 999999 999999 999999 999999 999999 14205 12451 13390 11334 11056 12382 14557 19506 14414 19241 10259 11515 10800 14620 11369 15213 19743 15759 15728 19631 19692 12686 16337 14051 11529 18251 19030 18490 18930 16765 10727 18491 11353 13345 12261 16438 10646 16111 17787 12568 999999
999999 999999 999999 999999 999999 999999 999999 999999 999999 999999 999999 999999 999999 999999 999999 999999 999999 999999 999999 999999 999999 999999 999999 999999 999999 999999 999999 999999 0 999999 999999 999999 999999 999999 999999 999999 999999 999999 999999 999999 999999 16226 17558 17015 18531 16620 19519 12289 19867 15888 15532 18411 10493 15921 19293 12392 15620 13839 16904 11990 18040 13052 19543 14496 11619 12815 12024 14977 12506 16907 11696 19783 10140 13135 11569 19516 16195 12063 12086 16341 10129 999999
999999 999999 999999 999999 999999 999999 999999 999999 999999 999999 999999 999999 999999 999999 999999 999999 999999 999999 999999 999999 999999 999999 999999 999999 999999 999999 999999 999999 999999 0 999999 999999 999999 999999 999999 999999 999999 999999 999999 999999 999999 12505 11680 13342 13623 10388 18424 19961 11582 11507 10213 15163 13905 19499 18088 19467 15463 15375 16092 18514 13283 17081 14378 19528 12982 13022 13843 17616 11624 13795 10433 15293 16880 19961 11555 18277 15899 15415 16132 14555 15970 999999
999999 999999 999999 999999 999999 999999 999999 999999 999999 999999 999999 999999 999999 999999 999999 999999 999999 999999 999999 999999 999999 999999 999999 999999 999999 999999 999999 999999 999999 999999 0 999999 999999 999999 999999 999999 999999 999999 999999 999999 999999 16115 11120 12834 13923 17075 16711 15532 16580 12710 15359 15796 15006 18562 17523 10935 12029 12899 16983 12726 14118 12390 11771 19810 18053 19808 19408 16114 19756 19568 14740 10754 19210 11743 15316 18777 17678 14689 10892 17633 18376 999999
999999 999999 999999 999999 999999 999999 999999 999999 999999 999999 999999 999999 999999 999999 999999 999999 999999 999999 999999 999999 999999 999999 999999 999999 999999 999999 999999 999999 999999 999999 999999 0 999999 999999 999999 999999 999999 999999 999999 999999 999999 17246 18481 12275 12753 10103 18493 12188 10433 11168 11745 11344 11854 16103 12905 16974 16002 14151 14855 15213 18322 11853 13409 12937 14294 11300 19942 17159 12103 14885 14463 14784 11433 16897 18237 11681 17097 19860 11540 15540 19414 999999
999999 999999 999999 999999 999999 999999 999999 999999 999999 999999 999999 999999 999999 999999 999999 999999 999999 999999 999999 999999 999999 999999 999999 999999 999999 999999 999999 999999 999999 999999 999999 999999 0 999999 999999 999999 999999 999999 999999 999999 999999 13633 18770 11296 12965 10376 15680 17734 10207 10191 11314 18724 11975 17421 10007 12414 13810 13604 18303 13874 13779 19927 13146 18788 15993 15044 19266 10110 15379 11985 10377 11282 12166 15809 12409 10926 13601 12283 14490 19367 19971 999999
999999 999999 999999 999999 999999 999999 999999 999999 999999 999999 999999 999999 999999 999999 999999 999999 999999 999999 999999 999999 999999 999999 999999 999999 999999 999999 999999 999999 999999 999999 999999 999999 999999 0 999999 999999 999999 999999 999999 999999 999999 13151 19583 12690 14124 12239 15281 19614 16294 17065 10052 10958 11788 11340 19241 11314 18723 14572 10569 16676 19693 17361 10361 13014 11576 12824 11091 16542 16719 18733 17834 16664 18101 12445 17475 19176 19875 12079 14004 19542 15578 999999
999999 999999 999999 999999 999999 999999 999999 999999 999999 999999 999999 999999 999999 999999 999999 999999 999999 999999 999999 999999 999999 999999 999999 999999 999999 999999 999999 999999 999999 999999 999999 999999 999999 999999 0 999999 999999 999999 999999 999999 999999 14684 18391 11153 11391 15223 12875 19801 18614 17473 10901 15715 15438 18155 14751 19114 19890 16452 18982 14234 12035 16979 10524 11025 16927 13392 15710 15493 13169 12095 19612 11301 19593 17966 12129 19380 16947 11438 10859 10755 17673 999999
999999 999999 999999 999999 999999 999999 999999 999999 999999 999999 999999 999999 999999 999999 999999 999999 999999 999999 999999 999999 999999 999999 999999 999999 999999 999999 999999 999999 999999 999999 999999 999999 999999 999999 999999 0 999999 999999 999999 999999 999999 10886 17769 12144 16816 12677 11334 12033 12590 17929 13708 10082 11229 12560 17329 17030 15083 11452 11649 10844 11135 17030 14779 17680 13122 15898 10283 11851 15887 10233 16174 15412 17528 18997 10759 16189 16586 14817 19435 12689 18828 999999
999999 999999 999999 999999 999999 999999 999999 999999 999999 999999 999999 999999 999999 999999 999999 999999 999999 999999 999999 999999 999999 999999 999999 999999 999999 999999 999999 999999 999999 999999 999999 999999 999999 999999 999999 999999 0 999999 999999 999999 999999 12505 12511 12983 16484 19088 11344 12018 14955 12105 14982 15392 19767 12530 10494 13386 13117 10089 14654 11469 18469 15843 12066 19944 15027 14944 10673 11517 13454 14807 11721 13744 19635 11602 15429 16718 17687 10045 14999 13515 17460 999999
999999 999999 999999 999999 999999 999999 999999 999999 999999 999999 999999 999999 999999 999999 999999 999999 999999 999999 999999 999999 999999 999999 999999 999999 999999 999999 999999 999999 999999 999999 999999 999999 999999 999999 999999 999999 999999 0 999999 999999 999999 13103 10043 18919 19346 19720 10527 16538 10339 17989 18271 11791 10413 11460 11188 10454 19042 12306 10393 10151 14134 16392 15850 19982 14142 13504 13347 12004 15867 19153 14902 11093 16301 15817 19328 13041 19435 15445 13168 10105 18833 999999
999999 999999 999999 999999 999999 999999 999999 999999 999999 999999 999999 999999 999999 999999 999999 999999 999999 999999 999999 999999 999999 999999 999999 999999 999999 999999 999999 999999 999999 999999 999999 999999 999999 999999 999999 999999 999999 999999 0 999999 999999 19860 17169 14627 16234 13788 17140 16794 13015 13285 19110 10238 12910 10296 18341 10955 10884 14089 12063 12659 13396 15378 15889 18563 11204 13472 19104 10498 10811 15474 15333 11086 10515 17905 18419 16419 18065 11694 18382 17517 16989 999999
999999 999999 999999 999999 999999 999999 999999 999999 999999 999999 999999 999999 999999 999999 999999 999999 999999 999999 999999 999999 999999 999999 999999 999999 999999 999999 999999 999999 999999 999999 999999 999999 999999 999999 999999 999999 999999 999999 999999 0 999999 14484 10652 15128 13800 11979 11939 13105 19135 17196 14456 10977 12545 15333 10371 12665 12950 18880 17898 10673 14008 13716 10772 10718 11275 12197 13175 19783 13685 14152 17469 19998 17697 14450 19904 14258 10789 19180 12276 17312 18098 999999
999999 999999 999999 999999 999999 999999 999999 999999 999999 999999 999999 999999 999999 999999 999999 999999 999999 999999 999999 999999 999999 999999 999999 999999 999999 999999 999999 999999 999999 999999 999999 999999 999999 999999 999999 999999 999999 999999 999999 999999 0 16663 15965 13610 19537 10839 11065 10336 16735 13585 13238 17926 15351 16673 15872 12508 11332 19301 11467 17888 17130 14006 18819 17969 19056 11344 17996 15637 13465 11136 17080 13541 13205 19648 15255 15185 14459 10746 19896 18781 18016 999999
999999 15838 16772 16607 15409 15132 17706 16900 13711 11659 15958 17518 12091 15274 12623 18242 19854 12518 19921 17404 11575 11746 17047 18763 19963 12582 19973 14205 16226 12505 16115 17246 13633 13151 14684 10886 12505 13103 19860 14484 16663 0 999999 999999 999999 999999 999999 999999 999999 999999 999999 999999 999999 999999 999999 999999 999999 999999 999999 999999 999999 999999 999999 999999 999999 999999 999999 999999 999999 999999 999999 999999 999999 999999 999999 999999 999999 999999 999999 999999 999999 12428
999999 10570 14169 15998 15211 17971 10807 18166 15577 12838 10425 16353 13371 17193 19825 10764 15755 19329 11440 17702 11815 13070 15271 14082 12960 12967 13053 12451 17558 11680 11120 18481 18770 19583 18391 17769 12511 10043 17169 10652 15965 999999 0 999999 999999 999999 999999 999999 999999 999999 999999 999999 999999 999999 999999 999999 999999 999999 999999 999999 999999 999999 999999 999999 999999 999999 999999 999999 999999 999999 999999 999999 999999 999999 999999 999999 999999 999999 999999 999999 999999 12569
999999 18688 17018 16887 17273 16366 19778 16308 11385 17959 19386 11715 15975 19532 12709 10250 13618 12546 10746 18626 17763 11253 11281 17243 17748 17527 18043 13390 17015 13342 12834 12275 11296 12690 11153 12144 12983 18919 14627 15128 13610 999999 999999 0 999999 999999 999999 999999 999999 999999 999999 999999 999999 999999 999999 999999 999999 999999 999999 999999 999999 999999 999999 999999 999999 999999 999999 999999 999999 999999 999999 999999 999999 999999 999999 999999 999999 999999 999999 999999 999999 14487
999999 10746 14922 18156 17993 18349 17521 16515 13437 15266 19666 16708 13690 15250 16220 14931 17422 18800 19954 11221 14380 17213 12813 14261 16269 10047 18736 11334 18531 13623 13923 12753 12965 14124 11391 16816 16484 19346 16234 13800 19537 999999 999999 999999 0 999999 999999 999999 999999 999999 999999 999999 999999 999999 999999 999999 999999 999999 999999 999999 999999 999999 999999 999999 999999 999999 999999 999999 999999 999999 999999 999999 999999 999999 999999 999999 999999 999999 999999 999999 999999 5117
999999 18665 12450 13508 12300 12735 12459 16706 12054 11251 15776 15624 12513 10591 14718 10707 12785 11676 18587 16878 19586 17656 13201 17872 10111 13472 17243 11056 16620 10388 17075 10103 10376 12239 15223 12677 19088 19720 13788 11979 10839 999999 999999 999999 999999 0 999999 999999 999999 999999 999999 999999 999999 999999 999999 999999 999999 999999 999999 999999 999999 999999 999999 999999 999999 999999 999999 999999 999999 999999 999999 999999 999999 999999 999999 999999 999999 999999 999999 999999 999999 8710
999999 14391 12438 12158 14333 19192 17864 14773 14934 13332 16177 10188 15634 10866 17527 17076 17142 17011 17857 12127 18450 13138 19492 15768 19305 10580 14047 12382 19519 18424 16711 18493 15680 15281 12875 11334 11344 10527 17140 11939 11065 999999 999999 999999 999999 999999 0 999999 999999 999999 999999 999999 999999 999999 999999 999999 999999 999999 999999 999999 999999 999999 999999 999999 999999 999999 999999 999999 999999 999999 999999 999999 999999 999999 999999 999999 999999 999999 999999 999999 999999 13049
999999 17007 11537 17537 12376 11553 17950 16210 14171 12184 18295 15894 16161 18392 14924 16859 11720 10066 19871 12750 14677 19300 17156 19100 16733 14671 19194 14557 12289 19961 15532 12188 17734 19614 19801 12033 12018 16538 16794 13105 10336 999999 999999 999999 999999 999999 999999 0 999999 999999 999999 999999 999999 999999 999999 999999 999999 999999 999999 999999 999999 999999 999999 999999 999999 999999 999999 999999 999999 999999 999999 999999 999999 999999 999999 999999 999999 999999 999999 999999 999999 14416
999999 13809 16202 18738 11692 18954 18870 18782 12492 16911 13302 11674 14918 17902 16218 19685 12516 18400 11113 16373 15425 10768 18895 12739 12809 10925 17966 19506 19867 11582 16580 10433 10207 16294 18614 12590 14955 10339 13015 19135 16735 999999 999999 999999 999999 999999 999999 999999 0 999999 999999 999999 999999 999999 999999 999999 999999 999999 999999 999999 999999 999999 999999 999999 999999 999999 999999 999999 999999 999999 999999 999999 999999 999999 999999 999999 999999 999999 999999 999999 999999 11596
999999 11079 10093 13284 12056 16172 11695 12796 13282 19785 18193 16827 17602 11083 14216 13983 10042 19589 19210 10865 19606 14898 17938 13432 12122 17310 19256 14414 15888 11507 12710 11168 10191 17065 17473 17929 12105 17989 13285 17196 13585 999999 999999 999999 999999 999999 999999 999999 999999 0 999999 999999 999999 999999 999999 999999 999999 999999 999999 999999 999999 999999 999999 999999 999999 999999 999999 999999 999999 999999 999999 999999 999999 999999 999999 999999 999999 999999 999999 999999 999999 12457
999999 12894 17496 16218 17667 17926 12384 16344 19885 15931 14744 14071 17792 19041 13921 15374 16868 12113 17721 13809 12378 15692 12259 14098 13500 10218 14403 19241 15532 10213 15359 11745 11314 10052 10901 13708 14982 18271 19110 14456 13238 999999 999999 999999 999999 999999 999999 999999 999999 999999 0 999999 999999 999999 999999 999999 999999 999999 999999 999999 999999 999999 999999 999999 999999 999999 999999 999999 999999 999999 999999 999999 999999 999999 999999 999999 999999 999999 999999 999999 999999 9644
999999 16559 19766 14793 19570 13794 12799 11147 14467 12959 12965 16791 19567 11454 10773 18124 12683 14702 11459 18700 16780 14215 18750 14545 11940 12904 11479 10259 18411 15163 15796 11344 18724 10958 15715 10082 15392 11791 10238 10977 17926 999999 999999 999999 999999 999999 999999 999999 999999 999999 999999 0 999999 999999 999999 999999 999999 999999 999999 999999 999999 999999 999999 999999 999999 999999 999999 999999 999999 999999 999999 999999 999999 999999 999999 999999 999999 999999 999999 999999 999999 9305
999999 11032 13111 14346 15079 10272 19142 14716 15907 12686 18417 11495 16684 17326 11001 17372 12623 11518 19877 15812 12534 17530 14521 16397 19579 15870 19913 11515 10493 13905 15006 11854 11975 11788 15438 11229 19767 10413 12910 12545 15351 999999 999999 999999 999999 999999 999999 999999 999999 999999 999999 999999 0 999999 999999 999999 999999 999999 999999 999999 999999 999999 999999 999999 999999 999999 999999 999999 999999 999999 999999 999999 999999 999999 999999 999999 999999 999999 999999 999999 999999 11654
999999 19441 19432 14076 13012 14001 15868 13196 13588 17880 15928 10587 15117 11457 18939 17570 14641 16232 11118 19834 13337 13167 16898 12093 15899 16388 18061 10800 15921 19499 18562 16103 17421 11340 18155 12560 12530 11460 10296 15333 16673 999999 999999 999999 999999 999999 999999 999999 999999 999999 999999 999999 999999 0 999999 999999 999999 999999 999999 999999 999999 999999 999999 999999 999999 999999 999999 999999 999999 999999 999999 999999 999999 999999 999999 999999 999999 999999 999999 999999 999999 7911
999999 11384 18173 16520 15019 15282 10183 13938 11044 13777 12436 13370 10262 12009 17974 19390 17028 11925 18644 11799 14215 15267 17112 15530 14351 15908 13109 14620 19293 18088 17523 12905 10007 19241 14751 17329 10494 11188 18341 10371 15872 999999 999999 999999 999999 999999 999999 999999 999999 999999 999999 999999 999999 999999 0 999999 999999 999999 999999 999999 999999 999999 999999 999999 999999 999999 999999 999999 999999 999999 999999 999999 999999 999999 999999 999999 999999 999999 999999 999999 999999 12983
999999 12308 10689 16761 15720 16921 11225 10607 10973 16677 16685 14396 12146 12686 19908 19258 17974 14377 12674 19828 17651 16166 18996 13410 12263 11790 16136 11369 12392 19467 10935 16974 12414 11314 19114 17030 13386 10454 10955 12665 12508 999999 999999 999999 999999 999999 999999 999999 999999 999999 999999 999999 999999 999999 999999 0 999999 999999 999999 999999 999999 999999 999999 999999 999999 999999 999999 999999 999999 999999 999999 999999 999999 999999 999999 999999 999999 999999 999999 999999 999999 6004
999999 10726 17046 17341 17408 18262 12609 13649 16484 18275 16255 19992 14185 15187 17471 15914 19221 13172 12073 10775 18435 15431 17745 10453 13667 11030 13068 15213 15620 15463 12029 16002 13810 18723 19890 15083 13117 19042 10884 12950 11332 999999 999999 999999 999999 999999 999999 999999 999999 999999 999999 999999 999999 999999 999999 999999 0 999999 999999 999999 999999 999999 999999 999999 999999 999999 999999 999999 999999 999999 999999 999999 999999 999999 999999 999999 999999 999999 999999 999999 999999 10592
999999 13429 13434 17966 17021 17169 19729 15436 15422 11588 10761 19229 14829 13955 18179 18151 14074 17450 12613 15098 10333 12050 15955 18148 13941 15207 16458 19743 13839 15375 12899 14151 13604 14572 16452 11452 10089 12306 14089 18880 19301 999999 999999 999999 999999 999999 999999 999999 999999 999999 999999 999999 999999 999999 999999 999999 999999 0 999999 999999 999999 999999 999999 999999 999999 999999 999999 999999 999999 999999 999999 999999 999999 999999 999999 999999 999999 999999 999999 999999 999999 13979
999999 17263 17983 19141 11171 12397 13369 15348 14601 15319 13927 16782 10949 11020 14816 17059 14711 14003 16412 14041 19753 11079 12432 12399 17027 12104 10081 15759 16904 16092 16983 14855 18303 10569 18982 11649 14654 10393 12063 17898 11467 999999 999999 999999 999999 999999 999999 999999 999999 999999 999999 999999 999999 999999 999999 999999 999999 999999 0 999999 999999 999999 999999 999999 999999 999999 999999 999999 999999 999999 999999 999999 999999 999999 999999 999999 999999 999999 999999 999999 999999 5777
999999 13375 10960 13585 19187 19451 11188 15932 13807 19881 10559 17223 11427 13501 17528 14265 14507 13419 18735 13949 12128 17571 11201 14780 14192 17800 18770 15728 11990 18514 12726 15213 13874 16676 14234 10844 11469 10151 12659 10673 17888 999999 999999 999999 999999 999999 999999 999999 999999 999999 999999 999999 999999 999999 999999 999999 999999 999999 999999 0 999999 999999 999999 999999 999999 999999 999999 999999 999999 999999 999999 999999 999999 999999 999999 999999 999999 999999 999999 999999 999999 10066
999999 14583 12517 15426 15810 19961 16558 10611 10819 18733 11460 10615 17958 13100 17564 18722 13195 10043 11692 18311 11201 14430 12806 13649 18550 18723 17239 19631 18040 13283 14118 18322 13779 19693 12035 11135 18469 14134 13396 14008 17130 999999 999999 999999 999999 999999 999999 999999 999999 999999 999999 999999 999999 999999 999999 999999 999999 999999 999999 999999 0 999999 999999 999999 999999 999999 999999 999999 999999 999999 999999 999999 999999 999999 999999 999999 999999 999999 999999 999999 999999 9098
999999 12526 11976 15152 17986 17926 19428 14900 14337 10705 10738 10558 11537 10790 15373 15392 19224 16379 16035 16874 14901 14303 14785 11689 18215 19151 14734 19692 13052 17081 12390 11853 19927 17361 16979 17030 15843 16392 15378 13716 14006 999999 999999 999999 999999 999999 999999 999999 999999 999999 999999 999999 999999 999999 999999 999999 999999 999999 999999 999999 999999 0 999999 999999 999999 999999 999999 999999 999999 999999 999999 999999 999999 999999 999999 999999 999999 999999 999999 999999 999999 5279
999999 15497 10648 12642 10493 18892 16962 18427 12590 18346 11138 15159 18888 15921 19574 12570 14606 15107 16547 12155 12528 15709 12682 13934 15804 13489 14497 12686 19543 14378 11771 13409 13146 10361 10524 14779 12066 15850 15889 10772 18819 999999 999999 999999 999999 999999 999999 999999 999999 999999 999999 999999 999999 999999 999999 999999 999999 999999 999999 999999 999999 999999 0 999999 999999 999999 999999 999999 999999 999999 999999 999999 999999 999999 999999 999999 999999 999999 999999 999999 999999 9143
999999 15188 17318 19967 11187 15562 12358 10618 10610 13762 17574 16871 12240 11685 10289 19908 14294 18994 14770 15118 12648 15979 12410 19859 11401 10719 10257 16337 14496 19528 19810 12937 18788 13014 11025 17680 19944 19982 18563 10718 17969 999999 999999 999999 999999 999999 999999 999999 999999 999999 999999 999999 999999 999999 999999 999999 999999 999999 999999 999999 999999 999999 999999 0 999999 999999 999999 999999 999999 999999 999999 999999 999999 999999 999999 999999 999999 999999 999999 999999 999999 8589
999999 15293 11887 10531 14215 17233 19734 19558 18087 10312 18840 17884 18206 10285 14063 18431 18553 12728 18363 12790 10315 19018 11465 13831 18442 16186 10732 14051 11619 12982 18053 14294 15993 11576 16927 13122 15027 14142 11204 11275 19056 999999 999999 999999 999999 999999 999999 999999 999999 999999 999999 999999 999999 999999 999999 999999 999999 999999 999999 999999 999999 999999 999999 999999 0 999999 999999 999999 999999 999999 999999 999999 999999 999999 999999 999999 999999 999999 999999 999999 999999 7658
999999 17579 16856 17962 17970 11725 10583 12449 12774 16075 15309 11125 17829 12672 19706 18972 19235 14104 11655 10704 11440 16982 14400 19266 16338 16514 11378 11529 12815 13022 19808 11300 15044 12824 13392 15898 14944 13504 13472 12197 11344 999999 999999 999999 999999 999999 999999 999999 999999 999999 999999 999999 999999 999999 999999 999999 999999 999999 999999 999999 999999 999999 999999 999999 999999 0 999999 999999 999999 999999 999999 999999 999999 999999 999999 999999 999999 999999 999999 999999 999999 6321
999999 15264 15481 19851 16953 13187 19711 19681 11459 18904 13563 12775 12920 19617 13459 17351 17995 12097 10209 12496 11739 15064 14511 11605 11323 13967 16717 18251 12024 13843 19408 19942 19266 11091 15710 10283 10673 13347 19104 13175 17996 999999 999999 999999 999999 999999 999999 999999 999999 999999 999999 999999 999999 999999 999999 999999 999999 999999 999999 999999 999999 999999 999999 999999 999999 999999 0 999999 999999 999999 999999 999999 999999 999999 999999 999999 999999 999999 999999 999999 999999 11514
999999 16975 10344 14085 10498 10645 13106 14845 12080 19843 14069 19575 11630 18138 16828 10283 16041 14756 16680 11012 14352 12023 14874 11073 11407 18343 18394 19030 14977 17616 16114 17159 10110 16542 15493 11851 11517 12004 10498 19783 15637 999999 999999 999999 999999 999999 999999 999999 999999 999999 999999 999999 999999 999999 999999 999999 999999 999999 999999 999999 999999 999999 999999 999999 999999 999999 999999 0 999999 999999 999999 999999 999999 999999 999999 999999 999999 999999 999999 999999 999999 14942
999999 17857 15937 10625 19929 14836 11334 15484 11444 12079 12505 12869 13920 10506 17979 14313 11705 14496 19198 13049 11131 13938 14940 15823 10652 13270 12926 18490 12506 11624 19756 12103 15379 16719 13169 15887 13454 15867 10811 13685 13465 999999 999999 999999 999999 999999 999999 999999 999999 999999 999999 999999 999999 999999 999999 999999 999999 999999 999999 999999 999999 999999 999999 999999 999999 999999 999999 999999 0 999999 999999 999999 999999 999999 999999 999999 999999 999999 999999 999999 999999 9653
999999 10569 16965 18909 10766 15665 19940 16955 12860 10431 15381 12943 16304 13756 17348 10036 15181 19129 14079 13960 17361 16209 12818 18830 14906 19189 18323 18930 16907 13795 19568 14885 11985 18733 12095 10233 14807 19153 15474 14152 11136 999999 999999 999999 999999 999999 999999 999999 999999 999999 999999 999999 999999 999999 999999 999999 999999 999999 999999 999999 999999 999999 999999 999999 999999 999999 999999 999999 999999 0 999999 999999 999999 999999 999999 999999 999999 999999 999999 999999 999999 8890
999999 17127 12447 11522 14759 14791 14073 17190 17383 11463 18713 10747 16841 17600 18327 13525 14749 17167 16384 13643 10563 19920 18934 14387 13983 19310 17012 16765 11696 10433 14740 14463 10377 17834 19612 16174 11721 14902 15333 17469 17080 999999 999999 999999 999999 999999 999999 999999 999999 999999 999999 999999 999999 999999 999999 999999 999999 999999 999999 999999 999999 999999 999999 999999 999999 999999 999999 999999 999999 999999 0 999999 999999 999999 999999 999999 999999 999999 999999 999999 999999 7293
999999 12866 11402 11229 14107 12872 10230 11378 15853 14321 12250 17103 11420 16698 19312 10172 18454 12509 17027 17045 10935 18701 12987 13896 10290 14086 14221 10727 19783 15293 10754 14784 11282 16664 11301 15412 13744 11093 11086 19998 13541 999999 999999 999999 999999 999999 999999 999999 999999 999999 999999 999999 999999 999999 999999 999999 999999 999999 999999 999999 999999 999999 999999 999999 999999 999999 999999 999999 999999 999999 999999 0 999999 999999 999999 999999 999999 999999 999999 999999 999999 12302
999999 19947 11328 19258 19042 19101 10746 18673 14189 10911 18964 11754 19456 13206 11996 16403 18579 13806 10576 18059 14989 10330 11236 14604 17030 18617 13037 18491 10140 16880 19210 11433 12166 18101 19593 17528 19635 16301 10515 17697 13205 999999 999999 999999 999999 999999 999999 999999 999999 999999 999999 999999 999999 999999 999999 999999 999999 999999 999999 999999 999999 999999 999999 999999 999999 999999 999999 999999 999999 999999 999999 999999 0 999999 999999 999999 999999 999999 999999 999999 999999 11404
999999 11138 13205 11086 10877 19826 16857 16730 17773 19946 16392 16216 13303 17808 15481 10140 19572 16828 19063 10365 15571 14039 15366 12856 14777 18198 14580 11353 13135 19961 11743 16897 15809 12445 17966 18997 11602 15817 17905 14450 19648 999999 999999 999999 999999 999999 999999 999999 999999 999999 999999 999999 999999 999999 999999 999999 999999 999999 999999 999999 999999 999999 999999 999999 999999 999999 999999 999999 999999 999999 999999 999999 999999 0 999999 999999 999999 999999 999999 999999 999999 11384
999999 11858 17329 16134 14122 12665 11574 14427 14158 13042 13256 19575 16709 10834 15516 15402 18396 14231 18903 14814 13082 14255 16540 19095 18436 10748 16001 13345 11569 11555 15316 18237 12409 17475 12129 10759 15429 19328 18419 19904 15255 999999 999999 999999 999999 999999 999999 999999 999999 999999 999999 999999 999999 999999 999999 999999 999999 999999 999999 999999 999999 999999 999999 999999 999999 999999 999999 999999 999999 999999 999999 999999 999999 999999 0 999999 999999 999999 999999 999999 999999 13740
999999 13276 15107 17750 12549 13744 11083 10951 17440 14190 12354 19541 13313 14617 11566 18697 17962 14694 14817 18970 10768 18622 18019 18178 12413 17754 15342 12261 19516 18277 18777 11681 10926 19176 19380 16189 16718 13041 16419 14258 15185 999999 999999 999999 999999 999999 999999 999999 999999 999999 999999 999999 999999 999999 999999 999999 999999 999999 999999 999999 999999 999999 999999 999999 999999 999999 999999 999999 999999 999999 999999 999999 999999 999999 999999 0 999999 999999 999999 999999 999999 8217
999999 18668 19965 12464 19538 11209 15283 18961 17946 15050 10561 10957 18174 12701 10763 17223 15382 13888 17959 13688 19618 18866 18664 14972 18904 18223 16015 16438 16195 15899 17678 17097 13601 19875 16947 16586 17687 19435 18065 10789 14459 999999 999999 999999 999999 999999 999999 999999 999999 999999 999999 999999 999999 999999 999999 999999 999999 999999 999999 999999 999999 999999 999999 999999 999999 999999 999999 999999 999999 999999 999999 999999 999999 999999 999999 999999 0 999999 999999 999999 999999 8198
999999 16856 10490 19330 11892 10991 11581 13862 13182 13754 12572 12911 17352 11466 19660 10626 11789 19110 11799 13473 12817 15108 17932 16479 13270 18046 13238 10646 12063 15415 14689 19860 12283 12079 11438 14817 10045 15445 11694 19180 10746 999999 999999 999999 999999 999999 999999 999999 999999 999999 999999 999999 999999 999999 999999 999999 999999 999999 999999 999999 999999 999999 999999 999999 999999 999999 999999 999999 999999 999999 999999 999999 999999 999999 999999 999999 999999 0 999999 999999 999999 9812
999999 11366 16745 14504 13289 15692 18784 18944 10079 17539 15613 13333 15384 16337 13362 19062 19636 19334 13778 18593 13588 14631 12065 18412 14786 11120 15386 16111 12086 16132 10892 11540 14490 14004 10859 19435 14999 13168 18382 12276 19896 999999 999999 999999 999999 999999 999999 999999 999999 999999 999999 999999 999999 999999 999999 999999 999999 999999 999999 999999 999999 999999 999999 999999 999999 999999 999999 999999 999999 999999 999999 999999 999999 999999 999999 999999 999999 999999 0 999999 999999 11360
999999 14080 16181 12307 15797 13875 19352 10346 14014 13465 17312 12349 16127 16341 14592 14711 15427 11937 15617 13746 15870 10656 15357 12985 12386 17206 11911 17787 16341 14555 17633 15540 19367 19542 10755 12689 13515 10105 17517 17312 18781 999999 999999 999999 999999 999999 999999 999999 999999 999999 999999 999999 999999 999999 999999 999999 999999 999999 999999 999999 999999 999999 999999 999999 999999 999999 999999 999999 999999 999999 999999 999999 999999 999999 999999 999999 999999 999999 999999 0 999999 11269
999999 15581 14972 18389 19912 14562 10295 14531 14827 19538 18896 12125 14509 17169 19135 12954 14107 16359 18723 17914 12983 14924 14290 15264 15893 12222 15568 12568 10129 15970 18376 19414 19971 15578 17673 18828 17460 18833 16989 18098 18016 999999 999999 999999 999999 999999 999999 999999 999999 999999 999999 999999 999999 999999 999999 999999 999999 999999 999999 999999 999999 999999 999999 999999 999999 999999 999999 999999 999999 999999 999999 999999 999999 999999 999999 999999 999999 999999 999999 999999 0 8751
1 999999 999999 999999 999999 999999 999999 999999 999999 999999 999999 999999 999999 999999 999999 999999 999999 999999 999999 999999 999999 999999 999999 999999 999999 999999 999999 999999 999999 999999 999999 999999 999999 999999 999999 999999 999999 999999 999999 999999 999999 999999 999999 999999 999999 999999 999999 999999 999999 999999 999999 999999 999999 999999 999999 999999 999999 999999 999999 999999 999999 999999 999999 999999 999999 999999 999999 999999 999999 999999 999999 999999 999999 999999 999999 999999 999999 999999 999999 999999 999999 0
EOF