NAME: GR_1x5x6_KH_5x6_Run_5
TYPE: TSP
COMMENT: BTSP instance |A|=30 GR nodes |B|=30 KH nodes depot=0.0 end=0.0.0
DIMENSION: 62
EDGE_WEIGHT_TYPE: EXPLICIT
EDGE_WEIGHT_FORMAT: FULL_MATRIX
NODE_COORD_TYPE: NO_COORDS
EDGE_WEIGHT_SECTION
0 6760 13772 7997 5336 14552 5270 5559 12143 13598 7661 5280 6040 11826 5378 7493 8539 13391 11200 14633 8695 7967 13577 5986 11862 9029 12001 7846 13589 12794 5453 999999 999999 999999 999999 999999 999999 999999 999999 999999 999999 999999 999999 999999 999999 999999 999999 999999 999999 999999 999999 999999 999999 999999 999999 999999 999999 999999 999999 999999 999999 999999
999999 0 999999 999999 999999 999999 999999 999999 999999 999999 999999 999999 999999 999999 999999 999999 999999 999999 999999 999999 999999 999999 999999 999999 999999 999999 999999 999999 999999 999999 999999 16341 17523 18031 11481 18177 14992 15382 19189 18390 17287 11436 11727 11618 12762 15497 11779 17126 11511 12123 12366 17163 15295 12989 11143 13311 11495 11007 14461 10866 13098 999999
999999 999999 0 999999 999999 999999 999999 999999 999999 999999 999999 999999 999999 999999 999999 999999 999999 999999 999999 999999 999999 999999 999999 999999 999999 999999 999999 999999 999999 999999 999999 11335 13659 10040 11532 11855 11009 19947 11017 14704 19864 12200 11403 18525 18275 19976 14331 18244 11275 15104 17961 19310 18212 18524 16518 14008 10352 17314 11783 12896 13297 999999
999999 999999 999999 0 999999 999999 999999 999999 999999 999999 999999 999999 999999 999999 999999 999999 999999 999999 999999 999999 999999 999999 999999 999999 999999 999999 999999 999999 999999 999999 999999 15180 12313 15330 18490 14134 15380 15353 10714 13480 13232 19199 13630 12505 16365 15310 15240 15582 13753 10473 10901 14957 10626 10614 14200 10977 12329 10840 11177 17061 14044 999999
999999 999999 999999 999999 0 999999 999999 999999 999999 999999 999999 999999 999999 999999 999999 999999 999999 999999 999999 999999 999999 999999 999999 999999 999999 999999 999999 999999 999999 999999 999999 16621 12950 10450 16874 16903 16443 19927 12191 10317 18750 10010 18209 15173 19270 18302 14693 18926 14889 10515 11089 12718 11657 17300 11365 11401 18582 17178 13475 13111 17021 999999
999999 999999 999999 999999 999999 0 999999 999999 999999 999999 999999 999999 999999 999999 999999 999999 999999 999999 999999 999999 999999 999999 999999 999999 999999 999999 999999 999999 999999 999999 999999 14249 13462 13425 19777 17594 10492 17616 17347 15711 19241 19344 10244 10263 11443 14968 17781 10878 14648 18872 14777 15946 15027 15025 11726 15622 11812 10730 17245 18551 14633 999999
999999 999999 999999 999999 999999 999999 0 999999 999999 999999 999999 999999 999999 999999 999999 999999 999999 999999 999999 999999 999999 999999 999999 999999 999999 999999 999999 999999 999999 999999 999999 10950 10876 15925 15258 14727 10494 13794 17862 17879 11126 13657 11893 14189 17001 18455 14566 19972 17086 15136 18203 14655 14181 19413 19034 12254 14386 17100 14059 14273 15130 999999
999999 999999 999999 999999 999999 999999 999999 0 999999 999999 999999 999999 999999 999999 999999 999999 999999 999999 999999 999999 999999 999999 999999 999999 999999 999999 999999 999999 999999 999999 999999 12115 16125 16768 10934 11464 16611 10053 10082 10742 14622 11821 18227 17387 19431 15864 11230 17756 16299 11340 10399 13795 11050 19851 11337 18670 18227 11585 13706 15775 13158 999999
999999 999999 999999 999999 999999 999999 999999 999999 0 999999 999999 999999 999999 999999 999999 999999 999999 999999 999999 999999 999999 999999 999999 999999 999999 999999 999999 999999 999999 999999 999999 12498 11784 16805 19345 15136 14252 19716 19491 16706 10103 18709 17801 15179 16099 18781 11458 18212 13027 14645 10921 15288 10315 17974 10481 14392 19676 14198 10611 10706 19762 999999
999999 999999 999999 999999 999999 999999 999999 999999 999999 0 999999 999999 999999 999999 999999 999999 999999 999999 999999 999999 999999 999999 999999 999999 999999 999999 999999 999999 999999 999999 999999 10000 17592 19623 14149 19314 17316 12813 12570 14515 18450 10482 15384 12902 12443 14807 17791 14135 15540 14098 10566 13857 14191 10556 19635 10672 19641 10450 14347 10633 18553 999999
999999 999999 999999 999999 999999 999999 999999 999999 999999 999999 0 999999 999999 999999 999999 999999 999999 999999 999999 999999 999999 999999 999999 999999 999999 999999 999999 999999 999999 999999 999999 12141 13238 19887 16690 16328 13138 10437 13795 11423 16572 15161 12667 12380 19546 18092 11230 12040 18525 17193 16309 13595 19546 10303 14802 10592 17132 12196 19706 11028 15841 999999
999999 999999 999999 999999 999999 999999 999999 999999 999999 999999 999999 0 999999 999999 999999 999999 999999 999999 999999 999999 999999 999999 999999 999999 999999 999999 999999 999999 999999 999999 999999 15619 11849 16162 19466 18293 12569 10170 17448 10554 16963 15801 15767 10093 17418 14492 18440 17077 15382 17593 15687 11654 14709 15657 11909 11572 13245 17104 18641 14238 11754 999999
999999 999999 999999 999999 999999 999999 999999 999999 999999 999999 999999 999999 0 999999 999999 999999 999999 999999 999999 999999 999999 999999 999999 999999 999999 999999 999999 999999 999999 999999 999999 19436 13447 10940 18088 12395 17650 17438 11042 11208 16162 17118 14077 11722 10117 19070 16847 19429 17665 18379 15214 17749 12032 16341 11505 13744 10081 15309 14730 13655 16210 999999
999999 999999 999999 999999 999999 999999 999999 999999 999999 999999 999999 999999 999999 0 999999 999999 999999 999999 999999 999999 999999 999999 999999 999999 999999 999999 999999 999999 999999 999999 999999 11210 18185 12823 15492 12048 13393 10056 12141 15162 18299 15864 19750 14604 19869 13901 17490 11615 18170 19956 19637 17667 16586 10696 16943 14117 13742 16495 11598 12479 10570 999999
999999 999999 999999 999999 999999 999999 999999 999999 999999 999999 999999 999999 999999 999999 0 999999 999999 999999 999999 999999 999999 999999 999999 999999 999999 999999 999999 999999 999999 999999 999999 10872 15984 19386 13550 15167 15924 19221 13064 14721 12179 19850 11630 17280 15025 12963 11116 13588 14311 11908 16774 16697 11059 18006 14671 18617 19581 12532 15135 10933 17721 999999
999999 999999 999999 999999 999999 999999 999999 999999 999999 999999 999999 999999 999999 999999 999999 0 999999 999999 999999 999999 999999 999999 999999 999999 999999 999999 999999 999999 999999 999999 999999 10930 10867 17077 11580 11393 16073 11797 18201 16242 17323 15975 19806 12284 10837 19903 11202 17025 19712 18938 16948 15913 19636 11998 19762 18035 17742 10963 13019 13573 14226 999999
999999 999999 999999 999999 999999 999999 999999 999999 999999 999999 999999 999999 999999 999999 999999 999999 0 999999 999999 999999 999999 999999 999999 999999 999999 999999 999999 999999 999999 999999 999999 13496 19466 12995 11693 12296 16022 15021 19351 10837 15944 12015 16436 16213 17308 16174 15285 11294 18834 11344 17649 19483 15845 10002 18385 14503 10994 14503 10917 10807 11894 999999
999999 999999 999999 999999 999999 999999 999999 999999 999999 999999 999999 999999 999999 999999 999999 999999 999999 0 999999 999999 999999 999999 999999 999999 999999 999999 999999 999999 999999 999999 999999 16195 17436 18901 19548 14896 16564 17865 17553 15021 11928 17364 17722 11383 10988 18325 17886 18107 14659 17517 12488 18819 10743 13936 10049 16504 19732 18354 12796 12538 17570 999999
999999 999999 999999 999999 999999 999999 999999 999999 999999 999999 999999 999999 999999 999999 999999 999999 999999 999999 0 999999 999999 999999 999999 999999 999999 999999 999999 999999 999999 999999 999999 16395 11193 14393 10655 19111 14427 19717 12274 15624 19565 15255 17811 17028 18741 10171 12436 18722 12253 13200 10293 17927 17098 15646 10433 11167 12050 17606 18382 11673 13813 999999
999999 999999 999999 999999 999999 999999 999999 999999 999999 999999 999999 999999 999999 999999 999999 999999 999999 999999 999999 0 999999 999999 999999 999999 999999 999999 999999 999999 999999 999999 999999 15757 14513 11410 11651 14963 19847 13556 13386 19164 10950 11185 12112 10014 18300 12086 17638 17316 17695 10501 11207 14637 17595 12431 10367 17440 13119 19147 12014 19531 18033 999999
999999 999999 999999 999999 999999 999999 999999 999999 999999 999999 999999 999999 999999 999999 999999 999999 999999 999999 999999 999999 0 999999 999999 999999 999999 999999 999999 999999 999999 999999 999999 13155 15841 15503 18207 13170 17044 16894 13866 17918 17170 13289 17931 13828 14915 12665 14200 12343 19064 10290 16598 12182 14151 13487 17816 18944 15273 13657 13040 16476 16884 999999
999999 999999 999999 999999 999999 999999 999999 999999 999999 999999 999999 999999 999999 999999 999999 999999 999999 999999 999999 999999 999999 0 999999 999999 999999 999999 999999 999999 999999 999999 999999 13979 10524 19622 10011 11807 11617 11193 19305 16297 19226 14965 12726 15469 19127 13098 17464 17197 19892 14803 18691 11798 13669 10833 13404 18932 18084 17647 12823 11949 15122 999999
999999 999999 999999 999999 999999 999999 999999 999999 999999 999999 999999 999999 999999 999999 999999 999999 999999 999999 999999 999999 999999 999999 0 999999 999999 999999 999999 999999 999999 999999 999999 12847 16107 11472 10890 12805 18495 17467 15174 15538 14637 12344 15905 15932 12536 16090 14693 12772 12007 15791 16959 19648 18724 17749 11651 17803 13406 12984 12209 10570 16949 999999
999999 999999 999999 999999 999999 999999 999999 999999 999999 999999 999999 999999 999999 999999 999999 999999 999999 999999 999999 999999 999999 999999 999999 0 999999 999999 999999 999999 999999 999999 999999 15526 12989 19419 16992 18106 19421 19111 14648 19117 14613 15863 16437 11999 14331 14358 15397 19931 13770 19781 16048 13539 19723 15982 18149 14637 19132 19865 15090 16121 13014 999999
999999 999999 999999 999999 999999 999999 999999 999999 999999 999999 999999 999999 999999 999999 999999 999999 999999 999999 999999 999999 999999 999999 999999 999999 0 999999 999999 999999 999999 999999 999999 19629 13480 18139 16831 19936 17529 16291 12681 12919 12948 19703 14435 14378 12943 16318 16184 18210 17687 18699 11320 15314 18203 17964 18163 17952 12172 15637 15958 15482 14837 999999
999999 999999 999999 999999 999999 999999 999999 999999 999999 999999 999999 999999 999999 999999 999999 999999 999999 999999 999999 999999 999999 999999 999999 999999 999999 0 999999 999999 999999 999999 999999 18194 10313 17218 12242 18500 10078 19049 14930 18309 10991 12741 18256 19578 16743 17156 10258 13992 15950 19949 13731 19750 14557 10875 19237 10269 16699 11135 10827 14031 17764 999999
999999 999999 999999 999999 999999 999999 999999 999999 999999 999999 999999 999999 999999 999999 999999 999999 999999 999999 999999 999999 999999 999999 999999 999999 999999 999999 0 999999 999999 999999 999999 17994 14319 11244 16279 19101 15222 14780 15743 16702 15327 13400 17518 19512 18567 17034 10582 18932 12170 12549 10418 15389 11180 15945 17064 14134 19037 12896 17251 11024 19043 999999
999999 999999 999999 999999 999999 999999 999999 999999 999999 999999 999999 999999 999999 999999 999999 999999 999999 999999 999999 999999 999999 999999 999999 999999 999999 999999 999999 0 999999 999999 999999 19555 10028 17716 13552 10561 14548 11258 13192 19278 15129 17034 12915 14504 10200 11854 14961 11571 10933 18023 10279 17012 18304 13300 17679 17158 11401 17180 10283 14341 19310 999999
999999 999999 999999 999999 999999 999999 999999 999999 999999 999999 999999 999999 999999 999999 999999 999999 999999 999999 999999 999999 999999 999999 999999 999999 999999 999999 999999 999999 0 999999 999999 13320 16218 18307 11282 18147 16082 18453 12636 19683 18867 14811 11212 19516 13377 12596 18696 15098 15073 11894 10770 13332 17986 15328 16822 17468 14042 15319 13955 13505 15216 999999
999999 999999 999999 999999 999999 999999 999999 999999 999999 999999 999999 999999 999999 999999 999999 999999 999999 999999 999999 999999 999999 999999 999999 999999 999999 999999 999999 999999 999999 0 999999 10912 13490 13421 16533 16987 14048 13573 11771 11845 10410 13063 18442 16647 16146 11316 15643 19334 18593 17896 15855 17834 16614 12446 16560 15755 11572 12512 12850 15514 11124 999999
999999 999999 999999 999999 999999 999999 999999 999999 999999 999999 999999 999999 999999 999999 999999 999999 999999 999999 999999 999999 999999 999999 999999 999999 999999 999999 999999 999999 999999 999999 0 10420 16586 10354 12147 11483 13748 14027 12846 18122 15711 12354 10414 17783 11325 12439 17174 18293 10051 17106 19633 18700 10356 14287 17753 11502 19820 17253 10846 13977 19612 999999
999999 16341 11335 15180 16621 14249 10950 12115 12498 10000 12141 15619 19436 11210 10872 10930 13496 16195 16395 15757 13155 13979 12847 15526 19629 18194 17994 19555 13320 10912 10420 0 999999 999999 999999 999999 999999 999999 999999 999999 999999 999999 999999 999999 999999 999999 999999 999999 999999 999999 999999 999999 999999 999999 999999 999999 999999 999999 999999 999999 999999 6877
999999 17523 13659 12313 12950 13462 10876 16125 11784 17592 13238 11849 13447 18185 15984 10867 19466 17436 11193 14513 15841 10524 16107 12989 13480 10313 14319 10028 16218 13490 16586 999999 0 999999 999999 999999 999999 999999 999999 999999 999999 999999 999999 999999 999999 999999 999999 999999 999999 999999 999999 999999 999999 999999 999999 999999 999999 999999 999999 999999 999999 7610
999999 18031 10040 15330 10450 13425 15925 16768 16805 19623 19887 16162 10940 12823 19386 17077 12995 18901 14393 11410 15503 19622 11472 19419 18139 17218 11244 17716 18307 13421 10354 999999 999999 0 999999 999999 999999 999999 999999 999999 999999 999999 999999 999999 999999 999999 999999 999999 999999 999999 999999 999999 999999 999999 999999 999999 999999 999999 999999 999999 999999 5529
999999 11481 11532 18490 16874 19777 15258 10934 19345 14149 16690 19466 18088 15492 13550 11580 11693 19548 10655 11651 18207 10011 10890 16992 16831 12242 16279 13552 11282 16533 12147 999999 999999 999999 0 999999 999999 999999 999999 999999 999999 999999 999999 999999 999999 999999 999999 999999 999999 999999 999999 999999 999999 999999 999999 999999 999999 999999 999999 999999 999999 6903
999999 18177 11855 14134 16903 17594 14727 11464 15136 19314 16328 18293 12395 12048 15167 11393 12296 14896 19111 14963 13170 11807 12805 18106 19936 18500 19101 10561 18147 16987 11483 999999 999999 999999 999999 0 999999 999999 999999 999999 999999 999999 999999 999999 999999 999999 999999 999999 999999 999999 999999 999999 999999 999999 999999 999999 999999 999999 999999 999999 999999 13072
999999 14992 11009 15380 16443 10492 10494 16611 14252 17316 13138 12569 17650 13393 15924 16073 16022 16564 14427 19847 17044 11617 18495 19421 17529 10078 15222 14548 16082 14048 13748 999999 999999 999999 999999 999999 0 999999 999999 999999 999999 999999 999999 999999 999999 999999 999999 999999 999999 999999 999999 999999 999999 999999 999999 999999 999999 999999 999999 999999 999999 6473
999999 15382 19947 15353 19927 17616 13794 10053 19716 12813 10437 10170 17438 10056 19221 11797 15021 17865 19717 13556 16894 11193 17467 19111 16291 19049 14780 11258 18453 13573 14027 999999 999999 999999 999999 999999 999999 0 999999 999999 999999 999999 999999 999999 999999 999999 999999 999999 999999 999999 999999 999999 999999 999999 999999 999999 999999 999999 999999 999999 999999 10859
999999 19189 11017 10714 12191 17347 17862 10082 19491 12570 13795 17448 11042 12141 13064 18201 19351 17553 12274 13386 13866 19305 15174 14648 12681 14930 15743 13192 12636 11771 12846 999999 999999 999999 999999 999999 999999 999999 0 999999 999999 999999 999999 999999 999999 999999 999999 999999 999999 999999 999999 999999 999999 999999 999999 999999 999999 999999 999999 999999 999999 6866
999999 18390 14704 13480 10317 15711 17879 10742 16706 14515 11423 10554 11208 15162 14721 16242 10837 15021 15624 19164 17918 16297 15538 19117 12919 18309 16702 19278 19683 11845 18122 999999 999999 999999 999999 999999 999999 999999 999999 0 999999 999999 999999 999999 999999 999999 999999 999999 999999 999999 999999 999999 999999 999999 999999 999999 999999 999999 999999 999999 999999 5198
999999 17287 19864 13232 18750 19241 11126 14622 10103 18450 16572 16963 16162 18299 12179 17323 15944 11928 19565 10950 17170 19226 14637 14613 12948 10991 15327 15129 18867 10410 15711 999999 999999 999999 999999 999999 999999 999999 999999 999999 0 999999 999999 999999 999999 999999 999999 999999 999999 999999 999999 999999 999999 999999 999999 999999 999999 999999 999999 999999 999999 6598
999999 11436 12200 19199 10010 19344 13657 11821 18709 10482 15161 15801 17118 15864 19850 15975 12015 17364 15255 11185 13289 14965 12344 15863 19703 12741 13400 17034 14811 13063 12354 999999 999999 999999 999999 999999 999999 999999 999999 999999 999999 0 999999 999999 999999 999999 999999 999999 999999 999999 999999 999999 999999 999999 999999 999999 999999 999999 999999 999999 999999 13915
999999 11727 11403 13630 18209 10244 11893 18227 17801 15384 12667 15767 14077 19750 11630 19806 16436 17722 17811 12112 17931 12726 15905 16437 14435 18256 17518 12915 11212 18442 10414 999999 999999 999999 999999 999999 999999 999999 999999 999999 999999 999999 0 999999 999999 999999 999999 999999 999999 999999 999999 999999 999999 999999 999999 999999 999999 999999 999999 999999 999999 13254
999999 11618 18525 12505 15173 10263 14189 17387 15179 12902 12380 10093 11722 14604 17280 12284 16213 11383 17028 10014 13828 15469 15932 11999 14378 19578 19512 14504 19516 16647 17783 999999 999999 999999 999999 999999 999999 999999 999999 999999 999999 999999 999999 0 999999 999999 999999 999999 999999 999999 999999 999999 999999 999999 999999 999999 999999 999999 999999 999999 999999 14915
999999 12762 18275 16365 19270 11443 17001 19431 16099 12443 19546 17418 10117 19869 15025 10837 17308 10988 18741 18300 14915 19127 12536 14331 12943 16743 18567 10200 13377 16146 11325 999999 999999 999999 999999 999999 999999 999999 999999 999999 999999 999999 999999 999999 0 999999 999999 999999 999999 999999 999999 999999 999999 999999 999999 999999 999999 999999 999999 999999 999999 6130
999999 15497 19976 15310 18302 14968 18455 15864 18781 14807 18092 14492 19070 13901 12963 19903 16174 18325 10171 12086 12665 13098 16090 14358 16318 17156 17034 11854 12596 11316 12439 999999 999999 999999 999999 999999 999999 999999 999999 999999 999999 999999 999999 999999 999999 0 999999 999999 999999 999999 999999 999999 999999 999999 999999 999999 999999 999999 999999 999999 999999 8804
999999 11779 14331 15240 14693 17781 14566 11230 11458 17791 11230 18440 16847 17490 11116 11202 15285 17886 12436 17638 14200 17464 14693 15397 16184 10258 10582 14961 18696 15643 17174 999999 999999 999999 999999 999999 999999 999999 999999 999999 999999 999999 999999 999999 999999 999999 0 999999 999999 999999 999999 999999 999999 999999 999999 999999 999999 999999 999999 999999 999999 6643
999999 17126 18244 15582 18926 10878 19972 17756 18212 14135 12040 17077 19429 11615 13588 17025 11294 18107 18722 17316 12343 17197 12772 19931 18210 13992 18932 11571 15098 19334 18293 999999 999999 999999 999999 999999 999999 999999 999999 999999 999999 999999 999999 999999 999999 999999 999999 0 999999 999999 999999 999999 999999 999999 999999 999999 999999 999999 999999 999999 999999 8314
999999 11511 11275 13753 14889 14648 17086 16299 13027 15540 18525 15382 17665 18170 14311 19712 18834 14659 12253 17695 19064 19892 12007 13770 17687 15950 12170 10933 15073 18593 10051 999999 999999 999999 999999 999999 999999 999999 999999 999999 999999 999999 999999 999999 999999 999999 999999 999999 0 999999 999999 999999 999999 999999 999999 999999 999999 999999 999999 999999 999999 10667
999999 12123 15104 10473 10515 18872 15136 11340 14645 14098 17193 17593 18379 19956 11908 18938 11344 17517 13200 10501 10290 14803 15791 19781 18699 19949 12549 18023 11894 17896 17106 999999 999999 999999 999999 999999 999999 999999 999999 999999 999999 999999 999999 999999 999999 999999 999999 999999 999999 0 999999 999999 999999 999999 999999 999999 999999 999999 999999 999999 999999 11486
999999 12366 17961 10901 11089 14777 18203 10399 10921 10566 16309 15687 15214 19637 16774 16948 17649 12488 10293 11207 16598 18691 16959 16048 11320 13731 10418 10279 10770 15855 19633 999999 999999 999999 999999 999999 999999 999999 999999 999999 999999 999999 999999 999999 999999 999999 999999 999999 999999 999999 0 999999 999999 999999 999999 999999 999999 999999 999999 999999 999999 12186
999999 17163 19310 14957 12718 15946 14655 13795 15288 13857 13595 11654 17749 17667 16697 15913 19483 18819 17927 14637 12182 11798 19648 13539 15314 19750 15389 17012 13332 17834 18700 999999 999999 999999 999999 999999 999999 999999 999999 999999 999999 999999 999999 999999 999999 999999 999999 999999 999999 999999 999999 0 999999 999999 999999 999999 999999 999999 999999 999999 999999 11879
999999 15295 18212 10626 11657 15027 14181 11050 10315 14191 19546 14709 12032 16586 11059 19636 15845 10743 17098 17595 14151 13669 18724 19723 18203 14557 11180 18304 17986 16614 10356 999999 999999 999999 999999 999999 999999 999999 999999 999999 999999 999999 999999 999999 999999 999999 999999 999999 999999 999999 999999 999999 0 999999 999999 999999 999999 999999 999999 999999 999999 5825
999999 12989 18524 10614 17300 15025 19413 19851 17974 10556 10303 15657 16341 10696 18006 11998 10002 13936 15646 12431 13487 10833 17749 15982 17964 10875 15945 13300 15328 12446 14287 999999 999999 999999 999999 999999 999999 999999 999999 999999 999999 999999 999999 999999 999999 999999 999999 999999 999999 999999 999999 999999 999999 0 999999 999999 999999 999999 999999 999999 999999 8362
999999 11143 16518 14200 11365 11726 19034 11337 10481 19635 14802 11909 11505 16943 14671 19762 18385 10049 10433 10367 17816 13404 11651 18149 18163 19237 17064 17679 16822 16560 17753 999999 999999 999999 999999 999999 999999 999999 999999 999999 999999 999999 999999 999999 999999 999999 999999 999999 999999 999999 999999 999999 999999 999999 0 999999 999999 999999 999999 999999 999999 6982
999999 13311 14008 10977 11401 15622 12254 18670 14392 10672 10592 11572 13744 14117 18617 18035 14503 16504 11167 17440 18944 18932 17803 14637 17952 10269 14134 17158 17468 15755 11502 999999 999999 999999 999999 999999 999999 999999 999999 999999 999999 999999 999999 999999 999999 999999 999999 999999 999999 999999 999999 999999 999999 999999 999999 0 999999 999999 999999 999999 999999 10669
999999 11495 10352 12329 18582 11812 14386 18227 19676 19641 17132 13245 10081 13742 19581 17742 10994 19732 12050 13119 15273 18084 13406 19132 12172 16699 19037 11401 14042 11572 19820 999999 999999 999999 999999 999999 999999 999999 999999 999999 999999 999999 999999 999999 999999 999999 999999 999999 999999 999999 999999 999999 999999 999999 999999 999999 0 999999 999999 999999 999999 11949
999999 11007 17314 10840 17178 10730 17100 11585 14198 10450 12196 17104 15309 16495 12532 10963 14503 18354 17606 19147 13657 17647 12984 19865 15637 11135 12896 17180 15319 12512 17253 999999 999999 999999 999999 999999 999999 999999 999999 999999 999999 999999 999999 999999 999999 999999 999999 999999 999999 999999 999999 999999 999999 999999 999999 999999 999999 0 999999 999999 999999 7961
999999 14461 11783 11177 13475 17245 14059 13706 10611 14347 19706 18641 14730 11598 15135 13019 10917 12796 18382 12014 13040 12823 12209 15090 15958 10827 17251 10283 13955 12850 10846 999999 999999 999999 999999 999999 999999 999999 999999 999999 999999 999999 999999 999999 999999 999999 999999 999999 999999 999999 999999 999999 999999 999999 999999 999999 999999 999999 0 999999 999999 7833
999999 10866 12896 17061 13111 18551 14273 15775 10706 10633 11028 14238 13655 12479 10933 13573 10807 12538 11673 19531 16476 11949 10570 16121 15482 14031 11024 14341 13505 15514 13977 999999 999999 999999 999999 999999 999999 999999 999999 999999 999999 999999 999999 999999 999999 999999 999999 999999 999999 999999 999999 999999 999999 999999 999999 999999 999999 999999 999999 0 999999 11794
999999 13098 13297 14044 17021 14633 15130 13158 19762 18553 15841 11754 16210 10570 17721 14226 11894 17570 13813 18033 16884 15122 16949 13014 14837 17764 19043 19310 15216 11124 19612 999999 999999 999999 999999 999999 999999 999999 999999 999999 999999 999999 999999 999999 999999 999999 999999 999999 999999 999999 999999 999999 999999 999999 999999 999999 999999 999999 999999 999999 0 13531
1 999999 999999 999999 999999 999999 999999 999999 999999 999999 999999 999999 999999 999999 999999 999999 999999 999999 999999 999999 999999 999999 999999 999999 999999 999999 999999 999999 999999 999999 999999 999999 999999 999999 999999 999999 999999 999999 999999 999999 999999 999999 999999 999999 999999 999999 999999 999999 999999 999999 999999 999999 999999 999999 999999 999999 999999 999999 999999 999999 999999 0
EOF