NAME: GR_1x2x35_KH_5x10_Run_8
TYPE: TSP
COMMENT: BTSP instance |A|=70 GR nodes |B|=50 KH nodes depot=0.0 end=0.0.0
DIMENSION: 122
EDGE_WEIGHT_TYPE: EXPLICIT
EDGE_WEIGHT_FORMAT: FULL_MATRIX
NODE_COORD_TYPE: NO_COORDS
EDGE_WEIGHT_SECTION
0 9612 14967 14090 12885 5862 12641 14591 12683 7214 12457 8650 11726 11574 11994 12748 11703 14261 5258 14004 10723 8065 7402 7118 7360 12309 9604 5961 14843 9945 10880 7702 5623 12049 14602 5394 9367 5522 12909 11091 13900 5242 7176 8093 7440 6896 13127 7963 7864 14619 10393 9545 13201 9130 10927 12995 9979 12171 8046 10024 5178 6349 5594 6478 8746 10815 12453 10534 14869 7049 6741 999999 999999 999999 999999 999999 999999 999999 999999 999999 999999 999999 999999 999999 999999 999999 999999 999999 999999 999999 999999 999999 999999 999999 999999 999999 999999 999999 999999 999999 999999 999999 999999 999999 999999 999999 999999 999999 999999 999999 999999 999999 999999 999999 999999 999999 999999 999999 999999 999999 999999 999999
999999 0 999999 999999 999999 999999 999999 999999 999999 999999 999999 999999 999999 999999 999999 999999 999999 999999 999999 999999 999999 999999 999999 999999 999999 999999 999999 999999 999999 999999 999999 999999 999999 999999 999999 999999 999999 999999 999999 999999 999999 999999 999999 999999 999999 999999 999999 999999 999999 999999 999999 999999 999999 999999 999999 999999 999999 999999 999999 999999 999999 999999 999999 999999 999999 999999 999999 999999 999999 999999 999999 19173 16975 12842 14605 14627 11811 19753 19574 11790 10094 19177 12981 19867 17581 12589 13155 10701 10878 18968 16609 10369 10202 19534 18776 18878 18953 12900 16428 13416 10942 13428 16631 18201 17710 17991 13495 13877 15622 15839 13475 11723 10444 19886 11485 14183 12283 19663 14197 16129 15935 999999
999999 999999 0 999999 999999 999999 999999 999999 999999 999999 999999 999999 999999 999999 999999 999999 999999 999999 999999 999999 999999 999999 999999 999999 999999 999999 999999 999999 999999 999999 999999 999999 999999 999999 999999 999999 999999 999999 999999 999999 999999 999999 999999 999999 999999 999999 999999 999999 999999 999999 999999 999999 999999 999999 999999 999999 999999 999999 999999 999999 999999 999999 999999 999999 999999 999999 999999 999999 999999 999999 999999 14639 12768 14324 19713 17973 17156 11332 10802 15088 17219 17310 13603 11347 11715 14364 14766 13258 15407 16705 12069 13088 15906 12358 11677 19218 12205 16532 11730 16248 13368 14526 14019 16516 16732 11195 19488 17152 17524 11158 16381 16174 15035 16866 10479 11159 14530 10711 14819 16433 11883 999999
999999 999999 999999 0 999999 999999 999999 999999 999999 999999 999999 999999 999999 999999 999999 999999 999999 999999 999999 999999 999999 999999 999999 999999 999999 999999 999999 999999 999999 999999 999999 999999 999999 999999 999999 999999 999999 999999 999999 999999 999999 999999 999999 999999 999999 999999 999999 999999 999999 999999 999999 999999 999999 999999 999999 999999 999999 999999 999999 999999 999999 999999 999999 999999 999999 999999 999999 999999 999999 999999 999999 11753 14266 10344 16632 12510 15798 19429 10122 10190 19461 13451 10358 14983 18745 16148 11131 17191 10458 11471 17139 17801 17355 13903 18083 12371 15300 14413 16893 17604 17028 12194 14973 12944 10231 16644 16996 17486 18518 11303 10649 14145 17524 14433 12368 10665 11350 13733 12667 15183 19000 999999
999999 999999 999999 999999 0 999999 999999 999999 999999 999999 999999 999999 999999 999999 999999 999999 999999 999999 999999 999999 999999 999999 999999 999999 999999 999999 999999 999999 999999 999999 999999 999999 999999 999999 999999 999999 999999 999999 999999 999999 999999 999999 999999 999999 999999 999999 999999 999999 999999 999999 999999 999999 999999 999999 999999 999999 999999 999999 999999 999999 999999 999999 999999 999999 999999 999999 999999 999999 999999 999999 999999 16978 12448 16435 19217 11698 14525 18063 10424 11732 18914 11660 14848 12043 11718 11346 12713 13661 19329 10180 15670 13294 14425 18531 14429 17128 15668 16595 10538 14766 18657 11554 10667 18517 12152 18152 18594 15526 12256 11438 17309 11300 15786 18832 11378 10297 18121 12501 11137 14225 13331 999999
999999 999999 999999 999999 999999 0 999999 999999 999999 999999 999999 999999 999999 999999 999999 999999 999999 999999 999999 999999 999999 999999 999999 999999 999999 999999 999999 999999 999999 999999 999999 999999 999999 999999 999999 999999 999999 999999 999999 999999 999999 999999 999999 999999 999999 999999 999999 999999 999999 999999 999999 999999 999999 999999 999999 999999 999999 999999 999999 999999 999999 999999 999999 999999 999999 999999 999999 999999 999999 999999 999999 14598 14665 18689 10141 17450 14472 16102 14191 11307 11051 11558 13718 10524 10710 11830 14137 15347 10285 11158 13742 15199 12002 16149 13475 14113 13835 18731 18637 15638 11972 10471 15714 12371 19948 11590 17887 10276 12469 19494 11665 15900 14701 12753 12168 15474 18904 16907 16169 18690 17934 999999
999999 999999 999999 999999 999999 999999 0 999999 999999 999999 999999 999999 999999 999999 999999 999999 999999 999999 999999 999999 999999 999999 999999 999999 999999 999999 999999 999999 999999 999999 999999 999999 999999 999999 999999 999999 999999 999999 999999 999999 999999 999999 999999 999999 999999 999999 999999 999999 999999 999999 999999 999999 999999 999999 999999 999999 999999 999999 999999 999999 999999 999999 999999 999999 999999 999999 999999 999999 999999 999999 999999 17410 17408 13599 14451 18091 13961 15633 14692 18297 19273 19621 14851 11273 10118 18066 13993 14680 11233 14741 16808 19551 15627 18953 12492 16412 11374 13335 12944 10807 19958 11756 16987 18891 19931 13793 13817 18681 17115 19733 16316 16677 15243 19504 17449 16536 16098 14170 13982 13953 14307 999999
999999 999999 999999 999999 999999 999999 999999 0 999999 999999 999999 999999 999999 999999 999999 999999 999999 999999 999999 999999 999999 999999 999999 999999 999999 999999 999999 999999 999999 999999 999999 999999 999999 999999 999999 999999 999999 999999 999999 999999 999999 999999 999999 999999 999999 999999 999999 999999 999999 999999 999999 999999 999999 999999 999999 999999 999999 999999 999999 999999 999999 999999 999999 999999 999999 999999 999999 999999 999999 999999 999999 10084 13782 10795 12828 10055 12321 15230 16242 10623 18728 18703 18445 17729 19090 18630 12873 18659 16172 12581 16391 15607 10421 17474 11091 14679 19256 15274 18556 13353 10739 15980 15451 11388 13784 14539 18896 14680 15956 16050 15528 15580 14969 15889 14115 16085 18623 14420 15670 18905 13563 999999
999999 999999 999999 999999 999999 999999 999999 999999 0 999999 999999 999999 999999 999999 999999 999999 999999 999999 999999 999999 999999 999999 999999 999999 999999 999999 999999 999999 999999 999999 999999 999999 999999 999999 999999 999999 999999 999999 999999 999999 999999 999999 999999 999999 999999 999999 999999 999999 999999 999999 999999 999999 999999 999999 999999 999999 999999 999999 999999 999999 999999 999999 999999 999999 999999 999999 999999 999999 999999 999999 999999 10013 16209 12061 15937 11953 10835 16270 18363 10611 19127 16123 13942 10714 14535 10676 13890 10539 15046 14816 10234 12149 17406 13579 11181 16309 12335 14329 13407 13139 17900 14003 11678 15760 17615 12803 14592 19243 15584 13995 19260 17281 10266 11815 15952 15572 15956 16383 17921 13645 10910 999999
999999 999999 999999 999999 999999 999999 999999 999999 999999 0 999999 999999 999999 999999 999999 999999 999999 999999 999999 999999 999999 999999 999999 999999 999999 999999 999999 999999 999999 999999 999999 999999 999999 999999 999999 999999 999999 999999 999999 999999 999999 999999 999999 999999 999999 999999 999999 999999 999999 999999 999999 999999 999999 999999 999999 999999 999999 999999 999999 999999 999999 999999 999999 999999 999999 999999 999999 999999 999999 999999 999999 14207 14699 15185 14216 19963 15627 10508 13870 11750 16732 12800 19726 13037 12666 15815 11881 11881 15640 14778 11954 18059 14117 11402 19529 18512 13281 15421 12354 13465 13928 15634 14925 14459 14397 19614 14531 12948 13587 16516 19228 10169 19436 16248 11841 18458 15982 14282 10903 11591 12844 999999
999999 999999 999999 999999 999999 999999 999999 999999 999999 999999 0 999999 999999 999999 999999 999999 999999 999999 999999 999999 999999 999999 999999 999999 999999 999999 999999 999999 999999 999999 999999 999999 999999 999999 999999 999999 999999 999999 999999 999999 999999 999999 999999 999999 999999 999999 999999 999999 999999 999999 999999 999999 999999 999999 999999 999999 999999 999999 999999 999999 999999 999999 999999 999999 999999 999999 999999 999999 999999 999999 999999 12753 17610 18602 16675 12293 17404 15688 15275 17546 10708 18351 18516 15407 14638 19558 11283 19407 18661 18587 17645 11964 14128 16830 10104 14579 14484 10474 16973 11294 10232 14818 13095 13755 19431 16133 10325 15083 17551 12321 14537 11823 16030 18933 10221 19404 14944 19320 17427 15601 11755 999999
999999 999999 999999 999999 999999 999999 999999 999999 999999 999999 999999 0 999999 999999 999999 999999 999999 999999 999999 999999 999999 999999 999999 999999 999999 999999 999999 999999 999999 999999 999999 999999 999999 999999 999999 999999 999999 999999 999999 999999 999999 999999 999999 999999 999999 999999 999999 999999 999999 999999 999999 999999 999999 999999 999999 999999 999999 999999 999999 999999 999999 999999 999999 999999 999999 999999 999999 999999 999999 999999 999999 13551 13350 11293 17898 14500 19703 18129 15796 10597 14064 19586 15956 15777 10049 12916 17420 10306 16570 17805 11609 16194 15735 17570 13463 19752 12789 12062 19080 16714 11470 17290 13728 15042 19027 13800 15926 17524 10961 17749 10424 16330 19360 11400 15292 10829 16202 17387 10492 10237 10947 999999
999999 999999 999999 999999 999999 999999 999999 999999 999999 999999 999999 999999 0 999999 999999 999999 999999 999999 999999 999999 999999 999999 999999 999999 999999 999999 999999 999999 999999 999999 999999 999999 999999 999999 999999 999999 999999 999999 999999 999999 999999 999999 999999 999999 999999 999999 999999 999999 999999 999999 999999 999999 999999 999999 999999 999999 999999 999999 999999 999999 999999 999999 999999 999999 999999 999999 999999 999999 999999 999999 999999 17460 11436 14933 11142 17576 18450 15218 11128 10204 19406 19782 18007 12380 13063 16014 19422 16295 10080 12642 15819 12238 11477 14833 17776 17336 12289 12837 17474 15549 13902 17969 13288 16536 15621 10377 10614 15669 15905 13319 19633 15008 11347 16928 13489 16275 13374 15652 11708 10495 13969 999999
999999 999999 999999 999999 999999 999999 999999 999999 999999 999999 999999 999999 999999 0 999999 999999 999999 999999 999999 999999 999999 999999 999999 999999 999999 999999 999999 999999 999999 999999 999999 999999 999999 999999 999999 999999 999999 999999 999999 999999 999999 999999 999999 999999 999999 999999 999999 999999 999999 999999 999999 999999 999999 999999 999999 999999 999999 999999 999999 999999 999999 999999 999999 999999 999999 999999 999999 999999 999999 999999 999999 14156 19453 16949 19254 17173 14754 13989 16126 13509 14796 10325 19585 14519 13867 16795 14296 16398 16730 18187 11455 19257 15756 19820 17206 18869 18687 19649 15914 14763 16683 13330 13042 15790 11142 12211 18039 10857 10023 11996 10295 16974 10456 11724 11684 18334 10655 19907 19533 16622 11655 999999
999999 999999 999999 999999 999999 999999 999999 999999 999999 999999 999999 999999 999999 999999 0 999999 999999 999999 999999 999999 999999 999999 999999 999999 999999 999999 999999 999999 999999 999999 999999 999999 999999 999999 999999 999999 999999 999999 999999 999999 999999 999999 999999 999999 999999 999999 999999 999999 999999 999999 999999 999999 999999 999999 999999 999999 999999 999999 999999 999999 999999 999999 999999 999999 999999 999999 999999 999999 999999 999999 999999 16992 14757 16637 17167 13328 11830 11010 13087 15731 15577 11787 12193 14983 11524 17902 10140 14833 15903 14974 13952 16277 17421 14513 14666 11220 17063 19481 12542 13811 13472 19169 11374 13013 15794 19531 17595 15579 10720 12613 16975 17359 15813 13017 19262 11881 12195 10365 12139 19495 18257 999999
999999 999999 999999 999999 999999 999999 999999 999999 999999 999999 999999 999999 999999 999999 999999 0 999999 999999 999999 999999 999999 999999 999999 999999 999999 999999 999999 999999 999999 999999 999999 999999 999999 999999 999999 999999 999999 999999 999999 999999 999999 999999 999999 999999 999999 999999 999999 999999 999999 999999 999999 999999 999999 999999 999999 999999 999999 999999 999999 999999 999999 999999 999999 999999 999999 999999 999999 999999 999999 999999 999999 19695 18489 19254 14664 11934 12286 15002 15184 10421 15016 11214 15488 12374 17280 12985 16349 19191 12608 13135 17138 17625 16333 17059 17672 10127 18507 16437 13576 10160 15037 15272 16685 19434 19485 10808 12667 14288 16060 14284 19269 14224 11711 18661 19417 17896 13931 12229 10887 12191 19757 999999
999999 999999 999999 999999 999999 999999 999999 999999 999999 999999 999999 999999 999999 999999 999999 999999 0 999999 999999 999999 999999 999999 999999 999999 999999 999999 999999 999999 999999 999999 999999 999999 999999 999999 999999 999999 999999 999999 999999 999999 999999 999999 999999 999999 999999 999999 999999 999999 999999 999999 999999 999999 999999 999999 999999 999999 999999 999999 999999 999999 999999 999999 999999 999999 999999 999999 999999 999999 999999 999999 999999 11654 18709 10788 18848 16339 17722 13485 19529 13376 17019 12849 10619 13145 11866 12462 18286 18853 14805 10305 13456 17061 15086 12149 12325 16589 14793 18850 16193 11237 19951 10213 15409 11614 16792 14360 14438 18699 16669 17829 10916 17880 17264 12813 13352 16702 12731 10937 16784 19950 15821 999999
999999 999999 999999 999999 999999 999999 999999 999999 999999 999999 999999 999999 999999 999999 999999 999999 999999 0 999999 999999 999999 999999 999999 999999 999999 999999 999999 999999 999999 999999 999999 999999 999999 999999 999999 999999 999999 999999 999999 999999 999999 999999 999999 999999 999999 999999 999999 999999 999999 999999 999999 999999 999999 999999 999999 999999 999999 999999 999999 999999 999999 999999 999999 999999 999999 999999 999999 999999 999999 999999 999999 17559 19764 17539 13035 14094 16684 14031 12487 10427 11963 11265 12108 13869 11728 18094 18639 17083 19969 15931 10023 15962 19973 15089 15649 17609 16922 14000 13568 15433 18539 11181 12270 13547 15897 19803 15609 19077 13938 17505 19348 14330 10467 17603 18739 10228 13825 19501 12474 11027 10586 999999
999999 999999 999999 999999 999999 999999 999999 999999 999999 999999 999999 999999 999999 999999 999999 999999 999999 999999 0 999999 999999 999999 999999 999999 999999 999999 999999 999999 999999 999999 999999 999999 999999 999999 999999 999999 999999 999999 999999 999999 999999 999999 999999 999999 999999 999999 999999 999999 999999 999999 999999 999999 999999 999999 999999 999999 999999 999999 999999 999999 999999 999999 999999 999999 999999 999999 999999 999999 999999 999999 999999 17124 18957 12401 13115 14170 14411 16310 16343 12288 19637 19310 19382 13832 12973 11455 13765 15832 13861 10564 11491 17991 12130 11121 19878 13725 15720 19755 12203 16885 17834 13489 13103 12712 13725 18565 17492 19624 13396 15576 19473 15631 17416 11815 11450 16386 19282 16175 19468 13803 17038 999999
999999 999999 999999 999999 999999 999999 999999 999999 999999 999999 999999 999999 999999 999999 999999 999999 999999 999999 999999 0 999999 999999 999999 999999 999999 999999 999999 999999 999999 999999 999999 999999 999999 999999 999999 999999 999999 999999 999999 999999 999999 999999 999999 999999 999999 999999 999999 999999 999999 999999 999999 999999 999999 999999 999999 999999 999999 999999 999999 999999 999999 999999 999999 999999 999999 999999 999999 999999 999999 999999 999999 13883 13691 16818 14185 19454 15411 19768 15036 14325 13877 18885 13247 13679 15732 15822 18719 10942 14983 19867 18221 16129 17701 19168 10130 19088 13156 11780 15083 10547 16022 16771 14081 11324 18085 14891 14441 13456 17572 19408 16374 10497 12825 10995 18433 12575 19092 17836 10340 19167 13304 999999
999999 999999 999999 999999 999999 999999 999999 999999 999999 999999 999999 999999 999999 999999 999999 999999 999999 999999 999999 999999 0 999999 999999 999999 999999 999999 999999 999999 999999 999999 999999 999999 999999 999999 999999 999999 999999 999999 999999 999999 999999 999999 999999 999999 999999 999999 999999 999999 999999 999999 999999 999999 999999 999999 999999 999999 999999 999999 999999 999999 999999 999999 999999 999999 999999 999999 999999 999999 999999 999999 999999 14280 14326 15922 14321 17434 12392 18720 10754 12752 16905 18882 16648 10998 13187 16242 13245 15322 19280 18553 18704 17486 17296 17091 13582 10027 11837 16622 11492 13655 15942 12308 11504 14248 16301 13489 18103 10519 11479 18148 17836 12788 15072 11710 13229 13240 14481 12498 12488 17071 13835 999999
999999 999999 999999 999999 999999 999999 999999 999999 999999 999999 999999 999999 999999 999999 999999 999999 999999 999999 999999 999999 999999 0 999999 999999 999999 999999 999999 999999 999999 999999 999999 999999 999999 999999 999999 999999 999999 999999 999999 999999 999999 999999 999999 999999 999999 999999 999999 999999 999999 999999 999999 999999 999999 999999 999999 999999 999999 999999 999999 999999 999999 999999 999999 999999 999999 999999 999999 999999 999999 999999 999999 14643 16536 14856 10265 12668 15647 16999 10017 15926 18259 19967 12791 11480 17456 18910 19513 17259 15456 10830 18362 11106 19870 18017 14486 14823 13216 14441 15276 18038 17944 13447 16590 16868 14612 14638 17294 16269 12585 18666 13992 18777 13602 11056 14545 17946 15626 13256 12330 12628 17152 999999
999999 999999 999999 999999 999999 999999 999999 999999 999999 999999 999999 999999 999999 999999 999999 999999 999999 999999 999999 999999 999999 999999 0 999999 999999 999999 999999 999999 999999 999999 999999 999999 999999 999999 999999 999999 999999 999999 999999 999999 999999 999999 999999 999999 999999 999999 999999 999999 999999 999999 999999 999999 999999 999999 999999 999999 999999 999999 999999 999999 999999 999999 999999 999999 999999 999999 999999 999999 999999 999999 999999 19560 18959 17020 15588 19661 16709 15855 18096 14803 16089 10557 11932 12089 18080 17399 10085 12681 17207 10265 13476 15727 15142 16404 16224 15653 10676 19596 18660 17867 13098 12633 12440 17641 15250 15684 15503 13034 17359 10697 17287 19204 17869 18128 13261 18685 10636 10390 17723 15865 10245 999999
999999 999999 999999 999999 999999 999999 999999 999999 999999 999999 999999 999999 999999 999999 999999 999999 999999 999999 999999 999999 999999 999999 999999 0 999999 999999 999999 999999 999999 999999 999999 999999 999999 999999 999999 999999 999999 999999 999999 999999 999999 999999 999999 999999 999999 999999 999999 999999 999999 999999 999999 999999 999999 999999 999999 999999 999999 999999 999999 999999 999999 999999 999999 999999 999999 999999 999999 999999 999999 999999 999999 10921 17743 15689 15921 12528 14544 15528 19005 13696 18328 15625 13180 19593 14297 10145 15163 18425 13673 14264 18019 16818 10476 14136 11628 17284 12613 12569 16125 16538 14300 13769 19052 15160 18821 19656 10751 11101 18287 19574 18307 14574 18830 16010 12706 13365 12048 14892 11370 13995 17122 999999
999999 999999 999999 999999 999999 999999 999999 999999 999999 999999 999999 999999 999999 999999 999999 999999 999999 999999 999999 999999 999999 999999 999999 999999 0 999999 999999 999999 999999 999999 999999 999999 999999 999999 999999 999999 999999 999999 999999 999999 999999 999999 999999 999999 999999 999999 999999 999999 999999 999999 999999 999999 999999 999999 999999 999999 999999 999999 999999 999999 999999 999999 999999 999999 999999 999999 999999 999999 999999 999999 999999 14187 18467 16221 19115 19128 13384 10139 14593 15064 12970 17589 18225 17877 15065 15889 13543 13996 14749 11528 18775 19632 13715 16723 14089 18118 16379 12521 11305 15088 19541 18788 18354 17544 19503 13914 13975 11095 14200 18381 15050 13657 10518 10295 12418 17300 11884 17311 17936 12862 18276 999999
999999 999999 999999 999999 999999 999999 999999 999999 999999 999999 999999 999999 999999 999999 999999 999999 999999 999999 999999 999999 999999 999999 999999 999999 999999 0 999999 999999 999999 999999 999999 999999 999999 999999 999999 999999 999999 999999 999999 999999 999999 999999 999999 999999 999999 999999 999999 999999 999999 999999 999999 999999 999999 999999 999999 999999 999999 999999 999999 999999 999999 999999 999999 999999 999999 999999 999999 999999 999999 999999 999999 16892 16316 16006 11479 14724 14051 17128 15549 17958 12832 10999 12809 14687 19178 14314 15415 15198 17387 19144 11855 12820 19734 18382 15139 19335 11175 19178 19587 18995 10668 10026 14253 12300 13588 13246 15467 18831 17964 10044 19707 13354 18265 19660 12467 14136 15106 13005 10124 12986 18179 999999
999999 999999 999999 999999 999999 999999 999999 999999 999999 999999 999999 999999 999999 999999 999999 999999 999999 999999 999999 999999 999999 999999 999999 999999 999999 999999 0 999999 999999 999999 999999 999999 999999 999999 999999 999999 999999 999999 999999 999999 999999 999999 999999 999999 999999 999999 999999 999999 999999 999999 999999 999999 999999 999999 999999 999999 999999 999999 999999 999999 999999 999999 999999 999999 999999 999999 999999 999999 999999 999999 999999 10677 16682 10318 18392 16803 12905 12367 10215 16000 19446 12160 16198 19959 15234 13100 18505 16703 17895 17058 15911 11673 13273 13222 13630 16103 17029 13229 13371 15466 13787 13682 13413 12521 14870 17761 10573 10954 11830 15984 15541 12834 12326 10153 14909 11041 16178 12979 19149 19576 17143 999999
999999 999999 999999 999999 999999 999999 999999 999999 999999 999999 999999 999999 999999 999999 999999 999999 999999 999999 999999 999999 999999 999999 999999 999999 999999 999999 999999 0 999999 999999 999999 999999 999999 999999 999999 999999 999999 999999 999999 999999 999999 999999 999999 999999 999999 999999 999999 999999 999999 999999 999999 999999 999999 999999 999999 999999 999999 999999 999999 999999 999999 999999 999999 999999 999999 999999 999999 999999 999999 999999 999999 10191 12135 18261 11304 13105 19667 19312 12353 11241 15228 11223 12027 10172 12318 16318 13911 10257 13748 17595 14462 18240 16501 10557 11864 14534 17617 15568 14845 12252 17575 16994 18592 15153 15978 13099 19187 19315 11980 14878 14882 19289 17487 13279 19971 17436 11871 15532 12000 11831 17235 999999
999999 999999 999999 999999 999999 999999 999999 999999 999999 999999 999999 999999 999999 999999 999999 999999 999999 999999 999999 999999 999999 999999 999999 999999 999999 999999 999999 999999 0 999999 999999 999999 999999 999999 999999 999999 999999 999999 999999 999999 999999 999999 999999 999999 999999 999999 999999 999999 999999 999999 999999 999999 999999 999999 999999 999999 999999 999999 999999 999999 999999 999999 999999 999999 999999 999999 999999 999999 999999 999999 999999 15613 16443 16917 19436 17562 18557 19223 14828 11927 15383 10805 11558 15245 15220 14997 18654 11779 19018 13851 11943 11275 12504 11412 18147 16528 15957 17221 18695 19142 11406 16949 17919 18765 18095 14185 12761 19001 14897 18302 16817 17706 13647 10214 15679 15200 13699 14123 14525 14234 10170 999999
999999 999999 999999 999999 999999 999999 999999 999999 999999 999999 999999 999999 999999 999999 999999 999999 999999 999999 999999 999999 999999 999999 999999 999999 999999 999999 999999 999999 999999 0 999999 999999 999999 999999 999999 999999 999999 999999 999999 999999 999999 999999 999999 999999 999999 999999 999999 999999 999999 999999 999999 999999 999999 999999 999999 999999 999999 999999 999999 999999 999999 999999 999999 999999 999999 999999 999999 999999 999999 999999 999999 19847 18834 13748 14278 16147 15403 17635 16185 19355 17795 12943 15512 17737 11152 14593 18465 16945 16314 12034 19190 10983 16506 19991 15078 18057 16193 15640 11974 17403 15012 18508 13344 13856 10397 11181 19089 14501 15472 13654 12461 18071 18420 17759 17674 14374 12553 14091 17646 16655 18542 999999
999999 999999 999999 999999 999999 999999 999999 999999 999999 999999 999999 999999 999999 999999 999999 999999 999999 999999 999999 999999 999999 999999 999999 999999 999999 999999 999999 999999 999999 999999 0 999999 999999 999999 999999 999999 999999 999999 999999 999999 999999 999999 999999 999999 999999 999999 999999 999999 999999 999999 999999 999999 999999 999999 999999 999999 999999 999999 999999 999999 999999 999999 999999 999999 999999 999999 999999 999999 999999 999999 999999 15879 10080 15814 10240 18738 18283 15204 10233 16126 14829 10089 17499 19858 13520 17774 19549 19571 15073 18452 10725 16758 16774 11264 18629 14586 16738 15483 12331 18909 12905 18792 15960 11701 19181 10033 18274 15507 15547 17019 16423 15202 19070 15961 14967 18688 17828 11437 11482 15156 12114 999999
999999 999999 999999 999999 999999 999999 999999 999999 999999 999999 999999 999999 999999 999999 999999 999999 999999 999999 999999 999999 999999 999999 999999 999999 999999 999999 999999 999999 999999 999999 999999 0 999999 999999 999999 999999 999999 999999 999999 999999 999999 999999 999999 999999 999999 999999 999999 999999 999999 999999 999999 999999 999999 999999 999999 999999 999999 999999 999999 999999 999999 999999 999999 999999 999999 999999 999999 999999 999999 999999 999999 13743 11625 11136 18863 13053 16136 15973 18099 14462 15875 16123 18844 18153 13709 11011 17604 15372 12440 18718 13272 14211 17839 13791 19846 14088 12685 13857 15707 17233 18909 14004 15492 17354 13913 10934 17188 16567 13140 13791 19971 18993 18433 12267 16459 17823 14887 15804 13837 16304 16779 999999
999999 999999 999999 999999 999999 999999 999999 999999 999999 999999 999999 999999 999999 999999 999999 999999 999999 999999 999999 999999 999999 999999 999999 999999 999999 999999 999999 999999 999999 999999 999999 999999 0 999999 999999 999999 999999 999999 999999 999999 999999 999999 999999 999999 999999 999999 999999 999999 999999 999999 999999 999999 999999 999999 999999 999999 999999 999999 999999 999999 999999 999999 999999 999999 999999 999999 999999 999999 999999 999999 999999 13066 16235 10551 13153 18248 19002 12909 11651 16944 19466 19673 13941 18321 15533 16105 19600 17115 17424 15201 11455 14180 12597 16623 14336 11389 11430 16334 14291 17888 15716 11848 11643 19904 13541 15220 15599 18760 18315 18361 11032 11478 15536 13619 12887 10849 19487 16701 19712 15857 18348 999999
999999 999999 999999 999999 999999 999999 999999 999999 999999 999999 999999 999999 999999 999999 999999 999999 999999 999999 999999 999999 999999 999999 999999 999999 999999 999999 999999 999999 999999 999999 999999 999999 999999 0 999999 999999 999999 999999 999999 999999 999999 999999 999999 999999 999999 999999 999999 999999 999999 999999 999999 999999 999999 999999 999999 999999 999999 999999 999999 999999 999999 999999 999999 999999 999999 999999 999999 999999 999999 999999 999999 12623 10893 12556 14040 15879 15111 18022 19778 11504 14765 16018 11559 17604 14672 16110 13313 15009 15198 12879 16829 17695 16163 18178 19813 11411 18892 13877 16406 11893 14548 11690 19344 15302 17791 16558 16169 14490 11093 14086 19323 18116 19122 17870 10206 15980 11397 14412 10866 11526 11289 999999
999999 999999 999999 999999 999999 999999 999999 999999 999999 999999 999999 999999 999999 999999 999999 999999 999999 999999 999999 999999 999999 999999 999999 999999 999999 999999 999999 999999 999999 999999 999999 999999 999999 999999 0 999999 999999 999999 999999 999999 999999 999999 999999 999999 999999 999999 999999 999999 999999 999999 999999 999999 999999 999999 999999 999999 999999 999999 999999 999999 999999 999999 999999 999999 999999 999999 999999 999999 999999 999999 999999 15634 19558 15111 13856 11240 15363 15547 11307 19687 13615 17497 14814 19386 18291 16249 17207 18647 13232 13933 11135 19929 10693 13709 12789 17176 15927 17544 13183 11780 17287 16983 15453 16376 15289 16440 19861 10704 12419 13537 17117 16102 17473 19912 19152 17888 17627 12211 12710 10374 12404 999999
999999 999999 999999 999999 999999 999999 999999 999999 999999 999999 999999 999999 999999 999999 999999 999999 999999 999999 999999 999999 999999 999999 999999 999999 999999 999999 999999 999999 999999 999999 999999 999999 999999 999999 999999 0 999999 999999 999999 999999 999999 999999 999999 999999 999999 999999 999999 999999 999999 999999 999999 999999 999999 999999 999999 999999 999999 999999 999999 999999 999999 999999 999999 999999 999999 999999 999999 999999 999999 999999 999999 16759 13527 16442 12143 19860 13441 10627 19502 10470 16199 16964 14395 11956 17860 12009 17502 19069 12415 16847 17927 14486 11004 15058 15233 12589 11308 18243 10046 13703 15858 19786 12580 15679 13868 18901 18341 16017 14612 10603 14193 11775 12459 19848 13037 17530 16249 18057 19993 16022 17679 999999
999999 999999 999999 999999 999999 999999 999999 999999 999999 999999 999999 999999 999999 999999 999999 999999 999999 999999 999999 999999 999999 999999 999999 999999 999999 999999 999999 999999 999999 999999 999999 999999 999999 999999 999999 999999 0 999999 999999 999999 999999 999999 999999 999999 999999 999999 999999 999999 999999 999999 999999 999999 999999 999999 999999 999999 999999 999999 999999 999999 999999 999999 999999 999999 999999 999999 999999 999999 999999 999999 999999 14339 17437 11479 17129 17536 14862 16633 19766 17665 12034 10755 10709 14345 19254 18183 15334 16005 12798 17554 10605 16459 19966 16586 11678 10030 15391 17572 11793 12766 11280 17604 19294 19764 15440 16719 15683 18516 15059 12550 13253 13222 17631 13706 19488 16825 14632 12924 13183 19781 10312 999999
999999 999999 999999 999999 999999 999999 999999 999999 999999 999999 999999 999999 999999 999999 999999 999999 999999 999999 999999 999999 999999 999999 999999 999999 999999 999999 999999 999999 999999 999999 999999 999999 999999 999999 999999 999999 999999 0 999999 999999 999999 999999 999999 999999 999999 999999 999999 999999 999999 999999 999999 999999 999999 999999 999999 999999 999999 999999 999999 999999 999999 999999 999999 999999 999999 999999 999999 999999 999999 999999 999999 14689 16251 12087 14548 16765 18670 15143 14198 15265 12388 15718 10070 10142 15767 12970 14984 16331 15370 11757 17035 14456 13241 18857 16814 15408 13956 11567 11616 18322 13864 16599 14409 10049 19743 17167 18159 19994 11469 12084 15336 11952 10908 16069 15908 17688 10014 14444 16797 11377 11780 999999
999999 999999 999999 999999 999999 999999 999999 999999 999999 999999 999999 999999 999999 999999 999999 999999 999999 999999 999999 999999 999999 999999 999999 999999 999999 999999 999999 999999 999999 999999 999999 999999 999999 999999 999999 999999 999999 999999 0 999999 999999 999999 999999 999999 999999 999999 999999 999999 999999 999999 999999 999999 999999 999999 999999 999999 999999 999999 999999 999999 999999 999999 999999 999999 999999 999999 999999 999999 999999 999999 999999 12865 18488 11013 15987 18655 12508 13110 13036 18382 10438 15398 14437 12981 19114 13885 16065 17626 12016 17719 11343 12513 15084 16306 15460 14614 17733 10481 18899 17684 17462 16188 13654 16925 13360 11876 15446 10949 16702 18440 14840 15170 17252 15513 17803 16974 13798 10603 19016 17709 17752 999999
999999 999999 999999 999999 999999 999999 999999 999999 999999 999999 999999 999999 999999 999999 999999 999999 999999 999999 999999 999999 999999 999999 999999 999999 999999 999999 999999 999999 999999 999999 999999 999999 999999 999999 999999 999999 999999 999999 999999 0 999999 999999 999999 999999 999999 999999 999999 999999 999999 999999 999999 999999 999999 999999 999999 999999 999999 999999 999999 999999 999999 999999 999999 999999 999999 999999 999999 999999 999999 999999 999999 13646 17903 12108 15094 17362 13102 15713 14604 14845 12190 16508 11395 12539 10718 17149 18686 19209 10922 19428 12625 16660 17101 17055 13043 11441 11243 11304 12902 12328 15730 10460 16244 15618 16639 12575 18022 12141 11695 12115 12880 15072 15842 19144 10008 19612 16267 18603 10098 10422 13723 999999
999999 999999 999999 999999 999999 999999 999999 999999 999999 999999 999999 999999 999999 999999 999999 999999 999999 999999 999999 999999 999999 999999 999999 999999 999999 999999 999999 999999 999999 999999 999999 999999 999999 999999 999999 999999 999999 999999 999999 999999 0 999999 999999 999999 999999 999999 999999 999999 999999 999999 999999 999999 999999 999999 999999 999999 999999 999999 999999 999999 999999 999999 999999 999999 999999 999999 999999 999999 999999 999999 999999 18044 12304 19135 13870 10640 19189 16847 13481 10528 11705 15250 19158 10999 11885 10603 15919 16280 15150 10507 16873 12603 13454 19020 10658 18183 16491 18803 10334 16909 11627 16819 19626 10186 17991 18141 15511 11480 12863 13074 11560 16894 16689 12298 12639 19961 14753 15084 14763 13587 18158 999999
999999 999999 999999 999999 999999 999999 999999 999999 999999 999999 999999 999999 999999 999999 999999 999999 999999 999999 999999 999999 999999 999999 999999 999999 999999 999999 999999 999999 999999 999999 999999 999999 999999 999999 999999 999999 999999 999999 999999 999999 999999 0 999999 999999 999999 999999 999999 999999 999999 999999 999999 999999 999999 999999 999999 999999 999999 999999 999999 999999 999999 999999 999999 999999 999999 999999 999999 999999 999999 999999 999999 18697 11527 10318 11210 18311 13573 14425 14197 19034 18505 15921 19625 19882 10154 11710 10885 19500 19704 12967 13640 15914 14632 13082 13715 15592 10844 14349 15485 11177 15712 11648 10559 13964 12013 18924 11342 12030 11579 13177 15396 16237 12665 14409 10018 11577 12960 14866 16159 10767 17714 999999
999999 999999 999999 999999 999999 999999 999999 999999 999999 999999 999999 999999 999999 999999 999999 999999 999999 999999 999999 999999 999999 999999 999999 999999 999999 999999 999999 999999 999999 999999 999999 999999 999999 999999 999999 999999 999999 999999 999999 999999 999999 999999 0 999999 999999 999999 999999 999999 999999 999999 999999 999999 999999 999999 999999 999999 999999 999999 999999 999999 999999 999999 999999 999999 999999 999999 999999 999999 999999 999999 999999 19721 14499 12515 13725 13903 12506 17446 15718 14046 10260 18724 13411 17592 12397 14200 15572 11990 13456 19663 18188 17611 10445 19548 14790 10547 12378 13222 18816 10065 10461 14270 12498 11472 17704 19560 15623 10395 10024 12861 18462 16184 10944 13636 19971 17371 18659 10302 13289 10934 18006 999999
999999 999999 999999 999999 999999 999999 999999 999999 999999 999999 999999 999999 999999 999999 999999 999999 999999 999999 999999 999999 999999 999999 999999 999999 999999 999999 999999 999999 999999 999999 999999 999999 999999 999999 999999 999999 999999 999999 999999 999999 999999 999999 999999 0 999999 999999 999999 999999 999999 999999 999999 999999 999999 999999 999999 999999 999999 999999 999999 999999 999999 999999 999999 999999 999999 999999 999999 999999 999999 999999 999999 12913 12574 19129 14397 16256 14464 17327 18777 15121 11260 14632 15202 15677 17358 15044 19515 16481 15113 11438 13917 17396 12179 17843 17107 13110 10409 19266 13901 18412 12249 14406 19392 15354 11889 16231 18316 13606 17966 16583 14743 15056 18988 19618 18463 11282 18844 16689 13147 16860 15692 999999
999999 999999 999999 999999 999999 999999 999999 999999 999999 999999 999999 999999 999999 999999 999999 999999 999999 999999 999999 999999 999999 999999 999999 999999 999999 999999 999999 999999 999999 999999 999999 999999 999999 999999 999999 999999 999999 999999 999999 999999 999999 999999 999999 999999 0 999999 999999 999999 999999 999999 999999 999999 999999 999999 999999 999999 999999 999999 999999 999999 999999 999999 999999 999999 999999 999999 999999 999999 999999 999999 999999 14000 17126 12834 13992 11216 14693 16061 11485 14964 13246 14356 12437 17137 11784 12596 10626 10889 15236 17170 14761 17741 15157 19443 10884 17949 16654 13254 16147 15475 11099 18267 14395 12966 10086 10952 16340 14195 15779 13825 18443 14519 12675 14822 11044 14682 17267 16320 16521 14439 15825 999999
999999 999999 999999 999999 999999 999999 999999 999999 999999 999999 999999 999999 999999 999999 999999 999999 999999 999999 999999 999999 999999 999999 999999 999999 999999 999999 999999 999999 999999 999999 999999 999999 999999 999999 999999 999999 999999 999999 999999 999999 999999 999999 999999 999999 999999 0 999999 999999 999999 999999 999999 999999 999999 999999 999999 999999 999999 999999 999999 999999 999999 999999 999999 999999 999999 999999 999999 999999 999999 999999 999999 18269 18127 16139 19627 15398 19334 14381 11380 11064 17019 12090 10016 16855 14872 12349 10291 19416 13877 10361 12032 16138 12477 10108 15013 10629 14476 13382 17874 10539 14690 13461 18266 12424 12675 13922 12168 12905 11543 18651 13234 15500 13493 11608 17778 11789 13350 10000 14068 14650 18805 999999
999999 999999 999999 999999 999999 999999 999999 999999 999999 999999 999999 999999 999999 999999 999999 999999 999999 999999 999999 999999 999999 999999 999999 999999 999999 999999 999999 999999 999999 999999 999999 999999 999999 999999 999999 999999 999999 999999 999999 999999 999999 999999 999999 999999 999999 999999 0 999999 999999 999999 999999 999999 999999 999999 999999 999999 999999 999999 999999 999999 999999 999999 999999 999999 999999 999999 999999 999999 999999 999999 999999 17391 11781 12940 14556 19557 12748 11045 17844 17184 14979 13327 19394 12889 16725 17248 10853 13227 15976 12172 13592 15594 16480 10204 19210 12378 13047 16257 16254 12520 10081 15308 14429 10002 12610 13885 13344 15516 19981 14459 19550 19930 12792 13639 16485 17500 12362 17016 13740 15516 11233 999999
999999 999999 999999 999999 999999 999999 999999 999999 999999 999999 999999 999999 999999 999999 999999 999999 999999 999999 999999 999999 999999 999999 999999 999999 999999 999999 999999 999999 999999 999999 999999 999999 999999 999999 999999 999999 999999 999999 999999 999999 999999 999999 999999 999999 999999 999999 999999 0 999999 999999 999999 999999 999999 999999 999999 999999 999999 999999 999999 999999 999999 999999 999999 999999 999999 999999 999999 999999 999999 999999 999999 15968 13715 10581 16884 12987 19659 13556 13505 19345 12176 13143 12265 13218 10379 15192 14236 12389 17305 12227 19433 19153 15863 14593 13176 12918 14554 19009 13761 17923 18622 13822 19623 17915 15741 11129 13879 12407 17617 13429 11266 19074 11814 12461 10058 19838 15830 18916 14686 11746 12119 999999
999999 999999 999999 999999 999999 999999 999999 999999 999999 999999 999999 999999 999999 999999 999999 999999 999999 999999 999999 999999 999999 999999 999999 999999 999999 999999 999999 999999 999999 999999 999999 999999 999999 999999 999999 999999 999999 999999 999999 999999 999999 999999 999999 999999 999999 999999 999999 999999 0 999999 999999 999999 999999 999999 999999 999999 999999 999999 999999 999999 999999 999999 999999 999999 999999 999999 999999 999999 999999 999999 999999 19795 11265 10026 19533 14066 18822 18795 14302 12976 11709 15070 11695 17573 19907 17054 17604 17817 12520 17034 18972 10848 11358 19187 18966 11242 10036 12933 10460 12869 18534 13414 14186 18166 14759 10260 14716 14286 11085 15965 18272 17739 15868 10481 15558 10575 11267 18399 13593 11781 16184 999999
999999 999999 999999 999999 999999 999999 999999 999999 999999 999999 999999 999999 999999 999999 999999 999999 999999 999999 999999 999999 999999 999999 999999 999999 999999 999999 999999 999999 999999 999999 999999 999999 999999 999999 999999 999999 999999 999999 999999 999999 999999 999999 999999 999999 999999 999999 999999 999999 999999 0 999999 999999 999999 999999 999999 999999 999999 999999 999999 999999 999999 999999 999999 999999 999999 999999 999999 999999 999999 999999 999999 15519 17579 11352 10491 14853 13801 18091 10663 12594 11587 17784 14087 12315 13955 12522 14350 13638 13843 19627 15646 15178 15904 11928 10524 19119 11222 12279 11074 13575 15399 12865 12988 11303 13635 16786 10831 15254 17641 10544 12929 16505 11337 10222 16098 12660 19255 16569 12285 16232 16328 999999
999999 999999 999999 999999 999999 999999 999999 999999 999999 999999 999999 999999 999999 999999 999999 999999 999999 999999 999999 999999 999999 999999 999999 999999 999999 999999 999999 999999 999999 999999 999999 999999 999999 999999 999999 999999 999999 999999 999999 999999 999999 999999 999999 999999 999999 999999 999999 999999 999999 999999 0 999999 999999 999999 999999 999999 999999 999999 999999 999999 999999 999999 999999 999999 999999 999999 999999 999999 999999 999999 999999 10133 18628 13235 17705 13399 13420 18365 17495 11902 18739 10742 15037 15746 11439 15525 16068 16668 15987 10984 19989 18761 10851 18179 14327 16940 14813 17457 11889 15439 10809 18828 18276 18976 14516 16490 11549 10544 14616 15305 11657 13655 13961 19288 10213 14841 12513 16100 18937 16143 12109 999999
999999 999999 999999 999999 999999 999999 999999 999999 999999 999999 999999 999999 999999 999999 999999 999999 999999 999999 999999 999999 999999 999999 999999 999999 999999 999999 999999 999999 999999 999999 999999 999999 999999 999999 999999 999999 999999 999999 999999 999999 999999 999999 999999 999999 999999 999999 999999 999999 999999 999999 999999 0 999999 999999 999999 999999 999999 999999 999999 999999 999999 999999 999999 999999 999999 999999 999999 999999 999999 999999 999999 14866 18644 11122 14402 18035 11933 15205 17435 15080 19683 13930 18815 10011 11163 13379 16424 10288 16286 13662 16487 15619 13543 10075 12147 10484 16620 17117 16846 16580 11551 19291 15008 14584 11222 18410 19135 13428 19129 10931 11491 14787 13472 17791 12651 10589 14041 15217 19702 11988 12366 999999
999999 999999 999999 999999 999999 999999 999999 999999 999999 999999 999999 999999 999999 999999 999999 999999 999999 999999 999999 999999 999999 999999 999999 999999 999999 999999 999999 999999 999999 999999 999999 999999 999999 999999 999999 999999 999999 999999 999999 999999 999999 999999 999999 999999 999999 999999 999999 999999 999999 999999 999999 999999 0 999999 999999 999999 999999 999999 999999 999999 999999 999999 999999 999999 999999 999999 999999 999999 999999 999999 999999 16506 11487 13940 12990 17228 13590 16033 11462 16469 15958 16615 15785 10976 18687 17654 18093 14587 11940 17856 15375 14232 12199 17600 12189 14739 12065 15852 13362 18837 10745 17383 18830 14639 17181 16251 14004 15962 11700 10960 15056 16121 17663 14544 15945 10867 16662 18121 17647 11613 18602 999999
999999 999999 999999 999999 999999 999999 999999 999999 999999 999999 999999 999999 999999 999999 999999 999999 999999 999999 999999 999999 999999 999999 999999 999999 999999 999999 999999 999999 999999 999999 999999 999999 999999 999999 999999 999999 999999 999999 999999 999999 999999 999999 999999 999999 999999 999999 999999 999999 999999 999999 999999 999999 999999 0 999999 999999 999999 999999 999999 999999 999999 999999 999999 999999 999999 999999 999999 999999 999999 999999 999999 16087 13674 17435 16627 10145 15925 18640 10425 14723 12380 11233 15363 19151 13961 13729 18752 12061 14891 19850 10997 17300 15312 16966 19411 15679 16251 11993 15111 14713 10866 15858 18586 18271 13508 11499 14620 19977 19946 14723 10445 16812 13356 14831 15143 13902 18067 12422 13383 10234 17834 999999
999999 999999 999999 999999 999999 999999 999999 999999 999999 999999 999999 999999 999999 999999 999999 999999 999999 999999 999999 999999 999999 999999 999999 999999 999999 999999 999999 999999 999999 999999 999999 999999 999999 999999 999999 999999 999999 999999 999999 999999 999999 999999 999999 999999 999999 999999 999999 999999 999999 999999 999999 999999 999999 999999 0 999999 999999 999999 999999 999999 999999 999999 999999 999999 999999 999999 999999 999999 999999 999999 999999 13814 14677 14139 13414 17100 12936 13568 17768 18956 17915 10600 11737 14572 11305 13895 12032 17714 19782 16552 17687 11909 18590 16669 13139 18060 11547 19717 16022 19801 14687 14469 13762 19792 17174 17114 14752 11812 14854 17973 13661 19941 14540 15103 15856 17767 13613 10973 13476 11976 19954 999999
999999 999999 999999 999999 999999 999999 999999 999999 999999 999999 999999 999999 999999 999999 999999 999999 999999 999999 999999 999999 999999 999999 999999 999999 999999 999999 999999 999999 999999 999999 999999 999999 999999 999999 999999 999999 999999 999999 999999 999999 999999 999999 999999 999999 999999 999999 999999 999999 999999 999999 999999 999999 999999 999999 999999 0 999999 999999 999999 999999 999999 999999 999999 999999 999999 999999 999999 999999 999999 999999 999999 18797 18243 13459 15948 19475 16580 10230 13638 16796 17217 11635 19389 12428 15684 18733 14189 16013 19098 18510 10178 18869 19752 17002 10731 14273 17511 14681 11416 12303 19770 10388 10067 16508 12122 12769 15614 16039 14521 11797 15636 11141 14418 18619 14624 19925 17344 17888 10401 12068 16913 999999
999999 999999 999999 999999 999999 999999 999999 999999 999999 999999 999999 999999 999999 999999 999999 999999 999999 999999 999999 999999 999999 999999 999999 999999 999999 999999 999999 999999 999999 999999 999999 999999 999999 999999 999999 999999 999999 999999 999999 999999 999999 999999 999999 999999 999999 999999 999999 999999 999999 999999 999999 999999 999999 999999 999999 999999 0 999999 999999 999999 999999 999999 999999 999999 999999 999999 999999 999999 999999 999999 999999 17113 16278 11426 11061 18505 11091 18110 19296 11189 16000 17822 15698 13658 17608 19733 11824 14384 15859 11351 14626 16483 18426 18025 17235 12618 12088 18768 12705 11042 12818 13497 16718 18295 11312 10840 14697 16542 11587 19771 14162 15109 13412 12763 18035 10605 15822 13526 16572 17429 12092 999999
999999 999999 999999 999999 999999 999999 999999 999999 999999 999999 999999 999999 999999 999999 999999 999999 999999 999999 999999 999999 999999 999999 999999 999999 999999 999999 999999 999999 999999 999999 999999 999999 999999 999999 999999 999999 999999 999999 999999 999999 999999 999999 999999 999999 999999 999999 999999 999999 999999 999999 999999 999999 999999 999999 999999 999999 999999 0 999999 999999 999999 999999 999999 999999 999999 999999 999999 999999 999999 999999 999999 16080 10093 18884 13329 18089 12002 16516 11740 18363 18926 14980 18335 17736 14509 15410 11872 19767 13188 10114 17631 18237 18579 14533 12527 11554 16278 19367 11766 14463 10693 11535 16369 16226 16313 11107 17243 10320 16088 18595 19367 10647 13787 17889 10747 10385 10263 14790 17962 18784 10078 999999
999999 999999 999999 999999 999999 999999 999999 999999 999999 999999 999999 999999 999999 999999 999999 999999 999999 999999 999999 999999 999999 999999 999999 999999 999999 999999 999999 999999 999999 999999 999999 999999 999999 999999 999999 999999 999999 999999 999999 999999 999999 999999 999999 999999 999999 999999 999999 999999 999999 999999 999999 999999 999999 999999 999999 999999 999999 999999 0 999999 999999 999999 999999 999999 999999 999999 999999 999999 999999 999999 999999 15314 15437 12260 10016 15878 13369 11869 17343 14319 12204 17447 10441 14528 19959 11540 15522 19404 11090 17964 16937 14123 13417 16071 14075 18455 13626 13814 19931 12801 18441 10012 14458 12085 14635 17488 10325 17571 12205 16430 17613 13347 18171 14133 15841 11872 11873 10697 16627 14288 12029 999999
999999 999999 999999 999999 999999 999999 999999 999999 999999 999999 999999 999999 999999 999999 999999 999999 999999 999999 999999 999999 999999 999999 999999 999999 999999 999999 999999 999999 999999 999999 999999 999999 999999 999999 999999 999999 999999 999999 999999 999999 999999 999999 999999 999999 999999 999999 999999 999999 999999 999999 999999 999999 999999 999999 999999 999999 999999 999999 999999 0 999999 999999 999999 999999 999999 999999 999999 999999 999999 999999 999999 11261 15367 16875 19922 17458 10109 15450 11775 19514 10450 18915 17486 19383 10382 11622 18410 17695 11168 14358 15590 10812 12994 15766 17541 12291 19566 17849 12758 18649 14676 13683 14505 16275 12806 11325 16913 18880 15445 19278 12808 14555 16292 17345 16254 17025 12464 13478 16420 16945 11734 999999
999999 999999 999999 999999 999999 999999 999999 999999 999999 999999 999999 999999 999999 999999 999999 999999 999999 999999 999999 999999 999999 999999 999999 999999 999999 999999 999999 999999 999999 999999 999999 999999 999999 999999 999999 999999 999999 999999 999999 999999 999999 999999 999999 999999 999999 999999 999999 999999 999999 999999 999999 999999 999999 999999 999999 999999 999999 999999 999999 999999 0 999999 999999 999999 999999 999999 999999 999999 999999 999999 999999 18545 14882 16456 15319 13045 15332 17372 14482 14182 17446 17125 11562 19184 16256 15010 11806 13203 14527 11903 12184 19332 18916 12370 11025 14409 17132 18053 18564 12424 17783 17363 19214 12630 16496 12375 11433 16391 11112 13064 15085 17979 16351 14482 11784 16272 10395 18229 12660 13631 17868 999999
999999 999999 999999 999999 999999 999999 999999 999999 999999 999999 999999 999999 999999 999999 999999 999999 999999 999999 999999 999999 999999 999999 999999 999999 999999 999999 999999 999999 999999 999999 999999 999999 999999 999999 999999 999999 999999 999999 999999 999999 999999 999999 999999 999999 999999 999999 999999 999999 999999 999999 999999 999999 999999 999999 999999 999999 999999 999999 999999 999999 999999 0 999999 999999 999999 999999 999999 999999 999999 999999 999999 11941 11703 15133 14813 11420 19838 13020 15921 16701 10151 14577 19350 10893 16904 17624 19059 11404 17178 16899 12809 13490 11891 12114 19638 15645 10908 10794 12811 19877 19003 15518 13499 18246 10092 16183 10215 13869 13675 19476 14434 11503 12400 17838 13160 15282 14546 14280 17584 14583 15598 999999
999999 999999 999999 999999 999999 999999 999999 999999 999999 999999 999999 999999 999999 999999 999999 999999 999999 999999 999999 999999 999999 999999 999999 999999 999999 999999 999999 999999 999999 999999 999999 999999 999999 999999 999999 999999 999999 999999 999999 999999 999999 999999 999999 999999 999999 999999 999999 999999 999999 999999 999999 999999 999999 999999 999999 999999 999999 999999 999999 999999 999999 999999 0 999999 999999 999999 999999 999999 999999 999999 999999 13462 14626 14998 14707 17296 11349 18796 17460 11471 14268 13636 11645 13116 17603 15780 19063 10704 18886 11570 19644 11471 15977 15472 14512 19643 18795 15420 10173 15735 16935 11646 10833 11332 16752 14705 14644 15354 15659 11567 12317 15110 12491 10061 12923 19694 17087 12954 13891 17866 12604 999999
999999 999999 999999 999999 999999 999999 999999 999999 999999 999999 999999 999999 999999 999999 999999 999999 999999 999999 999999 999999 999999 999999 999999 999999 999999 999999 999999 999999 999999 999999 999999 999999 999999 999999 999999 999999 999999 999999 999999 999999 999999 999999 999999 999999 999999 999999 999999 999999 999999 999999 999999 999999 999999 999999 999999 999999 999999 999999 999999 999999 999999 999999 999999 0 999999 999999 999999 999999 999999 999999 999999 10140 12919 14505 10331 11775 14536 18703 16402 17357 15806 12579 13505 12552 16775 19676 11296 18644 12201 12753 13744 15960 18494 12801 18407 15417 18000 19771 19567 16870 18253 13942 12384 13988 14519 15838 16931 15413 13880 16552 14078 10659 17918 13401 10625 19437 14156 11380 14515 12295 19559 999999
999999 999999 999999 999999 999999 999999 999999 999999 999999 999999 999999 999999 999999 999999 999999 999999 999999 999999 999999 999999 999999 999999 999999 999999 999999 999999 999999 999999 999999 999999 999999 999999 999999 999999 999999 999999 999999 999999 999999 999999 999999 999999 999999 999999 999999 999999 999999 999999 999999 999999 999999 999999 999999 999999 999999 999999 999999 999999 999999 999999 999999 999999 999999 999999 0 999999 999999 999999 999999 999999 999999 18689 16395 13580 14834 17890 11568 10121 11352 16052 19125 18252 18700 11089 16392 16278 19064 19784 14733 18180 13037 13140 12062 11695 16217 11978 12790 14400 18741 16674 10433 10769 16193 16322 14211 15093 13522 19525 19845 15248 18542 16535 10958 11700 14649 13127 14990 18767 14805 10557 19318 999999
999999 999999 999999 999999 999999 999999 999999 999999 999999 999999 999999 999999 999999 999999 999999 999999 999999 999999 999999 999999 999999 999999 999999 999999 999999 999999 999999 999999 999999 999999 999999 999999 999999 999999 999999 999999 999999 999999 999999 999999 999999 999999 999999 999999 999999 999999 999999 999999 999999 999999 999999 999999 999999 999999 999999 999999 999999 999999 999999 999999 999999 999999 999999 999999 999999 0 999999 999999 999999 999999 999999 14829 14478 15210 17244 15194 13197 19612 13808 11361 17307 11820 10128 17820 14955 10390 11296 17532 15943 17313 12225 12772 16108 12489 11165 16552 13665 17221 14695 12011 13972 18226 16590 14316 15332 15774 11092 10077 16848 12508 13942 15560 16786 10199 18847 18999 15483 13924 16167 18670 19479 999999
999999 999999 999999 999999 999999 999999 999999 999999 999999 999999 999999 999999 999999 999999 999999 999999 999999 999999 999999 999999 999999 999999 999999 999999 999999 999999 999999 999999 999999 999999 999999 999999 999999 999999 999999 999999 999999 999999 999999 999999 999999 999999 999999 999999 999999 999999 999999 999999 999999 999999 999999 999999 999999 999999 999999 999999 999999 999999 999999 999999 999999 999999 999999 999999 999999 999999 0 999999 999999 999999 999999 13698 16558 15294 19318 13159 16955 12774 18015 12161 14855 10874 16590 16101 18754 10379 14359 18628 16266 17326 13701 12392 13056 10204 15323 10650 13898 18073 19156 16476 11135 14979 10318 15634 12605 17303 15175 13322 16610 16255 14370 14114 18738 18800 12908 19483 19929 19927 10470 10775 10216 999999
999999 999999 999999 999999 999999 999999 999999 999999 999999 999999 999999 999999 999999 999999 999999 999999 999999 999999 999999 999999 999999 999999 999999 999999 999999 999999 999999 999999 999999 999999 999999 999999 999999 999999 999999 999999 999999 999999 999999 999999 999999 999999 999999 999999 999999 999999 999999 999999 999999 999999 999999 999999 999999 999999 999999 999999 999999 999999 999999 999999 999999 999999 999999 999999 999999 999999 999999 0 999999 999999 999999 15789 13112 15636 14270 18798 18730 10569 18930 18560 18325 17154 14955 17416 12227 16532 17072 11891 19950 12053 15833 15926 16595 10267 18372 17078 15751 19339 15295 18928 14951 11797 12143 16180 18641 13291 19888 12028 16060 14058 15016 17082 13959 19265 13179 16355 15079 15754 13604 12460 16485 999999
999999 999999 999999 999999 999999 999999 999999 999999 999999 999999 999999 999999 999999 999999 999999 999999 999999 999999 999999 999999 999999 999999 999999 999999 999999 999999 999999 999999 999999 999999 999999 999999 999999 999999 999999 999999 999999 999999 999999 999999 999999 999999 999999 999999 999999 999999 999999 999999 999999 999999 999999 999999 999999 999999 999999 999999 999999 999999 999999 999999 999999 999999 999999 999999 999999 999999 999999 999999 0 999999 999999 17376 15817 13440 13364 12381 17802 16539 12275 17017 12829 12145 13791 16900 19685 15975 16898 15855 14419 19490 18882 19907 16044 11831 17567 10917 10579 13059 16122 17703 11782 19558 15819 11691 19636 19672 13018 14719 11701 16030 12824 13720 11449 11366 19040 12104 17187 16473 19032 11543 17340 999999
999999 999999 999999 999999 999999 999999 999999 999999 999999 999999 999999 999999 999999 999999 999999 999999 999999 999999 999999 999999 999999 999999 999999 999999 999999 999999 999999 999999 999999 999999 999999 999999 999999 999999 999999 999999 999999 999999 999999 999999 999999 999999 999999 999999 999999 999999 999999 999999 999999 999999 999999 999999 999999 999999 999999 999999 999999 999999 999999 999999 999999 999999 999999 999999 999999 999999 999999 999999 999999 0 999999 14580 15518 16226 12289 12372 15397 13326 14629 16662 16946 16776 15089 14287 14270 19969 17302 15768 18238 11518 12067 18716 16993 19748 19620 17682 13857 10137 15892 18610 14493 11336 19317 12471 19173 13717 19856 18341 17492 16059 15721 17181 12562 16298 15992 10536 17030 10701 14192 14977 15044 999999
999999 999999 999999 999999 999999 999999 999999 999999 999999 999999 999999 999999 999999 999999 999999 999999 999999 999999 999999 999999 999999 999999 999999 999999 999999 999999 999999 999999 999999 999999 999999 999999 999999 999999 999999 999999 999999 999999 999999 999999 999999 999999 999999 999999 999999 999999 999999 999999 999999 999999 999999 999999 999999 999999 999999 999999 999999 999999 999999 999999 999999 999999 999999 999999 999999 999999 999999 999999 999999 999999 0 12665 12413 11395 16085 12396 14083 13212 14892 16162 12033 11709 16327 19373 12108 11436 17116 13925 15466 13545 14577 11693 15612 11148 18926 14618 15112 17190 19025 19562 18200 18053 15746 19233 17629 12959 14996 12217 14547 12395 11649 15149 10509 16406 16434 15608 15554 16646 16848 16461 18148 999999
999999 19173 14639 11753 16978 14598 17410 10084 10013 14207 12753 13551 17460 14156 16992 19695 11654 17559 17124 13883 14280 14643 19560 10921 14187 16892 10677 10191 15613 19847 15879 13743 13066 12623 15634 16759 14339 14689 12865 13646 18044 18697 19721 12913 14000 18269 17391 15968 19795 15519 10133 14866 16506 16087 13814 18797 17113 16080 15314 11261 18545 11941 13462 10140 18689 14829 13698 15789 17376 14580 12665 0 999999 999999 999999 999999 999999 999999 999999 999999 999999 999999 999999 999999 999999 999999 999999 999999 999999 999999 999999 999999 999999 999999 999999 999999 999999 999999 999999 999999 999999 999999 999999 999999 999999 999999 999999 999999 999999 999999 999999 999999 999999 999999 999999 999999 999999 999999 999999 999999 999999 12874
999999 16975 12768 14266 12448 14665 17408 13782 16209 14699 17610 13350 11436 19453 14757 18489 18709 19764 18957 13691 14326 16536 18959 17743 18467 16316 16682 12135 16443 18834 10080 11625 16235 10893 19558 13527 17437 16251 18488 17903 12304 11527 14499 12574 17126 18127 11781 13715 11265 17579 18628 18644 11487 13674 14677 18243 16278 10093 15437 15367 14882 11703 14626 12919 16395 14478 16558 13112 15817 15518 12413 999999 0 999999 999999 999999 999999 999999 999999 999999 999999 999999 999999 999999 999999 999999 999999 999999 999999 999999 999999 999999 999999 999999 999999 999999 999999 999999 999999 999999 999999 999999 999999 999999 999999 999999 999999 999999 999999 999999 999999 999999 999999 999999 999999 999999 999999 999999 999999 999999 999999 6901
999999 12842 14324 10344 16435 18689 13599 10795 12061 15185 18602 11293 14933 16949 16637 19254 10788 17539 12401 16818 15922 14856 17020 15689 16221 16006 10318 18261 16917 13748 15814 11136 10551 12556 15111 16442 11479 12087 11013 12108 19135 10318 12515 19129 12834 16139 12940 10581 10026 11352 13235 11122 13940 17435 14139 13459 11426 18884 12260 16875 16456 15133 14998 14505 13580 15210 15294 15636 13440 16226 11395 999999 999999 0 999999 999999 999999 999999 999999 999999 999999 999999 999999 999999 999999 999999 999999 999999 999999 999999 999999 999999 999999 999999 999999 999999 999999 999999 999999 999999 999999 999999 999999 999999 999999 999999 999999 999999 999999 999999 999999 999999 999999 999999 999999 999999 999999 999999 999999 999999 999999 12523
999999 14605 19713 16632 19217 10141 14451 12828 15937 14216 16675 17898 11142 19254 17167 14664 18848 13035 13115 14185 14321 10265 15588 15921 19115 11479 18392 11304 19436 14278 10240 18863 13153 14040 13856 12143 17129 14548 15987 15094 13870 11210 13725 14397 13992 19627 14556 16884 19533 10491 17705 14402 12990 16627 13414 15948 11061 13329 10016 19922 15319 14813 14707 10331 14834 17244 19318 14270 13364 12289 16085 999999 999999 999999 0 999999 999999 999999 999999 999999 999999 999999 999999 999999 999999 999999 999999 999999 999999 999999 999999 999999 999999 999999 999999 999999 999999 999999 999999 999999 999999 999999 999999 999999 999999 999999 999999 999999 999999 999999 999999 999999 999999 999999 999999 999999 999999 999999 999999 999999 999999 14486
999999 14627 17973 12510 11698 17450 18091 10055 11953 19963 12293 14500 17576 17173 13328 11934 16339 14094 14170 19454 17434 12668 19661 12528 19128 14724 16803 13105 17562 16147 18738 13053 18248 15879 11240 19860 17536 16765 18655 17362 10640 18311 13903 16256 11216 15398 19557 12987 14066 14853 13399 18035 17228 10145 17100 19475 18505 18089 15878 17458 13045 11420 17296 11775 17890 15194 13159 18798 12381 12372 12396 999999 999999 999999 999999 0 999999 999999 999999 999999 999999 999999 999999 999999 999999 999999 999999 999999 999999 999999 999999 999999 999999 999999 999999 999999 999999 999999 999999 999999 999999 999999 999999 999999 999999 999999 999999 999999 999999 999999 999999 999999 999999 999999 999999 999999 999999 999999 999999 999999 999999 8045
999999 11811 17156 15798 14525 14472 13961 12321 10835 15627 17404 19703 18450 14754 11830 12286 17722 16684 14411 15411 12392 15647 16709 14544 13384 14051 12905 19667 18557 15403 18283 16136 19002 15111 15363 13441 14862 18670 12508 13102 19189 13573 12506 14464 14693 19334 12748 19659 18822 13801 13420 11933 13590 15925 12936 16580 11091 12002 13369 10109 15332 19838 11349 14536 11568 13197 16955 18730 17802 15397 14083 999999 999999 999999 999999 999999 0 999999 999999 999999 999999 999999 999999 999999 999999 999999 999999 999999 999999 999999 999999 999999 999999 999999 999999 999999 999999 999999 999999 999999 999999 999999 999999 999999 999999 999999 999999 999999 999999 999999 999999 999999 999999 999999 999999 999999 999999 999999 999999 999999 999999 10183
999999 19753 11332 19429 18063 16102 15633 15230 16270 10508 15688 18129 15218 13989 11010 15002 13485 14031 16310 19768 18720 16999 15855 15528 10139 17128 12367 19312 19223 17635 15204 15973 12909 18022 15547 10627 16633 15143 13110 15713 16847 14425 17446 17327 16061 14381 11045 13556 18795 18091 18365 15205 16033 18640 13568 10230 18110 16516 11869 15450 17372 13020 18796 18703 10121 19612 12774 10569 16539 13326 13212 999999 999999 999999 999999 999999 999999 0 999999 999999 999999 999999 999999 999999 999999 999999 999999 999999 999999 999999 999999 999999 999999 999999 999999 999999 999999 999999 999999 999999 999999 999999 999999 999999 999999 999999 999999 999999 999999 999999 999999 999999 999999 999999 999999 999999 999999 999999 999999 999999 999999 5608
999999 19574 10802 10122 10424 14191 14692 16242 18363 13870 15275 15796 11128 16126 13087 15184 19529 12487 16343 15036 10754 10017 18096 19005 14593 15549 10215 12353 14828 16185 10233 18099 11651 19778 11307 19502 19766 14198 13036 14604 13481 14197 15718 18777 11485 11380 17844 13505 14302 10663 17495 17435 11462 10425 17768 13638 19296 11740 17343 11775 14482 15921 17460 16402 11352 13808 18015 18930 12275 14629 14892 999999 999999 999999 999999 999999 999999 999999 0 999999 999999 999999 999999 999999 999999 999999 999999 999999 999999 999999 999999 999999 999999 999999 999999 999999 999999 999999 999999 999999 999999 999999 999999 999999 999999 999999 999999 999999 999999 999999 999999 999999 999999 999999 999999 999999 999999 999999 999999 999999 999999 11813
999999 11790 15088 10190 11732 11307 18297 10623 10611 11750 17546 10597 10204 13509 15731 10421 13376 10427 12288 14325 12752 15926 14803 13696 15064 17958 16000 11241 11927 19355 16126 14462 16944 11504 19687 10470 17665 15265 18382 14845 10528 19034 14046 15121 14964 11064 17184 19345 12976 12594 11902 15080 16469 14723 18956 16796 11189 18363 14319 19514 14182 16701 11471 17357 16052 11361 12161 18560 17017 16662 16162 999999 999999 999999 999999 999999 999999 999999 999999 0 999999 999999 999999 999999 999999 999999 999999 999999 999999 999999 999999 999999 999999 999999 999999 999999 999999 999999 999999 999999 999999 999999 999999 999999 999999 999999 999999 999999 999999 999999 999999 999999 999999 999999 999999 999999 999999 999999 999999 999999 999999 14879
999999 10094 17219 19461 18914 11051 19273 18728 19127 16732 10708 14064 19406 14796 15577 15016 17019 11963 19637 13877 16905 18259 16089 18328 12970 12832 19446 15228 15383 17795 14829 15875 19466 14765 13615 16199 12034 12388 10438 12190 11705 18505 10260 11260 13246 17019 14979 12176 11709 11587 18739 19683 15958 12380 17915 17217 16000 18926 12204 10450 17446 10151 14268 15806 19125 17307 14855 18325 12829 16946 12033 999999 999999 999999 999999 999999 999999 999999 999999 999999 0 999999 999999 999999 999999 999999 999999 999999 999999 999999 999999 999999 999999 999999 999999 999999 999999 999999 999999 999999 999999 999999 999999 999999 999999 999999 999999 999999 999999 999999 999999 999999 999999 999999 999999 999999 999999 999999 999999 999999 999999 14866
999999 19177 17310 13451 11660 11558 19621 18703 16123 12800 18351 19586 19782 10325 11787 11214 12849 11265 19310 18885 18882 19967 10557 15625 17589 10999 12160 11223 10805 12943 10089 16123 19673 16018 17497 16964 10755 15718 15398 16508 15250 15921 18724 14632 14356 12090 13327 13143 15070 17784 10742 13930 16615 11233 10600 11635 17822 14980 17447 18915 17125 14577 13636 12579 18252 11820 10874 17154 12145 16776 11709 999999 999999 999999 999999 999999 999999 999999 999999 999999 999999 0 999999 999999 999999 999999 999999 999999 999999 999999 999999 999999 999999 999999 999999 999999 999999 999999 999999 999999 999999 999999 999999 999999 999999 999999 999999 999999 999999 999999 999999 999999 999999 999999 999999 999999 999999 999999 999999 999999 999999 6340
999999 12981 13603 10358 14848 13718 14851 18445 13942 19726 18516 15956 18007 19585 12193 15488 10619 12108 19382 13247 16648 12791 11932 13180 18225 12809 16198 12027 11558 15512 17499 18844 13941 11559 14814 14395 10709 10070 14437 11395 19158 19625 13411 15202 12437 10016 19394 12265 11695 14087 15037 18815 15785 15363 11737 19389 15698 18335 10441 17486 11562 19350 11645 13505 18700 10128 16590 14955 13791 15089 16327 999999 999999 999999 999999 999999 999999 999999 999999 999999 999999 999999 0 999999 999999 999999 999999 999999 999999 999999 999999 999999 999999 999999 999999 999999 999999 999999 999999 999999 999999 999999 999999 999999 999999 999999 999999 999999 999999 999999 999999 999999 999999 999999 999999 999999 999999 999999 999999 999999 999999 5537
999999 19867 11347 14983 12043 10524 11273 17729 10714 13037 15407 15777 12380 14519 14983 12374 13145 13869 13832 13679 10998 11480 12089 19593 17877 14687 19959 10172 15245 17737 19858 18153 18321 17604 19386 11956 14345 10142 12981 12539 10999 19882 17592 15677 17137 16855 12889 13218 17573 12315 15746 10011 10976 19151 14572 12428 13658 17736 14528 19383 19184 10893 13116 12552 11089 17820 16101 17416 16900 14287 19373 999999 999999 999999 999999 999999 999999 999999 999999 999999 999999 999999 999999 0 999999 999999 999999 999999 999999 999999 999999 999999 999999 999999 999999 999999 999999 999999 999999 999999 999999 999999 999999 999999 999999 999999 999999 999999 999999 999999 999999 999999 999999 999999 999999 999999 999999 999999 999999 999999 999999 6599
999999 17581 11715 18745 11718 10710 10118 19090 14535 12666 14638 10049 13063 13867 11524 17280 11866 11728 12973 15732 13187 17456 18080 14297 15065 19178 15234 12318 15220 11152 13520 13709 15533 14672 18291 17860 19254 15767 19114 10718 11885 10154 12397 17358 11784 14872 16725 10379 19907 13955 11439 11163 18687 13961 11305 15684 17608 14509 19959 10382 16256 16904 17603 16775 16392 14955 18754 12227 19685 14270 12108 999999 999999 999999 999999 999999 999999 999999 999999 999999 999999 999999 999999 999999 0 999999 999999 999999 999999 999999 999999 999999 999999 999999 999999 999999 999999 999999 999999 999999 999999 999999 999999 999999 999999 999999 999999 999999 999999 999999 999999 999999 999999 999999 999999 999999 999999 999999 999999 999999 999999 13589
999999 12589 14364 16148 11346 11830 18066 18630 10676 15815 19558 12916 16014 16795 17902 12985 12462 18094 11455 15822 16242 18910 17399 10145 15889 14314 13100 16318 14997 14593 17774 11011 16105 16110 16249 12009 18183 12970 13885 17149 10603 11710 14200 15044 12596 12349 17248 15192 17054 12522 15525 13379 17654 13729 13895 18733 19733 15410 11540 11622 15010 17624 15780 19676 16278 10390 10379 16532 15975 19969 11436 999999 999999 999999 999999 999999 999999 999999 999999 999999 999999 999999 999999 999999 999999 0 999999 999999 999999 999999 999999 999999 999999 999999 999999 999999 999999 999999 999999 999999 999999 999999 999999 999999 999999 999999 999999 999999 999999 999999 999999 999999 999999 999999 999999 999999 999999 999999 999999 999999 999999 10137
999999 13155 14766 11131 12713 14137 13993 12873 13890 11881 11283 17420 19422 14296 10140 16349 18286 18639 13765 18719 13245 19513 10085 15163 13543 15415 18505 13911 18654 18465 19549 17604 19600 13313 17207 17502 15334 14984 16065 18686 15919 10885 15572 19515 10626 10291 10853 14236 17604 14350 16068 16424 18093 18752 12032 14189 11824 11872 15522 18410 11806 19059 19063 11296 19064 11296 14359 17072 16898 17302 17116 999999 999999 999999 999999 999999 999999 999999 999999 999999 999999 999999 999999 999999 999999 999999 0 999999 999999 999999 999999 999999 999999 999999 999999 999999 999999 999999 999999 999999 999999 999999 999999 999999 999999 999999 999999 999999 999999 999999 999999 999999 999999 999999 999999 999999 999999 999999 999999 999999 999999 5856
999999 10701 13258 17191 13661 15347 14680 18659 10539 11881 19407 10306 16295 16398 14833 19191 18853 17083 15832 10942 15322 17259 12681 18425 13996 15198 16703 10257 11779 16945 19571 15372 17115 15009 18647 19069 16005 16331 17626 19209 16280 19500 11990 16481 10889 19416 13227 12389 17817 13638 16668 10288 14587 12061 17714 16013 14384 19767 19404 17695 13203 11404 10704 18644 19784 17532 18628 11891 15855 15768 13925 999999 999999 999999 999999 999999 999999 999999 999999 999999 999999 999999 999999 999999 999999 999999 999999 0 999999 999999 999999 999999 999999 999999 999999 999999 999999 999999 999999 999999 999999 999999 999999 999999 999999 999999 999999 999999 999999 999999 999999 999999 999999 999999 999999 999999 999999 999999 999999 999999 999999 7976
999999 10878 15407 10458 19329 10285 11233 16172 15046 15640 18661 16570 10080 16730 15903 12608 14805 19969 13861 14983 19280 15456 17207 13673 14749 17387 17895 13748 19018 16314 15073 12440 17424 15198 13232 12415 12798 15370 12016 10922 15150 19704 13456 15113 15236 13877 15976 17305 12520 13843 15987 16286 11940 14891 19782 19098 15859 13188 11090 11168 14527 17178 18886 12201 14733 15943 16266 19950 14419 18238 15466 999999 999999 999999 999999 999999 999999 999999 999999 999999 999999 999999 999999 999999 999999 999999 999999 999999 0 999999 999999 999999 999999 999999 999999 999999 999999 999999 999999 999999 999999 999999 999999 999999 999999 999999 999999 999999 999999 999999 999999 999999 999999 999999 999999 999999 999999 999999 999999 999999 999999 10795
999999 18968 16705 11471 10180 11158 14741 12581 14816 14778 18587 17805 12642 18187 14974 13135 10305 15931 10564 19867 18553 10830 10265 14264 11528 19144 17058 17595 13851 12034 18452 18718 15201 12879 13933 16847 17554 11757 17719 19428 10507 12967 19663 11438 17170 10361 12172 12227 17034 19627 10984 13662 17856 19850 16552 18510 11351 10114 17964 14358 11903 16899 11570 12753 18180 17313 17326 12053 19490 11518 13545 999999 999999 999999 999999 999999 999999 999999 999999 999999 999999 999999 999999 999999 999999 999999 999999 999999 999999 0 999999 999999 999999 999999 999999 999999 999999 999999 999999 999999 999999 999999 999999 999999 999999 999999 999999 999999 999999 999999 999999 999999 999999 999999 999999 999999 999999 999999 999999 999999 999999 10557
999999 16609 12069 17139 15670 13742 16808 16391 10234 11954 17645 11609 15819 11455 13952 17138 13456 10023 11491 18221 18704 18362 13476 18019 18775 11855 15911 14462 11943 19190 10725 13272 11455 16829 11135 17927 10605 17035 11343 12625 16873 13640 18188 13917 14761 12032 13592 19433 18972 15646 19989 16487 15375 10997 17687 10178 14626 17631 16937 15590 12184 12809 19644 13744 13037 12225 13701 15833 18882 12067 14577 999999 999999 999999 999999 999999 999999 999999 999999 999999 999999 999999 999999 999999 999999 999999 999999 999999 999999 999999 0 999999 999999 999999 999999 999999 999999 999999 999999 999999 999999 999999 999999 999999 999999 999999 999999 999999 999999 999999 999999 999999 999999 999999 999999 999999 999999 999999 999999 999999 999999 9143
999999 10369 13088 17801 13294 15199 19551 15607 12149 18059 11964 16194 12238 19257 16277 17625 17061 15962 17991 16129 17486 11106 15727 16818 19632 12820 11673 18240 11275 10983 16758 14211 14180 17695 19929 14486 16459 14456 12513 16660 12603 15914 17611 17396 17741 16138 15594 19153 10848 15178 18761 15619 14232 17300 11909 18869 16483 18237 14123 10812 19332 13490 11471 15960 13140 12772 12392 15926 19907 18716 11693 999999 999999 999999 999999 999999 999999 999999 999999 999999 999999 999999 999999 999999 999999 999999 999999 999999 999999 999999 999999 0 999999 999999 999999 999999 999999 999999 999999 999999 999999 999999 999999 999999 999999 999999 999999 999999 999999 999999 999999 999999 999999 999999 999999 999999 999999 999999 999999 999999 999999 5085
999999 10202 15906 17355 14425 12002 15627 10421 17406 14117 14128 15735 11477 15756 17421 16333 15086 19973 12130 17701 17296 19870 15142 10476 13715 19734 13273 16501 12504 16506 16774 17839 12597 16163 10693 11004 19966 13241 15084 17101 13454 14632 10445 12179 15157 12477 16480 15863 11358 15904 10851 13543 12199 15312 18590 19752 18426 18579 13417 12994 18916 11891 15977 18494 12062 16108 13056 16595 16044 16993 15612 999999 999999 999999 999999 999999 999999 999999 999999 999999 999999 999999 999999 999999 999999 999999 999999 999999 999999 999999 999999 999999 0 999999 999999 999999 999999 999999 999999 999999 999999 999999 999999 999999 999999 999999 999999 999999 999999 999999 999999 999999 999999 999999 999999 999999 999999 999999 999999 999999 999999 12078
999999 19534 12358 13903 18531 16149 18953 17474 13579 11402 16830 17570 14833 19820 14513 17059 12149 15089 11121 19168 17091 18017 16404 14136 16723 18382 13222 10557 11412 19991 11264 13791 16623 18178 13709 15058 16586 18857 16306 17055 19020 13082 19548 17843 19443 10108 10204 14593 19187 11928 18179 10075 17600 16966 16669 17002 18025 14533 16071 15766 12370 12114 15472 12801 11695 12489 10204 10267 11831 19748 11148 999999 999999 999999 999999 999999 999999 999999 999999 999999 999999 999999 999999 999999 999999 999999 999999 999999 999999 999999 999999 999999 999999 0 999999 999999 999999 999999 999999 999999 999999 999999 999999 999999 999999 999999 999999 999999 999999 999999 999999 999999 999999 999999 999999 999999 999999 999999 999999 999999 999999 7428
999999 18776 11677 18083 14429 13475 12492 11091 11181 19529 10104 13463 17776 17206 14666 17672 12325 15649 19878 10130 13582 14486 16224 11628 14089 15139 13630 11864 18147 15078 18629 19846 14336 19813 12789 15233 11678 16814 15460 13043 10658 13715 14790 17107 10884 15013 19210 13176 18966 10524 14327 12147 12189 19411 13139 10731 17235 12527 14075 17541 11025 19638 14512 18407 16217 11165 15323 18372 17567 19620 18926 999999 999999 999999 999999 999999 999999 999999 999999 999999 999999 999999 999999 999999 999999 999999 999999 999999 999999 999999 999999 999999 999999 999999 0 999999 999999 999999 999999 999999 999999 999999 999999 999999 999999 999999 999999 999999 999999 999999 999999 999999 999999 999999 999999 999999 999999 999999 999999 999999 999999 7729
999999 18878 19218 12371 17128 14113 16412 14679 16309 18512 14579 19752 17336 18869 11220 10127 16589 17609 13725 19088 10027 14823 15653 17284 18118 19335 16103 14534 16528 18057 14586 14088 11389 11411 17176 12589 10030 15408 14614 11441 18183 15592 10547 13110 17949 10629 12378 12918 11242 19119 16940 10484 14739 15679 18060 14273 12618 11554 18455 12291 14409 15645 19643 15417 11978 16552 10650 17078 10917 17682 14618 999999 999999 999999 999999 999999 999999 999999 999999 999999 999999 999999 999999 999999 999999 999999 999999 999999 999999 999999 999999 999999 999999 999999 999999 0 999999 999999 999999 999999 999999 999999 999999 999999 999999 999999 999999 999999 999999 999999 999999 999999 999999 999999 999999 999999 999999 999999 999999 999999 999999 5915
999999 18953 12205 15300 15668 13835 11374 19256 12335 13281 14484 12789 12289 18687 17063 18507 14793 16922 15720 13156 11837 13216 10676 12613 16379 11175 17029 17617 15957 16193 16738 12685 11430 18892 15927 11308 15391 13956 17733 11243 16491 10844 12378 10409 16654 14476 13047 14554 10036 11222 14813 16620 12065 16251 11547 17511 12088 16278 13626 19566 17132 10908 18795 18000 12790 13665 13898 15751 10579 13857 15112 999999 999999 999999 999999 999999 999999 999999 999999 999999 999999 999999 999999 999999 999999 999999 999999 999999 999999 999999 999999 999999 999999 999999 999999 999999 0 999999 999999 999999 999999 999999 999999 999999 999999 999999 999999 999999 999999 999999 999999 999999 999999 999999 999999 999999 999999 999999 999999 999999 999999 6160
999999 12900 16532 14413 16595 18731 13335 15274 14329 15421 10474 12062 12837 19649 19481 16437 18850 14000 19755 11780 16622 14441 19596 12569 12521 19178 13229 15568 17221 15640 15483 13857 16334 13877 17544 18243 17572 11567 10481 11304 18803 14349 13222 19266 13254 13382 16257 19009 12933 12279 17457 17117 15852 11993 19717 14681 18768 19367 13814 17849 18053 10794 15420 19771 14400 17221 18073 19339 13059 10137 17190 999999 999999 999999 999999 999999 999999 999999 999999 999999 999999 999999 999999 999999 999999 999999 999999 999999 999999 999999 999999 999999 999999 999999 999999 999999 999999 0 999999 999999 999999 999999 999999 999999 999999 999999 999999 999999 999999 999999 999999 999999 999999 999999 999999 999999 999999 999999 999999 999999 999999 9557
999999 16428 11730 16893 10538 18637 12944 18556 13407 12354 16973 19080 17474 15914 12542 13576 16193 13568 12203 15083 11492 15276 18660 16125 11305 19587 13371 14845 18695 11974 12331 15707 14291 16406 13183 10046 11793 11616 18899 12902 10334 15485 18816 13901 16147 17874 16254 13761 10460 11074 11889 16846 13362 15111 16022 11416 12705 11766 19931 12758 18564 12811 10173 19567 18741 14695 19156 15295 16122 15892 19025 999999 999999 999999 999999 999999 999999 999999 999999 999999 999999 999999 999999 999999 999999 999999 999999 999999 999999 999999 999999 999999 999999 999999 999999 999999 999999 999999 0 999999 999999 999999 999999 999999 999999 999999 999999 999999 999999 999999 999999 999999 999999 999999 999999 999999 999999 999999 999999 999999 999999 13985
999999 13416 16248 17604 14766 15638 10807 13353 13139 13465 11294 16714 15549 14763 13811 10160 11237 15433 16885 10547 13655 18038 17867 16538 15088 18995 15466 12252 19142 17403 18909 17233 17888 11893 11780 13703 12766 18322 17684 12328 16909 11177 10065 18412 15475 10539 12520 17923 12869 13575 15439 16580 18837 14713 19801 12303 11042 14463 12801 18649 12424 19877 15735 16870 16674 12011 16476 18928 17703 18610 19562 999999 999999 999999 999999 999999 999999 999999 999999 999999 999999 999999 999999 999999 999999 999999 999999 999999 999999 999999 999999 999999 999999 999999 999999 999999 999999 999999 999999 0 999999 999999 999999 999999 999999 999999 999999 999999 999999 999999 999999 999999 999999 999999 999999 999999 999999 999999 999999 999999 999999 13405
999999 10942 13368 17028 18657 11972 19958 10739 17900 13928 10232 11470 13902 16683 13472 15037 19951 18539 17834 16022 15942 17944 13098 14300 19541 10668 13787 17575 11406 15012 12905 18909 15716 14548 17287 15858 11280 13864 17462 15730 11627 15712 10461 12249 11099 14690 10081 18622 18534 15399 10809 11551 10745 10866 14687 19770 12818 10693 18441 14676 17783 19003 16935 18253 10433 13972 11135 14951 11782 14493 18200 999999 999999 999999 999999 999999 999999 999999 999999 999999 999999 999999 999999 999999 999999 999999 999999 999999 999999 999999 999999 999999 999999 999999 999999 999999 999999 999999 999999 999999 0 999999 999999 999999 999999 999999 999999 999999 999999 999999 999999 999999 999999 999999 999999 999999 999999 999999 999999 999999 999999 7452
999999 13428 14526 12194 11554 10471 11756 15980 14003 15634 14818 17290 17969 13330 19169 15272 10213 11181 13489 16771 12308 13447 12633 13769 18788 10026 13682 16994 16949 18508 18792 14004 11848 11690 16983 19786 17604 16599 16188 10460 16819 11648 14270 14406 18267 13461 15308 13822 13414 12865 18828 19291 17383 15858 14469 10388 13497 11535 10012 13683 17363 15518 11646 13942 10769 18226 14979 11797 19558 11336 18053 999999 999999 999999 999999 999999 999999 999999 999999 999999 999999 999999 999999 999999 999999 999999 999999 999999 999999 999999 999999 999999 999999 999999 999999 999999 999999 999999 999999 999999 999999 0 999999 999999 999999 999999 999999 999999 999999 999999 999999 999999 999999 999999 999999 999999 999999 999999 999999 999999 999999 11912
999999 16631 14019 14973 10667 15714 16987 15451 11678 14925 13095 13728 13288 13042 11374 16685 15409 12270 13103 14081 11504 16590 12440 19052 18354 14253 13413 18592 17919 13344 15960 15492 11643 19344 15453 12580 19294 14409 13654 16244 19626 10559 12498 19392 14395 18266 14429 19623 14186 12988 18276 15008 18830 18586 13762 10067 16718 16369 14458 14505 19214 13499 10833 12384 16193 16590 10318 12143 15819 19317 15746 999999 999999 999999 999999 999999 999999 999999 999999 999999 999999 999999 999999 999999 999999 999999 999999 999999 999999 999999 999999 999999 999999 999999 999999 999999 999999 999999 999999 999999 999999 999999 0 999999 999999 999999 999999 999999 999999 999999 999999 999999 999999 999999 999999 999999 999999 999999 999999 999999 999999 10517
999999 18201 16516 12944 18517 12371 18891 11388 15760 14459 13755 15042 16536 15790 13013 19434 11614 13547 12712 11324 14248 16868 17641 15160 17544 12300 12521 15153 18765 13856 11701 17354 19904 15302 16376 15679 19764 10049 16925 15618 10186 13964 11472 15354 12966 12424 10002 17915 18166 11303 18976 14584 14639 18271 19792 16508 18295 16226 12085 16275 12630 18246 11332 13988 16322 14316 15634 16180 11691 12471 19233 999999 999999 999999 999999 999999 999999 999999 999999 999999 999999 999999 999999 999999 999999 999999 999999 999999 999999 999999 999999 999999 999999 999999 999999 999999 999999 999999 999999 999999 999999 999999 999999 0 999999 999999 999999 999999 999999 999999 999999 999999 999999 999999 999999 999999 999999 999999 999999 999999 999999 9061
999999 17710 16732 10231 12152 19948 19931 13784 17615 14397 19431 19027 15621 11142 15794 19485 16792 15897 13725 18085 16301 14612 15250 18821 19503 13588 14870 15978 18095 10397 19181 13913 13541 17791 15289 13868 15440 19743 13360 16639 17991 12013 17704 11889 10086 12675 12610 15741 14759 13635 14516 11222 17181 13508 17174 12122 11312 16313 14635 12806 16496 10092 16752 14519 14211 15332 12605 18641 19636 19173 17629 999999 999999 999999 999999 999999 999999 999999 999999 999999 999999 999999 999999 999999 999999 999999 999999 999999 999999 999999 999999 999999 999999 999999 999999 999999 999999 999999 999999 999999 999999 999999 999999 999999 0 999999 999999 999999 999999 999999 999999 999999 999999 999999 999999 999999 999999 999999 999999 999999 999999 10938
999999 17991 11195 16644 18152 11590 13793 14539 12803 19614 16133 13800 10377 12211 19531 10808 14360 19803 18565 14891 13489 14638 15684 19656 13914 13246 17761 13099 14185 11181 10033 10934 15220 16558 16440 18901 16719 17167 11876 12575 18141 18924 19560 16231 10952 13922 13885 11129 10260 16786 16490 18410 16251 11499 17114 12769 10840 11107 17488 11325 12375 16183 14705 15838 15093 15774 17303 13291 19672 13717 12959 999999 999999 999999 999999 999999 999999 999999 999999 999999 999999 999999 999999 999999 999999 999999 999999 999999 999999 999999 999999 999999 999999 999999 999999 999999 999999 999999 999999 999999 999999 999999 999999 999999 999999 0 999999 999999 999999 999999 999999 999999 999999 999999 999999 999999 999999 999999 999999 999999 999999 14280
999999 13495 19488 16996 18594 17887 13817 18896 14592 14531 10325 15926 10614 18039 17595 12667 14438 15609 17492 14441 18103 17294 15503 10751 13975 15467 10573 19187 12761 19089 18274 17188 15599 16169 19861 18341 15683 18159 15446 18022 15511 11342 15623 18316 16340 12168 13344 13879 14716 10831 11549 19135 14004 14620 14752 15614 14697 17243 10325 16913 11433 10215 14644 16931 13522 11092 15175 19888 13018 19856 14996 999999 999999 999999 999999 999999 999999 999999 999999 999999 999999 999999 999999 999999 999999 999999 999999 999999 999999 999999 999999 999999 999999 999999 999999 999999 999999 999999 999999 999999 999999 999999 999999 999999 999999 999999 0 999999 999999 999999 999999 999999 999999 999999 999999 999999 999999 999999 999999 999999 999999 12749
999999 13877 17152 17486 15526 10276 18681 14680 19243 12948 15083 17524 15669 10857 15579 14288 18699 19077 19624 13456 10519 16269 13034 11101 11095 18831 10954 19315 19001 14501 15507 16567 18760 14490 10704 16017 18516 19994 10949 12141 11480 12030 10395 13606 14195 12905 15516 12407 14286 15254 10544 13428 15962 19977 11812 16039 16542 10320 17571 18880 16391 13869 15354 15413 19525 10077 13322 12028 14719 18341 12217 999999 999999 999999 999999 999999 999999 999999 999999 999999 999999 999999 999999 999999 999999 999999 999999 999999 999999 999999 999999 999999 999999 999999 999999 999999 999999 999999 999999 999999 999999 999999 999999 999999 999999 999999 999999 0 999999 999999 999999 999999 999999 999999 999999 999999 999999 999999 999999 999999 999999 5399
999999 15622 17524 18518 12256 12469 17115 15956 15584 13587 17551 10961 15905 10023 10720 16060 16669 13938 13396 17572 11479 12585 17359 18287 14200 17964 11830 11980 14897 15472 15547 13140 18315 11093 12419 14612 15059 11469 16702 11695 12863 11579 10024 17966 15779 11543 19981 17617 11085 17641 14616 19129 11700 19946 14854 14521 11587 16088 12205 15445 11112 13675 15659 13880 19845 16848 16610 16060 11701 17492 14547 999999 999999 999999 999999 999999 999999 999999 999999 999999 999999 999999 999999 999999 999999 999999 999999 999999 999999 999999 999999 999999 999999 999999 999999 999999 999999 999999 999999 999999 999999 999999 999999 999999 999999 999999 999999 999999 0 999999 999999 999999 999999 999999 999999 999999 999999 999999 999999 999999 999999 6680
999999 15839 11158 11303 11438 19494 19733 16050 13995 16516 12321 17749 13319 11996 12613 14284 17829 17505 15576 19408 18148 18666 10697 19574 18381 10044 15984 14878 18302 13654 17019 13791 18361 14086 13537 10603 12550 12084 18440 12115 13074 13177 12861 16583 13825 18651 14459 13429 15965 10544 15305 10931 10960 14723 17973 11797 19771 18595 16430 19278 13064 19476 11567 16552 15248 12508 16255 14058 16030 16059 12395 999999 999999 999999 999999 999999 999999 999999 999999 999999 999999 999999 999999 999999 999999 999999 999999 999999 999999 999999 999999 999999 999999 999999 999999 999999 999999 999999 999999 999999 999999 999999 999999 999999 999999 999999 999999 999999 999999 0 999999 999999 999999 999999 999999 999999 999999 999999 999999 999999 999999 14832
999999 13475 16381 10649 17309 11665 16316 15528 19260 19228 14537 10424 19633 10295 16975 19269 10916 19348 19473 16374 17836 13992 17287 18307 15050 19707 15541 14882 16817 12461 16423 19971 11032 19323 17117 14193 13253 15336 14840 12880 11560 15396 18462 14743 18443 13234 19550 11266 18272 12929 11657 11491 15056 10445 13661 15636 14162 19367 17613 12808 15085 14434 12317 14078 18542 13942 14370 15016 12824 15721 11649 999999 999999 999999 999999 999999 999999 999999 999999 999999 999999 999999 999999 999999 999999 999999 999999 999999 999999 999999 999999 999999 999999 999999 999999 999999 999999 999999 999999 999999 999999 999999 999999 999999 999999 999999 999999 999999 999999 999999 0 999999 999999 999999 999999 999999 999999 999999 999999 999999 999999 10025
999999 11723 16174 14145 11300 15900 16677 15580 17281 10169 11823 16330 15008 16974 17359 14224 17880 14330 15631 10497 12788 18777 19204 14574 13657 13354 12834 19289 17706 18071 15202 18993 11478 18116 16102 11775 13222 11952 15170 15072 16894 16237 16184 15056 14519 15500 19930 19074 17739 16505 13655 14787 16121 16812 19941 11141 15109 10647 13347 14555 17979 11503 15110 10659 16535 15560 14114 17082 13720 17181 15149 999999 999999 999999 999999 999999 999999 999999 999999 999999 999999 999999 999999 999999 999999 999999 999999 999999 999999 999999 999999 999999 999999 999999 999999 999999 999999 999999 999999 999999 999999 999999 999999 999999 999999 999999 999999 999999 999999 999999 999999 0 999999 999999 999999 999999 999999 999999 999999 999999 999999 10304
999999 10444 15035 17524 15786 14701 15243 14969 10266 19436 16030 19360 11347 10456 15813 11711 17264 10467 17416 12825 15072 13602 17869 18830 10518 18265 12326 17487 13647 18420 19070 18433 15536 19122 17473 12459 17631 10908 17252 15842 16689 12665 10944 18988 12675 13493 12792 11814 15868 11337 13961 13472 17663 13356 14540 14418 13412 13787 18171 16292 16351 12400 12491 17918 10958 16786 18738 13959 11449 12562 10509 999999 999999 999999 999999 999999 999999 999999 999999 999999 999999 999999 999999 999999 999999 999999 999999 999999 999999 999999 999999 999999 999999 999999 999999 999999 999999 999999 999999 999999 999999 999999 999999 999999 999999 999999 999999 999999 999999 999999 999999 999999 0 999999 999999 999999 999999 999999 999999 999999 999999 6299
999999 19886 16866 14433 18832 12753 19504 15889 11815 16248 18933 11400 16928 11724 13017 18661 12813 17603 11815 10995 11710 11056 18128 16010 10295 19660 10153 13279 10214 17759 15961 12267 13619 17870 19912 19848 13706 16069 15513 19144 12298 14409 13636 19618 14822 11608 13639 12461 10481 10222 19288 17791 14544 14831 15103 18619 12763 17889 14133 17345 14482 17838 10061 13401 11700 10199 18800 19265 11366 16298 16406 999999 999999 999999 999999 999999 999999 999999 999999 999999 999999 999999 999999 999999 999999 999999 999999 999999 999999 999999 999999 999999 999999 999999 999999 999999 999999 999999 999999 999999 999999 999999 999999 999999 999999 999999 999999 999999 999999 999999 999999 999999 999999 0 999999 999999 999999 999999 999999 999999 999999 6341
999999 11485 10479 12368 11378 12168 17449 14115 15952 11841 10221 15292 13489 11684 19262 19417 13352 18739 11450 18433 13229 14545 13261 12706 12418 12467 14909 19971 15679 17674 14967 16459 12887 10206 19152 13037 19488 15908 17803 10008 12639 10018 19971 18463 11044 17778 16485 10058 15558 16098 10213 12651 15945 15143 15856 14624 18035 10747 15841 16254 11784 13160 12923 10625 14649 18847 12908 13179 19040 15992 16434 999999 999999 999999 999999 999999 999999 999999 999999 999999 999999 999999 999999 999999 999999 999999 999999 999999 999999 999999 999999 999999 999999 999999 999999 999999 999999 999999 999999 999999 999999 999999 999999 999999 999999 999999 999999 999999 999999 999999 999999 999999 999999 999999 0 999999 999999 999999 999999 999999 999999 6499
999999 14183 11159 10665 10297 15474 16536 16085 15572 18458 19404 10829 16275 18334 11881 17896 16702 10228 16386 12575 13240 17946 18685 13365 17300 14136 11041 17436 15200 14374 18688 17823 10849 15980 17888 17530 16825 17688 16974 19612 19961 11577 17371 11282 14682 11789 17500 19838 10575 12660 14841 10589 10867 13902 17767 19925 10605 10385 11872 17025 16272 15282 19694 19437 13127 18999 19483 16355 12104 10536 15608 999999 999999 999999 999999 999999 999999 999999 999999 999999 999999 999999 999999 999999 999999 999999 999999 999999 999999 999999 999999 999999 999999 999999 999999 999999 999999 999999 999999 999999 999999 999999 999999 999999 999999 999999 999999 999999 999999 999999 999999 999999 999999 999999 999999 0 999999 999999 999999 999999 999999 7295
999999 12283 14530 11350 18121 18904 16098 18623 15956 15982 14944 16202 13374 10655 12195 13931 12731 13825 19282 19092 14481 15626 10636 12048 11884 15106 16178 11871 13699 12553 17828 14887 19487 11397 17627 16249 14632 10014 13798 16267 14753 12960 18659 18844 17267 13350 12362 15830 11267 19255 12513 14041 16662 18067 13613 17344 15822 10263 11873 12464 10395 14546 17087 14156 14990 15483 19929 15079 17187 17030 15554 999999 999999 999999 999999 999999 999999 999999 999999 999999 999999 999999 999999 999999 999999 999999 999999 999999 999999 999999 999999 999999 999999 999999 999999 999999 999999 999999 999999 999999 999999 999999 999999 999999 999999 999999 999999 999999 999999 999999 999999 999999 999999 999999 999999 999999 0 999999 999999 999999 999999 11760
999999 19663 10711 13733 12501 16907 14170 14420 16383 14282 19320 17387 15652 19907 10365 12229 10937 19501 16175 17836 12498 13256 10390 14892 17311 13005 12979 15532 14123 14091 11437 15804 16701 14412 12211 18057 12924 14444 10603 18603 15084 14866 10302 16689 16320 10000 17016 18916 18399 16569 16100 15217 18121 12422 10973 17888 13526 14790 10697 13478 18229 14280 12954 11380 18767 13924 19927 15754 16473 10701 16646 999999 999999 999999 999999 999999 999999 999999 999999 999999 999999 999999 999999 999999 999999 999999 999999 999999 999999 999999 999999 999999 999999 999999 999999 999999 999999 999999 999999 999999 999999 999999 999999 999999 999999 999999 999999 999999 999999 999999 999999 999999 999999 999999 999999 999999 999999 0 999999 999999 999999 12512
999999 14197 14819 12667 11137 16169 13982 15670 17921 10903 17427 10492 11708 19533 12139 10887 16784 12474 19468 10340 12488 12330 17723 11370 17936 10124 19149 12000 14525 17646 11482 13837 19712 10866 12710 19993 13183 16797 19016 10098 14763 16159 13289 13147 16521 14068 13740 14686 13593 12285 18937 19702 17647 13383 13476 10401 16572 17962 16627 16420 12660 17584 13891 14515 14805 16167 10470 13604 19032 14192 16848 999999 999999 999999 999999 999999 999999 999999 999999 999999 999999 999999 999999 999999 999999 999999 999999 999999 999999 999999 999999 999999 999999 999999 999999 999999 999999 999999 999999 999999 999999 999999 999999 999999 999999 999999 999999 999999 999999 999999 999999 999999 999999 999999 999999 999999 999999 999999 0 999999 999999 8040
999999 16129 16433 15183 14225 18690 13953 18905 13645 11591 15601 10237 10495 16622 19495 12191 19950 11027 13803 19167 17071 12628 15865 13995 12862 12986 19576 11831 14234 16655 15156 16304 15857 11526 10374 16022 19781 11377 17709 10422 13587 10767 10934 16860 14439 14650 15516 11746 11781 16232 16143 11988 11613 10234 11976 12068 17429 18784 14288 16945 13631 14583 17866 12295 10557 18670 10775 12460 11543 14977 16461 999999 999999 999999 999999 999999 999999 999999 999999 999999 999999 999999 999999 999999 999999 999999 999999 999999 999999 999999 999999 999999 999999 999999 999999 999999 999999 999999 999999 999999 999999 999999 999999 999999 999999 999999 999999 999999 999999 999999 999999 999999 999999 999999 999999 999999 999999 999999 999999 0 999999 14378
999999 15935 11883 19000 13331 17934 14307 13563 10910 12844 11755 10947 13969 11655 18257 19757 15821 10586 17038 13304 13835 17152 10245 17122 18276 18179 17143 17235 10170 18542 12114 16779 18348 11289 12404 17679 10312 11780 17752 13723 18158 17714 18006 15692 15825 18805 11233 12119 16184 16328 12109 12366 18602 17834 19954 16913 12092 10078 12029 11734 17868 15598 12604 19559 19318 19479 10216 16485 17340 15044 18148 999999 999999 999999 999999 999999 999999 999999 999999 999999 999999 999999 999999 999999 999999 999999 999999 999999 999999 999999 999999 999999 999999 999999 999999 999999 999999 999999 999999 999999 999999 999999 999999 999999 999999 999999 999999 999999 999999 999999 999999 999999 999999 999999 999999 999999 999999 999999 999999 999999 0 14460
1 999999 999999 999999 999999 999999 999999 999999 999999 999999 999999 999999 999999 999999 999999 999999 999999 999999 999999 999999 999999 999999 999999 999999 999999 999999 999999 999999 999999 999999 999999 999999 999999 999999 999999 999999 999999 999999 999999 999999 999999 999999 999999 999999 999999 999999 999999 999999 999999 999999 999999 999999 999999 999999 999999 999999 999999 999999 999999 999999 999999 999999 999999 999999 999999 999999 999999 999999 999999 999999 999999 999999 999999 999999 999999 999999 999999 999999 999999 999999 999999 999999 999999 999999 999999 999999 999999 999999 999999 999999 999999 999999 999999 999999 999999 999999 999999 999999 999999 999999 999999 999999 999999 999999 999999 999999 999999 999999 999999 999999 999999 999999 999999 999999 999999 999999 999999 999999 999999 999999 999999 0
EOF