NAME: GR_1x10x10_KH_10x10_Run_9
TYPE: TSP
COMMENT: BTSP instance |A|=100 GR nodes |B|=100 KH nodes depot=0.0 end=0.0.0
DIMENSION: 202
EDGE_WEIGHT_TYPE: EXPLICIT
EDGE_WEIGHT_FORMAT: FULL_MATRIX
NODE_COORD_TYPE: NO_COORDS
EDGE_WEIGHT_SECTION
0 7684 14668 12237 7921 9042 12254 6232 5900 13029 12631 8839 10674 13199 10502 13058 5773 9957 13147 8782 13179 13191 6669 5262 11885 13025 8726 9575 12842 9510 7322 11839 9354 14214 10577 5029 9452 9648 6405 9313 7252 8924 5770 6040 8855 10785 11529 11735 12532 7694 10109 13317 12905 10535 9523 8983 9054 13146 10215 8881 8185 9538 12632 7544 6337 9083 12816 7963 13459 7651 11980 6477 9304 12761 7329 8724 5970 12625 8918 14142 11241 14641 10119 8735 13365 5440 5696 8378 11557 11976 7674 12918 13356 8012 8649 11539 5279 9337 5355 7513 7897 999999 999999 999999 999999 999999 999999 999999 999999 999999 999999 999999 999999 999999 999999 999999 999999 999999 999999 999999 999999 999999 999999 999999 999999 999999 999999 999999 999999 999999 999999 999999 999999 999999 999999 999999 999999 999999 999999 999999 999999 999999 999999 999999 999999 999999 999999 999999 999999 999999 999999 999999 999999 999999 999999 999999 999999 999999 999999 999999 999999 999999 999999 999999 999999 999999 999999 999999 999999 999999 999999 999999 999999 999999 999999 999999 999999 999999 999999 999999 999999 999999 999999 999999 999999 999999 999999 999999 999999 999999 999999 999999 999999 999999 999999 999999 999999 999999 999999 999999 999999 999999
999999 0 999999 999999 999999 999999 999999 999999 999999 999999 999999 999999 999999 999999 999999 999999 999999 999999 999999 999999 999999 999999 999999 999999 999999 999999 999999 999999 999999 999999 999999 999999 999999 999999 999999 999999 999999 999999 999999 999999 999999 999999 999999 999999 999999 999999 999999 999999 999999 999999 999999 999999 999999 999999 999999 999999 999999 999999 999999 999999 999999 999999 999999 999999 999999 999999 999999 999999 999999 999999 999999 999999 999999 999999 999999 999999 999999 999999 999999 999999 999999 999999 999999 999999 999999 999999 999999 999999 999999 999999 999999 999999 999999 999999 999999 999999 999999 999999 999999 999999 999999 18516 10594 18099 15070 14431 16759 10741 10739 15149 18033 12686 14443 15640 15627 15174 10934 13361 14676 12389 12739 19788 13798 15206 18684 15788 11538 10874 15917 12683 16154 14672 17177 16400 16270 19785 13909 16621 16151 19389 19468 13237 11036 14821 14399 18782 15028 10397 17203 18693 16286 12313 16276 15594 16923 19186 16699 19853 15856 14770 14020 17540 14572 18345 11467 13030 16250 17400 11054 11486 15810 15993 19522 11443 19482 11777 10194 15487 16820 19397 15875 18267 16629 13812 11749 10789 18796 15310 17631 10550 19722 16765 13451 16407 17401 18172 18401 15801 12376 17292 15922 999999
999999 999999 0 999999 999999 999999 999999 999999 999999 999999 999999 999999 999999 999999 999999 999999 999999 999999 999999 999999 999999 999999 999999 999999 999999 999999 999999 999999 999999 999999 999999 999999 999999 999999 999999 999999 999999 999999 999999 999999 999999 999999 999999 999999 999999 999999 999999 999999 999999 999999 999999 999999 999999 999999 999999 999999 999999 999999 999999 999999 999999 999999 999999 999999 999999 999999 999999 999999 999999 999999 999999 999999 999999 999999 999999 999999 999999 999999 999999 999999 999999 999999 999999 999999 999999 999999 999999 999999 999999 999999 999999 999999 999999 999999 999999 999999 999999 999999 999999 999999 999999 10271 14434 14879 15740 10045 16545 16540 10851 18363 11925 14753 12439 11996 18474 19888 12480 18143 17875 13678 13745 13019 19652 14016 12125 19416 13129 11420 15064 17979 15300 14484 16353 11033 19475 16243 16141 15085 17394 10808 16834 13769 15898 15948 17358 14862 12233 19187 10196 12919 15975 14052 18359 17159 13226 12467 16624 18799 13896 14725 12344 10558 17524 17445 14952 12095 18710 13514 16621 12352 18192 15703 10785 12153 15613 11201 14381 13906 17283 13540 17642 15173 11569 16447 10097 16248 18482 13944 12793 14008 18886 17996 10700 13051 17660 13640 11578 19230 13863 19136 17873 999999
999999 999999 999999 0 999999 999999 999999 999999 999999 999999 999999 999999 999999 999999 999999 999999 999999 999999 999999 999999 999999 999999 999999 999999 999999 999999 999999 999999 999999 999999 999999 999999 999999 999999 999999 999999 999999 999999 999999 999999 999999 999999 999999 999999 999999 999999 999999 999999 999999 999999 999999 999999 999999 999999 999999 999999 999999 999999 999999 999999 999999 999999 999999 999999 999999 999999 999999 999999 999999 999999 999999 999999 999999 999999 999999 999999 999999 999999 999999 999999 999999 999999 999999 999999 999999 999999 999999 999999 999999 999999 999999 999999 999999 999999 999999 999999 999999 999999 999999 999999 999999 11135 15577 11331 15563 14636 15197 17868 12008 13316 14209 19541 10759 15447 14970 11378 16391 19163 12034 16553 12339 18294 11467 13928 13173 11502 16962 19648 18581 11442 13588 13917 13460 16560 15624 13269 14864 19837 10466 16906 10464 12298 11011 16444 19469 19756 16422 18079 14146 17651 10436 12015 16353 14725 14429 15184 10733 15757 13926 14580 16606 16383 14890 18382 11413 15541 18168 13346 13513 12675 19163 16171 18840 11547 12118 18673 15964 19753 13887 16856 11494 14374 13200 18719 11165 18987 15277 14636 18980 13313 14817 12458 17371 12247 18542 12837 19495 15003 18829 15481 10259 999999
999999 999999 999999 999999 0 999999 999999 999999 999999 999999 999999 999999 999999 999999 999999 999999 999999 999999 999999 999999 999999 999999 999999 999999 999999 999999 999999 999999 999999 999999 999999 999999 999999 999999 999999 999999 999999 999999 999999 999999 999999 999999 999999 999999 999999 999999 999999 999999 999999 999999 999999 999999 999999 999999 999999 999999 999999 999999 999999 999999 999999 999999 999999 999999 999999 999999 999999 999999 999999 999999 999999 999999 999999 999999 999999 999999 999999 999999 999999 999999 999999 999999 999999 999999 999999 999999 999999 999999 999999 999999 999999 999999 999999 999999 999999 999999 999999 999999 999999 999999 999999 19360 11503 15993 16155 16208 13049 12665 18676 17982 12647 19801 13303 17425 17377 11309 14420 12441 19559 12328 15094 13189 19490 11776 14951 11434 16328 16158 19411 19767 16890 19270 17485 11819 12336 10793 14139 12483 19638 16608 10457 10440 17971 19003 11181 16609 10162 17727 14257 15287 16363 11910 15125 15966 10848 14464 12762 19489 18345 18522 19276 11928 19165 15468 15041 11316 19227 13834 16826 19631 18799 19395 11988 16085 19912 10844 17636 19597 19368 14831 14248 13941 18064 13998 13849 12207 10740 10339 14346 11751 15383 19262 12106 16034 10792 11068 10816 18971 13867 14333 12543 999999
999999 999999 999999 999999 999999 0 999999 999999 999999 999999 999999 999999 999999 999999 999999 999999 999999 999999 999999 999999 999999 999999 999999 999999 999999 999999 999999 999999 999999 999999 999999 999999 999999 999999 999999 999999 999999 999999 999999 999999 999999 999999 999999 999999 999999 999999 999999 999999 999999 999999 999999 999999 999999 999999 999999 999999 999999 999999 999999 999999 999999 999999 999999 999999 999999 999999 999999 999999 999999 999999 999999 999999 999999 999999 999999 999999 999999 999999 999999 999999 999999 999999 999999 999999 999999 999999 999999 999999 999999 999999 999999 999999 999999 999999 999999 999999 999999 999999 999999 999999 999999 15525 13702 16086 17437 19431 10064 12913 18696 12402 15379 19595 11456 13441 11316 11511 13093 17511 13272 12626 15916 14443 13016 14989 16370 10416 19695 14585 12603 10906 17184 17539 10875 19405 15747 13384 17079 10243 19169 10150 16699 19734 19084 11714 15889 12946 17573 14923 18795 11765 18771 12597 10083 19018 10664 17083 17847 17450 12269 13241 18526 15426 17324 12733 17434 19065 18191 10638 11171 13301 15292 18338 10778 12687 11914 17028 12979 14616 19278 16313 18233 17271 13645 11728 17679 16732 16819 15042 12713 19275 11656 15726 16549 15604 11665 18944 19512 18804 17730 16601 12122 999999
999999 999999 999999 999999 999999 999999 0 999999 999999 999999 999999 999999 999999 999999 999999 999999 999999 999999 999999 999999 999999 999999 999999 999999 999999 999999 999999 999999 999999 999999 999999 999999 999999 999999 999999 999999 999999 999999 999999 999999 999999 999999 999999 999999 999999 999999 999999 999999 999999 999999 999999 999999 999999 999999 999999 999999 999999 999999 999999 999999 999999 999999 999999 999999 999999 999999 999999 999999 999999 999999 999999 999999 999999 999999 999999 999999 999999 999999 999999 999999 999999 999999 999999 999999 999999 999999 999999 999999 999999 999999 999999 999999 999999 999999 999999 999999 999999 999999 999999 999999 999999 14932 11996 12625 16710 14760 11546 19288 18640 11734 17620 19075 15651 13566 18040 15293 19238 14142 15037 19301 15368 11879 14138 14944 17819 12783 13500 16898 14132 12307 13656 14415 16574 18760 15068 12151 16733 11440 19963 16097 11066 12525 18483 13373 19615 10989 17851 11766 17936 15032 12571 17571 17125 13666 15110 12141 13389 10589 12633 13555 16642 15446 13824 17743 13928 19538 17836 13433 11152 13250 14561 10154 12112 13744 13532 12418 12159 16741 14767 13621 17472 15671 15244 15997 18529 15635 13280 13307 12045 13430 12210 19595 14506 12053 17140 12360 14069 18592 18322 18247 19928 999999
999999 999999 999999 999999 999999 999999 999999 0 999999 999999 999999 999999 999999 999999 999999 999999 999999 999999 999999 999999 999999 999999 999999 999999 999999 999999 999999 999999 999999 999999 999999 999999 999999 999999 999999 999999 999999 999999 999999 999999 999999 999999 999999 999999 999999 999999 999999 999999 999999 999999 999999 999999 999999 999999 999999 999999 999999 999999 999999 999999 999999 999999 999999 999999 999999 999999 999999 999999 999999 999999 999999 999999 999999 999999 999999 999999 999999 999999 999999 999999 999999 999999 999999 999999 999999 999999 999999 999999 999999 999999 999999 999999 999999 999999 999999 999999 999999 999999 999999 999999 999999 19691 14170 11514 17637 11633 15365 10169 16213 12670 17466 14281 10189 12990 12021 13107 13203 13526 18003 14058 18634 14055 11673 19760 19264 18315 18575 19679 14148 14129 11020 18626 16109 15723 19716 17049 10801 17278 18322 16352 15861 11624 19674 14823 14184 17401 10737 17180 13289 10540 13867 13444 14041 18806 17650 19762 11479 12484 10862 18378 11327 18143 19802 15676 11188 13277 11252 12059 16744 18460 13727 10669 18062 18086 17719 19127 11532 14254 19552 19472 17439 15960 10239 13492 16600 11276 11798 16106 17293 10645 15345 16090 13250 17766 13825 15438 18608 14889 11407 11317 13526 999999
999999 999999 999999 999999 999999 999999 999999 999999 0 999999 999999 999999 999999 999999 999999 999999 999999 999999 999999 999999 999999 999999 999999 999999 999999 999999 999999 999999 999999 999999 999999 999999 999999 999999 999999 999999 999999 999999 999999 999999 999999 999999 999999 999999 999999 999999 999999 999999 999999 999999 999999 999999 999999 999999 999999 999999 999999 999999 999999 999999 999999 999999 999999 999999 999999 999999 999999 999999 999999 999999 999999 999999 999999 999999 999999 999999 999999 999999 999999 999999 999999 999999 999999 999999 999999 999999 999999 999999 999999 999999 999999 999999 999999 999999 999999 999999 999999 999999 999999 999999 999999 15845 13014 13862 19179 15845 10636 11541 10064 11741 16781 16432 11335 19052 10263 19022 18974 13482 14132 14320 15355 14923 14802 19680 17060 18733 11893 16990 14303 14241 10319 16429 18542 15004 15839 11505 18532 16350 18337 11088 18562 15601 10280 15993 13097 12790 13339 10591 11763 19090 17467 14567 15250 17936 16129 19479 17382 17663 15838 16258 10750 18579 14252 16088 19574 11155 11464 15681 19310 19620 18598 12116 14996 14284 14287 12682 16199 18492 19343 11914 12894 12041 18472 10558 19376 18235 17457 13721 13893 18039 13239 19913 15041 12012 14337 15235 12346 16947 10383 17591 11881 999999
999999 999999 999999 999999 999999 999999 999999 999999 999999 0 999999 999999 999999 999999 999999 999999 999999 999999 999999 999999 999999 999999 999999 999999 999999 999999 999999 999999 999999 999999 999999 999999 999999 999999 999999 999999 999999 999999 999999 999999 999999 999999 999999 999999 999999 999999 999999 999999 999999 999999 999999 999999 999999 999999 999999 999999 999999 999999 999999 999999 999999 999999 999999 999999 999999 999999 999999 999999 999999 999999 999999 999999 999999 999999 999999 999999 999999 999999 999999 999999 999999 999999 999999 999999 999999 999999 999999 999999 999999 999999 999999 999999 999999 999999 999999 999999 999999 999999 999999 999999 999999 19732 12144 15769 14955 18662 17031 10002 10466 19054 10545 13435 14428 17366 12464 12089 15585 18058 12140 15486 16857 13612 12398 11511 15560 15352 10470 18600 18019 13887 12657 18405 17899 14177 16384 17552 16841 19180 12784 19651 11591 13117 12665 14075 12801 15949 14193 19126 14990 12911 15967 17795 17497 18130 18797 18312 14860 15337 15091 15706 15405 12528 12659 15192 19961 11108 13324 18087 12966 19287 16600 17567 18056 13174 15535 10929 13155 11101 13371 18721 14380 16544 10819 11279 12717 16940 14604 13404 13921 18188 10427 11939 16164 19644 13813 11152 19380 15903 10333 15176 13873 999999
999999 999999 999999 999999 999999 999999 999999 999999 999999 999999 0 999999 999999 999999 999999 999999 999999 999999 999999 999999 999999 999999 999999 999999 999999 999999 999999 999999 999999 999999 999999 999999 999999 999999 999999 999999 999999 999999 999999 999999 999999 999999 999999 999999 999999 999999 999999 999999 999999 999999 999999 999999 999999 999999 999999 999999 999999 999999 999999 999999 999999 999999 999999 999999 999999 999999 999999 999999 999999 999999 999999 999999 999999 999999 999999 999999 999999 999999 999999 999999 999999 999999 999999 999999 999999 999999 999999 999999 999999 999999 999999 999999 999999 999999 999999 999999 999999 999999 999999 999999 999999 16724 15188 12675 17092 16213 15053 18417 18188 13454 13190 19317 19875 18102 11004 12022 16382 19443 14808 11143 14144 16727 19979 11527 19708 19363 18509 17534 17263 10019 12301 16467 13134 18628 11807 10306 10512 13621 18181 10170 12218 19605 18999 16706 10090 16928 11966 11749 17305 12357 19799 17771 18227 18053 12668 13787 16620 15939 12868 12147 10506 11940 18781 13314 11408 16989 11447 19608 16173 15007 12755 13637 15228 14273 10719 13812 14496 14327 14452 18551 10237 17257 18430 14268 13463 10356 13783 15372 16609 11071 19513 17031 19358 18823 10807 13976 12230 17587 13551 12758 11740 999999
999999 999999 999999 999999 999999 999999 999999 999999 999999 999999 999999 0 999999 999999 999999 999999 999999 999999 999999 999999 999999 999999 999999 999999 999999 999999 999999 999999 999999 999999 999999 999999 999999 999999 999999 999999 999999 999999 999999 999999 999999 999999 999999 999999 999999 999999 999999 999999 999999 999999 999999 999999 999999 999999 999999 999999 999999 999999 999999 999999 999999 999999 999999 999999 999999 999999 999999 999999 999999 999999 999999 999999 999999 999999 999999 999999 999999 999999 999999 999999 999999 999999 999999 999999 999999 999999 999999 999999 999999 999999 999999 999999 999999 999999 999999 999999 999999 999999 999999 999999 999999 13214 14776 16682 17407 19467 16915 10607 18529 16620 11043 11309 19432 18068 15554 13113 15090 11605 10022 16877 13006 16938 18750 12887 11705 16069 14655 18078 10574 10895 14750 10423 14141 12343 10663 16097 14192 19213 11436 19115 19178 12800 13200 10657 14603 10282 17216 18680 12787 18935 16020 13455 16392 18420 16079 12030 13063 19280 17522 11745 19448 18872 11071 17102 19839 11356 11498 12210 18407 17910 14364 10953 15265 14948 18930 12736 18949 16489 15555 16480 11710 10483 11700 15458 18866 14672 12789 10299 17004 18853 17670 16281 10937 19179 16145 11343 15994 16731 15703 11686 12972 999999
999999 999999 999999 999999 999999 999999 999999 999999 999999 999999 999999 999999 0 999999 999999 999999 999999 999999 999999 999999 999999 999999 999999 999999 999999 999999 999999 999999 999999 999999 999999 999999 999999 999999 999999 999999 999999 999999 999999 999999 999999 999999 999999 999999 999999 999999 999999 999999 999999 999999 999999 999999 999999 999999 999999 999999 999999 999999 999999 999999 999999 999999 999999 999999 999999 999999 999999 999999 999999 999999 999999 999999 999999 999999 999999 999999 999999 999999 999999 999999 999999 999999 999999 999999 999999 999999 999999 999999 999999 999999 999999 999999 999999 999999 999999 999999 999999 999999 999999 999999 999999 13435 12058 16722 12459 17906 11901 10895 15286 14939 12490 13088 12756 19304 16510 19923 14964 18105 17824 19083 11866 11155 19040 17732 16699 13198 18213 16527 10989 15343 14203 14171 16806 17638 10647 18430 17295 13659 16513 13113 17408 11401 11508 19761 13255 15068 19493 17880 18665 11280 12761 15731 15736 19349 11080 11965 18670 13808 15278 13491 19291 15354 19234 17552 11609 16545 15874 18240 14526 16032 14637 12181 18188 10087 17891 10061 12235 11050 19019 19891 11696 18031 11844 15354 17686 11568 18447 14357 11474 10114 12048 16470 19356 12036 17347 17629 14815 12235 16086 12271 16011 999999
999999 999999 999999 999999 999999 999999 999999 999999 999999 999999 999999 999999 999999 0 999999 999999 999999 999999 999999 999999 999999 999999 999999 999999 999999 999999 999999 999999 999999 999999 999999 999999 999999 999999 999999 999999 999999 999999 999999 999999 999999 999999 999999 999999 999999 999999 999999 999999 999999 999999 999999 999999 999999 999999 999999 999999 999999 999999 999999 999999 999999 999999 999999 999999 999999 999999 999999 999999 999999 999999 999999 999999 999999 999999 999999 999999 999999 999999 999999 999999 999999 999999 999999 999999 999999 999999 999999 999999 999999 999999 999999 999999 999999 999999 999999 999999 999999 999999 999999 999999 999999 10578 11273 16776 19248 13850 15561 13037 15395 15234 18362 11811 11921 11977 17759 15828 17049 11668 15361 10895 17112 18260 12321 12846 16906 16804 14559 10254 16843 19750 15330 17050 18793 11462 13046 13070 18006 18577 18199 12060 11570 19348 13626 14158 14108 17326 12780 14522 10723 12108 11490 12526 16606 15230 17462 19160 13408 16172 18806 15045 15585 10595 19619 18808 12669 19531 15881 13104 17641 11573 15985 17995 19283 10796 16968 12830 14565 13600 14981 19161 17930 19793 11289 18318 14727 17165 12360 15202 17716 17591 10420 19856 18561 15585 10531 19681 18395 16584 11143 19721 13865 999999
999999 999999 999999 999999 999999 999999 999999 999999 999999 999999 999999 999999 999999 999999 0 999999 999999 999999 999999 999999 999999 999999 999999 999999 999999 999999 999999 999999 999999 999999 999999 999999 999999 999999 999999 999999 999999 999999 999999 999999 999999 999999 999999 999999 999999 999999 999999 999999 999999 999999 999999 999999 999999 999999 999999 999999 999999 999999 999999 999999 999999 999999 999999 999999 999999 999999 999999 999999 999999 999999 999999 999999 999999 999999 999999 999999 999999 999999 999999 999999 999999 999999 999999 999999 999999 999999 999999 999999 999999 999999 999999 999999 999999 999999 999999 999999 999999 999999 999999 999999 999999 14007 16740 12220 19553 13172 15952 18741 12267 12377 10622 18698 17875 19481 18506 10457 11108 14014 18095 15201 11350 18063 14677 10760 10210 13800 13036 11873 10778 16912 13044 19090 16756 15738 14014 18630 19458 15810 16206 18493 14737 14337 10057 17681 19487 14543 16615 18302 19726 15948 14158 14820 19913 14585 19578 17640 11183 18619 10075 10085 18180 15233 19061 17445 10996 19306 15673 10766 10421 17525 12698 18077 16814 10116 12304 15194 10373 15862 13698 14070 18568 14587 12281 19059 19233 18239 15669 16839 12339 12266 10710 10323 14079 17624 18677 18272 18656 16676 14164 14761 12631 999999
999999 999999 999999 999999 999999 999999 999999 999999 999999 999999 999999 999999 999999 999999 999999 0 999999 999999 999999 999999 999999 999999 999999 999999 999999 999999 999999 999999 999999 999999 999999 999999 999999 999999 999999 999999 999999 999999 999999 999999 999999 999999 999999 999999 999999 999999 999999 999999 999999 999999 999999 999999 999999 999999 999999 999999 999999 999999 999999 999999 999999 999999 999999 999999 999999 999999 999999 999999 999999 999999 999999 999999 999999 999999 999999 999999 999999 999999 999999 999999 999999 999999 999999 999999 999999 999999 999999 999999 999999 999999 999999 999999 999999 999999 999999 999999 999999 999999 999999 999999 999999 11768 18371 12289 12544 15524 10418 16259 13568 18532 19192 10351 15687 11255 14124 14942 18855 12403 10849 11346 13391 16607 13822 15760 11326 15257 18702 17816 10933 14102 11669 19780 16666 16201 18567 11589 18854 15901 12789 14963 17052 17653 15091 14440 17742 16296 17712 14249 10803 12969 10673 12507 17871 16166 11998 14003 14553 12198 10160 10086 10071 10322 16675 19373 18904 15283 12899 12853 12856 13891 12341 13721 13474 12470 18726 14569 10006 15604 17892 11458 15584 15542 14164 11330 10662 11570 14310 14798 13129 11800 11366 14693 19855 16227 17439 19515 11951 14629 11063 16108 10220 999999
999999 999999 999999 999999 999999 999999 999999 999999 999999 999999 999999 999999 999999 999999 999999 999999 0 999999 999999 999999 999999 999999 999999 999999 999999 999999 999999 999999 999999 999999 999999 999999 999999 999999 999999 999999 999999 999999 999999 999999 999999 999999 999999 999999 999999 999999 999999 999999 999999 999999 999999 999999 999999 999999 999999 999999 999999 999999 999999 999999 999999 999999 999999 999999 999999 999999 999999 999999 999999 999999 999999 999999 999999 999999 999999 999999 999999 999999 999999 999999 999999 999999 999999 999999 999999 999999 999999 999999 999999 999999 999999 999999 999999 999999 999999 999999 999999 999999 999999 999999 999999 13771 11605 11497 12621 11478 14053 10510 14744 17542 19478 17839 19346 15836 16759 11055 11437 10728 12615 19266 15371 14830 10573 10213 11251 12787 11835 17981 16004 15548 15707 18633 10701 14079 17454 13679 10055 19368 18873 16133 12211 15425 17299 17908 17200 11347 10649 13117 10699 15567 13688 10248 10509 11219 10131 13623 15898 13323 17659 15159 11640 13170 11465 13661 11270 12464 11096 11545 16459 16285 10760 12849 10152 16033 14670 14490 12767 19393 14397 15572 10113 15741 10103 13465 16496 19249 15738 16377 15364 12438 14112 18152 12905 12077 11384 15014 12952 19931 19631 14110 11904 999999
999999 999999 999999 999999 999999 999999 999999 999999 999999 999999 999999 999999 999999 999999 999999 999999 999999 0 999999 999999 999999 999999 999999 999999 999999 999999 999999 999999 999999 999999 999999 999999 999999 999999 999999 999999 999999 999999 999999 999999 999999 999999 999999 999999 999999 999999 999999 999999 999999 999999 999999 999999 999999 999999 999999 999999 999999 999999 999999 999999 999999 999999 999999 999999 999999 999999 999999 999999 999999 999999 999999 999999 999999 999999 999999 999999 999999 999999 999999 999999 999999 999999 999999 999999 999999 999999 999999 999999 999999 999999 999999 999999 999999 999999 999999 999999 999999 999999 999999 999999 999999 10213 19117 19061 15993 14628 19800 13291 16791 17732 19772 16549 15772 16245 12460 19863 18110 14035 12002 13987 16799 15413 13842 18292 19937 10088 17625 19668 18324 16503 19623 11589 10112 16804 15033 17707 13535 14857 12238 16579 14769 16723 19142 14308 18317 11994 17024 15012 13535 13411 17482 14789 14433 18480 11458 13738 11475 13652 16911 14029 19672 10477 12029 13793 17190 11710 15608 10459 19688 17808 11732 12252 13695 14652 17660 16426 10308 16099 19859 16706 17444 14812 18162 16844 10450 14752 15441 19203 11559 14749 11391 17396 13029 15277 19976 11499 17172 12027 17404 16337 13923 999999
999999 999999 999999 999999 999999 999999 999999 999999 999999 999999 999999 999999 999999 999999 999999 999999 999999 999999 0 999999 999999 999999 999999 999999 999999 999999 999999 999999 999999 999999 999999 999999 999999 999999 999999 999999 999999 999999 999999 999999 999999 999999 999999 999999 999999 999999 999999 999999 999999 999999 999999 999999 999999 999999 999999 999999 999999 999999 999999 999999 999999 999999 999999 999999 999999 999999 999999 999999 999999 999999 999999 999999 999999 999999 999999 999999 999999 999999 999999 999999 999999 999999 999999 999999 999999 999999 999999 999999 999999 999999 999999 999999 999999 999999 999999 999999 999999 999999 999999 999999 999999 12947 16511 12481 19597 17777 18983 16993 18901 15900 17301 18899 15733 14510 14704 16932 18126 15630 15574 17516 12095 13772 10101 18804 15533 18401 18585 16067 18060 15649 18972 13595 17988 17722 13486 18205 10695 13892 15764 18932 16838 18949 15891 11601 12743 12088 17363 17138 11550 15418 18985 10179 10398 13439 18004 12581 17328 18778 17207 13583 17665 15897 10223 19426 12138 13032 19826 15547 12138 10677 10216 12401 12891 15086 13748 18935 16752 14576 18108 19718 14526 14939 10680 13385 10767 14678 16942 18457 10672 10862 11665 11124 14366 18428 15108 12780 11046 19258 11468 10702 19655 999999
999999 999999 999999 999999 999999 999999 999999 999999 999999 999999 999999 999999 999999 999999 999999 999999 999999 999999 999999 0 999999 999999 999999 999999 999999 999999 999999 999999 999999 999999 999999 999999 999999 999999 999999 999999 999999 999999 999999 999999 999999 999999 999999 999999 999999 999999 999999 999999 999999 999999 999999 999999 999999 999999 999999 999999 999999 999999 999999 999999 999999 999999 999999 999999 999999 999999 999999 999999 999999 999999 999999 999999 999999 999999 999999 999999 999999 999999 999999 999999 999999 999999 999999 999999 999999 999999 999999 999999 999999 999999 999999 999999 999999 999999 999999 999999 999999 999999 999999 999999 999999 17153 16300 12674 16636 19752 14389 14146 13777 12205 19227 17800 11653 15070 18522 19361 12576 14980 14288 17381 14264 17264 16442 11450 13050 19419 19366 10700 13940 16571 15310 18485 18757 12846 12669 16473 14450 12556 15807 16991 19876 12042 12263 11746 19935 12222 18665 11430 11950 11496 10549 17420 15563 18502 12643 14146 10800 18114 10772 19305 12942 12370 15480 11424 11512 15595 16023 11215 16120 11140 12087 14786 15069 18187 17870 19430 19895 14062 11599 13926 14603 17727 18094 14684 10486 16868 16424 10999 12240 11867 18794 13844 10101 19043 19354 13340 18103 14059 10262 19352 18719 999999
999999 999999 999999 999999 999999 999999 999999 999999 999999 999999 999999 999999 999999 999999 999999 999999 999999 999999 999999 999999 0 999999 999999 999999 999999 999999 999999 999999 999999 999999 999999 999999 999999 999999 999999 999999 999999 999999 999999 999999 999999 999999 999999 999999 999999 999999 999999 999999 999999 999999 999999 999999 999999 999999 999999 999999 999999 999999 999999 999999 999999 999999 999999 999999 999999 999999 999999 999999 999999 999999 999999 999999 999999 999999 999999 999999 999999 999999 999999 999999 999999 999999 999999 999999 999999 999999 999999 999999 999999 999999 999999 999999 999999 999999 999999 999999 999999 999999 999999 999999 999999 17724 13774 13200 10291 19303 10171 14244 14830 10548 11700 18033 16502 11233 17887 19990 14565 15424 13332 18027 19501 13748 16036 19458 17391 18421 16630 18505 16590 17485 13855 10158 12769 17196 18541 14701 17269 12627 17212 12598 13393 16857 19761 15674 19817 16852 12618 11603 10836 12451 19356 11277 17629 18283 19328 14447 12393 17140 12881 10681 17679 14815 12073 14337 11003 16869 14403 13794 17718 18977 13700 18713 18173 11556 11650 10954 14450 10554 13322 12939 16144 14569 14654 11048 16918 13609 11614 11725 15522 12506 12181 10778 12546 11380 11140 15645 15599 18680 12136 14586 14809 999999
999999 999999 999999 999999 999999 999999 999999 999999 999999 999999 999999 999999 999999 999999 999999 999999 999999 999999 999999 999999 999999 0 999999 999999 999999 999999 999999 999999 999999 999999 999999 999999 999999 999999 999999 999999 999999 999999 999999 999999 999999 999999 999999 999999 999999 999999 999999 999999 999999 999999 999999 999999 999999 999999 999999 999999 999999 999999 999999 999999 999999 999999 999999 999999 999999 999999 999999 999999 999999 999999 999999 999999 999999 999999 999999 999999 999999 999999 999999 999999 999999 999999 999999 999999 999999 999999 999999 999999 999999 999999 999999 999999 999999 999999 999999 999999 999999 999999 999999 999999 999999 19948 18643 17072 19078 10580 13246 19544 15396 14420 12803 11927 16570 11489 16802 15680 16894 12616 19050 17900 14222 18005 18326 13846 17368 19010 11764 15485 13303 14689 18477 10468 14659 16393 18404 16683 10865 14922 15264 15097 11426 18279 11315 17147 17375 10922 11877 15634 18992 19892 16633 13799 17687 19866 14341 12741 12816 16089 16843 13121 14706 14585 11951 13982 18081 11779 10665 16060 17060 17605 19754 18001 14928 18509 19027 16455 14795 13797 14115 18942 18619 18213 13221 11696 19235 10777 11864 10763 14741 12626 14523 16115 18938 11915 14749 10208 11269 12613 16924 13276 13041 999999
999999 999999 999999 999999 999999 999999 999999 999999 999999 999999 999999 999999 999999 999999 999999 999999 999999 999999 999999 999999 999999 999999 0 999999 999999 999999 999999 999999 999999 999999 999999 999999 999999 999999 999999 999999 999999 999999 999999 999999 999999 999999 999999 999999 999999 999999 999999 999999 999999 999999 999999 999999 999999 999999 999999 999999 999999 999999 999999 999999 999999 999999 999999 999999 999999 999999 999999 999999 999999 999999 999999 999999 999999 999999 999999 999999 999999 999999 999999 999999 999999 999999 999999 999999 999999 999999 999999 999999 999999 999999 999999 999999 999999 999999 999999 999999 999999 999999 999999 999999 999999 14472 18776 18262 17087 17987 11190 15583 19919 17745 18670 12454 17310 13915 18809 14641 16318 17929 16436 14836 17044 17043 19075 17069 19135 15983 13505 11745 17630 13597 10153 18462 10548 15463 12247 11975 18892 13318 10931 18971 10315 14315 11645 10919 15557 12733 10891 12925 10998 19582 18937 19470 11170 14456 18054 18808 13602 11066 17705 14274 13495 18833 16550 13159 17876 16661 11147 14191 17318 16626 16032 10462 18427 11076 19578 17876 18862 17936 11697 14651 10771 12965 14731 16414 19839 17409 12285 13312 10813 13361 19963 18847 10290 10656 10706 17331 10074 10645 14701 16381 10690 999999
999999 999999 999999 999999 999999 999999 999999 999999 999999 999999 999999 999999 999999 999999 999999 999999 999999 999999 999999 999999 999999 999999 999999 0 999999 999999 999999 999999 999999 999999 999999 999999 999999 999999 999999 999999 999999 999999 999999 999999 999999 999999 999999 999999 999999 999999 999999 999999 999999 999999 999999 999999 999999 999999 999999 999999 999999 999999 999999 999999 999999 999999 999999 999999 999999 999999 999999 999999 999999 999999 999999 999999 999999 999999 999999 999999 999999 999999 999999 999999 999999 999999 999999 999999 999999 999999 999999 999999 999999 999999 999999 999999 999999 999999 999999 999999 999999 999999 999999 999999 999999 16007 18553 10192 14432 15315 11032 13662 15090 11173 13073 14440 19568 10300 14580 15717 12591 12965 18786 19364 13747 19335 13811 11634 14926 13286 14455 15091 19794 15855 17109 14944 18553 12940 10237 12302 15024 17317 17515 17641 13514 10952 11711 17818 15141 13288 16393 10941 11249 19761 19122 19851 15895 12782 14039 12595 12940 17053 12291 16857 13546 17532 15886 14816 19890 19880 17369 16878 11598 13189 10737 14020 12659 19691 12002 11385 18025 10072 17157 10561 14996 17418 17274 13368 13370 16305 19068 14661 18549 10186 13119 10871 14098 10064 11174 12305 11297 16408 10394 11579 19874 999999
999999 999999 999999 999999 999999 999999 999999 999999 999999 999999 999999 999999 999999 999999 999999 999999 999999 999999 999999 999999 999999 999999 999999 999999 0 999999 999999 999999 999999 999999 999999 999999 999999 999999 999999 999999 999999 999999 999999 999999 999999 999999 999999 999999 999999 999999 999999 999999 999999 999999 999999 999999 999999 999999 999999 999999 999999 999999 999999 999999 999999 999999 999999 999999 999999 999999 999999 999999 999999 999999 999999 999999 999999 999999 999999 999999 999999 999999 999999 999999 999999 999999 999999 999999 999999 999999 999999 999999 999999 999999 999999 999999 999999 999999 999999 999999 999999 999999 999999 999999 999999 14351 17410 14724 13519 12945 16790 17337 18543 14770 10010 11490 12688 14612 11807 14348 15884 19405 18589 13499 14900 17372 15710 13324 14977 14871 18278 17558 15739 11497 18489 12357 15921 18705 19912 14767 17512 19885 17882 18334 12777 18356 11536 13061 13543 12103 16087 10462 15684 17765 13166 17706 11967 19319 13436 10999 17007 18595 18100 15861 10781 12254 11092 16678 17827 14799 10050 13329 18638 15516 13426 14901 15139 12297 17062 11900 13537 16686 14857 14716 12443 18478 16492 11110 12084 15837 14290 14582 11582 12712 10372 13504 19733 12108 14962 18137 14476 15566 14456 19745 17256 999999
999999 999999 999999 999999 999999 999999 999999 999999 999999 999999 999999 999999 999999 999999 999999 999999 999999 999999 999999 999999 999999 999999 999999 999999 999999 0 999999 999999 999999 999999 999999 999999 999999 999999 999999 999999 999999 999999 999999 999999 999999 999999 999999 999999 999999 999999 999999 999999 999999 999999 999999 999999 999999 999999 999999 999999 999999 999999 999999 999999 999999 999999 999999 999999 999999 999999 999999 999999 999999 999999 999999 999999 999999 999999 999999 999999 999999 999999 999999 999999 999999 999999 999999 999999 999999 999999 999999 999999 999999 999999 999999 999999 999999 999999 999999 999999 999999 999999 999999 999999 999999 16377 14676 13796 12132 14717 13157 10759 12741 17287 18061 18804 14290 13170 18856 11695 17263 15209 15950 19525 16891 14063 16740 13154 16373 15801 18209 14118 11718 19885 12176 19396 12079 15570 10346 14143 12272 18195 17634 17709 14829 17487 18154 10226 17327 17978 14469 18317 18354 18498 17116 15247 15181 14234 12904 19612 12170 12120 14020 14578 16035 11270 13681 12236 17712 15671 10213 13698 14343 17581 13334 10441 10539 17314 12970 12697 13118 14732 17143 18529 15555 14579 18647 12859 11973 10526 18678 14788 13016 16823 16263 17797 18843 17905 18708 18901 11662 16180 19607 10507 11846 999999
999999 999999 999999 999999 999999 999999 999999 999999 999999 999999 999999 999999 999999 999999 999999 999999 999999 999999 999999 999999 999999 999999 999999 999999 999999 999999 0 999999 999999 999999 999999 999999 999999 999999 999999 999999 999999 999999 999999 999999 999999 999999 999999 999999 999999 999999 999999 999999 999999 999999 999999 999999 999999 999999 999999 999999 999999 999999 999999 999999 999999 999999 999999 999999 999999 999999 999999 999999 999999 999999 999999 999999 999999 999999 999999 999999 999999 999999 999999 999999 999999 999999 999999 999999 999999 999999 999999 999999 999999 999999 999999 999999 999999 999999 999999 999999 999999 999999 999999 999999 999999 13980 16797 13967 10836 15533 18105 16405 16145 12055 16938 14782 13655 10108 18861 19475 13589 15001 16095 17379 12140 17075 17389 10689 10071 18969 15098 11464 17605 16378 17029 13738 14264 17118 17143 17484 19890 14913 19895 11489 10452 19030 19231 14569 16560 17274 18710 15139 14367 19537 13257 19657 19818 11985 10827 16162 13769 17933 12486 16182 15336 18625 15484 16299 15194 19027 12943 19748 18640 12208 16717 11193 15807 11842 14767 12736 13255 19456 11974 11826 15526 13620 18948 11417 12716 11451 10387 12943 14871 14341 16361 13531 13687 14115 15419 12227 14770 15248 10284 13387 15639 999999
999999 999999 999999 999999 999999 999999 999999 999999 999999 999999 999999 999999 999999 999999 999999 999999 999999 999999 999999 999999 999999 999999 999999 999999 999999 999999 999999 0 999999 999999 999999 999999 999999 999999 999999 999999 999999 999999 999999 999999 999999 999999 999999 999999 999999 999999 999999 999999 999999 999999 999999 999999 999999 999999 999999 999999 999999 999999 999999 999999 999999 999999 999999 999999 999999 999999 999999 999999 999999 999999 999999 999999 999999 999999 999999 999999 999999 999999 999999 999999 999999 999999 999999 999999 999999 999999 999999 999999 999999 999999 999999 999999 999999 999999 999999 999999 999999 999999 999999 999999 999999 19849 18147 19229 17987 11585 18286 17008 15417 11588 10690 14652 14205 18583 16115 11845 16791 16519 10003 13233 16701 12645 18957 13992 13385 19298 17557 15288 14339 14795 10985 13487 10705 18721 17858 13574 10118 17153 15181 19097 15658 18632 15055 11646 17094 15946 14968 18455 13372 16500 15153 16462 16158 13458 18639 19486 19048 14960 13764 14323 15637 18392 10347 10887 18287 17844 17601 19821 17126 18328 12653 14515 19791 14053 17151 11259 18517 13924 17976 10445 16764 14359 11355 17227 13636 15013 13528 16195 11280 11640 17918 10899 19548 13271 16575 13797 14289 13649 18913 10192 11840 999999
999999 999999 999999 999999 999999 999999 999999 999999 999999 999999 999999 999999 999999 999999 999999 999999 999999 999999 999999 999999 999999 999999 999999 999999 999999 999999 999999 999999 0 999999 999999 999999 999999 999999 999999 999999 999999 999999 999999 999999 999999 999999 999999 999999 999999 999999 999999 999999 999999 999999 999999 999999 999999 999999 999999 999999 999999 999999 999999 999999 999999 999999 999999 999999 999999 999999 999999 999999 999999 999999 999999 999999 999999 999999 999999 999999 999999 999999 999999 999999 999999 999999 999999 999999 999999 999999 999999 999999 999999 999999 999999 999999 999999 999999 999999 999999 999999 999999 999999 999999 999999 18064 14183 14545 16644 13340 16030 15157 14896 11014 11355 18354 10658 13275 13892 16847 13829 16242 19781 18016 17198 11938 18813 11569 14728 17331 13664 11676 15121 17285 15358 16966 16444 18840 14790 11809 19199 14348 16713 11648 13329 17221 19863 15854 16470 12387 15671 18012 17746 18548 19884 13085 18319 11709 13846 16470 14586 14200 19070 10621 16411 16488 15388 11476 14787 10002 19259 17695 14183 10788 12638 16774 18612 14081 11976 13179 12550 16129 13022 19356 16453 19164 11296 19511 18432 12757 11095 12911 18524 13368 19631 14804 18308 12939 13438 10474 17356 15243 19027 13671 18336 999999
999999 999999 999999 999999 999999 999999 999999 999999 999999 999999 999999 999999 999999 999999 999999 999999 999999 999999 999999 999999 999999 999999 999999 999999 999999 999999 999999 999999 999999 0 999999 999999 999999 999999 999999 999999 999999 999999 999999 999999 999999 999999 999999 999999 999999 999999 999999 999999 999999 999999 999999 999999 999999 999999 999999 999999 999999 999999 999999 999999 999999 999999 999999 999999 999999 999999 999999 999999 999999 999999 999999 999999 999999 999999 999999 999999 999999 999999 999999 999999 999999 999999 999999 999999 999999 999999 999999 999999 999999 999999 999999 999999 999999 999999 999999 999999 999999 999999 999999 999999 999999 11626 12145 17719 11604 18649 16624 15539 15132 19019 15566 10788 15793 15822 14563 17148 11730 18245 15203 19596 12842 16772 15795 15486 18254 16052 10430 16909 16754 10601 17644 11439 15878 15056 18621 14890 12284 16263 18042 18726 11210 19785 14234 10531 10591 14669 18077 18839 10799 11474 15765 13943 12427 15725 13121 18727 12451 10099 17631 14477 18087 13861 13798 13530 13879 15094 15754 11987 16138 12776 19311 11592 17023 13921 13530 16476 18399 15032 16176 15456 14048 11902 10039 18170 17658 18135 16618 16398 12366 16797 11792 19857 13613 15487 19418 19438 17829 13729 16988 12207 18571 999999
999999 999999 999999 999999 999999 999999 999999 999999 999999 999999 999999 999999 999999 999999 999999 999999 999999 999999 999999 999999 999999 999999 999999 999999 999999 999999 999999 999999 999999 999999 0 999999 999999 999999 999999 999999 999999 999999 999999 999999 999999 999999 999999 999999 999999 999999 999999 999999 999999 999999 999999 999999 999999 999999 999999 999999 999999 999999 999999 999999 999999 999999 999999 999999 999999 999999 999999 999999 999999 999999 999999 999999 999999 999999 999999 999999 999999 999999 999999 999999 999999 999999 999999 999999 999999 999999 999999 999999 999999 999999 999999 999999 999999 999999 999999 999999 999999 999999 999999 999999 999999 10385 16409 13444 10623 14726 14044 19382 13976 13601 17134 15763 15299 10205 11615 11049 13640 13121 14021 16375 19011 15334 13205 17643 14103 10662 15453 18286 19034 14175 19991 18310 14684 18136 10010 13176 14306 17187 15618 19462 13498 15913 11331 16043 16665 15875 17646 14381 12229 11655 11361 17439 16236 10723 11242 16308 11611 17228 15670 17210 17063 18613 13878 15466 18048 16577 18099 17345 13701 18237 17966 15785 16559 15699 11410 10413 12428 11482 19473 10881 15992 19246 11192 15660 13769 17490 15337 12410 16084 13357 14602 19722 18071 16938 18973 10535 11742 16902 15054 15280 19870 999999
999999 999999 999999 999999 999999 999999 999999 999999 999999 999999 999999 999999 999999 999999 999999 999999 999999 999999 999999 999999 999999 999999 999999 999999 999999 999999 999999 999999 999999 999999 999999 0 999999 999999 999999 999999 999999 999999 999999 999999 999999 999999 999999 999999 999999 999999 999999 999999 999999 999999 999999 999999 999999 999999 999999 999999 999999 999999 999999 999999 999999 999999 999999 999999 999999 999999 999999 999999 999999 999999 999999 999999 999999 999999 999999 999999 999999 999999 999999 999999 999999 999999 999999 999999 999999 999999 999999 999999 999999 999999 999999 999999 999999 999999 999999 999999 999999 999999 999999 999999 999999 13433 18242 15671 14969 12593 10966 11003 11323 16383 10197 18648 15669 13376 18389 18246 16172 17782 19687 14916 17095 15193 13454 16098 15582 12968 17587 17797 17516 13455 15494 16025 19696 18812 17745 18845 15417 15760 12335 12118 14745 10214 16255 19034 19828 16320 10855 17259 14504 13268 10179 10033 19260 15808 16923 12605 14285 14162 17561 17360 10331 10883 14567 12989 16489 15246 13469 16155 13778 12483 15647 17345 11186 10154 13507 13422 15257 18007 18763 14566 14045 15389 11575 13794 14465 14784 17090 18075 14337 12398 18580 13296 16855 19147 10790 17682 16731 19088 10548 13660 19716 999999
999999 999999 999999 999999 999999 999999 999999 999999 999999 999999 999999 999999 999999 999999 999999 999999 999999 999999 999999 999999 999999 999999 999999 999999 999999 999999 999999 999999 999999 999999 999999 999999 0 999999 999999 999999 999999 999999 999999 999999 999999 999999 999999 999999 999999 999999 999999 999999 999999 999999 999999 999999 999999 999999 999999 999999 999999 999999 999999 999999 999999 999999 999999 999999 999999 999999 999999 999999 999999 999999 999999 999999 999999 999999 999999 999999 999999 999999 999999 999999 999999 999999 999999 999999 999999 999999 999999 999999 999999 999999 999999 999999 999999 999999 999999 999999 999999 999999 999999 999999 999999 17512 13651 14082 18963 14330 11025 15340 19091 18675 13040 13273 15604 14104 13966 18583 10383 19132 14047 17913 13839 14965 14165 11395 11009 19293 17085 12015 17532 10381 19388 13147 12437 18239 13945 16678 19832 11041 18948 18933 11629 14680 19121 15421 18226 17876 12413 19663 18172 11420 16769 19925 14071 19914 13605 15888 10377 17823 15409 18143 12266 11797 10010 15608 15759 13140 11805 18247 10549 18377 17041 13821 12009 17496 13699 12241 11628 12743 18276 19572 17066 16166 13009 13098 10476 18231 17481 11746 12774 14090 12439 16828 19071 11723 12175 11226 10409 10661 15924 15320 11994 999999
999999 999999 999999 999999 999999 999999 999999 999999 999999 999999 999999 999999 999999 999999 999999 999999 999999 999999 999999 999999 999999 999999 999999 999999 999999 999999 999999 999999 999999 999999 999999 999999 999999 0 999999 999999 999999 999999 999999 999999 999999 999999 999999 999999 999999 999999 999999 999999 999999 999999 999999 999999 999999 999999 999999 999999 999999 999999 999999 999999 999999 999999 999999 999999 999999 999999 999999 999999 999999 999999 999999 999999 999999 999999 999999 999999 999999 999999 999999 999999 999999 999999 999999 999999 999999 999999 999999 999999 999999 999999 999999 999999 999999 999999 999999 999999 999999 999999 999999 999999 999999 14940 10894 15760 12032 12004 11685 11479 10658 17727 10243 13610 19698 17621 13283 10574 12483 15337 16961 14769 19561 12684 19339 18255 10103 13052 18740 18371 15091 16204 10814 12135 19620 17371 18075 10144 11618 15362 18779 10149 13064 15361 15050 18289 19724 17769 15011 18068 15054 13299 14018 18326 13335 17004 10137 12354 11504 14841 12553 15219 18622 19064 10089 12483 16266 18289 13827 17273 11702 17739 18531 11194 16555 16204 18320 19891 19643 15238 14940 13297 11360 13375 18080 12226 17355 11817 16561 19442 13282 13929 11704 10523 11073 17295 11287 11324 18640 19136 18033 14368 19243 999999
999999 999999 999999 999999 999999 999999 999999 999999 999999 999999 999999 999999 999999 999999 999999 999999 999999 999999 999999 999999 999999 999999 999999 999999 999999 999999 999999 999999 999999 999999 999999 999999 999999 999999 0 999999 999999 999999 999999 999999 999999 999999 999999 999999 999999 999999 999999 999999 999999 999999 999999 999999 999999 999999 999999 999999 999999 999999 999999 999999 999999 999999 999999 999999 999999 999999 999999 999999 999999 999999 999999 999999 999999 999999 999999 999999 999999 999999 999999 999999 999999 999999 999999 999999 999999 999999 999999 999999 999999 999999 999999 999999 999999 999999 999999 999999 999999 999999 999999 999999 999999 15428 14685 13746 12219 16637 18654 13686 12537 13541 12129 12568 12975 10644 12616 16195 15162 18286 15217 13538 17283 19816 13004 12976 17929 12751 13793 10659 16342 16153 14803 14421 14544 14351 11792 15483 14934 19087 11085 11197 15561 10733 17579 11222 15486 17891 12129 16998 17679 14956 17037 14792 15565 15020 18352 16348 12068 10842 14743 14467 19513 11526 10826 13049 19693 18334 13123 16699 19966 14274 11120 16883 17518 16545 12861 19279 19853 15861 19455 16966 14245 15422 10892 11383 19183 15058 16061 15173 11896 16335 14755 17007 13224 13614 11246 18149 14255 13184 14431 14321 18746 999999
999999 999999 999999 999999 999999 999999 999999 999999 999999 999999 999999 999999 999999 999999 999999 999999 999999 999999 999999 999999 999999 999999 999999 999999 999999 999999 999999 999999 999999 999999 999999 999999 999999 999999 999999 0 999999 999999 999999 999999 999999 999999 999999 999999 999999 999999 999999 999999 999999 999999 999999 999999 999999 999999 999999 999999 999999 999999 999999 999999 999999 999999 999999 999999 999999 999999 999999 999999 999999 999999 999999 999999 999999 999999 999999 999999 999999 999999 999999 999999 999999 999999 999999 999999 999999 999999 999999 999999 999999 999999 999999 999999 999999 999999 999999 999999 999999 999999 999999 999999 999999 18511 19461 19682 14247 10285 14377 18782 17594 12453 12971 13795 15269 16673 10977 16187 16737 11829 14491 16428 12798 14833 13865 10128 14608 10656 15530 14721 11033 15860 15837 15660 11244 19681 10785 14413 16639 11095 14071 13866 16141 18245 16603 11114 18577 12326 13740 14806 13894 14293 10458 18597 10686 13411 14513 17910 16771 15839 11657 17973 16008 11458 11767 13826 18810 17435 14907 11778 13809 10954 15618 12249 13226 16912 18936 19049 15734 10748 16610 16835 10347 15210 11729 13755 11030 16680 11845 16977 16501 15392 18214 17823 17076 18414 12728 14905 17718 19741 19815 15713 15301 999999
999999 999999 999999 999999 999999 999999 999999 999999 999999 999999 999999 999999 999999 999999 999999 999999 999999 999999 999999 999999 999999 999999 999999 999999 999999 999999 999999 999999 999999 999999 999999 999999 999999 999999 999999 999999 0 999999 999999 999999 999999 999999 999999 999999 999999 999999 999999 999999 999999 999999 999999 999999 999999 999999 999999 999999 999999 999999 999999 999999 999999 999999 999999 999999 999999 999999 999999 999999 999999 999999 999999 999999 999999 999999 999999 999999 999999 999999 999999 999999 999999 999999 999999 999999 999999 999999 999999 999999 999999 999999 999999 999999 999999 999999 999999 999999 999999 999999 999999 999999 999999 17937 17924 18784 15416 11909 14889 13344 13076 15563 15487 16813 17673 18707 11680 11499 19349 16986 16112 10020 11505 11636 14073 10299 13798 19575 10565 19135 17397 17948 19119 16918 14001 11544 19521 11155 14402 18249 17676 16831 10926 18714 11771 13919 19552 16577 11800 13785 16025 11677 19347 14362 17444 19798 15550 11815 17528 15273 13729 14563 14391 18461 15856 10324 16800 15512 13202 19609 19521 18707 18019 18345 12889 14535 10772 15963 17071 19640 13376 15735 10226 12667 11400 13126 13828 13381 17471 16302 10700 12473 14237 18604 18103 14166 17437 17557 10436 14922 19393 10799 10661 999999
999999 999999 999999 999999 999999 999999 999999 999999 999999 999999 999999 999999 999999 999999 999999 999999 999999 999999 999999 999999 999999 999999 999999 999999 999999 999999 999999 999999 999999 999999 999999 999999 999999 999999 999999 999999 999999 0 999999 999999 999999 999999 999999 999999 999999 999999 999999 999999 999999 999999 999999 999999 999999 999999 999999 999999 999999 999999 999999 999999 999999 999999 999999 999999 999999 999999 999999 999999 999999 999999 999999 999999 999999 999999 999999 999999 999999 999999 999999 999999 999999 999999 999999 999999 999999 999999 999999 999999 999999 999999 999999 999999 999999 999999 999999 999999 999999 999999 999999 999999 999999 11558 13427 13839 19020 16650 14597 17135 13591 15892 19658 18476 19307 14217 16842 11476 10566 13165 13416 17571 12711 11957 18796 16479 14759 12883 13837 11825 17729 12782 17897 13077 14791 13341 11836 10660 18468 16888 17242 15062 12937 19462 14334 14682 12553 12830 16266 11971 13022 10644 11936 18541 12647 16929 17435 15909 16820 14744 10866 16338 19943 16844 19644 15120 18465 10289 15277 18143 11227 11174 18681 18540 18993 17069 18301 18913 18387 17163 13379 12625 15955 13819 17111 15981 17584 19407 13274 11060 16757 18694 18417 18674 11767 17118 18742 19445 12306 10138 13170 12848 10928 999999
999999 999999 999999 999999 999999 999999 999999 999999 999999 999999 999999 999999 999999 999999 999999 999999 999999 999999 999999 999999 999999 999999 999999 999999 999999 999999 999999 999999 999999 999999 999999 999999 999999 999999 999999 999999 999999 999999 0 999999 999999 999999 999999 999999 999999 999999 999999 999999 999999 999999 999999 999999 999999 999999 999999 999999 999999 999999 999999 999999 999999 999999 999999 999999 999999 999999 999999 999999 999999 999999 999999 999999 999999 999999 999999 999999 999999 999999 999999 999999 999999 999999 999999 999999 999999 999999 999999 999999 999999 999999 999999 999999 999999 999999 999999 999999 999999 999999 999999 999999 999999 18073 14105 12725 11845 10683 13629 10768 15159 10714 16580 19786 12202 18884 10767 13214 18529 18564 11970 18462 19174 17529 12255 19859 18532 16815 13949 13290 14036 16547 14414 13686 14370 14239 17154 15981 10823 19443 11200 13579 15966 19051 19153 14058 15335 11232 19918 18214 13266 12715 19142 17201 17175 16451 10760 11320 19492 14816 13606 14865 14341 19134 14917 17461 17408 16412 13188 11572 10054 19221 15650 15411 18370 15980 10495 16827 13930 18814 17047 10813 17935 18100 13403 10466 16791 10345 15621 10598 17814 16247 14915 13569 17453 11253 17425 18596 13695 15797 11300 10118 15429 999999
999999 999999 999999 999999 999999 999999 999999 999999 999999 999999 999999 999999 999999 999999 999999 999999 999999 999999 999999 999999 999999 999999 999999 999999 999999 999999 999999 999999 999999 999999 999999 999999 999999 999999 999999 999999 999999 999999 999999 0 999999 999999 999999 999999 999999 999999 999999 999999 999999 999999 999999 999999 999999 999999 999999 999999 999999 999999 999999 999999 999999 999999 999999 999999 999999 999999 999999 999999 999999 999999 999999 999999 999999 999999 999999 999999 999999 999999 999999 999999 999999 999999 999999 999999 999999 999999 999999 999999 999999 999999 999999 999999 999999 999999 999999 999999 999999 999999 999999 999999 999999 11266 12271 11734 11325 12762 10402 14006 16291 19728 11743 12857 10601 16405 12484 18612 13331 15057 18203 19561 11402 13124 10993 10698 12784 17519 17952 16665 11936 19366 16697 16104 12215 17524 11030 16256 18239 11484 13141 15003 13967 19774 12774 18050 10645 12567 18933 15681 17781 16979 14512 15134 15822 13073 14689 12224 11854 11576 17980 14412 13657 18770 15883 16952 13146 15866 12969 14421 16692 10026 17728 10165 18050 14935 19025 18130 15261 15434 17293 13454 19712 19319 16717 10004 10076 17827 19804 15752 19030 11640 17010 18421 10577 18259 15218 10753 16045 17313 11805 14205 17094 999999
999999 999999 999999 999999 999999 999999 999999 999999 999999 999999 999999 999999 999999 999999 999999 999999 999999 999999 999999 999999 999999 999999 999999 999999 999999 999999 999999 999999 999999 999999 999999 999999 999999 999999 999999 999999 999999 999999 999999 999999 0 999999 999999 999999 999999 999999 999999 999999 999999 999999 999999 999999 999999 999999 999999 999999 999999 999999 999999 999999 999999 999999 999999 999999 999999 999999 999999 999999 999999 999999 999999 999999 999999 999999 999999 999999 999999 999999 999999 999999 999999 999999 999999 999999 999999 999999 999999 999999 999999 999999 999999 999999 999999 999999 999999 999999 999999 999999 999999 999999 999999 16926 18166 12479 13021 16315 15039 15439 16079 10236 11955 10180 13145 18662 12263 14685 13720 11830 10631 10045 13587 13285 13897 18506 14732 16917 13083 16498 11198 13558 18383 16412 18064 19753 18375 16653 14202 19766 17423 17646 12173 10588 18956 19800 19474 18274 17353 13436 19713 19877 12552 14839 12269 16263 16434 13343 10603 12134 14065 18582 14696 17280 13273 19407 17097 17875 13221 11156 18841 15926 17566 17809 10713 16952 16447 17774 17595 16159 16038 18514 13893 13146 11931 14766 17741 14298 17563 12005 19135 14346 13607 12799 12557 10092 15292 12055 15282 15111 12102 10716 10595 999999
999999 999999 999999 999999 999999 999999 999999 999999 999999 999999 999999 999999 999999 999999 999999 999999 999999 999999 999999 999999 999999 999999 999999 999999 999999 999999 999999 999999 999999 999999 999999 999999 999999 999999 999999 999999 999999 999999 999999 999999 999999 0 999999 999999 999999 999999 999999 999999 999999 999999 999999 999999 999999 999999 999999 999999 999999 999999 999999 999999 999999 999999 999999 999999 999999 999999 999999 999999 999999 999999 999999 999999 999999 999999 999999 999999 999999 999999 999999 999999 999999 999999 999999 999999 999999 999999 999999 999999 999999 999999 999999 999999 999999 999999 999999 999999 999999 999999 999999 999999 999999 17626 15103 12641 12404 15958 17187 14117 11989 11747 16121 18736 15552 10149 14870 10013 12564 14596 16105 13937 18018 16685 11858 13631 16779 14107 11609 11317 14333 12913 15807 17642 19898 17330 14386 17510 17040 15006 14201 15185 19880 10713 14133 14332 17974 13087 13315 17100 10045 13151 11268 12784 17764 15150 12967 17430 18964 16616 11388 16890 16757 17938 18223 19762 18617 12591 19594 18148 11660 13771 18321 10746 11543 11478 16369 17320 14158 14395 14642 14091 16301 19226 16086 12016 15256 16478 14287 19480 19978 11204 18142 14299 19852 14863 11705 16881 11317 14645 14122 16535 10997 999999
999999 999999 999999 999999 999999 999999 999999 999999 999999 999999 999999 999999 999999 999999 999999 999999 999999 999999 999999 999999 999999 999999 999999 999999 999999 999999 999999 999999 999999 999999 999999 999999 999999 999999 999999 999999 999999 999999 999999 999999 999999 999999 0 999999 999999 999999 999999 999999 999999 999999 999999 999999 999999 999999 999999 999999 999999 999999 999999 999999 999999 999999 999999 999999 999999 999999 999999 999999 999999 999999 999999 999999 999999 999999 999999 999999 999999 999999 999999 999999 999999 999999 999999 999999 999999 999999 999999 999999 999999 999999 999999 999999 999999 999999 999999 999999 999999 999999 999999 999999 999999 15096 13302 19178 16804 17934 12024 18430 16681 14754 10672 12517 16136 14142 16169 16474 16047 11751 13847 13994 10569 13349 19731 18977 12558 17454 11220 13080 17106 12550 19542 12386 19413 18343 15631 10971 15930 18615 14121 13316 15138 14426 14901 13830 13646 14529 11423 16062 12773 17537 13911 13987 10517 15509 18329 16462 16184 12043 17710 19238 17412 12581 16460 14842 12631 17469 18261 18372 11869 13385 17943 15435 13126 18848 19833 13211 16104 14471 10281 14435 14421 12445 15943 16885 13756 15340 12766 14927 10080 14748 14719 15554 15690 18436 19761 12520 13032 16635 11900 15665 11463 999999
999999 999999 999999 999999 999999 999999 999999 999999 999999 999999 999999 999999 999999 999999 999999 999999 999999 999999 999999 999999 999999 999999 999999 999999 999999 999999 999999 999999 999999 999999 999999 999999 999999 999999 999999 999999 999999 999999 999999 999999 999999 999999 999999 0 999999 999999 999999 999999 999999 999999 999999 999999 999999 999999 999999 999999 999999 999999 999999 999999 999999 999999 999999 999999 999999 999999 999999 999999 999999 999999 999999 999999 999999 999999 999999 999999 999999 999999 999999 999999 999999 999999 999999 999999 999999 999999 999999 999999 999999 999999 999999 999999 999999 999999 999999 999999 999999 999999 999999 999999 999999 17316 18289 13003 19204 10256 13277 12286 19914 11956 13845 15066 19308 16715 17778 14626 16947 18076 17550 12327 18046 10808 18995 15873 16697 12317 12847 16532 16796 19515 17094 11154 16209 10973 10886 12192 10079 15134 16142 16955 10910 11448 19085 15941 14914 19624 12418 18821 11688 14396 16659 19734 17047 16539 11118 10378 15284 17605 11915 15327 15534 13130 14311 11383 10722 10400 14796 13233 16033 15101 18822 10424 14204 10679 17372 19650 10028 19814 11855 14025 11645 10155 18348 19191 18773 18911 12072 13556 11507 17977 11585 16598 16898 17325 16639 18001 19329 13150 12145 16539 17783 999999
999999 999999 999999 999999 999999 999999 999999 999999 999999 999999 999999 999999 999999 999999 999999 999999 999999 999999 999999 999999 999999 999999 999999 999999 999999 999999 999999 999999 999999 999999 999999 999999 999999 999999 999999 999999 999999 999999 999999 999999 999999 999999 999999 999999 0 999999 999999 999999 999999 999999 999999 999999 999999 999999 999999 999999 999999 999999 999999 999999 999999 999999 999999 999999 999999 999999 999999 999999 999999 999999 999999 999999 999999 999999 999999 999999 999999 999999 999999 999999 999999 999999 999999 999999 999999 999999 999999 999999 999999 999999 999999 999999 999999 999999 999999 999999 999999 999999 999999 999999 999999 14090 11853 18371 18196 18514 11953 15433 14827 13231 11825 18968 15882 12126 17367 14069 15741 19022 16894 18023 15981 10083 17052 19469 17280 17590 19977 18243 14505 13302 18809 16584 10119 13515 14024 19416 15298 16014 13118 12197 11724 13086 13557 17959 11190 16178 16231 15662 15253 10017 19851 14768 15011 11132 17182 12345 12479 12071 16242 11374 12591 15716 14383 16229 16388 10611 12588 11014 14155 19849 16705 14345 17136 15413 10314 16650 18936 17290 18604 11153 13640 16538 13635 12240 13340 13271 10119 17426 19976 18437 19092 19723 11609 16555 14196 10832 14799 13714 19377 16567 17734 999999
999999 999999 999999 999999 999999 999999 999999 999999 999999 999999 999999 999999 999999 999999 999999 999999 999999 999999 999999 999999 999999 999999 999999 999999 999999 999999 999999 999999 999999 999999 999999 999999 999999 999999 999999 999999 999999 999999 999999 999999 999999 999999 999999 999999 999999 0 999999 999999 999999 999999 999999 999999 999999 999999 999999 999999 999999 999999 999999 999999 999999 999999 999999 999999 999999 999999 999999 999999 999999 999999 999999 999999 999999 999999 999999 999999 999999 999999 999999 999999 999999 999999 999999 999999 999999 999999 999999 999999 999999 999999 999999 999999 999999 999999 999999 999999 999999 999999 999999 999999 999999 16918 19761 12465 16800 13339 13527 14575 12013 18579 19643 17894 18232 19956 11288 10764 13055 11274 15459 18672 18686 10071 15545 14558 15500 17788 10882 15290 14864 11214 17870 15171 18828 18873 13642 14166 15850 18275 19137 10710 17545 11134 17186 10383 10022 19206 10366 10053 15746 12029 15719 11622 16580 18231 19057 11636 17775 10208 16896 10815 17212 13121 13849 16806 11663 13437 13164 12825 17020 17768 17513 16197 11149 14110 19037 12116 17397 13293 17990 16663 10194 14158 19266 19027 11304 13642 12316 16855 14160 14016 11049 16574 19723 10988 14647 13886 15825 18059 17747 14943 14381 999999
999999 999999 999999 999999 999999 999999 999999 999999 999999 999999 999999 999999 999999 999999 999999 999999 999999 999999 999999 999999 999999 999999 999999 999999 999999 999999 999999 999999 999999 999999 999999 999999 999999 999999 999999 999999 999999 999999 999999 999999 999999 999999 999999 999999 999999 999999 0 999999 999999 999999 999999 999999 999999 999999 999999 999999 999999 999999 999999 999999 999999 999999 999999 999999 999999 999999 999999 999999 999999 999999 999999 999999 999999 999999 999999 999999 999999 999999 999999 999999 999999 999999 999999 999999 999999 999999 999999 999999 999999 999999 999999 999999 999999 999999 999999 999999 999999 999999 999999 999999 999999 13127 18559 19486 16684 16511 12389 18372 17398 19433 19360 14044 16891 19567 14269 18856 15573 19924 17324 10039 13018 11909 13611 17754 13854 18383 18042 16469 10672 19756 18896 14092 10186 17217 14747 14365 18097 17465 11892 13096 19916 13449 19425 17550 10713 11501 18461 13334 19814 18754 12105 18998 11909 17554 11369 14066 17648 10599 11325 15449 16611 19564 10894 12993 19164 13397 18331 10835 18616 16572 13834 12039 10156 10231 18769 13414 14881 19361 14918 11582 18472 12192 18917 18672 18818 18897 14930 17277 11748 11076 14204 18153 19316 14877 18513 10762 17055 12468 16644 15342 13399 999999
999999 999999 999999 999999 999999 999999 999999 999999 999999 999999 999999 999999 999999 999999 999999 999999 999999 999999 999999 999999 999999 999999 999999 999999 999999 999999 999999 999999 999999 999999 999999 999999 999999 999999 999999 999999 999999 999999 999999 999999 999999 999999 999999 999999 999999 999999 999999 0 999999 999999 999999 999999 999999 999999 999999 999999 999999 999999 999999 999999 999999 999999 999999 999999 999999 999999 999999 999999 999999 999999 999999 999999 999999 999999 999999 999999 999999 999999 999999 999999 999999 999999 999999 999999 999999 999999 999999 999999 999999 999999 999999 999999 999999 999999 999999 999999 999999 999999 999999 999999 999999 18728 18894 19670 16734 18567 15387 18862 11169 14219 10016 17682 18693 18335 18083 11379 15659 17501 15826 18836 14934 11036 12519 17974 16116 13199 19274 16773 11209 18185 11911 19102 15667 19190 19265 11980 14804 12525 11458 12637 13204 14019 16225 14717 10972 15718 19971 10642 13321 13987 17360 12689 10794 19871 14160 15303 17627 11582 18996 10588 18677 15307 10600 14262 11243 12370 17282 15415 16522 19659 15123 13438 13714 11111 14793 11768 12228 17883 18564 15888 13359 10745 17699 17007 19425 16668 13049 11027 17684 15846 10728 19986 10062 11375 16356 17509 17565 16217 13308 19072 11296 999999
999999 999999 999999 999999 999999 999999 999999 999999 999999 999999 999999 999999 999999 999999 999999 999999 999999 999999 999999 999999 999999 999999 999999 999999 999999 999999 999999 999999 999999 999999 999999 999999 999999 999999 999999 999999 999999 999999 999999 999999 999999 999999 999999 999999 999999 999999 999999 999999 0 999999 999999 999999 999999 999999 999999 999999 999999 999999 999999 999999 999999 999999 999999 999999 999999 999999 999999 999999 999999 999999 999999 999999 999999 999999 999999 999999 999999 999999 999999 999999 999999 999999 999999 999999 999999 999999 999999 999999 999999 999999 999999 999999 999999 999999 999999 999999 999999 999999 999999 999999 999999 10321 17657 14368 17597 16972 11264 14396 17844 13318 17368 12325 11451 16639 14014 12946 11308 16611 18163 12635 17853 17864 16227 18316 17779 19655 14036 10689 19163 10739 16666 12969 13972 18237 15452 14615 14626 12124 10860 12262 12326 18209 15950 11339 11199 13969 10355 14734 11424 11114 11381 13906 19380 16931 11604 16595 16549 12399 15555 19717 19647 18686 11949 11343 14251 12044 12730 12137 18452 10902 11848 16107 13692 10305 17335 12042 13991 14034 14566 17639 11485 17103 15992 14019 17358 13101 11270 18680 14070 11101 19556 14065 15879 17802 19903 11180 19891 14498 10069 18641 11582 999999
999999 999999 999999 999999 999999 999999 999999 999999 999999 999999 999999 999999 999999 999999 999999 999999 999999 999999 999999 999999 999999 999999 999999 999999 999999 999999 999999 999999 999999 999999 999999 999999 999999 999999 999999 999999 999999 999999 999999 999999 999999 999999 999999 999999 999999 999999 999999 999999 999999 0 999999 999999 999999 999999 999999 999999 999999 999999 999999 999999 999999 999999 999999 999999 999999 999999 999999 999999 999999 999999 999999 999999 999999 999999 999999 999999 999999 999999 999999 999999 999999 999999 999999 999999 999999 999999 999999 999999 999999 999999 999999 999999 999999 999999 999999 999999 999999 999999 999999 999999 999999 16732 12671 11368 16115 18560 19039 12214 12376 13437 12503 12203 14551 13372 12875 13913 19431 18833 13946 12684 10031 19959 11433 17107 10042 10958 14040 11599 19195 10602 16704 13774 15221 10660 15006 15517 13840 11260 13646 16931 17088 13043 13347 12410 13980 10873 11471 13194 16899 13351 17621 18946 16293 14775 19643 18590 11273 16927 18532 18498 19642 14464 16886 11007 13721 18108 16874 10242 16271 12702 18420 18452 13039 15420 11758 12783 12394 11931 12627 15226 11537 15730 17567 17356 12550 11728 11740 12713 13752 19318 18805 15708 19716 11145 16570 16386 15373 11069 16834 14387 15447 999999
999999 999999 999999 999999 999999 999999 999999 999999 999999 999999 999999 999999 999999 999999 999999 999999 999999 999999 999999 999999 999999 999999 999999 999999 999999 999999 999999 999999 999999 999999 999999 999999 999999 999999 999999 999999 999999 999999 999999 999999 999999 999999 999999 999999 999999 999999 999999 999999 999999 999999 0 999999 999999 999999 999999 999999 999999 999999 999999 999999 999999 999999 999999 999999 999999 999999 999999 999999 999999 999999 999999 999999 999999 999999 999999 999999 999999 999999 999999 999999 999999 999999 999999 999999 999999 999999 999999 999999 999999 999999 999999 999999 999999 999999 999999 999999 999999 999999 999999 999999 999999 13501 14881 18989 17287 14473 16193 18608 16120 19397 18209 11029 11279 12019 18585 13621 14503 14172 10923 14407 19182 12181 10176 14881 13137 10332 16230 16174 19726 13573 19448 11990 12626 10911 10733 18719 17224 14713 19552 19091 14238 14360 10741 13537 19729 10875 10687 15770 11436 10325 13266 19424 11857 16348 14497 12145 12259 11949 10257 12668 12436 11446 14807 12345 11978 12858 14713 10555 13057 11218 12213 14000 16340 12614 17138 19201 10282 10909 15613 18484 19897 13039 18629 18449 19817 19559 12748 15256 12365 19380 16967 10149 13642 19698 18718 10059 10824 16874 17443 11468 14557 999999
999999 999999 999999 999999 999999 999999 999999 999999 999999 999999 999999 999999 999999 999999 999999 999999 999999 999999 999999 999999 999999 999999 999999 999999 999999 999999 999999 999999 999999 999999 999999 999999 999999 999999 999999 999999 999999 999999 999999 999999 999999 999999 999999 999999 999999 999999 999999 999999 999999 999999 999999 0 999999 999999 999999 999999 999999 999999 999999 999999 999999 999999 999999 999999 999999 999999 999999 999999 999999 999999 999999 999999 999999 999999 999999 999999 999999 999999 999999 999999 999999 999999 999999 999999 999999 999999 999999 999999 999999 999999 999999 999999 999999 999999 999999 999999 999999 999999 999999 999999 999999 10198 14475 16777 12304 14068 17493 15899 19867 11068 19911 12214 15056 13110 15541 10113 10975 18238 14027 19294 14674 19070 16314 13271 19828 13366 16072 13777 15140 13853 15432 12794 15757 18006 18622 12070 18301 17519 13040 16019 15530 15419 13059 13155 19213 16623 16077 10686 13687 18977 18372 14090 15925 16644 17507 15734 19216 11806 15142 16909 11597 12276 16669 12307 17354 10728 15321 14409 19066 12192 10222 14588 15823 10018 10524 13823 18631 13281 12073 16028 18252 14462 17527 19454 12475 12472 11704 15900 14240 15944 17869 19513 16921 14134 16591 17477 17737 19613 10840 13363 12511 999999
999999 999999 999999 999999 999999 999999 999999 999999 999999 999999 999999 999999 999999 999999 999999 999999 999999 999999 999999 999999 999999 999999 999999 999999 999999 999999 999999 999999 999999 999999 999999 999999 999999 999999 999999 999999 999999 999999 999999 999999 999999 999999 999999 999999 999999 999999 999999 999999 999999 999999 999999 999999 0 999999 999999 999999 999999 999999 999999 999999 999999 999999 999999 999999 999999 999999 999999 999999 999999 999999 999999 999999 999999 999999 999999 999999 999999 999999 999999 999999 999999 999999 999999 999999 999999 999999 999999 999999 999999 999999 999999 999999 999999 999999 999999 999999 999999 999999 999999 999999 999999 15203 16082 18429 12872 10129 19066 19217 15043 10436 16148 13823 18612 17204 16956 11041 19894 18222 15678 11751 15127 12597 16831 13233 19061 14608 13945 15333 15148 17708 15185 14728 11396 16955 18255 12263 17421 10780 12665 12367 19191 16361 12222 12051 19461 15687 16641 14833 17462 14455 16588 10642 11244 16620 13170 15423 19882 10203 11854 13085 15793 14639 16851 16223 13872 12958 17648 18372 19943 16439 11952 19509 18459 10028 19301 18437 16464 13717 17192 18475 16377 17531 15310 18565 16152 16452 11227 16812 12364 10244 13431 15799 18990 14780 12543 12695 15520 15214 10290 14833 16794 999999
999999 999999 999999 999999 999999 999999 999999 999999 999999 999999 999999 999999 999999 999999 999999 999999 999999 999999 999999 999999 999999 999999 999999 999999 999999 999999 999999 999999 999999 999999 999999 999999 999999 999999 999999 999999 999999 999999 999999 999999 999999 999999 999999 999999 999999 999999 999999 999999 999999 999999 999999 999999 999999 0 999999 999999 999999 999999 999999 999999 999999 999999 999999 999999 999999 999999 999999 999999 999999 999999 999999 999999 999999 999999 999999 999999 999999 999999 999999 999999 999999 999999 999999 999999 999999 999999 999999 999999 999999 999999 999999 999999 999999 999999 999999 999999 999999 999999 999999 999999 999999 15173 15279 11028 12046 11593 16163 16391 11463 14063 14181 13545 11212 12097 17380 11616 19845 18910 12264 13938 11991 17937 17661 12410 13823 11485 12964 11865 16386 17547 13133 11937 19440 19984 19887 13345 11541 13019 17764 13675 11964 14633 15231 10406 19989 17685 15714 10891 17100 19051 17001 14785 16326 11840 14466 11750 12595 17337 19881 10180 12445 15891 17576 19541 15186 15106 15904 13629 17051 12901 13521 16274 14199 15726 11978 19914 14589 11866 17306 18367 11908 18884 11759 10714 11474 17434 11514 13181 15712 10588 16766 18819 12494 17573 10822 15972 14932 11487 14644 19804 18793 999999
999999 999999 999999 999999 999999 999999 999999 999999 999999 999999 999999 999999 999999 999999 999999 999999 999999 999999 999999 999999 999999 999999 999999 999999 999999 999999 999999 999999 999999 999999 999999 999999 999999 999999 999999 999999 999999 999999 999999 999999 999999 999999 999999 999999 999999 999999 999999 999999 999999 999999 999999 999999 999999 999999 0 999999 999999 999999 999999 999999 999999 999999 999999 999999 999999 999999 999999 999999 999999 999999 999999 999999 999999 999999 999999 999999 999999 999999 999999 999999 999999 999999 999999 999999 999999 999999 999999 999999 999999 999999 999999 999999 999999 999999 999999 999999 999999 999999 999999 999999 999999 19323 15233 10346 16211 13762 16394 10752 12427 12348 12698 16496 19378 18013 17335 15050 17952 15852 13335 16801 19442 11381 12295 14510 17604 10432 10623 11624 12683 11504 19554 11027 15588 10572 17444 18813 15242 19156 12538 18923 10348 10403 16862 11891 16339 13082 10940 11188 17751 16989 19826 14670 13784 10865 11985 14657 17177 15865 11427 19082 10431 12741 19318 16090 10048 14849 17051 12847 12891 12299 13383 16169 15855 11762 17989 17114 14758 12147 10941 11137 15998 14322 10638 10824 16073 17752 13380 10014 10917 14297 19480 14080 14054 14819 16557 18591 15198 15181 18727 12812 19008 999999
999999 999999 999999 999999 999999 999999 999999 999999 999999 999999 999999 999999 999999 999999 999999 999999 999999 999999 999999 999999 999999 999999 999999 999999 999999 999999 999999 999999 999999 999999 999999 999999 999999 999999 999999 999999 999999 999999 999999 999999 999999 999999 999999 999999 999999 999999 999999 999999 999999 999999 999999 999999 999999 999999 999999 0 999999 999999 999999 999999 999999 999999 999999 999999 999999 999999 999999 999999 999999 999999 999999 999999 999999 999999 999999 999999 999999 999999 999999 999999 999999 999999 999999 999999 999999 999999 999999 999999 999999 999999 999999 999999 999999 999999 999999 999999 999999 999999 999999 999999 999999 19033 18407 14712 10591 18547 18704 14369 15477 16621 17501 18594 19357 18761 10459 14134 19334 17127 17176 15741 18704 13178 12243 17771 10358 14480 13564 18558 13211 14804 11514 12481 10932 18170 11872 14406 19645 11594 13388 12143 12025 11822 17959 15464 10477 18702 10231 18343 19123 15660 10139 16802 18769 14711 16779 19507 19461 11136 14516 13885 11651 15289 12871 15703 11239 13405 14063 17873 13686 15645 14338 15423 10863 18623 16211 10297 19657 18546 10221 17139 13832 15241 14570 14582 10908 10222 19124 10291 17897 11771 17861 19082 12470 12649 19884 19529 12024 17719 19510 16807 19785 999999
999999 999999 999999 999999 999999 999999 999999 999999 999999 999999 999999 999999 999999 999999 999999 999999 999999 999999 999999 999999 999999 999999 999999 999999 999999 999999 999999 999999 999999 999999 999999 999999 999999 999999 999999 999999 999999 999999 999999 999999 999999 999999 999999 999999 999999 999999 999999 999999 999999 999999 999999 999999 999999 999999 999999 999999 0 999999 999999 999999 999999 999999 999999 999999 999999 999999 999999 999999 999999 999999 999999 999999 999999 999999 999999 999999 999999 999999 999999 999999 999999 999999 999999 999999 999999 999999 999999 999999 999999 999999 999999 999999 999999 999999 999999 999999 999999 999999 999999 999999 999999 18676 19874 17727 19449 13487 16064 13513 13601 16624 10133 15722 19113 11981 13614 10175 14747 11321 14567 15773 13246 15634 16758 17754 12544 12622 13454 15232 16053 18428 10296 13059 19458 15947 14126 13275 17562 18889 11711 11657 10804 11965 13524 14418 18262 10290 11223 19110 11865 10960 16964 14965 12456 18311 12544 17638 16130 15669 18746 15842 11491 18373 18134 19418 10671 13273 10195 18273 16264 12351 18308 17420 15137 14504 16444 14146 10864 13276 15224 16187 14708 19176 13435 13339 14723 19647 16500 18215 17572 18471 19360 10709 16783 19177 18589 15612 17889 14910 18839 17432 12645 999999
999999 999999 999999 999999 999999 999999 999999 999999 999999 999999 999999 999999 999999 999999 999999 999999 999999 999999 999999 999999 999999 999999 999999 999999 999999 999999 999999 999999 999999 999999 999999 999999 999999 999999 999999 999999 999999 999999 999999 999999 999999 999999 999999 999999 999999 999999 999999 999999 999999 999999 999999 999999 999999 999999 999999 999999 999999 0 999999 999999 999999 999999 999999 999999 999999 999999 999999 999999 999999 999999 999999 999999 999999 999999 999999 999999 999999 999999 999999 999999 999999 999999 999999 999999 999999 999999 999999 999999 999999 999999 999999 999999 999999 999999 999999 999999 999999 999999 999999 999999 999999 12691 10456 18488 10154 13136 15939 11327 14497 13850 19565 19472 14799 18012 19241 16735 10690 12540 19606 18686 15324 15101 18367 12187 11272 12904 11973 15000 13764 14378 12854 18297 19656 14111 16152 13111 10000 15039 16422 12763 18220 14919 18945 14251 16644 11622 11028 17401 14771 10535 19708 19028 14234 13036 14687 11214 15833 19367 18961 14203 18051 11852 10953 15581 12932 19247 12290 10097 15788 10563 16050 10832 17843 18107 19385 18638 18925 10429 12477 15120 12165 16818 17351 16111 12977 18451 12591 18961 13703 13792 10340 19551 19520 17388 11955 18026 15018 13141 18751 14914 18194 999999
999999 999999 999999 999999 999999 999999 999999 999999 999999 999999 999999 999999 999999 999999 999999 999999 999999 999999 999999 999999 999999 999999 999999 999999 999999 999999 999999 999999 999999 999999 999999 999999 999999 999999 999999 999999 999999 999999 999999 999999 999999 999999 999999 999999 999999 999999 999999 999999 999999 999999 999999 999999 999999 999999 999999 999999 999999 999999 0 999999 999999 999999 999999 999999 999999 999999 999999 999999 999999 999999 999999 999999 999999 999999 999999 999999 999999 999999 999999 999999 999999 999999 999999 999999 999999 999999 999999 999999 999999 999999 999999 999999 999999 999999 999999 999999 999999 999999 999999 999999 999999 13343 18488 15566 17516 17078 19078 14120 10605 12369 17248 12120 12704 18690 11191 16965 19106 16107 12198 10150 17962 18250 16180 12133 12291 14050 18265 12106 18077 11927 13890 18497 13049 15566 13535 17155 11988 14851 16769 14180 15387 17462 13113 10532 14573 11237 18517 10065 10264 19486 14441 18223 11651 11326 17890 16197 18862 16709 12108 16384 19429 13384 10652 13759 13849 14449 16059 15502 10825 19790 11708 16732 15884 10015 18426 16242 13545 17793 10004 10581 17857 14786 10438 12363 17771 15292 12812 16069 14995 16955 16818 14652 15106 10788 16503 19031 18324 14841 14195 12369 14749 999999
999999 999999 999999 999999 999999 999999 999999 999999 999999 999999 999999 999999 999999 999999 999999 999999 999999 999999 999999 999999 999999 999999 999999 999999 999999 999999 999999 999999 999999 999999 999999 999999 999999 999999 999999 999999 999999 999999 999999 999999 999999 999999 999999 999999 999999 999999 999999 999999 999999 999999 999999 999999 999999 999999 999999 999999 999999 999999 999999 0 999999 999999 999999 999999 999999 999999 999999 999999 999999 999999 999999 999999 999999 999999 999999 999999 999999 999999 999999 999999 999999 999999 999999 999999 999999 999999 999999 999999 999999 999999 999999 999999 999999 999999 999999 999999 999999 999999 999999 999999 999999 15809 16693 12954 18590 15311 16501 17813 19771 18338 17264 18385 10007 11159 11411 14048 14372 17336 16219 17519 10887 11881 15059 19325 12998 12370 17531 11123 10024 14580 18950 19922 11299 15067 12930 16991 10401 19182 12297 17189 14256 12159 12493 13186 19201 17982 16763 11847 13980 13607 18751 13920 14478 18493 10573 12662 11977 10402 18386 19120 12749 19894 19015 10396 10106 19211 12244 14974 16007 13069 10406 11002 14807 11990 11754 13409 11089 19142 19720 15996 16649 12562 16599 16048 10067 19274 13858 15436 16016 11125 10210 13815 12089 15414 10768 18060 15559 12422 11080 19707 19368 999999
999999 999999 999999 999999 999999 999999 999999 999999 999999 999999 999999 999999 999999 999999 999999 999999 999999 999999 999999 999999 999999 999999 999999 999999 999999 999999 999999 999999 999999 999999 999999 999999 999999 999999 999999 999999 999999 999999 999999 999999 999999 999999 999999 999999 999999 999999 999999 999999 999999 999999 999999 999999 999999 999999 999999 999999 999999 999999 999999 999999 0 999999 999999 999999 999999 999999 999999 999999 999999 999999 999999 999999 999999 999999 999999 999999 999999 999999 999999 999999 999999 999999 999999 999999 999999 999999 999999 999999 999999 999999 999999 999999 999999 999999 999999 999999 999999 999999 999999 999999 999999 13291 13601 10658 13659 12319 16548 18253 10337 12427 18818 15390 14667 12590 15625 17798 12344 10892 18213 13628 14926 18410 10403 16059 14403 18981 16044 11567 18533 10198 10708 12271 19767 12172 15505 12260 10341 15267 16874 17457 15306 17513 10683 16160 17394 13969 16051 11186 13759 18853 15630 18236 10183 18415 11201 11654 17030 10934 11706 19347 13622 11626 11649 16011 14042 13827 17113 17773 19150 15443 12168 17946 18432 12131 15286 13105 11084 13178 18755 14325 11204 19569 12152 17454 15978 16313 17556 19455 13034 10803 19393 18912 13290 10155 12146 13623 18078 13677 15252 18758 17077 999999
999999 999999 999999 999999 999999 999999 999999 999999 999999 999999 999999 999999 999999 999999 999999 999999 999999 999999 999999 999999 999999 999999 999999 999999 999999 999999 999999 999999 999999 999999 999999 999999 999999 999999 999999 999999 999999 999999 999999 999999 999999 999999 999999 999999 999999 999999 999999 999999 999999 999999 999999 999999 999999 999999 999999 999999 999999 999999 999999 999999 999999 0 999999 999999 999999 999999 999999 999999 999999 999999 999999 999999 999999 999999 999999 999999 999999 999999 999999 999999 999999 999999 999999 999999 999999 999999 999999 999999 999999 999999 999999 999999 999999 999999 999999 999999 999999 999999 999999 999999 999999 17393 18156 11862 17304 17835 12380 16490 16554 15729 16061 11934 16777 16765 11735 12493 12468 11708 10324 10862 18475 12196 17116 19258 14461 19810 14991 11771 14143 19481 18645 15133 10950 18467 10289 15688 15454 19904 13174 16426 13285 15357 19653 10670 17901 10653 18719 19027 16176 13965 17851 17597 16364 19082 12216 19609 16756 11543 15150 11081 14216 16850 10117 15107 17944 15123 10472 13326 10835 15898 11026 10253 19502 16128 15375 19772 10253 10884 17467 17689 12741 11934 14357 10865 19341 10761 14028 17879 18580 10654 11896 13365 11858 15104 11403 12996 12563 13283 14130 15043 14591 999999
999999 999999 999999 999999 999999 999999 999999 999999 999999 999999 999999 999999 999999 999999 999999 999999 999999 999999 999999 999999 999999 999999 999999 999999 999999 999999 999999 999999 999999 999999 999999 999999 999999 999999 999999 999999 999999 999999 999999 999999 999999 999999 999999 999999 999999 999999 999999 999999 999999 999999 999999 999999 999999 999999 999999 999999 999999 999999 999999 999999 999999 999999 0 999999 999999 999999 999999 999999 999999 999999 999999 999999 999999 999999 999999 999999 999999 999999 999999 999999 999999 999999 999999 999999 999999 999999 999999 999999 999999 999999 999999 999999 999999 999999 999999 999999 999999 999999 999999 999999 999999 12754 17303 17972 16412 19845 17329 16401 10724 18231 12961 14639 11851 14450 11895 14102 15297 15308 11436 14491 11709 15214 11123 12549 17971 11557 10581 15507 10336 10450 19903 17908 14440 18839 10048 12563 15810 15224 11253 18383 12681 10156 13724 13690 16842 15791 14646 15284 19354 19364 12487 18313 13434 10219 17097 17386 17494 13159 15750 16184 11987 17739 19314 16762 11494 10456 14322 17980 17413 18180 12818 13847 15182 13911 14190 15154 12083 11532 11116 10516 14181 12955 18477 11441 18092 18678 14347 13290 11917 11038 15974 19818 18030 12875 12639 13476 16923 15166 18211 17724 19574 999999
999999 999999 999999 999999 999999 999999 999999 999999 999999 999999 999999 999999 999999 999999 999999 999999 999999 999999 999999 999999 999999 999999 999999 999999 999999 999999 999999 999999 999999 999999 999999 999999 999999 999999 999999 999999 999999 999999 999999 999999 999999 999999 999999 999999 999999 999999 999999 999999 999999 999999 999999 999999 999999 999999 999999 999999 999999 999999 999999 999999 999999 999999 999999 0 999999 999999 999999 999999 999999 999999 999999 999999 999999 999999 999999 999999 999999 999999 999999 999999 999999 999999 999999 999999 999999 999999 999999 999999 999999 999999 999999 999999 999999 999999 999999 999999 999999 999999 999999 999999 999999 19233 14577 16619 19846 12685 13247 14663 17439 18728 10751 19034 14140 15017 11208 16395 13333 12426 17530 16220 16092 18955 12874 16947 13990 17830 10482 13534 16838 14255 13391 16556 12118 14103 16407 14189 17651 15590 14636 17207 10689 15452 18661 15524 15221 12936 14760 11584 16670 17075 15573 15880 17938 11783 18973 15692 14567 14077 15400 10754 19953 18334 18549 14386 15769 14496 16351 17912 13408 13069 15300 18502 19117 19534 12172 18953 15782 17748 11795 12455 19724 19919 19244 13103 10909 17899 16603 18171 18453 17201 17565 15849 13403 15613 14801 16981 12871 16895 17609 10711 13348 999999
999999 999999 999999 999999 999999 999999 999999 999999 999999 999999 999999 999999 999999 999999 999999 999999 999999 999999 999999 999999 999999 999999 999999 999999 999999 999999 999999 999999 999999 999999 999999 999999 999999 999999 999999 999999 999999 999999 999999 999999 999999 999999 999999 999999 999999 999999 999999 999999 999999 999999 999999 999999 999999 999999 999999 999999 999999 999999 999999 999999 999999 999999 999999 999999 0 999999 999999 999999 999999 999999 999999 999999 999999 999999 999999 999999 999999 999999 999999 999999 999999 999999 999999 999999 999999 999999 999999 999999 999999 999999 999999 999999 999999 999999 999999 999999 999999 999999 999999 999999 999999 10056 17717 14061 16566 10849 13107 15002 14827 12682 18545 19258 13012 10585 19737 14210 10652 11676 15051 12403 17080 13112 15912 13458 19947 15762 11579 14554 14894 19638 13667 12169 11111 11524 18453 12895 19051 14351 19102 10622 13451 18035 12207 15027 14868 15083 11050 10220 10574 12614 13923 12157 11109 18084 14584 18460 14721 13988 14918 15458 10892 13390 19934 13048 11854 17411 10873 12251 17152 13280 11265 12667 19015 19559 15449 19174 18369 12009 16691 19315 15486 17804 18789 12625 14696 18123 12047 17927 16047 10600 18205 13028 18627 14141 16625 12655 10394 11448 16629 12670 19182 999999
999999 999999 999999 999999 999999 999999 999999 999999 999999 999999 999999 999999 999999 999999 999999 999999 999999 999999 999999 999999 999999 999999 999999 999999 999999 999999 999999 999999 999999 999999 999999 999999 999999 999999 999999 999999 999999 999999 999999 999999 999999 999999 999999 999999 999999 999999 999999 999999 999999 999999 999999 999999 999999 999999 999999 999999 999999 999999 999999 999999 999999 999999 999999 999999 999999 0 999999 999999 999999 999999 999999 999999 999999 999999 999999 999999 999999 999999 999999 999999 999999 999999 999999 999999 999999 999999 999999 999999 999999 999999 999999 999999 999999 999999 999999 999999 999999 999999 999999 999999 999999 16961 13814 14028 14876 15921 16435 16004 12033 10699 13892 14371 15098 18478 15440 11559 19062 15448 11705 19874 19250 17988 18469 16722 17043 11073 18598 11778 19652 15894 16999 17848 11716 11677 13069 19701 13728 13338 13503 12791 16495 18399 12226 10493 10648 16951 16427 14928 14421 14248 18470 19453 11470 11302 15884 15047 10341 10578 10746 12322 16741 11814 15774 17589 19707 18042 11576 19854 13425 10576 17465 10331 17412 18048 13540 15387 17328 11894 15669 13726 13636 10116 18062 19044 18482 19068 19065 11295 16653 15361 11345 11785 17011 10898 14224 18765 12641 19450 16928 14747 13094 999999
999999 999999 999999 999999 999999 999999 999999 999999 999999 999999 999999 999999 999999 999999 999999 999999 999999 999999 999999 999999 999999 999999 999999 999999 999999 999999 999999 999999 999999 999999 999999 999999 999999 999999 999999 999999 999999 999999 999999 999999 999999 999999 999999 999999 999999 999999 999999 999999 999999 999999 999999 999999 999999 999999 999999 999999 999999 999999 999999 999999 999999 999999 999999 999999 999999 999999 0 999999 999999 999999 999999 999999 999999 999999 999999 999999 999999 999999 999999 999999 999999 999999 999999 999999 999999 999999 999999 999999 999999 999999 999999 999999 999999 999999 999999 999999 999999 999999 999999 999999 999999 16045 17037 15852 13184 14230 19622 13913 10815 18588 16731 12909 18734 12242 18381 14923 18568 12036 14529 13246 11842 15740 15368 17505 19188 10726 14289 15761 17901 13912 19010 11969 12237 11372 10064 12917 10098 18980 17915 11524 13967 12393 15427 19194 17640 15570 10433 18289 17952 14118 13366 11961 13859 11440 11430 15153 15434 13226 11419 14431 13721 19150 10796 13506 16021 16280 13249 10454 17678 15294 17265 16717 12044 19364 16968 17090 18923 13894 10864 12643 12753 10287 17936 12677 18598 17874 12440 14870 15383 18994 17749 11311 14313 16845 19923 19926 18726 18959 14700 11806 13655 999999
999999 999999 999999 999999 999999 999999 999999 999999 999999 999999 999999 999999 999999 999999 999999 999999 999999 999999 999999 999999 999999 999999 999999 999999 999999 999999 999999 999999 999999 999999 999999 999999 999999 999999 999999 999999 999999 999999 999999 999999 999999 999999 999999 999999 999999 999999 999999 999999 999999 999999 999999 999999 999999 999999 999999 999999 999999 999999 999999 999999 999999 999999 999999 999999 999999 999999 999999 0 999999 999999 999999 999999 999999 999999 999999 999999 999999 999999 999999 999999 999999 999999 999999 999999 999999 999999 999999 999999 999999 999999 999999 999999 999999 999999 999999 999999 999999 999999 999999 999999 999999 16300 17491 14858 18812 19766 16602 10321 16228 11418 18707 18940 16712 10560 11314 10911 11049 10779 19746 14745 12273 13184 18240 18407 13344 12811 14340 11688 17288 12712 14252 11308 17862 19175 13798 16991 17970 15730 14541 13511 15237 13793 14644 13112 17833 19052 18648 11635 12198 12550 16054 13874 10215 14422 19592 12132 14080 12437 15328 17727 10790 11921 15438 17876 16694 11151 12126 15328 10563 10298 18265 19322 11895 19526 13529 12586 10717 10574 11453 18882 12240 17349 14507 13876 10210 10581 15187 12177 11231 10540 11346 12566 18365 19832 14221 13805 11499 12680 18867 15441 12174 999999
999999 999999 999999 999999 999999 999999 999999 999999 999999 999999 999999 999999 999999 999999 999999 999999 999999 999999 999999 999999 999999 999999 999999 999999 999999 999999 999999 999999 999999 999999 999999 999999 999999 999999 999999 999999 999999 999999 999999 999999 999999 999999 999999 999999 999999 999999 999999 999999 999999 999999 999999 999999 999999 999999 999999 999999 999999 999999 999999 999999 999999 999999 999999 999999 999999 999999 999999 999999 0 999999 999999 999999 999999 999999 999999 999999 999999 999999 999999 999999 999999 999999 999999 999999 999999 999999 999999 999999 999999 999999 999999 999999 999999 999999 999999 999999 999999 999999 999999 999999 999999 16085 14212 10763 13855 11087 19605 14901 10644 10749 11073 10352 19972 15904 19395 10950 12536 18170 11082 18470 17926 15784 17545 16780 16437 14748 13995 13828 13998 17334 16718 17405 13615 18092 18884 12310 19951 18194 15279 16486 16329 10742 18151 15290 11404 14241 14216 11511 19693 12041 17125 19121 10742 12316 15743 10346 11860 14207 11275 19432 12148 15101 12438 19536 19257 17046 18869 17171 18664 10293 10982 13083 13663 16573 15898 15946 16224 17801 10439 16946 19840 14411 15281 13297 17836 17595 17802 13757 11885 14452 11345 18713 16191 17439 13537 17543 15018 19941 17963 19098 14105 999999
999999 999999 999999 999999 999999 999999 999999 999999 999999 999999 999999 999999 999999 999999 999999 999999 999999 999999 999999 999999 999999 999999 999999 999999 999999 999999 999999 999999 999999 999999 999999 999999 999999 999999 999999 999999 999999 999999 999999 999999 999999 999999 999999 999999 999999 999999 999999 999999 999999 999999 999999 999999 999999 999999 999999 999999 999999 999999 999999 999999 999999 999999 999999 999999 999999 999999 999999 999999 999999 0 999999 999999 999999 999999 999999 999999 999999 999999 999999 999999 999999 999999 999999 999999 999999 999999 999999 999999 999999 999999 999999 999999 999999 999999 999999 999999 999999 999999 999999 999999 999999 13009 18051 13975 19842 11810 13567 19443 16032 15311 14969 11095 15013 16985 19959 13987 17880 13259 14137 15610 19267 17998 18654 14374 14408 13036 13801 15744 16451 17476 13884 10352 13776 19274 12980 14683 17854 14754 14390 19529 17635 17903 10008 16368 13854 18779 19922 13061 12528 15738 13992 11715 14312 17815 10627 17007 14459 17204 13226 18777 12580 12575 13226 12929 11048 17734 10143 10645 13997 16421 13426 16495 18484 14563 16218 16433 16597 16045 16545 18152 17196 18788 15624 17708 12580 18119 11697 11200 17933 17213 12498 16578 15637 14831 13657 19277 10957 19420 15798 11077 12588 999999
999999 999999 999999 999999 999999 999999 999999 999999 999999 999999 999999 999999 999999 999999 999999 999999 999999 999999 999999 999999 999999 999999 999999 999999 999999 999999 999999 999999 999999 999999 999999 999999 999999 999999 999999 999999 999999 999999 999999 999999 999999 999999 999999 999999 999999 999999 999999 999999 999999 999999 999999 999999 999999 999999 999999 999999 999999 999999 999999 999999 999999 999999 999999 999999 999999 999999 999999 999999 999999 999999 0 999999 999999 999999 999999 999999 999999 999999 999999 999999 999999 999999 999999 999999 999999 999999 999999 999999 999999 999999 999999 999999 999999 999999 999999 999999 999999 999999 999999 999999 999999 18641 13013 17247 16361 11928 14964 19462 15077 13861 18474 19364 12606 16966 19240 16268 12416 15608 17799 13362 13063 10909 15838 19388 12853 14590 10550 18482 14472 19749 18117 16091 17210 14961 15104 11183 17261 10025 17785 14229 14641 16663 12562 15400 16663 13228 15608 11617 12365 10132 14956 19987 18936 13299 11444 11810 12957 15248 16520 14582 14797 13983 15795 19644 18549 16289 14319 10962 17500 14968 17579 17331 16825 12372 19917 18129 12654 13593 18650 19934 16767 18694 16041 12469 13283 12346 12673 11889 11575 10207 10913 10279 15363 18535 15178 10243 13075 16070 19774 11198 17104 999999
999999 999999 999999 999999 999999 999999 999999 999999 999999 999999 999999 999999 999999 999999 999999 999999 999999 999999 999999 999999 999999 999999 999999 999999 999999 999999 999999 999999 999999 999999 999999 999999 999999 999999 999999 999999 999999 999999 999999 999999 999999 999999 999999 999999 999999 999999 999999 999999 999999 999999 999999 999999 999999 999999 999999 999999 999999 999999 999999 999999 999999 999999 999999 999999 999999 999999 999999 999999 999999 999999 999999 0 999999 999999 999999 999999 999999 999999 999999 999999 999999 999999 999999 999999 999999 999999 999999 999999 999999 999999 999999 999999 999999 999999 999999 999999 999999 999999 999999 999999 999999 13910 17270 17539 16683 19979 12118 15892 13754 16983 15128 10045 17590 17133 15088 19332 12827 17483 11948 17765 16679 17088 11871 16433 13943 14962 13979 12568 16296 14989 14030 18949 18579 18516 15367 18081 18009 12791 11126 19036 12435 16254 14764 18589 18193 13903 19784 18541 17342 15584 15544 11337 17822 10115 19661 17091 11398 15380 13463 10442 16489 11672 16832 15785 13422 14383 16868 10085 16599 18674 18661 11216 10884 10983 16080 10370 18005 17538 19050 17819 16545 13563 19096 13915 14563 11748 19609 18841 18685 13987 19144 13084 12790 12304 10562 17335 13662 18834 13553 19440 18439 999999
999999 999999 999999 999999 999999 999999 999999 999999 999999 999999 999999 999999 999999 999999 999999 999999 999999 999999 999999 999999 999999 999999 999999 999999 999999 999999 999999 999999 999999 999999 999999 999999 999999 999999 999999 999999 999999 999999 999999 999999 999999 999999 999999 999999 999999 999999 999999 999999 999999 999999 999999 999999 999999 999999 999999 999999 999999 999999 999999 999999 999999 999999 999999 999999 999999 999999 999999 999999 999999 999999 999999 999999 0 999999 999999 999999 999999 999999 999999 999999 999999 999999 999999 999999 999999 999999 999999 999999 999999 999999 999999 999999 999999 999999 999999 999999 999999 999999 999999 999999 999999 10509 15086 14532 11401 14665 17166 15001 14221 19458 10936 13939 18107 12151 16558 14194 18109 14397 18342 16881 15818 19760 17269 18423 10968 11131 18741 11126 19437 11931 12811 14252 19286 10820 16263 14449 14190 14218 17875 10244 13897 14381 18250 17529 13527 16369 19211 13418 14820 18295 11872 10749 11054 19658 18672 14288 17317 10149 15235 10031 13764 14896 11972 14092 16363 11490 14768 13745 12255 18561 11710 12335 17625 10105 14373 15022 17640 18000 14218 19662 13371 16391 19985 11355 19263 11358 12730 15816 11190 14329 15582 11244 10507 14269 11947 16977 14983 11131 14783 10842 17127 999999
999999 999999 999999 999999 999999 999999 999999 999999 999999 999999 999999 999999 999999 999999 999999 999999 999999 999999 999999 999999 999999 999999 999999 999999 999999 999999 999999 999999 999999 999999 999999 999999 999999 999999 999999 999999 999999 999999 999999 999999 999999 999999 999999 999999 999999 999999 999999 999999 999999 999999 999999 999999 999999 999999 999999 999999 999999 999999 999999 999999 999999 999999 999999 999999 999999 999999 999999 999999 999999 999999 999999 999999 999999 0 999999 999999 999999 999999 999999 999999 999999 999999 999999 999999 999999 999999 999999 999999 999999 999999 999999 999999 999999 999999 999999 999999 999999 999999 999999 999999 999999 19260 14347 14560 10637 12259 12600 11471 16892 15054 10102 19436 12024 10364 11914 17916 15196 18717 13191 12170 18132 11608 17278 15875 16139 10850 16043 12276 16402 19392 15866 14839 13360 13448 15223 13074 10865 15684 18526 14938 18160 10177 12258 19286 18216 15942 18720 14828 18268 15186 11541 15916 19274 15311 12719 10113 17692 13462 17706 18513 12313 19652 11476 16580 11197 15325 12761 15767 11733 13612 19123 13773 13803 10572 15808 14130 18978 16049 11112 13282 16307 14540 16704 10700 11753 16783 14644 17976 15955 18440 15689 17640 18978 18147 10334 18050 17625 11688 10661 18443 14275 999999
999999 999999 999999 999999 999999 999999 999999 999999 999999 999999 999999 999999 999999 999999 999999 999999 999999 999999 999999 999999 999999 999999 999999 999999 999999 999999 999999 999999 999999 999999 999999 999999 999999 999999 999999 999999 999999 999999 999999 999999 999999 999999 999999 999999 999999 999999 999999 999999 999999 999999 999999 999999 999999 999999 999999 999999 999999 999999 999999 999999 999999 999999 999999 999999 999999 999999 999999 999999 999999 999999 999999 999999 999999 999999 0 999999 999999 999999 999999 999999 999999 999999 999999 999999 999999 999999 999999 999999 999999 999999 999999 999999 999999 999999 999999 999999 999999 999999 999999 999999 999999 10196 19491 15187 18401 19112 15516 10789 19828 17139 16120 10514 11639 10207 12540 18844 17986 13488 18613 10619 11890 15028 13987 13779 15389 16533 11347 15740 10030 19976 14052 10433 14589 10360 13110 18530 10078 12673 13391 10428 11024 10028 12645 17280 14560 14662 15386 18073 11081 17098 10387 10495 11425 13857 19285 17648 18900 14741 17122 11263 19369 15315 17973 13535 17799 14447 14222 16300 11508 16321 12526 14602 19861 13243 10037 14726 14453 13558 10661 13513 17316 15904 14193 14332 16336 10629 15575 17645 17481 15964 10762 14831 19181 15557 17535 13938 17664 11900 18686 12114 19991 999999
999999 999999 999999 999999 999999 999999 999999 999999 999999 999999 999999 999999 999999 999999 999999 999999 999999 999999 999999 999999 999999 999999 999999 999999 999999 999999 999999 999999 999999 999999 999999 999999 999999 999999 999999 999999 999999 999999 999999 999999 999999 999999 999999 999999 999999 999999 999999 999999 999999 999999 999999 999999 999999 999999 999999 999999 999999 999999 999999 999999 999999 999999 999999 999999 999999 999999 999999 999999 999999 999999 999999 999999 999999 999999 999999 0 999999 999999 999999 999999 999999 999999 999999 999999 999999 999999 999999 999999 999999 999999 999999 999999 999999 999999 999999 999999 999999 999999 999999 999999 999999 19642 16255 17444 18175 18249 19342 16609 13560 11249 18192 16579 17440 18542 16062 17649 16370 13910 10457 19490 18276 14819 15264 16918 16326 12153 18562 19679 19531 11504 13405 17109 10502 13099 12536 11777 13871 14109 12116 15428 13861 15698 18785 14541 10349 17126 12892 12784 18207 18777 18532 15477 16502 15422 12337 19401 13482 19598 16244 13703 12502 18093 15337 18444 10103 17749 13205 13028 16062 11444 11230 17013 13019 11297 10173 16731 10078 15319 13769 16023 16165 19105 16105 15159 17446 16305 11683 19116 15755 16698 16270 13705 18977 14182 14910 10239 18010 16130 11310 11508 18222 999999
999999 999999 999999 999999 999999 999999 999999 999999 999999 999999 999999 999999 999999 999999 999999 999999 999999 999999 999999 999999 999999 999999 999999 999999 999999 999999 999999 999999 999999 999999 999999 999999 999999 999999 999999 999999 999999 999999 999999 999999 999999 999999 999999 999999 999999 999999 999999 999999 999999 999999 999999 999999 999999 999999 999999 999999 999999 999999 999999 999999 999999 999999 999999 999999 999999 999999 999999 999999 999999 999999 999999 999999 999999 999999 999999 999999 0 999999 999999 999999 999999 999999 999999 999999 999999 999999 999999 999999 999999 999999 999999 999999 999999 999999 999999 999999 999999 999999 999999 999999 999999 13943 10044 18651 15982 19508 19827 15714 15036 14134 18670 18968 11958 13645 18366 10856 17311 11641 14251 17643 11405 16741 17430 15797 13439 14633 17034 14448 16631 15101 11180 11344 19820 13108 19252 12763 15043 13930 19924 14405 14183 14031 13490 14008 10466 16473 15336 14238 10267 15889 18709 12738 12409 17432 19460 19386 10238 12296 11750 17728 17264 19567 17874 16680 17623 11994 17427 10794 12848 15655 13905 15152 11290 17086 13660 19567 19117 17070 19777 19089 13253 15839 12947 17728 11897 13101 11886 11234 13727 11797 11678 15705 18494 19117 14647 12234 16329 18655 12815 12679 17492 999999
999999 999999 999999 999999 999999 999999 999999 999999 999999 999999 999999 999999 999999 999999 999999 999999 999999 999999 999999 999999 999999 999999 999999 999999 999999 999999 999999 999999 999999 999999 999999 999999 999999 999999 999999 999999 999999 999999 999999 999999 999999 999999 999999 999999 999999 999999 999999 999999 999999 999999 999999 999999 999999 999999 999999 999999 999999 999999 999999 999999 999999 999999 999999 999999 999999 999999 999999 999999 999999 999999 999999 999999 999999 999999 999999 999999 999999 0 999999 999999 999999 999999 999999 999999 999999 999999 999999 999999 999999 999999 999999 999999 999999 999999 999999 999999 999999 999999 999999 999999 999999 17414 11503 15564 13272 13747 14613 14646 11718 18393 17751 19946 17174 16795 10116 10226 18116 12021 16659 18490 16947 18624 14799 12309 11482 16197 12256 18631 17725 13857 16980 19699 14850 10682 11176 10552 10260 10487 19390 15112 18690 16908 12815 19595 10524 10489 16578 18729 17443 17026 15672 12938 19050 11576 14962 17505 14835 12767 14728 12798 17577 11924 14306 15851 12753 12153 10696 18904 11145 14502 15300 16574 12803 16105 16959 14848 18236 16974 16091 16936 19828 14408 14544 13285 20000 17200 10404 19148 12364 16603 18667 17934 14508 11307 13461 12337 11762 16123 17081 10273 13984 999999
999999 999999 999999 999999 999999 999999 999999 999999 999999 999999 999999 999999 999999 999999 999999 999999 999999 999999 999999 999999 999999 999999 999999 999999 999999 999999 999999 999999 999999 999999 999999 999999 999999 999999 999999 999999 999999 999999 999999 999999 999999 999999 999999 999999 999999 999999 999999 999999 999999 999999 999999 999999 999999 999999 999999 999999 999999 999999 999999 999999 999999 999999 999999 999999 999999 999999 999999 999999 999999 999999 999999 999999 999999 999999 999999 999999 999999 999999 0 999999 999999 999999 999999 999999 999999 999999 999999 999999 999999 999999 999999 999999 999999 999999 999999 999999 999999 999999 999999 999999 999999 13385 15916 14309 18662 10028 11840 10741 11246 17025 10986 10836 15154 17893 13962 18474 10636 17129 13079 14346 15927 19614 13595 14888 12026 11836 10896 17847 11419 16724 14653 10348 18201 19310 11095 17951 16183 14372 10982 13495 10762 18366 16174 14954 13880 11327 14415 11219 15096 13243 17804 19857 11641 10886 15279 12268 14808 15999 15738 11839 14455 15058 13466 13651 11191 19462 13777 12949 18941 18689 15433 17142 13584 11526 15158 16332 19932 17791 19331 13115 13999 19110 17679 16442 19642 17718 19088 10716 10731 17571 18879 11353 18211 18282 13452 18214 16820 16197 11106 13823 10645 999999
999999 999999 999999 999999 999999 999999 999999 999999 999999 999999 999999 999999 999999 999999 999999 999999 999999 999999 999999 999999 999999 999999 999999 999999 999999 999999 999999 999999 999999 999999 999999 999999 999999 999999 999999 999999 999999 999999 999999 999999 999999 999999 999999 999999 999999 999999 999999 999999 999999 999999 999999 999999 999999 999999 999999 999999 999999 999999 999999 999999 999999 999999 999999 999999 999999 999999 999999 999999 999999 999999 999999 999999 999999 999999 999999 999999 999999 999999 999999 0 999999 999999 999999 999999 999999 999999 999999 999999 999999 999999 999999 999999 999999 999999 999999 999999 999999 999999 999999 999999 999999 19153 12491 18328 19623 15007 12666 13696 17419 17497 12215 13930 10187 17677 18838 19443 18129 14273 12249 10995 13189 10034 11105 19503 16496 14164 14108 14598 15763 17121 18859 11360 17716 17339 11916 18589 11931 10571 17611 13948 18252 18056 12443 12111 19243 11108 13719 19356 13164 10333 15557 14833 11029 18980 19061 15480 14606 18611 13408 12427 13858 13742 17592 17682 12591 15340 15384 10203 19729 10469 18092 12081 15980 15248 15530 10084 11610 18853 14675 13727 12789 19100 15401 14212 12029 16622 13866 10479 16876 11573 15577 11441 16435 14821 14302 15565 18718 19418 10786 16426 14222 999999
999999 999999 999999 999999 999999 999999 999999 999999 999999 999999 999999 999999 999999 999999 999999 999999 999999 999999 999999 999999 999999 999999 999999 999999 999999 999999 999999 999999 999999 999999 999999 999999 999999 999999 999999 999999 999999 999999 999999 999999 999999 999999 999999 999999 999999 999999 999999 999999 999999 999999 999999 999999 999999 999999 999999 999999 999999 999999 999999 999999 999999 999999 999999 999999 999999 999999 999999 999999 999999 999999 999999 999999 999999 999999 999999 999999 999999 999999 999999 999999 0 999999 999999 999999 999999 999999 999999 999999 999999 999999 999999 999999 999999 999999 999999 999999 999999 999999 999999 999999 999999 16763 19575 10440 14326 14072 14802 18924 10892 13186 10553 16953 12988 12646 16229 13410 11754 15161 13448 19418 10616 18473 14915 13042 12731 19489 14395 15325 11259 19751 19325 14834 11791 10124 14437 11072 11746 12046 16849 17405 12415 14403 15439 10421 10586 14331 19729 18863 15755 15317 12233 17758 19521 10264 15329 12774 19549 12241 13377 19877 13573 18761 19476 19446 11086 16774 19510 19336 13923 10278 19130 10987 16422 18743 19070 11777 16426 10813 11608 17984 14982 11484 18829 13355 13550 14633 13547 19978 18149 12667 10753 14839 10999 11041 13592 10615 19775 10238 11628 18393 11252 999999
999999 999999 999999 999999 999999 999999 999999 999999 999999 999999 999999 999999 999999 999999 999999 999999 999999 999999 999999 999999 999999 999999 999999 999999 999999 999999 999999 999999 999999 999999 999999 999999 999999 999999 999999 999999 999999 999999 999999 999999 999999 999999 999999 999999 999999 999999 999999 999999 999999 999999 999999 999999 999999 999999 999999 999999 999999 999999 999999 999999 999999 999999 999999 999999 999999 999999 999999 999999 999999 999999 999999 999999 999999 999999 999999 999999 999999 999999 999999 999999 999999 0 999999 999999 999999 999999 999999 999999 999999 999999 999999 999999 999999 999999 999999 999999 999999 999999 999999 999999 999999 18672 13190 10502 18641 19884 16304 18857 15558 11925 18476 18970 19306 17667 12091 11037 15968 15832 12717 11661 12146 13784 15381 12294 10638 15420 19770 13518 15481 16164 15367 14832 19308 11086 12155 11387 11588 13942 12947 17894 11256 15004 14470 16489 13484 13080 16698 15494 16139 15797 17931 13200 10098 19206 17640 16346 13522 19335 15314 12118 12372 15052 11445 11502 11763 11356 13110 13687 19856 17691 11349 10656 14300 14277 19794 14015 15434 10776 13217 16954 12119 12522 15845 18921 13309 15908 18892 18831 19261 11645 10266 12612 12660 14974 11383 14247 14759 13573 10825 17126 14376 999999
999999 999999 999999 999999 999999 999999 999999 999999 999999 999999 999999 999999 999999 999999 999999 999999 999999 999999 999999 999999 999999 999999 999999 999999 999999 999999 999999 999999 999999 999999 999999 999999 999999 999999 999999 999999 999999 999999 999999 999999 999999 999999 999999 999999 999999 999999 999999 999999 999999 999999 999999 999999 999999 999999 999999 999999 999999 999999 999999 999999 999999 999999 999999 999999 999999 999999 999999 999999 999999 999999 999999 999999 999999 999999 999999 999999 999999 999999 999999 999999 999999 999999 0 999999 999999 999999 999999 999999 999999 999999 999999 999999 999999 999999 999999 999999 999999 999999 999999 999999 999999 17382 11637 11929 17007 14913 18338 11688 14527 15815 19899 19022 11242 15740 12201 13257 14800 18238 11548 12404 12834 12188 16322 14633 13489 15284 16417 10627 16438 17969 15422 10962 19494 16721 14840 11481 10097 16326 12562 10493 19135 16817 17093 16885 10062 10969 14527 18975 19382 16301 12017 12659 18941 17231 10366 13575 11893 13854 12363 12585 11559 17965 13949 19319 11426 15420 15630 14229 19840 12060 11732 11575 15726 19794 14831 18660 17222 15465 13122 19884 16759 10269 11658 13074 10687 18806 10731 19492 13327 17758 13102 16744 17256 16970 10354 15507 11022 16110 10172 16129 13979 999999
999999 999999 999999 999999 999999 999999 999999 999999 999999 999999 999999 999999 999999 999999 999999 999999 999999 999999 999999 999999 999999 999999 999999 999999 999999 999999 999999 999999 999999 999999 999999 999999 999999 999999 999999 999999 999999 999999 999999 999999 999999 999999 999999 999999 999999 999999 999999 999999 999999 999999 999999 999999 999999 999999 999999 999999 999999 999999 999999 999999 999999 999999 999999 999999 999999 999999 999999 999999 999999 999999 999999 999999 999999 999999 999999 999999 999999 999999 999999 999999 999999 999999 999999 0 999999 999999 999999 999999 999999 999999 999999 999999 999999 999999 999999 999999 999999 999999 999999 999999 999999 12663 12168 18915 10515 11625 15496 15937 11674 13883 17382 17669 16555 14251 16902 16504 17534 17467 15262 11829 11030 10002 10091 16058 13999 18064 16830 10643 11159 13129 16950 12990 11204 11827 10447 19753 18783 18593 17609 17516 12832 15500 12934 17678 11225 10664 11351 16704 10831 16981 19956 17103 19607 17743 14385 10148 11341 19283 11336 11922 12852 14911 14074 10978 13518 10317 13025 18289 12846 19933 18622 11081 14973 18824 14465 11655 16423 19616 18467 16787 14239 16741 10483 14474 10393 16109 14711 12987 13247 18374 14851 17332 12721 19448 19275 19965 10953 10652 18362 15652 12937 999999
999999 999999 999999 999999 999999 999999 999999 999999 999999 999999 999999 999999 999999 999999 999999 999999 999999 999999 999999 999999 999999 999999 999999 999999 999999 999999 999999 999999 999999 999999 999999 999999 999999 999999 999999 999999 999999 999999 999999 999999 999999 999999 999999 999999 999999 999999 999999 999999 999999 999999 999999 999999 999999 999999 999999 999999 999999 999999 999999 999999 999999 999999 999999 999999 999999 999999 999999 999999 999999 999999 999999 999999 999999 999999 999999 999999 999999 999999 999999 999999 999999 999999 999999 999999 0 999999 999999 999999 999999 999999 999999 999999 999999 999999 999999 999999 999999 999999 999999 999999 999999 13372 19059 15295 12137 18583 12105 14186 11933 18888 10250 10103 19965 10092 11253 19200 10432 11593 12482 11045 12015 17886 10402 13935 17380 10573 14244 13586 18946 19318 10929 11971 14328 10403 17474 18099 11185 14753 11585 15079 19651 11537 18690 12133 19153 10317 16110 11587 19854 15913 18517 17216 19576 15972 11345 11206 19500 16665 10831 12773 18260 10311 10036 11248 12672 15925 13283 17970 18384 19505 11102 11995 13175 15664 13664 10509 19482 17831 15481 10505 16084 15147 12244 11509 12404 18741 18975 14512 12841 16686 19563 14453 10635 14500 17047 11560 16886 10331 18861 12001 18164 999999
999999 999999 999999 999999 999999 999999 999999 999999 999999 999999 999999 999999 999999 999999 999999 999999 999999 999999 999999 999999 999999 999999 999999 999999 999999 999999 999999 999999 999999 999999 999999 999999 999999 999999 999999 999999 999999 999999 999999 999999 999999 999999 999999 999999 999999 999999 999999 999999 999999 999999 999999 999999 999999 999999 999999 999999 999999 999999 999999 999999 999999 999999 999999 999999 999999 999999 999999 999999 999999 999999 999999 999999 999999 999999 999999 999999 999999 999999 999999 999999 999999 999999 999999 999999 999999 0 999999 999999 999999 999999 999999 999999 999999 999999 999999 999999 999999 999999 999999 999999 999999 17338 13320 10919 12395 12873 18671 11060 12227 19771 16892 15660 19730 15059 10629 15230 10499 14203 17703 13793 13152 16013 13949 12087 10606 17247 10622 10589 14119 11749 14309 19993 10946 11767 15433 16879 10888 15763 15084 18946 17804 12001 10788 10506 19774 13699 11875 14118 12475 15928 11013 13118 16988 14386 11771 10981 14360 14733 13099 19142 19466 14746 18281 11756 14880 10028 11183 14946 15902 13278 18534 16500 13200 18767 16934 10605 17188 19753 10949 13639 14521 17062 12563 16966 15308 15495 11095 11789 14771 17007 13962 14679 14622 14223 11393 18277 10053 16325 14167 10009 13249 999999
999999 999999 999999 999999 999999 999999 999999 999999 999999 999999 999999 999999 999999 999999 999999 999999 999999 999999 999999 999999 999999 999999 999999 999999 999999 999999 999999 999999 999999 999999 999999 999999 999999 999999 999999 999999 999999 999999 999999 999999 999999 999999 999999 999999 999999 999999 999999 999999 999999 999999 999999 999999 999999 999999 999999 999999 999999 999999 999999 999999 999999 999999 999999 999999 999999 999999 999999 999999 999999 999999 999999 999999 999999 999999 999999 999999 999999 999999 999999 999999 999999 999999 999999 999999 999999 999999 0 999999 999999 999999 999999 999999 999999 999999 999999 999999 999999 999999 999999 999999 999999 18115 15412 15403 16667 10783 17257 17263 14650 14949 14919 19098 13343 16715 14156 15530 11892 18457 10106 12568 19144 13702 10987 18462 11115 15286 11441 12198 15088 17159 18024 13835 11975 10359 14973 14900 14784 15284 18217 10293 18602 18351 15435 12831 11311 18580 11856 18453 17410 11703 11519 12277 17076 13981 13595 11581 12538 18660 16640 17007 15047 13068 19454 13276 12068 12141 13275 19274 18800 11583 19492 17430 12907 10544 19606 18470 15758 10925 11543 11197 18909 15035 14770 16423 18311 15517 13280 11968 13512 12736 12550 17781 14161 16439 13043 11488 16046 11283 14632 18444 19397 999999
999999 999999 999999 999999 999999 999999 999999 999999 999999 999999 999999 999999 999999 999999 999999 999999 999999 999999 999999 999999 999999 999999 999999 999999 999999 999999 999999 999999 999999 999999 999999 999999 999999 999999 999999 999999 999999 999999 999999 999999 999999 999999 999999 999999 999999 999999 999999 999999 999999 999999 999999 999999 999999 999999 999999 999999 999999 999999 999999 999999 999999 999999 999999 999999 999999 999999 999999 999999 999999 999999 999999 999999 999999 999999 999999 999999 999999 999999 999999 999999 999999 999999 999999 999999 999999 999999 999999 0 999999 999999 999999 999999 999999 999999 999999 999999 999999 999999 999999 999999 999999 10698 19634 14638 18824 15401 16700 16951 19545 10317 11245 12805 16068 17707 14263 19905 15124 12178 10035 11508 17558 16476 16582 19246 19798 12917 14924 12123 16019 18856 10327 11592 15336 11911 15517 17069 17565 15644 16111 13744 19649 14464 13017 11492 11924 18682 14009 11776 11997 13467 17695 10622 15052 10675 11305 15853 19962 15028 16699 19560 12663 12224 13658 18833 16888 18706 10718 11793 14524 13215 15821 14928 19463 17267 12489 10548 15705 10395 13963 17506 10974 14309 14691 15012 19749 18804 14320 12893 11060 18402 19205 18644 16231 14339 19125 10701 18713 17702 11194 18425 13070 999999
999999 999999 999999 999999 999999 999999 999999 999999 999999 999999 999999 999999 999999 999999 999999 999999 999999 999999 999999 999999 999999 999999 999999 999999 999999 999999 999999 999999 999999 999999 999999 999999 999999 999999 999999 999999 999999 999999 999999 999999 999999 999999 999999 999999 999999 999999 999999 999999 999999 999999 999999 999999 999999 999999 999999 999999 999999 999999 999999 999999 999999 999999 999999 999999 999999 999999 999999 999999 999999 999999 999999 999999 999999 999999 999999 999999 999999 999999 999999 999999 999999 999999 999999 999999 999999 999999 999999 999999 0 999999 999999 999999 999999 999999 999999 999999 999999 999999 999999 999999 999999 16035 16917 16619 18271 14161 14062 13759 19551 10454 11497 10407 19365 13732 19086 14910 17406 16203 10703 15447 12036 11867 10798 16332 15580 14188 18641 14937 18552 16839 16277 12438 18966 11356 10430 14410 19308 19825 15761 15309 10253 14863 13129 16737 17920 19130 14879 10578 13957 15284 11482 14519 13702 14061 15298 16193 16731 16628 15174 18408 17254 10887 13634 12910 16895 11654 17055 19400 18330 19779 18954 19368 10572 13437 15242 14916 15010 16169 10414 12017 10868 15825 11653 18932 17832 19146 11502 11167 16817 18486 13735 16225 13755 19570 14307 16919 13960 13333 12701 17251 11034 999999
999999 999999 999999 999999 999999 999999 999999 999999 999999 999999 999999 999999 999999 999999 999999 999999 999999 999999 999999 999999 999999 999999 999999 999999 999999 999999 999999 999999 999999 999999 999999 999999 999999 999999 999999 999999 999999 999999 999999 999999 999999 999999 999999 999999 999999 999999 999999 999999 999999 999999 999999 999999 999999 999999 999999 999999 999999 999999 999999 999999 999999 999999 999999 999999 999999 999999 999999 999999 999999 999999 999999 999999 999999 999999 999999 999999 999999 999999 999999 999999 999999 999999 999999 999999 999999 999999 999999 999999 999999 0 999999 999999 999999 999999 999999 999999 999999 999999 999999 999999 999999 18010 11509 15825 14113 12263 17983 16688 19270 10405 18536 16139 16899 10403 19296 13451 13856 17061 13869 13597 16069 18388 19373 11260 12144 19042 19735 16473 15430 10574 13469 11548 11235 12463 18824 11309 16136 10843 16118 10014 15344 19015 13622 15408 14355 17645 10618 17780 13488 16211 12565 11783 10005 15014 16771 19542 12233 15201 14697 16142 15918 15117 19027 13844 10219 10792 14817 17417 13354 13006 18623 17370 13773 14784 17359 15229 14780 18169 10965 16271 10170 12582 13445 19635 17417 19636 12149 13317 12701 19791 14944 19257 18245 17611 15167 19858 16865 13064 19255 15585 11836 999999
999999 999999 999999 999999 999999 999999 999999 999999 999999 999999 999999 999999 999999 999999 999999 999999 999999 999999 999999 999999 999999 999999 999999 999999 999999 999999 999999 999999 999999 999999 999999 999999 999999 999999 999999 999999 999999 999999 999999 999999 999999 999999 999999 999999 999999 999999 999999 999999 999999 999999 999999 999999 999999 999999 999999 999999 999999 999999 999999 999999 999999 999999 999999 999999 999999 999999 999999 999999 999999 999999 999999 999999 999999 999999 999999 999999 999999 999999 999999 999999 999999 999999 999999 999999 999999 999999 999999 999999 999999 999999 0 999999 999999 999999 999999 999999 999999 999999 999999 999999 999999 16893 17454 13275 13235 17915 13394 11561 14055 10468 18000 17350 13257 10329 11319 17074 12701 12684 19355 15433 16556 13581 18427 14126 10081 15809 19877 14292 18386 14851 17021 18677 18762 17937 17617 11851 14359 16809 12355 18712 19600 19672 10921 12115 11380 17225 16700 10992 17395 16007 18838 11368 11375 11602 11457 14592 12729 12984 18163 10469 19061 14197 19006 13489 10714 13846 13795 13959 19950 11727 15822 12513 18302 14452 14033 14469 15889 18325 11904 11710 11775 12282 15488 11666 14388 17306 19543 15895 18487 17020 18863 14527 16027 17254 10611 16626 14436 16768 18285 13570 10149 999999
999999 999999 999999 999999 999999 999999 999999 999999 999999 999999 999999 999999 999999 999999 999999 999999 999999 999999 999999 999999 999999 999999 999999 999999 999999 999999 999999 999999 999999 999999 999999 999999 999999 999999 999999 999999 999999 999999 999999 999999 999999 999999 999999 999999 999999 999999 999999 999999 999999 999999 999999 999999 999999 999999 999999 999999 999999 999999 999999 999999 999999 999999 999999 999999 999999 999999 999999 999999 999999 999999 999999 999999 999999 999999 999999 999999 999999 999999 999999 999999 999999 999999 999999 999999 999999 999999 999999 999999 999999 999999 999999 0 999999 999999 999999 999999 999999 999999 999999 999999 999999 19269 18440 13915 10154 13457 14701 15353 15615 10824 10004 13617 17807 17916 11507 10573 15277 15617 17974 13501 10593 17772 10694 16766 11659 18764 13099 15849 17820 11392 19428 15887 12028 18727 13120 10941 16730 19137 17411 13990 17831 11874 16721 15491 12458 16329 10204 18911 14053 15339 12504 10745 15724 13374 16403 17079 16011 13249 13388 12115 19401 14476 18235 11342 17545 16684 15659 12244 11578 18274 16708 17393 14413 12093 11587 16229 17685 10843 17287 19411 14328 11206 14909 12775 16163 18173 19365 13982 12561 14689 12796 13503 16967 18221 15016 18323 11330 19992 10617 15401 19491 999999
999999 999999 999999 999999 999999 999999 999999 999999 999999 999999 999999 999999 999999 999999 999999 999999 999999 999999 999999 999999 999999 999999 999999 999999 999999 999999 999999 999999 999999 999999 999999 999999 999999 999999 999999 999999 999999 999999 999999 999999 999999 999999 999999 999999 999999 999999 999999 999999 999999 999999 999999 999999 999999 999999 999999 999999 999999 999999 999999 999999 999999 999999 999999 999999 999999 999999 999999 999999 999999 999999 999999 999999 999999 999999 999999 999999 999999 999999 999999 999999 999999 999999 999999 999999 999999 999999 999999 999999 999999 999999 999999 999999 0 999999 999999 999999 999999 999999 999999 999999 999999 11482 16296 14040 13359 18839 11958 11548 13579 18612 18564 11378 14083 19317 15321 13842 19968 18009 10949 12680 19571 17735 12817 19427 19509 13750 19724 17012 13907 11098 14423 17821 16117 18131 14150 19318 11088 17879 13444 19694 10860 10652 12110 18417 19337 14869 11574 19959 16093 14362 17506 16466 11995 12980 18901 16658 19298 17741 16205 13426 12069 15329 14521 10087 17858 17833 18705 17394 18905 14893 16105 17395 17623 12559 18254 18832 11945 18144 12226 11912 12231 12420 15560 10373 11821 18691 17565 15686 18521 13653 16220 10146 12815 18403 14507 18504 16104 10837 19937 19007 11815 999999
999999 999999 999999 999999 999999 999999 999999 999999 999999 999999 999999 999999 999999 999999 999999 999999 999999 999999 999999 999999 999999 999999 999999 999999 999999 999999 999999 999999 999999 999999 999999 999999 999999 999999 999999 999999 999999 999999 999999 999999 999999 999999 999999 999999 999999 999999 999999 999999 999999 999999 999999 999999 999999 999999 999999 999999 999999 999999 999999 999999 999999 999999 999999 999999 999999 999999 999999 999999 999999 999999 999999 999999 999999 999999 999999 999999 999999 999999 999999 999999 999999 999999 999999 999999 999999 999999 999999 999999 999999 999999 999999 999999 999999 0 999999 999999 999999 999999 999999 999999 999999 18990 10108 18317 12559 11408 15419 10012 15450 10651 16455 14100 14114 15948 10717 13435 18626 11240 19691 12824 17356 18828 15717 11797 16879 15928 19991 15901 11525 19909 12488 14783 13222 12445 10102 11499 15801 12420 17636 15916 17894 15818 11410 16755 13719 10201 12611 13671 19517 13357 14093 17581 19900 15981 13829 12513 18895 19354 18042 16670 16836 13113 12072 16722 14918 17841 17420 11249 13552 18635 13145 19402 15642 12574 13005 10611 14824 13791 16585 14231 11406 19796 10531 13623 15282 19042 13366 10564 12830 12296 14927 13720 17491 10953 14036 13905 18206 10179 18539 17444 14736 999999
999999 999999 999999 999999 999999 999999 999999 999999 999999 999999 999999 999999 999999 999999 999999 999999 999999 999999 999999 999999 999999 999999 999999 999999 999999 999999 999999 999999 999999 999999 999999 999999 999999 999999 999999 999999 999999 999999 999999 999999 999999 999999 999999 999999 999999 999999 999999 999999 999999 999999 999999 999999 999999 999999 999999 999999 999999 999999 999999 999999 999999 999999 999999 999999 999999 999999 999999 999999 999999 999999 999999 999999 999999 999999 999999 999999 999999 999999 999999 999999 999999 999999 999999 999999 999999 999999 999999 999999 999999 999999 999999 999999 999999 999999 0 999999 999999 999999 999999 999999 999999 17746 10094 10203 16088 17123 18447 19629 17266 16794 13800 10905 17464 10254 18640 12004 11066 10649 12570 13452 13873 18901 17171 17823 16679 15705 12187 12266 13055 17453 15407 12154 10812 12276 18149 11440 15453 18673 18660 13995 19909 15937 15311 11298 13566 11831 11899 15584 11590 10937 17764 14029 13195 17854 14920 13627 13523 14139 14666 11434 14347 11772 10881 19676 12256 12126 13334 16719 14836 14716 19416 11591 17410 14018 16965 13508 16371 18525 17140 13138 15971 13322 12216 13474 13864 19783 14328 14087 12850 14260 12587 11578 16831 18374 13958 13805 14648 14875 14160 11286 12407 999999
999999 999999 999999 999999 999999 999999 999999 999999 999999 999999 999999 999999 999999 999999 999999 999999 999999 999999 999999 999999 999999 999999 999999 999999 999999 999999 999999 999999 999999 999999 999999 999999 999999 999999 999999 999999 999999 999999 999999 999999 999999 999999 999999 999999 999999 999999 999999 999999 999999 999999 999999 999999 999999 999999 999999 999999 999999 999999 999999 999999 999999 999999 999999 999999 999999 999999 999999 999999 999999 999999 999999 999999 999999 999999 999999 999999 999999 999999 999999 999999 999999 999999 999999 999999 999999 999999 999999 999999 999999 999999 999999 999999 999999 999999 999999 0 999999 999999 999999 999999 999999 12744 17136 14766 18868 11191 13583 16967 19324 18754 16359 12306 17879 19842 10285 12614 10173 18589 12730 19311 17447 10334 10046 16695 17160 14849 10502 16863 13721 17463 17633 12394 18085 17691 12973 13177 11254 19757 15138 13028 15316 11183 15510 15198 19002 13258 13015 12690 19903 15044 19046 16964 13447 13895 14477 11516 10897 18482 10183 16922 19919 11086 12886 12834 13945 16854 13794 13620 12305 18138 18090 16327 12677 18445 12914 18536 13973 13459 12066 13892 19327 13969 12418 15002 19758 11562 10166 18901 11387 13196 18648 13271 14970 15786 18836 13523 12753 18845 11872 14409 11690 999999
999999 999999 999999 999999 999999 999999 999999 999999 999999 999999 999999 999999 999999 999999 999999 999999 999999 999999 999999 999999 999999 999999 999999 999999 999999 999999 999999 999999 999999 999999 999999 999999 999999 999999 999999 999999 999999 999999 999999 999999 999999 999999 999999 999999 999999 999999 999999 999999 999999 999999 999999 999999 999999 999999 999999 999999 999999 999999 999999 999999 999999 999999 999999 999999 999999 999999 999999 999999 999999 999999 999999 999999 999999 999999 999999 999999 999999 999999 999999 999999 999999 999999 999999 999999 999999 999999 999999 999999 999999 999999 999999 999999 999999 999999 999999 999999 0 999999 999999 999999 999999 14658 13092 15260 12151 10842 17650 16731 15762 15972 10579 17366 10509 17193 15681 18460 14608 13870 10603 13723 16953 19629 16791 12516 18937 13915 14465 16592 11827 12390 13619 10600 12987 19908 11964 14124 13505 15721 13336 13398 13830 14342 10904 15950 12307 19267 11293 17337 12186 12365 12273 12568 10069 14848 14220 10627 19323 15563 18676 16675 13505 14444 12224 19717 12536 11758 18577 17803 18477 19702 16288 10260 19443 12818 10046 18357 17142 17209 10165 19043 18583 11180 11024 16540 15875 14805 13528 18523 15943 14024 12496 16476 10120 18469 13458 13406 14300 18501 16701 11753 14735 999999
999999 999999 999999 999999 999999 999999 999999 999999 999999 999999 999999 999999 999999 999999 999999 999999 999999 999999 999999 999999 999999 999999 999999 999999 999999 999999 999999 999999 999999 999999 999999 999999 999999 999999 999999 999999 999999 999999 999999 999999 999999 999999 999999 999999 999999 999999 999999 999999 999999 999999 999999 999999 999999 999999 999999 999999 999999 999999 999999 999999 999999 999999 999999 999999 999999 999999 999999 999999 999999 999999 999999 999999 999999 999999 999999 999999 999999 999999 999999 999999 999999 999999 999999 999999 999999 999999 999999 999999 999999 999999 999999 999999 999999 999999 999999 999999 999999 0 999999 999999 999999 16418 17492 19480 14901 14987 16369 16762 13412 19993 12579 14562 10554 13370 14118 19495 12376 18897 18086 13083 12787 10092 13620 19612 16405 18427 14597 17250 11915 19053 14494 10067 12349 19747 14046 15333 11293 19811 12787 10356 17738 16644 17170 15537 13510 12616 15622 12005 19687 19006 19745 17528 19456 19770 14393 17651 15887 19144 14029 14112 19579 17175 15634 12055 17531 10766 18133 19034 19167 13285 14071 12948 14522 10751 16850 15289 12449 14728 18918 15812 19436 13564 10008 16686 17066 18714 12538 18595 15176 18786 18235 13337 14626 14402 19439 12039 11579 11599 11449 13791 11515 999999
999999 999999 999999 999999 999999 999999 999999 999999 999999 999999 999999 999999 999999 999999 999999 999999 999999 999999 999999 999999 999999 999999 999999 999999 999999 999999 999999 999999 999999 999999 999999 999999 999999 999999 999999 999999 999999 999999 999999 999999 999999 999999 999999 999999 999999 999999 999999 999999 999999 999999 999999 999999 999999 999999 999999 999999 999999 999999 999999 999999 999999 999999 999999 999999 999999 999999 999999 999999 999999 999999 999999 999999 999999 999999 999999 999999 999999 999999 999999 999999 999999 999999 999999 999999 999999 999999 999999 999999 999999 999999 999999 999999 999999 999999 999999 999999 999999 999999 0 999999 999999 10065 19596 10789 16459 13936 16974 16496 13326 19212 11050 17969 15291 10497 10892 13136 19234 17486 17209 11841 13587 16927 11457 19117 12190 19074 10719 17827 11047 13879 11263 18185 13144 16568 15518 12143 14962 10689 13540 15718 17565 18559 14627 14866 18679 13816 10868 11277 13391 13201 10906 19946 13368 12146 14018 13611 16452 11269 15854 13579 13121 17970 10080 13252 11746 16650 18634 14957 15343 12338 16451 15563 18310 10358 17134 12322 16529 13190 10361 19703 12784 12698 15833 14780 19271 17967 10902 17793 13985 19811 15597 16056 13889 15800 14047 13443 12913 15890 11093 15503 11938 999999
999999 999999 999999 999999 999999 999999 999999 999999 999999 999999 999999 999999 999999 999999 999999 999999 999999 999999 999999 999999 999999 999999 999999 999999 999999 999999 999999 999999 999999 999999 999999 999999 999999 999999 999999 999999 999999 999999 999999 999999 999999 999999 999999 999999 999999 999999 999999 999999 999999 999999 999999 999999 999999 999999 999999 999999 999999 999999 999999 999999 999999 999999 999999 999999 999999 999999 999999 999999 999999 999999 999999 999999 999999 999999 999999 999999 999999 999999 999999 999999 999999 999999 999999 999999 999999 999999 999999 999999 999999 999999 999999 999999 999999 999999 999999 999999 999999 999999 999999 0 999999 13533 13962 10351 19110 11456 10452 17627 12305 15880 10456 15681 17744 16972 18865 13072 12906 13277 16696 11729 10318 12854 18851 11669 11676 17048 19760 16684 17283 18346 17142 19630 10595 18726 18262 11936 10178 17636 10792 16039 14522 19612 14269 17114 11649 10368 14193 15225 10718 14053 18784 14371 15565 13787 16169 10321 10844 11117 11030 10287 19338 19818 10604 15510 14930 17839 10617 12394 14751 13303 15336 11492 11482 11989 13160 13049 14854 11014 13631 14014 14726 12932 10805 16609 14633 16774 13199 11557 13155 17309 10597 19878 14248 19097 15809 13635 13770 13030 17491 13251 13598 999999
999999 999999 999999 999999 999999 999999 999999 999999 999999 999999 999999 999999 999999 999999 999999 999999 999999 999999 999999 999999 999999 999999 999999 999999 999999 999999 999999 999999 999999 999999 999999 999999 999999 999999 999999 999999 999999 999999 999999 999999 999999 999999 999999 999999 999999 999999 999999 999999 999999 999999 999999 999999 999999 999999 999999 999999 999999 999999 999999 999999 999999 999999 999999 999999 999999 999999 999999 999999 999999 999999 999999 999999 999999 999999 999999 999999 999999 999999 999999 999999 999999 999999 999999 999999 999999 999999 999999 999999 999999 999999 999999 999999 999999 999999 999999 999999 999999 999999 999999 999999 0 17777 11758 11334 14744 11463 14622 18817 17967 13331 16942 13299 17924 17611 12639 10442 19924 15430 19548 12432 10890 10233 15926 17042 18044 19587 12662 13892 16850 18828 15987 11837 12808 16363 12629 17353 18363 15950 10776 10365 11805 17636 16476 14733 11509 15002 17630 17589 10357 15216 11683 10732 17829 16185 13812 19757 15937 11457 17846 19221 15846 19811 13938 11051 19652 10983 16255 18028 11486 14961 11346 16230 10493 10793 13120 18262 19198 18347 15692 12773 16418 12331 10176 13683 19729 16689 14335 10273 16367 17722 19571 16981 16166 17281 19504 18674 13878 12387 11536 14187 15453 999999
999999 18516 10271 11135 19360 15525 14932 19691 15845 19732 16724 13214 13435 10578 14007 11768 13771 10213 12947 17153 17724 19948 14472 16007 14351 16377 13980 19849 18064 11626 10385 13433 17512 14940 15428 18511 17937 11558 18073 11266 16926 17626 15096 17316 14090 16918 13127 18728 10321 16732 13501 10198 15203 15173 19323 19033 18676 12691 13343 15809 13291 17393 12754 19233 10056 16961 16045 16300 16085 13009 18641 13910 10509 19260 10196 19642 13943 17414 13385 19153 16763 18672 17382 12663 13372 17338 18115 10698 16035 18010 16893 19269 11482 18990 17746 12744 14658 16418 10065 13533 17777 0 999999 999999 999999 999999 999999 999999 999999 999999 999999 999999 999999 999999 999999 999999 999999 999999 999999 999999 999999 999999 999999 999999 999999 999999 999999 999999 999999 999999 999999 999999 999999 999999 999999 999999 999999 999999 999999 999999 999999 999999 999999 999999 999999 999999 999999 999999 999999 999999 999999 999999 999999 999999 999999 999999 999999 999999 999999 999999 999999 999999 999999 999999 999999 999999 999999 999999 999999 999999 999999 999999 999999 999999 999999 999999 999999 999999 999999 999999 999999 999999 999999 999999 999999 999999 999999 999999 999999 999999 999999 999999 999999 999999 999999 999999 999999 999999 999999 999999 999999 10737
999999 10594 14434 15577 11503 13702 11996 14170 13014 12144 15188 14776 12058 11273 16740 18371 11605 19117 16511 16300 13774 18643 18776 18553 17410 14676 16797 18147 14183 12145 16409 18242 13651 10894 14685 19461 17924 13427 14105 12271 18166 15103 13302 18289 11853 19761 18559 18894 17657 12671 14881 14475 16082 15279 15233 18407 19874 10456 18488 16693 13601 18156 17303 14577 17717 13814 17037 17491 14212 18051 13013 17270 15086 14347 19491 16255 10044 11503 15916 12491 19575 13190 11637 12168 19059 13320 15412 19634 16917 11509 17454 18440 16296 10108 10094 17136 13092 17492 19596 13962 11758 999999 0 999999 999999 999999 999999 999999 999999 999999 999999 999999 999999 999999 999999 999999 999999 999999 999999 999999 999999 999999 999999 999999 999999 999999 999999 999999 999999 999999 999999 999999 999999 999999 999999 999999 999999 999999 999999 999999 999999 999999 999999 999999 999999 999999 999999 999999 999999 999999 999999 999999 999999 999999 999999 999999 999999 999999 999999 999999 999999 999999 999999 999999 999999 999999 999999 999999 999999 999999 999999 999999 999999 999999 999999 999999 999999 999999 999999 999999 999999 999999 999999 999999 999999 999999 999999 999999 999999 999999 999999 999999 999999 999999 999999 999999 999999 999999 999999 999999 999999 11967
999999 18099 14879 11331 15993 16086 12625 11514 13862 15769 12675 16682 16722 16776 12220 12289 11497 19061 12481 12674 13200 17072 18262 10192 14724 13796 13967 19229 14545 17719 13444 15671 14082 15760 13746 19682 18784 13839 12725 11734 12479 12641 19178 13003 18371 12465 19486 19670 14368 11368 18989 16777 18429 11028 10346 14712 17727 18488 15566 12954 10658 11862 17972 16619 14061 14028 15852 14858 10763 13975 17247 17539 14532 14560 15187 17444 18651 15564 14309 18328 10440 10502 11929 18915 15295 10919 15403 14638 16619 15825 13275 13915 14040 18317 10203 14766 15260 19480 10789 10351 11334 999999 999999 0 999999 999999 999999 999999 999999 999999 999999 999999 999999 999999 999999 999999 999999 999999 999999 999999 999999 999999 999999 999999 999999 999999 999999 999999 999999 999999 999999 999999 999999 999999 999999 999999 999999 999999 999999 999999 999999 999999 999999 999999 999999 999999 999999 999999 999999 999999 999999 999999 999999 999999 999999 999999 999999 999999 999999 999999 999999 999999 999999 999999 999999 999999 999999 999999 999999 999999 999999 999999 999999 999999 999999 999999 999999 999999 999999 999999 999999 999999 999999 999999 999999 999999 999999 999999 999999 999999 999999 999999 999999 999999 999999 999999 999999 999999 999999 999999 999999 7474
999999 15070 15740 15563 16155 17437 16710 17637 19179 14955 17092 17407 12459 19248 19553 12544 12621 15993 19597 16636 10291 19078 17087 14432 13519 12132 10836 17987 16644 11604 10623 14969 18963 12032 12219 14247 15416 19020 11845 11325 13021 12404 16804 19204 18196 16800 16684 16734 17597 16115 17287 12304 12872 12046 16211 10591 19449 10154 17516 18590 13659 17304 16412 19846 16566 14876 13184 18812 13855 19842 16361 16683 11401 10637 18401 18175 15982 13272 18662 19623 14326 18641 17007 10515 12137 12395 16667 18824 18271 14113 13235 10154 13359 12559 16088 18868 12151 14901 16459 19110 14744 999999 999999 999999 0 999999 999999 999999 999999 999999 999999 999999 999999 999999 999999 999999 999999 999999 999999 999999 999999 999999 999999 999999 999999 999999 999999 999999 999999 999999 999999 999999 999999 999999 999999 999999 999999 999999 999999 999999 999999 999999 999999 999999 999999 999999 999999 999999 999999 999999 999999 999999 999999 999999 999999 999999 999999 999999 999999 999999 999999 999999 999999 999999 999999 999999 999999 999999 999999 999999 999999 999999 999999 999999 999999 999999 999999 999999 999999 999999 999999 999999 999999 999999 999999 999999 999999 999999 999999 999999 999999 999999 999999 999999 999999 999999 999999 999999 999999 999999 999999 7872
999999 14431 10045 14636 16208 19431 14760 11633 15845 18662 16213 19467 17906 13850 13172 15524 11478 14628 17777 19752 19303 10580 17987 15315 12945 14717 15533 11585 13340 18649 14726 12593 14330 12004 16637 10285 11909 16650 10683 12762 16315 15958 17934 10256 18514 13339 16511 18567 16972 18560 14473 14068 10129 11593 13762 18547 13487 13136 17078 15311 12319 17835 19845 12685 10849 15921 14230 19766 11087 11810 11928 19979 14665 12259 19112 18249 19508 13747 10028 15007 14072 19884 14913 11625 18583 12873 10783 15401 14161 12263 17915 13457 18839 11408 17123 11191 10842 14987 13936 11456 11463 999999 999999 999999 999999 0 999999 999999 999999 999999 999999 999999 999999 999999 999999 999999 999999 999999 999999 999999 999999 999999 999999 999999 999999 999999 999999 999999 999999 999999 999999 999999 999999 999999 999999 999999 999999 999999 999999 999999 999999 999999 999999 999999 999999 999999 999999 999999 999999 999999 999999 999999 999999 999999 999999 999999 999999 999999 999999 999999 999999 999999 999999 999999 999999 999999 999999 999999 999999 999999 999999 999999 999999 999999 999999 999999 999999 999999 999999 999999 999999 999999 999999 999999 999999 999999 999999 999999 999999 999999 999999 999999 999999 999999 999999 999999 999999 999999 999999 999999 999999 14728
999999 16759 16545 15197 13049 10064 11546 15365 10636 17031 15053 16915 11901 15561 15952 10418 14053 19800 18983 14389 10171 13246 11190 11032 16790 13157 18105 18286 16030 16624 14044 10966 11025 11685 18654 14377 14889 14597 13629 10402 15039 17187 12024 13277 11953 13527 12389 15387 11264 19039 16193 17493 19066 16163 16394 18704 16064 15939 19078 16501 16548 12380 17329 13247 13107 16435 19622 16602 19605 13567 14964 12118 17166 12600 15516 19342 19827 14613 11840 12666 14802 16304 18338 15496 12105 18671 17257 16700 14062 17983 13394 14701 11958 15419 18447 13583 17650 16369 16974 10452 14622 999999 999999 999999 999999 999999 0 999999 999999 999999 999999 999999 999999 999999 999999 999999 999999 999999 999999 999999 999999 999999 999999 999999 999999 999999 999999 999999 999999 999999 999999 999999 999999 999999 999999 999999 999999 999999 999999 999999 999999 999999 999999 999999 999999 999999 999999 999999 999999 999999 999999 999999 999999 999999 999999 999999 999999 999999 999999 999999 999999 999999 999999 999999 999999 999999 999999 999999 999999 999999 999999 999999 999999 999999 999999 999999 999999 999999 999999 999999 999999 999999 999999 999999 999999 999999 999999 999999 999999 999999 999999 999999 999999 999999 999999 999999 999999 999999 999999 999999 999999 8613
999999 10741 16540 17868 12665 12913 19288 10169 11541 10002 18417 10607 10895 13037 18741 16259 10510 13291 16993 14146 14244 19544 15583 13662 17337 10759 16405 17008 15157 15539 19382 11003 15340 11479 13686 18782 13344 17135 10768 14006 15439 14117 18430 12286 15433 14575 18372 18862 14396 12214 18608 15899 19217 16391 10752 14369 13513 11327 14120 17813 18253 16490 16401 14663 15002 16004 13913 10321 14901 19443 19462 15892 15001 11471 10789 16609 15714 14646 10741 13696 18924 18857 11688 15937 14186 11060 17263 16951 13759 16688 11561 15353 11548 10012 19629 16967 16731 16762 16496 17627 18817 999999 999999 999999 999999 999999 999999 0 999999 999999 999999 999999 999999 999999 999999 999999 999999 999999 999999 999999 999999 999999 999999 999999 999999 999999 999999 999999 999999 999999 999999 999999 999999 999999 999999 999999 999999 999999 999999 999999 999999 999999 999999 999999 999999 999999 999999 999999 999999 999999 999999 999999 999999 999999 999999 999999 999999 999999 999999 999999 999999 999999 999999 999999 999999 999999 999999 999999 999999 999999 999999 999999 999999 999999 999999 999999 999999 999999 999999 999999 999999 999999 999999 999999 999999 999999 999999 999999 999999 999999 999999 999999 999999 999999 999999 999999 999999 999999 999999 999999 999999 9437
999999 10739 10851 12008 18676 18696 18640 16213 10064 10466 18188 18529 15286 15395 12267 13568 14744 16791 18901 13777 14830 15396 19919 15090 18543 12741 16145 15417 14896 15132 13976 11323 19091 10658 12537 17594 13076 13591 15159 16291 16079 11989 16681 19914 14827 12013 17398 11169 17844 12376 16120 19867 15043 11463 12427 15477 13601 14497 10605 19771 10337 16554 10724 17439 14827 12033 10815 16228 10644 16032 15077 13754 14221 16892 19828 13560 15036 11718 11246 17419 10892 15558 14527 11674 11933 12227 14650 19545 19551 19270 14055 15615 13579 15450 17266 19324 15762 13412 13326 12305 17967 999999 999999 999999 999999 999999 999999 999999 0 999999 999999 999999 999999 999999 999999 999999 999999 999999 999999 999999 999999 999999 999999 999999 999999 999999 999999 999999 999999 999999 999999 999999 999999 999999 999999 999999 999999 999999 999999 999999 999999 999999 999999 999999 999999 999999 999999 999999 999999 999999 999999 999999 999999 999999 999999 999999 999999 999999 999999 999999 999999 999999 999999 999999 999999 999999 999999 999999 999999 999999 999999 999999 999999 999999 999999 999999 999999 999999 999999 999999 999999 999999 999999 999999 999999 999999 999999 999999 999999 999999 999999 999999 999999 999999 999999 999999 999999 999999 999999 999999 999999 6573
999999 15149 18363 13316 17982 12402 11734 12670 11741 19054 13454 16620 14939 15234 12377 18532 17542 17732 15900 12205 10548 14420 17745 11173 14770 17287 12055 11588 11014 19019 13601 16383 18675 17727 13541 12453 15563 15892 10714 19728 10236 11747 14754 11956 13231 18579 19433 14219 13318 13437 19397 11068 10436 14063 12348 16621 16624 13850 12369 18338 12427 15729 18231 18728 12682 10699 18588 11418 10749 15311 13861 16983 19458 15054 17139 11249 14134 18393 17025 17497 13186 11925 15815 13883 18888 19771 14949 10317 10454 10405 10468 10824 18612 10651 16794 18754 15972 19993 19212 15880 13331 999999 999999 999999 999999 999999 999999 999999 999999 0 999999 999999 999999 999999 999999 999999 999999 999999 999999 999999 999999 999999 999999 999999 999999 999999 999999 999999 999999 999999 999999 999999 999999 999999 999999 999999 999999 999999 999999 999999 999999 999999 999999 999999 999999 999999 999999 999999 999999 999999 999999 999999 999999 999999 999999 999999 999999 999999 999999 999999 999999 999999 999999 999999 999999 999999 999999 999999 999999 999999 999999 999999 999999 999999 999999 999999 999999 999999 999999 999999 999999 999999 999999 999999 999999 999999 999999 999999 999999 999999 999999 999999 999999 999999 999999 999999 999999 999999 999999 999999 999999 5986
999999 18033 11925 14209 12647 15379 17620 17466 16781 10545 13190 11043 12490 18362 10622 19192 19478 19772 17301 19227 11700 12803 18670 13073 10010 18061 16938 10690 11355 15566 17134 10197 13040 10243 12129 12971 15487 19658 16580 11743 11955 16121 10672 13845 11825 19643 19360 10016 17368 12503 18209 19911 16148 14181 12698 17501 10133 19565 17248 17264 18818 16061 12961 10751 18545 13892 16731 18707 11073 14969 18474 15128 10936 10102 16120 18192 18670 17751 10986 12215 10553 18476 19899 17382 10250 16892 14919 11245 11497 18536 18000 10004 18564 16455 13800 16359 10579 12579 11050 10456 16942 999999 999999 999999 999999 999999 999999 999999 999999 999999 0 999999 999999 999999 999999 999999 999999 999999 999999 999999 999999 999999 999999 999999 999999 999999 999999 999999 999999 999999 999999 999999 999999 999999 999999 999999 999999 999999 999999 999999 999999 999999 999999 999999 999999 999999 999999 999999 999999 999999 999999 999999 999999 999999 999999 999999 999999 999999 999999 999999 999999 999999 999999 999999 999999 999999 999999 999999 999999 999999 999999 999999 999999 999999 999999 999999 999999 999999 999999 999999 999999 999999 999999 999999 999999 999999 999999 999999 999999 999999 999999 999999 999999 999999 999999 999999 999999 999999 999999 999999 999999 10562
999999 12686 14753 19541 19801 19595 19075 14281 16432 13435 19317 11309 13088 11811 18698 10351 17839 16549 18899 17800 18033 11927 12454 14440 11490 18804 14782 14652 18354 10788 15763 18648 13273 13610 12568 13795 16813 18476 19786 12857 10180 18736 12517 15066 18968 17894 14044 17682 12325 12203 11029 12214 13823 13545 16496 18594 15722 19472 12120 18385 15390 11934 14639 19034 19258 14371 12909 18940 10352 11095 19364 10045 13939 19436 10514 16579 18968 19946 10836 13930 16953 18970 19022 17669 10103 15660 19098 12805 10407 16139 17350 13617 11378 14100 10905 12306 17366 14562 17969 15681 13299 999999 999999 999999 999999 999999 999999 999999 999999 999999 999999 0 999999 999999 999999 999999 999999 999999 999999 999999 999999 999999 999999 999999 999999 999999 999999 999999 999999 999999 999999 999999 999999 999999 999999 999999 999999 999999 999999 999999 999999 999999 999999 999999 999999 999999 999999 999999 999999 999999 999999 999999 999999 999999 999999 999999 999999 999999 999999 999999 999999 999999 999999 999999 999999 999999 999999 999999 999999 999999 999999 999999 999999 999999 999999 999999 999999 999999 999999 999999 999999 999999 999999 999999 999999 999999 999999 999999 999999 999999 999999 999999 999999 999999 999999 999999 999999 999999 999999 999999 999999 14482
999999 14443 12439 10759 13303 11456 15651 10189 11335 14428 19875 19432 12756 11921 17875 15687 19346 15772 15733 11653 16502 16570 17310 19568 12688 14290 13655 14205 10658 15793 15299 15669 15604 19698 12975 15269 17673 19307 12202 10601 13145 15552 16136 19308 15882 18232 16891 18693 11451 14551 11279 15056 18612 11212 19378 19357 19113 14799 12704 10007 14667 16777 11851 14140 13012 15098 18734 16712 19972 15013 12606 17590 18107 12024 11639 17440 11958 17174 15154 10187 12988 19306 11242 16555 19965 19730 13343 16068 19365 16899 13257 17807 14083 14114 17464 17879 10509 10554 15291 17744 17924 999999 999999 999999 999999 999999 999999 999999 999999 999999 999999 999999 0 999999 999999 999999 999999 999999 999999 999999 999999 999999 999999 999999 999999 999999 999999 999999 999999 999999 999999 999999 999999 999999 999999 999999 999999 999999 999999 999999 999999 999999 999999 999999 999999 999999 999999 999999 999999 999999 999999 999999 999999 999999 999999 999999 999999 999999 999999 999999 999999 999999 999999 999999 999999 999999 999999 999999 999999 999999 999999 999999 999999 999999 999999 999999 999999 999999 999999 999999 999999 999999 999999 999999 999999 999999 999999 999999 999999 999999 999999 999999 999999 999999 999999 999999 999999 999999 999999 999999 999999 7218
999999 15640 11996 15447 17425 13441 13566 12990 19052 17366 18102 18068 19304 11977 19481 11255 15836 16245 14510 15070 11233 11489 13915 10300 14612 13170 10108 18583 13275 15822 10205 13376 14104 17621 10644 16673 18707 14217 18884 16405 18662 10149 14142 16715 12126 19956 19567 18335 16639 13372 12019 13110 17204 12097 18013 18761 11981 18012 18690 11159 12590 16765 14450 15017 10585 18478 12242 10560 15904 16985 16966 17133 12151 10364 10207 18542 13645 16795 17893 17677 12646 17667 15740 14251 10092 15059 16715 17707 13732 10403 10329 17916 19317 15948 10254 19842 17193 13370 10497 16972 17611 999999 999999 999999 999999 999999 999999 999999 999999 999999 999999 999999 999999 0 999999 999999 999999 999999 999999 999999 999999 999999 999999 999999 999999 999999 999999 999999 999999 999999 999999 999999 999999 999999 999999 999999 999999 999999 999999 999999 999999 999999 999999 999999 999999 999999 999999 999999 999999 999999 999999 999999 999999 999999 999999 999999 999999 999999 999999 999999 999999 999999 999999 999999 999999 999999 999999 999999 999999 999999 999999 999999 999999 999999 999999 999999 999999 999999 999999 999999 999999 999999 999999 999999 999999 999999 999999 999999 999999 999999 999999 999999 999999 999999 999999 999999 999999 999999 999999 999999 999999 14729
999999 15627 18474 14970 17377 11316 18040 12021 10263 12464 11004 15554 16510 17759 18506 14124 16759 12460 14704 18522 17887 16802 18809 14580 11807 18856 18861 16115 13892 14563 11615 18389 13966 13283 12616 10977 11680 16842 10767 12484 12263 14870 16169 17778 17367 11288 14269 18083 14014 12875 18585 15541 16956 17380 17335 10459 13614 19241 11191 11411 15625 11735 11895 11208 19737 15440 18381 11314 19395 19959 19240 15088 16558 11914 12540 16062 18366 10116 13962 18838 16229 12091 12201 16902 11253 10629 14156 14263 19086 19296 11319 11507 15321 10717 18640 10285 15681 14118 10892 18865 12639 999999 999999 999999 999999 999999 999999 999999 999999 999999 999999 999999 999999 999999 0 999999 999999 999999 999999 999999 999999 999999 999999 999999 999999 999999 999999 999999 999999 999999 999999 999999 999999 999999 999999 999999 999999 999999 999999 999999 999999 999999 999999 999999 999999 999999 999999 999999 999999 999999 999999 999999 999999 999999 999999 999999 999999 999999 999999 999999 999999 999999 999999 999999 999999 999999 999999 999999 999999 999999 999999 999999 999999 999999 999999 999999 999999 999999 999999 999999 999999 999999 999999 999999 999999 999999 999999 999999 999999 999999 999999 999999 999999 999999 999999 999999 999999 999999 999999 999999 999999 13503
999999 15174 19888 11378 11309 11511 15293 13107 19022 12089 12022 13113 19923 15828 10457 14942 11055 19863 16932 19361 19990 15680 14641 15717 14348 11695 19475 11845 16847 17148 11049 18246 18583 10574 16195 16187 11499 11476 13214 18612 14685 10013 16474 14626 14069 10764 18856 11379 12946 13913 13621 10113 11041 11616 15050 14134 10175 16735 16965 14048 17798 12493 14102 16395 14210 11559 14923 10911 10950 13987 16268 19332 14194 17916 18844 17649 10856 10226 18474 19443 13410 11037 13257 16504 19200 15230 15530 19905 14910 13451 17074 10573 13842 13435 12004 12614 18460 19495 13136 13072 10442 999999 999999 999999 999999 999999 999999 999999 999999 999999 999999 999999 999999 999999 999999 0 999999 999999 999999 999999 999999 999999 999999 999999 999999 999999 999999 999999 999999 999999 999999 999999 999999 999999 999999 999999 999999 999999 999999 999999 999999 999999 999999 999999 999999 999999 999999 999999 999999 999999 999999 999999 999999 999999 999999 999999 999999 999999 999999 999999 999999 999999 999999 999999 999999 999999 999999 999999 999999 999999 999999 999999 999999 999999 999999 999999 999999 999999 999999 999999 999999 999999 999999 999999 999999 999999 999999 999999 999999 999999 999999 999999 999999 999999 999999 999999 999999 999999 999999 999999 999999 5832
999999 10934 12480 16391 14420 13093 19238 13203 18974 15585 16382 15090 14964 17049 11108 18855 11437 18110 18126 12576 14565 16894 16318 12591 15884 17263 13589 16791 13829 11730 13640 16172 10383 12483 15162 16737 19349 10566 18529 13331 13720 12564 16047 16947 15741 13055 15573 15659 11308 19431 14503 10975 19894 19845 17952 19334 14747 10690 19106 14372 12344 12468 15297 13333 10652 19062 18568 11049 12536 17880 12416 12827 18109 15196 17986 16370 17311 18116 10636 18129 11754 15968 14800 17534 10432 10499 11892 15124 17406 13856 12701 15277 19968 18626 11066 10173 14608 12376 19234 12906 19924 999999 999999 999999 999999 999999 999999 999999 999999 999999 999999 999999 999999 999999 999999 999999 0 999999 999999 999999 999999 999999 999999 999999 999999 999999 999999 999999 999999 999999 999999 999999 999999 999999 999999 999999 999999 999999 999999 999999 999999 999999 999999 999999 999999 999999 999999 999999 999999 999999 999999 999999 999999 999999 999999 999999 999999 999999 999999 999999 999999 999999 999999 999999 999999 999999 999999 999999 999999 999999 999999 999999 999999 999999 999999 999999 999999 999999 999999 999999 999999 999999 999999 999999 999999 999999 999999 999999 999999 999999 999999 999999 999999 999999 999999 999999 999999 999999 999999 999999 999999 5855
999999 13361 18143 19163 12441 17511 14142 13526 13482 18058 19443 11605 18105 11668 14014 12403 10728 14035 15630 14980 15424 12616 17929 12965 19405 15209 15001 16519 16242 18245 13121 17782 19132 15337 18286 11829 16986 13165 18564 15057 11830 14596 11751 18076 19022 11274 19924 17501 16611 18833 14172 18238 18222 18910 15852 17127 11321 12540 16107 17336 10892 11708 15308 12426 11676 15448 12036 10779 18170 13259 15608 17483 14397 18717 13488 13910 11641 12021 17129 14273 15161 15832 18238 17467 11593 14203 18457 12178 16203 17061 12684 15617 18009 11240 10649 18589 13870 18897 17486 13277 15430 999999 999999 999999 999999 999999 999999 999999 999999 999999 999999 999999 999999 999999 999999 999999 999999 0 999999 999999 999999 999999 999999 999999 999999 999999 999999 999999 999999 999999 999999 999999 999999 999999 999999 999999 999999 999999 999999 999999 999999 999999 999999 999999 999999 999999 999999 999999 999999 999999 999999 999999 999999 999999 999999 999999 999999 999999 999999 999999 999999 999999 999999 999999 999999 999999 999999 999999 999999 999999 999999 999999 999999 999999 999999 999999 999999 999999 999999 999999 999999 999999 999999 999999 999999 999999 999999 999999 999999 999999 999999 999999 999999 999999 999999 999999 999999 999999 999999 999999 999999 9531
999999 14676 17875 12034 19559 13272 15037 18003 14132 12140 14808 10022 17824 15361 18095 10849 12615 12002 15574 14288 13332 19050 16436 18786 18589 15950 16095 10003 19781 15203 14021 19687 14047 16961 15217 14491 16112 13416 11970 18203 10631 16105 13847 17550 16894 15459 17324 15826 18163 13946 10923 14027 15678 12264 13335 17176 14567 19606 12198 16219 18213 10324 11436 17530 15051 11705 14529 19746 11082 14137 17799 11948 18342 13191 18613 10457 14251 16659 13079 12249 13448 12717 11548 15262 12482 17703 10106 10035 10703 13869 19355 17974 10949 19691 12570 12730 10603 18086 17209 16696 19548 999999 999999 999999 999999 999999 999999 999999 999999 999999 999999 999999 999999 999999 999999 999999 999999 999999 0 999999 999999 999999 999999 999999 999999 999999 999999 999999 999999 999999 999999 999999 999999 999999 999999 999999 999999 999999 999999 999999 999999 999999 999999 999999 999999 999999 999999 999999 999999 999999 999999 999999 999999 999999 999999 999999 999999 999999 999999 999999 999999 999999 999999 999999 999999 999999 999999 999999 999999 999999 999999 999999 999999 999999 999999 999999 999999 999999 999999 999999 999999 999999 999999 999999 999999 999999 999999 999999 999999 999999 999999 999999 999999 999999 999999 999999 999999 999999 999999 999999 999999 11647
999999 12389 13678 16553 12328 12626 19301 14058 14320 15486 11143 16877 19083 10895 15201 11346 19266 13987 17516 17381 18027 17900 14836 19364 13499 19525 17379 13233 18016 19596 16375 14916 17913 14769 13538 16428 10020 17571 18462 19561 10045 13937 13994 12327 18023 18672 10039 18836 12635 12684 14407 19294 11751 13938 16801 15741 15773 18686 10150 17519 13628 10862 14491 16220 12403 19874 13246 14745 18470 15610 13362 17765 16881 12170 10619 19490 17643 18490 14346 10995 19418 11661 12404 11829 11045 13793 12568 11508 15447 13597 15433 13501 12680 12824 13452 19311 13723 13083 11841 11729 12432 999999 999999 999999 999999 999999 999999 999999 999999 999999 999999 999999 999999 999999 999999 999999 999999 999999 999999 0 999999 999999 999999 999999 999999 999999 999999 999999 999999 999999 999999 999999 999999 999999 999999 999999 999999 999999 999999 999999 999999 999999 999999 999999 999999 999999 999999 999999 999999 999999 999999 999999 999999 999999 999999 999999 999999 999999 999999 999999 999999 999999 999999 999999 999999 999999 999999 999999 999999 999999 999999 999999 999999 999999 999999 999999 999999 999999 999999 999999 999999 999999 999999 999999 999999 999999 999999 999999 999999 999999 999999 999999 999999 999999 999999 999999 999999 999999 999999 999999 999999 9664
999999 12739 13745 12339 15094 15916 15368 18634 15355 16857 14144 13006 11866 17112 11350 13391 15371 16799 12095 14264 19501 14222 17044 13747 14900 16891 12140 16701 17198 12842 19011 17095 13839 19561 17283 12798 11505 12711 19174 11402 13587 18018 10569 18046 15981 18686 13018 14934 17853 10031 19182 14674 15127 11991 19442 18704 13246 15324 17962 10887 14926 18475 11709 16092 17080 19250 11842 12273 17926 19267 13063 16679 15818 18132 11890 18276 11405 16947 15927 13189 10616 12146 12834 11030 12015 13152 19144 17558 12036 16069 16556 10593 19571 17356 13873 17447 16953 12787 13587 10318 10890 999999 999999 999999 999999 999999 999999 999999 999999 999999 999999 999999 999999 999999 999999 999999 999999 999999 999999 999999 0 999999 999999 999999 999999 999999 999999 999999 999999 999999 999999 999999 999999 999999 999999 999999 999999 999999 999999 999999 999999 999999 999999 999999 999999 999999 999999 999999 999999 999999 999999 999999 999999 999999 999999 999999 999999 999999 999999 999999 999999 999999 999999 999999 999999 999999 999999 999999 999999 999999 999999 999999 999999 999999 999999 999999 999999 999999 999999 999999 999999 999999 999999 999999 999999 999999 999999 999999 999999 999999 999999 999999 999999 999999 999999 999999 999999 999999 999999 999999 999999 14699
999999 19788 13019 18294 13189 14443 11879 14055 14923 13612 16727 16938 11155 18260 18063 16607 14830 15413 13772 17264 13748 18005 17043 19335 17372 14063 17075 12645 11938 16772 15334 15193 14965 12684 19816 14833 11636 11957 17529 13124 13285 16685 13349 10808 10083 10071 11909 11036 17864 19959 12181 19070 12597 17937 11381 13178 15634 15101 18250 11881 18410 12196 15214 18955 13112 17988 15740 13184 15784 17998 10909 17088 19760 11608 15028 14819 16741 18624 19614 10034 18473 13784 12188 10002 17886 16013 13702 16476 11867 18388 13581 17772 17735 18828 18901 10334 19629 10092 16927 12854 10233 999999 999999 999999 999999 999999 999999 999999 999999 999999 999999 999999 999999 999999 999999 999999 999999 999999 999999 999999 999999 0 999999 999999 999999 999999 999999 999999 999999 999999 999999 999999 999999 999999 999999 999999 999999 999999 999999 999999 999999 999999 999999 999999 999999 999999 999999 999999 999999 999999 999999 999999 999999 999999 999999 999999 999999 999999 999999 999999 999999 999999 999999 999999 999999 999999 999999 999999 999999 999999 999999 999999 999999 999999 999999 999999 999999 999999 999999 999999 999999 999999 999999 999999 999999 999999 999999 999999 999999 999999 999999 999999 999999 999999 999999 999999 999999 999999 999999 999999 999999 12787
999999 13798 19652 11467 19490 13016 14138 11673 14802 12398 19979 18750 19040 12321 14677 13822 10573 13842 10101 16442 16036 18326 19075 13811 15710 16740 17389 18957 18813 15795 13205 13454 14165 19339 13004 13865 14073 18796 12255 10993 13897 11858 19731 18995 17052 15545 13611 12519 16227 11433 10176 16314 16831 17661 12295 12243 16758 18367 16180 15059 10403 17116 11123 12874 15912 18469 15368 18240 17545 18654 15838 11871 17269 17278 13987 15264 17430 14799 13595 11105 14915 15381 16322 10091 10402 13949 10987 16582 10798 19373 18427 10694 12817 15717 17171 10046 16791 13620 11457 18851 15926 999999 999999 999999 999999 999999 999999 999999 999999 999999 999999 999999 999999 999999 999999 999999 999999 999999 999999 999999 999999 999999 0 999999 999999 999999 999999 999999 999999 999999 999999 999999 999999 999999 999999 999999 999999 999999 999999 999999 999999 999999 999999 999999 999999 999999 999999 999999 999999 999999 999999 999999 999999 999999 999999 999999 999999 999999 999999 999999 999999 999999 999999 999999 999999 999999 999999 999999 999999 999999 999999 999999 999999 999999 999999 999999 999999 999999 999999 999999 999999 999999 999999 999999 999999 999999 999999 999999 999999 999999 999999 999999 999999 999999 999999 999999 999999 999999 999999 999999 999999 8888
999999 15206 14016 13928 11776 14989 14944 19760 19680 11511 11527 12887 17732 12846 10760 15760 10213 18292 18804 11450 19458 13846 17069 11634 13324 13154 10689 13992 11569 15486 17643 16098 11395 18255 12976 10128 10299 16479 19859 10698 18506 13631 18977 15873 19469 14558 17754 17974 18316 17107 14881 13271 13233 12410 14510 17771 17754 12187 12133 19325 16059 19258 12549 16947 13458 16722 17505 18407 16780 14374 19388 16433 18423 15875 13779 16918 15797 12309 14888 19503 13042 12294 14633 16058 13935 12087 18462 19246 16332 11260 14126 16766 19427 11797 17823 16695 12516 19612 19117 11669 17042 999999 999999 999999 999999 999999 999999 999999 999999 999999 999999 999999 999999 999999 999999 999999 999999 999999 999999 999999 999999 999999 999999 0 999999 999999 999999 999999 999999 999999 999999 999999 999999 999999 999999 999999 999999 999999 999999 999999 999999 999999 999999 999999 999999 999999 999999 999999 999999 999999 999999 999999 999999 999999 999999 999999 999999 999999 999999 999999 999999 999999 999999 999999 999999 999999 999999 999999 999999 999999 999999 999999 999999 999999 999999 999999 999999 999999 999999 999999 999999 999999 999999 999999 999999 999999 999999 999999 999999 999999 999999 999999 999999 999999 999999 999999 999999 999999 999999 999999 999999 5661
999999 18684 12125 13173 14951 16370 17819 19264 17060 15560 19708 11705 16699 16906 10210 11326 11251 19937 15533 13050 17391 17368 19135 14926 14977 16373 10071 13385 14728 18254 14103 15582 11009 10103 17929 14608 13798 14759 18532 12784 14732 16779 12558 16697 17280 15500 13854 16116 17779 10042 13137 19828 19061 13823 17604 10358 12544 11272 12291 12998 14403 14461 17971 13990 19947 17043 19188 13344 16437 14408 12853 13943 10968 16139 15389 16326 13439 11482 12026 16496 12731 10638 13489 13999 17380 10606 11115 19798 15580 12144 10081 11659 19509 16879 16679 17160 18937 16405 12190 11676 18044 999999 999999 999999 999999 999999 999999 999999 999999 999999 999999 999999 999999 999999 999999 999999 999999 999999 999999 999999 999999 999999 999999 999999 0 999999 999999 999999 999999 999999 999999 999999 999999 999999 999999 999999 999999 999999 999999 999999 999999 999999 999999 999999 999999 999999 999999 999999 999999 999999 999999 999999 999999 999999 999999 999999 999999 999999 999999 999999 999999 999999 999999 999999 999999 999999 999999 999999 999999 999999 999999 999999 999999 999999 999999 999999 999999 999999 999999 999999 999999 999999 999999 999999 999999 999999 999999 999999 999999 999999 999999 999999 999999 999999 999999 999999 999999 999999 999999 999999 999999 13595
999999 15788 19416 11502 11434 10416 12783 18315 18733 15352 19363 16069 13198 16804 13800 15257 12787 10088 18401 19419 18421 19010 15983 13286 14871 15801 18969 19298 17331 16052 10662 12968 19293 13052 12751 10656 19575 12883 16815 17519 16917 14107 17454 12317 17590 17788 18383 13199 19655 10958 10332 13366 14608 11485 10432 14480 12622 12904 14050 12370 18981 19810 11557 17830 15762 11073 10726 12811 14748 13036 14590 14962 11131 10850 16533 12153 14633 16197 11836 14164 19489 15420 15284 18064 10573 17247 15286 12917 14188 19042 15809 18764 13750 15928 15705 14849 13915 18427 19074 17048 19587 999999 999999 999999 999999 999999 999999 999999 999999 999999 999999 999999 999999 999999 999999 999999 999999 999999 999999 999999 999999 999999 999999 999999 999999 0 999999 999999 999999 999999 999999 999999 999999 999999 999999 999999 999999 999999 999999 999999 999999 999999 999999 999999 999999 999999 999999 999999 999999 999999 999999 999999 999999 999999 999999 999999 999999 999999 999999 999999 999999 999999 999999 999999 999999 999999 999999 999999 999999 999999 999999 999999 999999 999999 999999 999999 999999 999999 999999 999999 999999 999999 999999 999999 999999 999999 999999 999999 999999 999999 999999 999999 999999 999999 999999 999999 999999 999999 999999 999999 999999 12918
999999 11538 13129 16962 16328 19695 13500 18575 11893 10470 18509 14655 18213 14559 13036 18702 11835 17625 18585 19366 16630 11764 13505 14455 18278 18209 15098 17557 13664 10430 15453 17587 17085 18740 13793 15530 10565 13837 13949 17952 13083 11609 11220 12847 19977 10882 18042 19274 14036 14040 16230 16072 13945 12964 10623 13564 13454 11973 18265 17531 16044 14991 10581 10482 11579 18598 14289 14340 13995 13801 10550 13979 18741 16043 11347 18562 17034 12256 10896 14108 14395 19770 16417 16830 14244 10622 11441 14924 18641 19735 19877 13099 19724 19991 12187 10502 14465 14597 10719 19760 12662 999999 999999 999999 999999 999999 999999 999999 999999 999999 999999 999999 999999 999999 999999 999999 999999 999999 999999 999999 999999 999999 999999 999999 999999 999999 0 999999 999999 999999 999999 999999 999999 999999 999999 999999 999999 999999 999999 999999 999999 999999 999999 999999 999999 999999 999999 999999 999999 999999 999999 999999 999999 999999 999999 999999 999999 999999 999999 999999 999999 999999 999999 999999 999999 999999 999999 999999 999999 999999 999999 999999 999999 999999 999999 999999 999999 999999 999999 999999 999999 999999 999999 999999 999999 999999 999999 999999 999999 999999 999999 999999 999999 999999 999999 999999 999999 999999 999999 999999 999999 12948
999999 10874 11420 19648 16158 14585 16898 19679 16990 18600 17534 18078 16527 10254 11873 17816 17981 19668 16067 10700 18505 15485 11745 15091 17558 14118 11464 15288 11676 16909 18286 17797 12015 18371 10659 14721 19135 11825 13290 16665 16498 11317 13080 16532 18243 15290 16469 16773 10689 11599 16174 13777 15333 11865 11624 18558 15232 15000 12106 11123 11567 11771 15507 13534 14554 11778 15761 11688 13828 15744 18482 12568 11126 12276 15740 19679 14448 18631 17847 14598 15325 13518 10627 10643 13586 10589 12198 12123 14937 16473 14292 15849 17012 15901 12266 16863 16592 17250 17827 16684 13892 999999 999999 999999 999999 999999 999999 999999 999999 999999 999999 999999 999999 999999 999999 999999 999999 999999 999999 999999 999999 999999 999999 999999 999999 999999 999999 0 999999 999999 999999 999999 999999 999999 999999 999999 999999 999999 999999 999999 999999 999999 999999 999999 999999 999999 999999 999999 999999 999999 999999 999999 999999 999999 999999 999999 999999 999999 999999 999999 999999 999999 999999 999999 999999 999999 999999 999999 999999 999999 999999 999999 999999 999999 999999 999999 999999 999999 999999 999999 999999 999999 999999 999999 999999 999999 999999 999999 999999 999999 999999 999999 999999 999999 999999 999999 999999 999999 999999 999999 999999 10506
999999 15917 15064 18581 19411 12603 14132 14148 14303 18019 17263 10574 10989 16843 10778 10933 16004 18324 18060 13940 16590 13303 17630 19794 15739 11718 17605 14339 15121 16754 19034 17516 17532 15091 16342 11033 17397 17729 14036 11936 11198 14333 17106 16796 14505 14864 10672 11209 19163 19195 19726 15140 15148 16386 12683 13211 16053 13764 18077 10024 18533 14143 10336 16838 14894 19652 17901 17288 13998 16451 14472 16296 19437 16402 10030 19531 16631 17725 11419 15763 11259 15481 16438 11159 18946 14119 15088 16019 18552 15430 18386 17820 13907 11525 13055 13721 11827 11915 11047 17283 16850 999999 999999 999999 999999 999999 999999 999999 999999 999999 999999 999999 999999 999999 999999 999999 999999 999999 999999 999999 999999 999999 999999 999999 999999 999999 999999 999999 0 999999 999999 999999 999999 999999 999999 999999 999999 999999 999999 999999 999999 999999 999999 999999 999999 999999 999999 999999 999999 999999 999999 999999 999999 999999 999999 999999 999999 999999 999999 999999 999999 999999 999999 999999 999999 999999 999999 999999 999999 999999 999999 999999 999999 999999 999999 999999 999999 999999 999999 999999 999999 999999 999999 999999 999999 999999 999999 999999 999999 999999 999999 999999 999999 999999 999999 999999 999999 999999 999999 999999 999999 8355
999999 12683 17979 11442 19767 10906 12307 14129 14241 13887 10019 10895 15343 19750 16912 14102 15548 16503 15649 16571 17485 14689 13597 15855 11497 19885 16378 14795 17285 10601 14175 13455 10381 16204 16153 15860 17948 12782 16547 19366 13558 12913 12550 19515 13302 11214 19756 18185 10739 10602 13573 13853 17708 17547 11504 14804 18428 14378 11927 14580 10198 19481 10450 14255 19638 15894 13912 12712 17334 17476 19749 14989 11931 19392 19976 11504 15101 13857 16724 17121 19751 16164 17969 13129 19318 11749 17159 18856 16839 10574 14851 11392 11098 19909 17453 17463 12390 19053 13879 18346 18828 999999 999999 999999 999999 999999 999999 999999 999999 999999 999999 999999 999999 999999 999999 999999 999999 999999 999999 999999 999999 999999 999999 999999 999999 999999 999999 999999 999999 0 999999 999999 999999 999999 999999 999999 999999 999999 999999 999999 999999 999999 999999 999999 999999 999999 999999 999999 999999 999999 999999 999999 999999 999999 999999 999999 999999 999999 999999 999999 999999 999999 999999 999999 999999 999999 999999 999999 999999 999999 999999 999999 999999 999999 999999 999999 999999 999999 999999 999999 999999 999999 999999 999999 999999 999999 999999 999999 999999 999999 999999 999999 999999 999999 999999 999999 999999 999999 999999 999999 999999 8581
999999 16154 15300 13588 16890 17184 13656 11020 10319 12657 12301 14750 14203 15330 13044 11669 15707 19623 18972 15310 13855 18477 10153 17109 18489 12176 17029 10985 15358 17644 19991 15494 19388 10814 14803 15837 19119 17897 14414 16697 18383 15807 19542 17094 18809 17870 18896 11911 16666 16704 19448 15432 15185 13133 19554 11514 10296 12854 13890 18950 10708 18645 19903 13391 13667 16999 19010 14252 16718 13884 18117 14030 12811 15866 14052 13405 11180 16980 14653 18859 19325 15367 15422 16950 10929 14309 18024 10327 16277 13469 17021 19428 14423 12488 15407 17633 13619 14494 11263 17142 15987 999999 999999 999999 999999 999999 999999 999999 999999 999999 999999 999999 999999 999999 999999 999999 999999 999999 999999 999999 999999 999999 999999 999999 999999 999999 999999 999999 999999 999999 0 999999 999999 999999 999999 999999 999999 999999 999999 999999 999999 999999 999999 999999 999999 999999 999999 999999 999999 999999 999999 999999 999999 999999 999999 999999 999999 999999 999999 999999 999999 999999 999999 999999 999999 999999 999999 999999 999999 999999 999999 999999 999999 999999 999999 999999 999999 999999 999999 999999 999999 999999 999999 999999 999999 999999 999999 999999 999999 999999 999999 999999 999999 999999 999999 999999 999999 999999 999999 999999 999999 14293
999999 14672 14484 13917 19270 17539 14415 18626 16429 18405 16467 10423 14171 17050 19090 19780 18633 11589 13595 18485 10158 10468 18462 14944 12357 19396 13738 13487 16966 11439 18310 16025 13147 12135 14421 15660 16918 13077 13686 16104 16412 17642 12386 11154 16584 15171 14092 19102 12969 13774 11990 12794 14728 11937 11027 12481 13059 18297 18497 19922 12271 15133 17908 16556 12169 17848 11969 11308 17405 10352 16091 18949 14252 14839 10433 17109 11344 19699 10348 11360 14834 14832 10962 12990 11971 19993 13835 11592 12438 11548 18677 15887 17821 14783 12154 12394 10600 10067 18185 19630 11837 999999 999999 999999 999999 999999 999999 999999 999999 999999 999999 999999 999999 999999 999999 999999 999999 999999 999999 999999 999999 999999 999999 999999 999999 999999 999999 999999 999999 999999 999999 0 999999 999999 999999 999999 999999 999999 999999 999999 999999 999999 999999 999999 999999 999999 999999 999999 999999 999999 999999 999999 999999 999999 999999 999999 999999 999999 999999 999999 999999 999999 999999 999999 999999 999999 999999 999999 999999 999999 999999 999999 999999 999999 999999 999999 999999 999999 999999 999999 999999 999999 999999 999999 999999 999999 999999 999999 999999 999999 999999 999999 999999 999999 999999 999999 999999 999999 999999 999999 999999 8903
999999 17177 16353 13460 17485 10875 16574 16109 18542 17899 13134 14141 16806 18793 16756 16666 10701 10112 17988 18757 12769 14659 10548 18553 15921 12079 14264 10705 16444 15878 14684 19696 12437 19620 14544 11244 14001 14791 14370 12215 18064 19898 19413 16209 10119 18828 10186 15667 13972 15221 12626 15757 11396 19440 15588 10932 19458 19656 13049 11299 19767 10950 14440 12118 11111 11716 12237 17862 13615 13776 17210 18579 19286 13360 14589 10502 19820 14850 18201 17716 11791 19308 19494 11204 14328 10946 11975 15336 18966 11235 18762 12028 16117 13222 10812 18085 12987 12349 13144 10595 12808 999999 999999 999999 999999 999999 999999 999999 999999 999999 999999 999999 999999 999999 999999 999999 999999 999999 999999 999999 999999 999999 999999 999999 999999 999999 999999 999999 999999 999999 999999 999999 0 999999 999999 999999 999999 999999 999999 999999 999999 999999 999999 999999 999999 999999 999999 999999 999999 999999 999999 999999 999999 999999 999999 999999 999999 999999 999999 999999 999999 999999 999999 999999 999999 999999 999999 999999 999999 999999 999999 999999 999999 999999 999999 999999 999999 999999 999999 999999 999999 999999 999999 999999 999999 999999 999999 999999 999999 999999 999999 999999 999999 999999 999999 999999 999999 999999 999999 999999 999999 13472
999999 16400 11033 16560 11819 19405 18760 15723 15004 14177 18628 12343 17638 11462 15738 16201 14079 16804 17722 12846 17196 16393 15463 12940 18705 15570 17118 18721 18840 15056 18136 18812 18239 17371 14351 19681 11544 13341 14239 17524 19753 17330 18343 10973 13515 18873 17217 19190 18237 10660 10911 18006 16955 19984 10572 18170 15947 14111 15566 15067 12172 18467 18839 14103 11524 11677 11372 19175 18092 19274 14961 18516 10820 13448 10360 13099 13108 10682 19310 17339 10124 11086 16721 11827 10403 11767 10359 11911 11356 12463 17937 18727 18131 12445 12276 17691 19908 19747 16568 18726 16363 999999 999999 999999 999999 999999 999999 999999 999999 999999 999999 999999 999999 999999 999999 999999 999999 999999 999999 999999 999999 999999 999999 999999 999999 999999 999999 999999 999999 999999 999999 999999 999999 0 999999 999999 999999 999999 999999 999999 999999 999999 999999 999999 999999 999999 999999 999999 999999 999999 999999 999999 999999 999999 999999 999999 999999 999999 999999 999999 999999 999999 999999 999999 999999 999999 999999 999999 999999 999999 999999 999999 999999 999999 999999 999999 999999 999999 999999 999999 999999 999999 999999 999999 999999 999999 999999 999999 999999 999999 999999 999999 999999 999999 999999 999999 999999 999999 999999 999999 999999 14997
999999 16270 19475 15624 12336 15747 15068 19716 15839 16384 11807 10663 10647 13046 14014 18567 17454 15033 13486 12669 18541 18404 12247 10237 19912 10346 17143 17858 14790 18621 10010 17745 13945 18075 11792 10785 19521 11836 17154 11030 18375 14386 15631 10886 14024 13642 14747 19265 15452 15006 10733 18622 18255 19887 17444 11872 14126 16152 13535 12930 15505 10289 10048 16407 18453 13069 10064 13798 18884 12980 15104 15367 16263 15223 13110 12536 19252 11176 11095 11916 14437 12155 14840 10447 17474 15433 14973 15517 10430 18824 17617 13120 14150 10102 18149 12973 11964 14046 15518 18262 12629 999999 999999 999999 999999 999999 999999 999999 999999 999999 999999 999999 999999 999999 999999 999999 999999 999999 999999 999999 999999 999999 999999 999999 999999 999999 999999 999999 999999 999999 999999 999999 999999 999999 0 999999 999999 999999 999999 999999 999999 999999 999999 999999 999999 999999 999999 999999 999999 999999 999999 999999 999999 999999 999999 999999 999999 999999 999999 999999 999999 999999 999999 999999 999999 999999 999999 999999 999999 999999 999999 999999 999999 999999 999999 999999 999999 999999 999999 999999 999999 999999 999999 999999 999999 999999 999999 999999 999999 999999 999999 999999 999999 999999 999999 999999 999999 999999 999999 999999 999999 10242
999999 19785 16243 13269 10793 13384 12151 17049 11505 17552 10306 16097 18430 13070 18630 11589 13679 17707 18205 16473 14701 16683 11975 12302 14767 14143 17484 13574 11809 14890 13176 18845 16678 10144 15483 14413 11155 10660 15981 16256 16653 17510 10971 12192 19416 14166 14365 11980 14615 15517 18719 12070 12263 13345 18813 14406 13275 13111 17155 16991 12260 15688 12563 14189 12895 19701 12917 16991 12310 14683 11183 18081 14449 13074 18530 11777 12763 10552 17951 18589 11072 11387 11481 19753 18099 16879 14900 17069 14410 11309 11851 10941 19318 11499 11440 13177 14124 15333 12143 11936 17353 999999 999999 999999 999999 999999 999999 999999 999999 999999 999999 999999 999999 999999 999999 999999 999999 999999 999999 999999 999999 999999 999999 999999 999999 999999 999999 999999 999999 999999 999999 999999 999999 999999 999999 0 999999 999999 999999 999999 999999 999999 999999 999999 999999 999999 999999 999999 999999 999999 999999 999999 999999 999999 999999 999999 999999 999999 999999 999999 999999 999999 999999 999999 999999 999999 999999 999999 999999 999999 999999 999999 999999 999999 999999 999999 999999 999999 999999 999999 999999 999999 999999 999999 999999 999999 999999 999999 999999 999999 999999 999999 999999 999999 999999 999999 999999 999999 999999 999999 999999 8604
999999 13909 16141 14864 14139 17079 16733 10801 18532 16841 10512 14192 17295 18006 19458 18854 10055 13535 10695 14450 17269 10865 18892 15024 17512 12272 19890 10118 19199 12284 14306 15417 19832 11618 14934 16639 14402 18468 10823 18239 14202 17040 15930 10079 15298 15850 18097 14804 14626 13840 17224 18301 17421 11541 15242 19645 17562 10000 11988 10401 10341 15454 15810 17651 19051 13728 10098 17970 19951 17854 17261 18009 14190 10865 10078 13871 15043 10260 16183 11931 11746 11588 10097 18783 11185 10888 14784 17565 19308 16136 14359 16730 11088 15801 15453 11254 13505 11293 14962 10178 18363 999999 999999 999999 999999 999999 999999 999999 999999 999999 999999 999999 999999 999999 999999 999999 999999 999999 999999 999999 999999 999999 999999 999999 999999 999999 999999 999999 999999 999999 999999 999999 999999 999999 999999 999999 0 999999 999999 999999 999999 999999 999999 999999 999999 999999 999999 999999 999999 999999 999999 999999 999999 999999 999999 999999 999999 999999 999999 999999 999999 999999 999999 999999 999999 999999 999999 999999 999999 999999 999999 999999 999999 999999 999999 999999 999999 999999 999999 999999 999999 999999 999999 999999 999999 999999 999999 999999 999999 999999 999999 999999 999999 999999 999999 999999 999999 999999 999999 999999 999999 13948
999999 16621 15085 19837 12483 10243 11440 17278 16350 19180 13621 19213 13659 18577 15810 15901 19368 14857 13892 12556 12627 14922 13318 17317 19885 18195 14913 17153 14348 16263 17187 15760 11041 15362 19087 11095 18249 16888 19443 11484 19766 15006 18615 15134 16014 18275 17465 12525 12124 11260 14713 17519 10780 13019 19156 11594 18889 15039 14851 19182 15267 19904 15224 15590 14351 13338 18980 15730 18194 14754 10025 12791 14218 15684 12673 14109 13930 10487 14372 10571 12046 13942 16326 18593 14753 15763 15284 15644 19825 10843 16809 19137 17879 12420 18673 19757 15721 19811 10689 17636 15950 999999 999999 999999 999999 999999 999999 999999 999999 999999 999999 999999 999999 999999 999999 999999 999999 999999 999999 999999 999999 999999 999999 999999 999999 999999 999999 999999 999999 999999 999999 999999 999999 999999 999999 999999 999999 0 999999 999999 999999 999999 999999 999999 999999 999999 999999 999999 999999 999999 999999 999999 999999 999999 999999 999999 999999 999999 999999 999999 999999 999999 999999 999999 999999 999999 999999 999999 999999 999999 999999 999999 999999 999999 999999 999999 999999 999999 999999 999999 999999 999999 999999 999999 999999 999999 999999 999999 999999 999999 999999 999999 999999 999999 999999 999999 999999 999999 999999 999999 999999 14340
999999 16151 17394 10466 19638 19169 19963 18322 18337 12784 18181 11436 16513 18199 16206 12789 18873 12238 15764 15807 17212 15264 10931 17515 17882 17634 19895 15181 16713 18042 15618 12335 18948 18779 11085 14071 17676 17242 11200 13141 17423 14201 14121 16142 13118 19137 11892 11458 10860 13646 19552 13040 12665 17764 12538 13388 11711 16422 16769 12297 16874 13174 11253 14636 19102 13503 17915 14541 15279 14390 17785 11126 17875 18526 13391 12116 19924 19390 10982 17611 16849 12947 12562 17609 11585 15084 18217 16111 15761 16118 12355 17411 13444 17636 18660 15138 13336 12787 13540 10792 10776 999999 999999 999999 999999 999999 999999 999999 999999 999999 999999 999999 999999 999999 999999 999999 999999 999999 999999 999999 999999 999999 999999 999999 999999 999999 999999 999999 999999 999999 999999 999999 999999 999999 999999 999999 999999 999999 0 999999 999999 999999 999999 999999 999999 999999 999999 999999 999999 999999 999999 999999 999999 999999 999999 999999 999999 999999 999999 999999 999999 999999 999999 999999 999999 999999 999999 999999 999999 999999 999999 999999 999999 999999 999999 999999 999999 999999 999999 999999 999999 999999 999999 999999 999999 999999 999999 999999 999999 999999 999999 999999 999999 999999 999999 999999 999999 999999 999999 999999 999999 14863
999999 19389 10808 16906 16608 10150 16097 16352 11088 19651 10170 19115 13113 12060 18493 14963 16133 16579 18932 16991 12598 15097 18971 17641 18334 17709 11489 19097 11648 18726 19462 12118 18933 10149 11197 13866 16831 15062 13579 15003 17646 15185 13316 16955 12197 10710 13096 12637 12262 16931 19091 16019 12367 13675 18923 12143 11657 12763 14180 17189 17457 16426 18383 17207 10622 12791 11524 13511 16486 19529 14229 19036 10244 14938 10428 15428 14405 15112 13495 13948 17405 17894 10493 17516 15079 18946 10293 13744 15309 10014 18712 13990 19694 15916 13995 13028 13398 10356 15718 16039 10365 999999 999999 999999 999999 999999 999999 999999 999999 999999 999999 999999 999999 999999 999999 999999 999999 999999 999999 999999 999999 999999 999999 999999 999999 999999 999999 999999 999999 999999 999999 999999 999999 999999 999999 999999 999999 999999 999999 0 999999 999999 999999 999999 999999 999999 999999 999999 999999 999999 999999 999999 999999 999999 999999 999999 999999 999999 999999 999999 999999 999999 999999 999999 999999 999999 999999 999999 999999 999999 999999 999999 999999 999999 999999 999999 999999 999999 999999 999999 999999 999999 999999 999999 999999 999999 999999 999999 999999 999999 999999 999999 999999 999999 999999 999999 999999 999999 999999 999999 999999 6955
999999 19468 16834 10464 10457 16699 11066 15861 18562 11591 12218 19178 17408 11570 14737 17052 12211 14769 16838 19876 13393 11426 10315 13514 12777 14829 10452 15658 13329 11210 13498 14745 11629 13064 15561 16141 10926 12937 15966 13967 12173 19880 15138 10910 11724 17545 19916 13204 12326 17088 14238 15530 19191 11964 10348 12025 10804 18220 15387 14256 15306 13285 12681 10689 13451 16495 13967 15237 16329 17635 14641 12435 13897 18160 11024 13861 14183 18690 10762 18252 12415 11256 19135 12832 19651 17804 18602 19649 10253 15344 19600 17831 10860 17894 19909 15316 13830 17738 17565 14522 11805 999999 999999 999999 999999 999999 999999 999999 999999 999999 999999 999999 999999 999999 999999 999999 999999 999999 999999 999999 999999 999999 999999 999999 999999 999999 999999 999999 999999 999999 999999 999999 999999 999999 999999 999999 999999 999999 999999 999999 0 999999 999999 999999 999999 999999 999999 999999 999999 999999 999999 999999 999999 999999 999999 999999 999999 999999 999999 999999 999999 999999 999999 999999 999999 999999 999999 999999 999999 999999 999999 999999 999999 999999 999999 999999 999999 999999 999999 999999 999999 999999 999999 999999 999999 999999 999999 999999 999999 999999 999999 999999 999999 999999 999999 999999 999999 999999 999999 999999 999999 12115
999999 13237 13769 12298 10440 19734 12525 11624 15601 13117 19605 12800 11401 19348 14337 17653 15425 16723 18949 12042 16857 18279 14315 10952 18356 17487 19030 18632 17221 19785 15913 10214 14680 15361 10733 18245 18714 19462 19051 19774 10588 10713 14426 11448 13086 11134 13449 14019 18209 13043 14360 15419 16361 14633 10403 11822 11965 14919 17462 12159 17513 15357 10156 15452 18035 18399 12393 13793 10742 17903 16663 16254 14381 10177 10028 15698 14031 16908 18366 18056 14403 15004 16817 15500 11537 12001 18351 14464 14863 19015 19672 11874 10652 15818 15937 11183 14342 16644 18559 19612 17636 999999 999999 999999 999999 999999 999999 999999 999999 999999 999999 999999 999999 999999 999999 999999 999999 999999 999999 999999 999999 999999 999999 999999 999999 999999 999999 999999 999999 999999 999999 999999 999999 999999 999999 999999 999999 999999 999999 999999 999999 0 999999 999999 999999 999999 999999 999999 999999 999999 999999 999999 999999 999999 999999 999999 999999 999999 999999 999999 999999 999999 999999 999999 999999 999999 999999 999999 999999 999999 999999 999999 999999 999999 999999 999999 999999 999999 999999 999999 999999 999999 999999 999999 999999 999999 999999 999999 999999 999999 999999 999999 999999 999999 999999 999999 999999 999999 999999 999999 999999 10148
999999 11036 15898 11011 17971 19084 18483 19674 10280 12665 18999 13200 11508 13626 10057 15091 17299 19142 15891 12263 19761 11315 11645 11711 11536 18154 19231 15055 19863 14234 11331 16255 19121 15050 17579 16603 11771 14334 19153 12774 18956 14133 14901 19085 13557 17186 19425 16225 15950 13347 10741 13059 12222 15231 16862 17959 13524 18945 13113 12493 10683 19653 13724 18661 12207 12226 15427 14644 18151 10008 12562 14764 18250 12258 12645 18785 13490 12815 16174 12443 15439 14470 17093 12934 18690 10788 15435 13017 13129 13622 10921 16721 12110 11410 15311 15510 10904 17170 14627 14269 16476 999999 999999 999999 999999 999999 999999 999999 999999 999999 999999 999999 999999 999999 999999 999999 999999 999999 999999 999999 999999 999999 999999 999999 999999 999999 999999 999999 999999 999999 999999 999999 999999 999999 999999 999999 999999 999999 999999 999999 999999 999999 0 999999 999999 999999 999999 999999 999999 999999 999999 999999 999999 999999 999999 999999 999999 999999 999999 999999 999999 999999 999999 999999 999999 999999 999999 999999 999999 999999 999999 999999 999999 999999 999999 999999 999999 999999 999999 999999 999999 999999 999999 999999 999999 999999 999999 999999 999999 999999 999999 999999 999999 999999 999999 999999 999999 999999 999999 999999 999999 14594
999999 14821 15948 16444 19003 11714 13373 14823 15993 14075 16706 10657 19761 14158 17681 14440 17908 14308 11601 11746 15674 17147 10919 17818 13061 10226 14569 11646 15854 10531 16043 19034 15421 18289 11222 11114 13919 14682 14058 18050 19800 14332 13830 15941 17959 10383 17550 14717 11339 12410 13537 13155 12051 10406 11891 15464 14418 14251 10532 13186 16160 10670 13690 15524 15027 10493 19194 13112 15290 16368 15400 18589 17529 19286 17280 14541 14008 19595 14954 12111 10421 16489 16885 17678 12133 10506 12831 11492 16737 15408 12115 15491 18417 16755 11298 15198 15950 15537 14866 17114 14733 999999 999999 999999 999999 999999 999999 999999 999999 999999 999999 999999 999999 999999 999999 999999 999999 999999 999999 999999 999999 999999 999999 999999 999999 999999 999999 999999 999999 999999 999999 999999 999999 999999 999999 999999 999999 999999 999999 999999 999999 999999 999999 0 999999 999999 999999 999999 999999 999999 999999 999999 999999 999999 999999 999999 999999 999999 999999 999999 999999 999999 999999 999999 999999 999999 999999 999999 999999 999999 999999 999999 999999 999999 999999 999999 999999 999999 999999 999999 999999 999999 999999 999999 999999 999999 999999 999999 999999 999999 999999 999999 999999 999999 999999 999999 999999 999999 999999 999999 999999 5413
999999 14399 17358 19469 11181 15889 19615 14184 13097 12801 10090 14603 13255 14108 19487 17742 17200 18317 12743 19935 19817 17375 15557 15141 13543 17327 16560 17094 16470 10591 16665 19828 18226 19724 15486 18577 19552 12553 15335 10645 19474 17974 13646 14914 11190 10022 10713 10972 11199 13980 19729 19213 19461 19989 16339 10477 18262 16644 14573 19201 17394 17901 16842 15221 14868 10648 17640 17833 11404 13854 16663 18193 13527 18216 14560 10349 10466 10524 13880 19243 10586 13484 10062 11225 19153 19774 11311 11924 17920 14355 11380 12458 19337 13719 13566 19002 12307 13510 18679 11649 11509 999999 999999 999999 999999 999999 999999 999999 999999 999999 999999 999999 999999 999999 999999 999999 999999 999999 999999 999999 999999 999999 999999 999999 999999 999999 999999 999999 999999 999999 999999 999999 999999 999999 999999 999999 999999 999999 999999 999999 999999 999999 999999 999999 0 999999 999999 999999 999999 999999 999999 999999 999999 999999 999999 999999 999999 999999 999999 999999 999999 999999 999999 999999 999999 999999 999999 999999 999999 999999 999999 999999 999999 999999 999999 999999 999999 999999 999999 999999 999999 999999 999999 999999 999999 999999 999999 999999 999999 999999 999999 999999 999999 999999 999999 999999 999999 999999 999999 999999 999999 10185
999999 18782 14862 19756 16609 12946 10989 17401 12790 15949 16928 10282 15068 17326 14543 16296 11347 11994 12088 12222 16852 10922 12733 13288 12103 17978 17274 15946 12387 14669 15875 16320 17876 17769 17891 12326 16577 12830 11232 12567 18274 13087 14529 19624 16178 19206 11501 15718 13969 10873 10875 16623 15687 17685 13082 18702 10290 11622 11237 17982 13969 10653 15791 12936 15083 16951 15570 19052 14241 18779 13228 13903 16369 15942 14662 17126 16473 10489 11327 11108 14331 13080 10969 10664 10317 13699 18580 18682 19130 17645 17225 16329 14869 10201 11831 13258 19267 12616 13816 10368 15002 999999 999999 999999 999999 999999 999999 999999 999999 999999 999999 999999 999999 999999 999999 999999 999999 999999 999999 999999 999999 999999 999999 999999 999999 999999 999999 999999 999999 999999 999999 999999 999999 999999 999999 999999 999999 999999 999999 999999 999999 999999 999999 999999 999999 0 999999 999999 999999 999999 999999 999999 999999 999999 999999 999999 999999 999999 999999 999999 999999 999999 999999 999999 999999 999999 999999 999999 999999 999999 999999 999999 999999 999999 999999 999999 999999 999999 999999 999999 999999 999999 999999 999999 999999 999999 999999 999999 999999 999999 999999 999999 999999 999999 999999 999999 999999 999999 999999 999999 999999 11797
999999 15028 12233 16422 10162 17573 17851 10737 13339 14193 11966 17216 19493 12780 16615 17712 10649 17024 17363 18665 12618 11877 10891 16393 16087 14469 18710 14968 15671 18077 17646 10855 12413 15011 12129 13740 11800 16266 19918 18933 17353 13315 11423 12418 16231 10366 18461 19971 10355 11471 10687 16077 16641 15714 10940 10231 11223 11028 18517 16763 16051 18719 14646 14760 11050 16427 10433 18648 14216 19922 15608 19784 19211 18720 15386 12892 15336 16578 14415 13719 19729 16698 14527 11351 16110 11875 11856 14009 14879 10618 16700 10204 11574 12611 11899 13015 11293 15622 10868 14193 17630 999999 999999 999999 999999 999999 999999 999999 999999 999999 999999 999999 999999 999999 999999 999999 999999 999999 999999 999999 999999 999999 999999 999999 999999 999999 999999 999999 999999 999999 999999 999999 999999 999999 999999 999999 999999 999999 999999 999999 999999 999999 999999 999999 999999 999999 0 999999 999999 999999 999999 999999 999999 999999 999999 999999 999999 999999 999999 999999 999999 999999 999999 999999 999999 999999 999999 999999 999999 999999 999999 999999 999999 999999 999999 999999 999999 999999 999999 999999 999999 999999 999999 999999 999999 999999 999999 999999 999999 999999 999999 999999 999999 999999 999999 999999 999999 999999 999999 999999 999999 13847
999999 10397 19187 18079 17727 14923 11766 17180 10591 19126 11749 18680 17880 14522 18302 14249 13117 15012 17138 11430 11603 15634 12925 10941 10462 18317 15139 18455 18012 18839 14381 17259 19663 18068 16998 14806 13785 11971 18214 15681 13436 17100 16062 18821 15662 10053 13334 10642 14734 13194 15770 10686 14833 10891 11188 18343 19110 17401 10065 11847 11186 19027 15284 11584 10220 14928 18289 11635 11511 13061 11617 18541 13418 14828 18073 12784 14238 18729 11219 19356 18863 15494 18975 16704 11587 14118 18453 11776 10578 17780 10992 18911 19959 13671 15584 12690 17337 12005 11277 15225 17589 999999 999999 999999 999999 999999 999999 999999 999999 999999 999999 999999 999999 999999 999999 999999 999999 999999 999999 999999 999999 999999 999999 999999 999999 999999 999999 999999 999999 999999 999999 999999 999999 999999 999999 999999 999999 999999 999999 999999 999999 999999 999999 999999 999999 999999 999999 0 999999 999999 999999 999999 999999 999999 999999 999999 999999 999999 999999 999999 999999 999999 999999 999999 999999 999999 999999 999999 999999 999999 999999 999999 999999 999999 999999 999999 999999 999999 999999 999999 999999 999999 999999 999999 999999 999999 999999 999999 999999 999999 999999 999999 999999 999999 999999 999999 999999 999999 999999 999999 999999 9486
999999 17203 10196 14146 14257 18795 17936 13289 11763 14990 17305 12787 18665 10723 19726 10803 10699 13535 11550 11950 10836 18992 10998 11249 15684 18354 14367 13372 17746 10799 12229 14504 18172 15054 17679 13894 16025 13022 13266 17781 19713 10045 12773 11688 15253 15746 19814 13321 11424 16899 11436 13687 17462 17100 17751 19123 11865 14771 10264 13980 13759 16176 19354 16670 10574 14421 17952 12198 19693 12528 12365 17342 14820 18268 11081 18207 10267 17443 15096 13164 15755 16139 19382 10831 19854 12475 17410 11997 13957 13488 17395 14053 16093 19517 11590 19903 12186 19687 13391 10718 10357 999999 999999 999999 999999 999999 999999 999999 999999 999999 999999 999999 999999 999999 999999 999999 999999 999999 999999 999999 999999 999999 999999 999999 999999 999999 999999 999999 999999 999999 999999 999999 999999 999999 999999 999999 999999 999999 999999 999999 999999 999999 999999 999999 999999 999999 999999 999999 0 999999 999999 999999 999999 999999 999999 999999 999999 999999 999999 999999 999999 999999 999999 999999 999999 999999 999999 999999 999999 999999 999999 999999 999999 999999 999999 999999 999999 999999 999999 999999 999999 999999 999999 999999 999999 999999 999999 999999 999999 999999 999999 999999 999999 999999 999999 999999 999999 999999 999999 999999 999999 8546
999999 18693 12919 17651 15287 11765 15032 10540 19090 12911 12357 18935 11280 12108 15948 12969 15567 13411 15418 11496 12451 19892 19582 19761 17765 18498 19537 16500 18548 11474 11655 13268 11420 13299 14956 14293 11677 10644 12715 16979 19877 13151 17537 14396 10017 12029 18754 13987 11114 13351 10325 18977 14455 19051 16989 15660 10960 10535 19486 13607 18853 13965 19364 17075 12614 14248 14118 12550 12041 15738 10132 15584 18295 15186 17098 18777 15889 17026 13243 10333 15317 15797 16301 16981 15913 15928 11703 13467 15284 16211 16007 15339 14362 13357 10937 15044 12365 19006 13201 14053 15216 999999 999999 999999 999999 999999 999999 999999 999999 999999 999999 999999 999999 999999 999999 999999 999999 999999 999999 999999 999999 999999 999999 999999 999999 999999 999999 999999 999999 999999 999999 999999 999999 999999 999999 999999 999999 999999 999999 999999 999999 999999 999999 999999 999999 999999 999999 999999 999999 0 999999 999999 999999 999999 999999 999999 999999 999999 999999 999999 999999 999999 999999 999999 999999 999999 999999 999999 999999 999999 999999 999999 999999 999999 999999 999999 999999 999999 999999 999999 999999 999999 999999 999999 999999 999999 999999 999999 999999 999999 999999 999999 999999 999999 999999 999999 999999 999999 999999 999999 999999 13601
999999 16286 15975 10436 16363 18771 12571 13867 17467 15967 19799 16020 12761 11490 14158 10673 13688 17482 18985 10549 19356 16633 18937 19122 13166 17116 13257 15153 19884 15765 11361 10179 16769 14018 17037 10458 19347 11936 19142 14512 12552 11268 13911 16659 19851 15719 12105 17360 11381 17621 13266 18372 16588 17001 19826 10139 16964 19708 14441 18751 15630 17851 12487 15573 13923 18470 13366 16054 17125 13992 14956 15544 11872 11541 10387 18532 18709 15672 17804 15557 12233 17931 12017 19956 18517 11013 11519 17695 11482 12565 18838 12504 17506 14093 17764 19046 12273 19745 10906 18784 11683 999999 999999 999999 999999 999999 999999 999999 999999 999999 999999 999999 999999 999999 999999 999999 999999 999999 999999 999999 999999 999999 999999 999999 999999 999999 999999 999999 999999 999999 999999 999999 999999 999999 999999 999999 999999 999999 999999 999999 999999 999999 999999 999999 999999 999999 999999 999999 999999 999999 0 999999 999999 999999 999999 999999 999999 999999 999999 999999 999999 999999 999999 999999 999999 999999 999999 999999 999999 999999 999999 999999 999999 999999 999999 999999 999999 999999 999999 999999 999999 999999 999999 999999 999999 999999 999999 999999 999999 999999 999999 999999 999999 999999 999999 999999 999999 999999 999999 999999 999999 6688
999999 12313 14052 12015 11910 12597 17571 13444 14567 17795 17771 13455 15731 12526 14820 12507 10248 14789 10179 17420 11277 13799 19470 19851 17706 15247 19657 16462 13085 13943 17439 10033 19925 18326 14792 18597 14362 18541 17201 15134 14839 12784 13987 19734 14768 11622 18998 12689 13906 18946 19424 14090 10642 14785 14670 16802 14965 19028 18223 13920 18236 17597 18313 15880 12157 19453 11961 13874 19121 11715 19987 11337 10749 15916 10495 15477 12738 12938 19857 14833 17758 13200 12659 17103 17216 13118 12277 10622 14519 11783 11368 10745 16466 17581 14029 16964 12568 17528 19946 14371 10732 999999 999999 999999 999999 999999 999999 999999 999999 999999 999999 999999 999999 999999 999999 999999 999999 999999 999999 999999 999999 999999 999999 999999 999999 999999 999999 999999 999999 999999 999999 999999 999999 999999 999999 999999 999999 999999 999999 999999 999999 999999 999999 999999 999999 999999 999999 999999 999999 999999 999999 0 999999 999999 999999 999999 999999 999999 999999 999999 999999 999999 999999 999999 999999 999999 999999 999999 999999 999999 999999 999999 999999 999999 999999 999999 999999 999999 999999 999999 999999 999999 999999 999999 999999 999999 999999 999999 999999 999999 999999 999999 999999 999999 999999 999999 999999 999999 999999 999999 999999 13008
999999 16276 18359 16353 15125 10083 17125 14041 15250 17497 18227 16392 15736 16606 19913 17871 10509 14433 10398 15563 17629 17687 11170 15895 11967 15181 19818 16158 18319 12427 16236 19260 14071 13335 15565 10686 17444 12647 17175 15822 12269 17764 10517 17047 15011 16580 11909 10794 19380 16293 11857 15925 11244 16326 13784 18769 12456 14234 11651 14478 10183 16364 13434 17938 11109 11470 13859 10215 10742 14312 18936 17822 11054 19274 11425 16502 12409 19050 11641 11029 19521 10098 18941 19607 19576 16988 17076 15052 13702 10005 11375 15724 11995 19900 13195 13447 10069 19456 13368 15565 17829 999999 999999 999999 999999 999999 999999 999999 999999 999999 999999 999999 999999 999999 999999 999999 999999 999999 999999 999999 999999 999999 999999 999999 999999 999999 999999 999999 999999 999999 999999 999999 999999 999999 999999 999999 999999 999999 999999 999999 999999 999999 999999 999999 999999 999999 999999 999999 999999 999999 999999 999999 0 999999 999999 999999 999999 999999 999999 999999 999999 999999 999999 999999 999999 999999 999999 999999 999999 999999 999999 999999 999999 999999 999999 999999 999999 999999 999999 999999 999999 999999 999999 999999 999999 999999 999999 999999 999999 999999 999999 999999 999999 999999 999999 999999 999999 999999 999999 999999 999999 10557
999999 15594 17159 14725 15966 19018 13666 18806 17936 18130 18053 18420 19349 15230 14585 16166 11219 18480 13439 18502 18283 19866 14456 12782 19319 14234 11985 13458 11709 15725 10723 15808 19914 17004 15020 13411 19798 16929 16451 13073 16263 15150 15509 16539 11132 18231 17554 19871 16931 14775 16348 16644 16620 11840 10865 14711 18311 13036 11326 18493 18415 19082 10219 11783 18084 11302 11440 14422 12316 17815 13299 10115 19658 15311 13857 15422 17432 11576 10886 18980 10264 19206 17231 17743 15972 14386 13981 10675 14061 15014 11602 13374 12980 15981 17854 13895 14848 19770 12146 13787 16185 999999 999999 999999 999999 999999 999999 999999 999999 999999 999999 999999 999999 999999 999999 999999 999999 999999 999999 999999 999999 999999 999999 999999 999999 999999 999999 999999 999999 999999 999999 999999 999999 999999 999999 999999 999999 999999 999999 999999 999999 999999 999999 999999 999999 999999 999999 999999 999999 999999 999999 999999 999999 0 999999 999999 999999 999999 999999 999999 999999 999999 999999 999999 999999 999999 999999 999999 999999 999999 999999 999999 999999 999999 999999 999999 999999 999999 999999 999999 999999 999999 999999 999999 999999 999999 999999 999999 999999 999999 999999 999999 999999 999999 999999 999999 999999 999999 999999 999999 999999 12038
999999 16923 13226 14429 10848 10664 15110 17650 16129 18797 12668 16079 11080 17462 19578 11998 10131 11458 18004 12643 19328 14341 18054 14039 13436 12904 10827 18639 13846 13121 11242 16923 13605 10137 18352 14513 15550 17435 10760 14689 16434 12967 18329 11118 17182 19057 11369 14160 11604 19643 14497 17507 13170 14466 11985 16779 12544 14687 17890 10573 11201 12216 17097 18973 14584 15884 11430 19592 15743 10627 11444 19661 18672 12719 19285 12337 19460 14962 15279 19061 15329 17640 10366 14385 11345 11771 13595 11305 15298 16771 11457 16403 18901 13829 14920 14477 14220 14393 14018 16169 13812 999999 999999 999999 999999 999999 999999 999999 999999 999999 999999 999999 999999 999999 999999 999999 999999 999999 999999 999999 999999 999999 999999 999999 999999 999999 999999 999999 999999 999999 999999 999999 999999 999999 999999 999999 999999 999999 999999 999999 999999 999999 999999 999999 999999 999999 999999 999999 999999 999999 999999 999999 999999 999999 0 999999 999999 999999 999999 999999 999999 999999 999999 999999 999999 999999 999999 999999 999999 999999 999999 999999 999999 999999 999999 999999 999999 999999 999999 999999 999999 999999 999999 999999 999999 999999 999999 999999 999999 999999 999999 999999 999999 999999 999999 999999 999999 999999 999999 999999 999999 10908
999999 19186 12467 15184 14464 17083 12141 19762 19479 18312 13787 12030 11965 19160 17640 14003 13623 13738 12581 14146 14447 12741 18808 12595 10999 19612 16162 19486 16470 18727 16308 12605 15888 12354 16348 17910 11815 15909 11320 12224 13343 17430 16462 10378 12345 11636 14066 15303 16595 18590 12145 15734 15423 11750 14657 19507 17638 11214 16197 12662 11654 19609 17386 15692 18460 15047 15153 12132 10346 17007 11810 17091 14288 10113 17648 19401 19386 17505 12268 15480 12774 16346 13575 10148 11206 10981 11581 15853 16193 19542 14592 17079 16658 12513 13627 11516 10627 17651 13611 10321 19757 999999 999999 999999 999999 999999 999999 999999 999999 999999 999999 999999 999999 999999 999999 999999 999999 999999 999999 999999 999999 999999 999999 999999 999999 999999 999999 999999 999999 999999 999999 999999 999999 999999 999999 999999 999999 999999 999999 999999 999999 999999 999999 999999 999999 999999 999999 999999 999999 999999 999999 999999 999999 999999 999999 0 999999 999999 999999 999999 999999 999999 999999 999999 999999 999999 999999 999999 999999 999999 999999 999999 999999 999999 999999 999999 999999 999999 999999 999999 999999 999999 999999 999999 999999 999999 999999 999999 999999 999999 999999 999999 999999 999999 999999 999999 999999 999999 999999 999999 999999 10147
999999 16699 16624 10733 12762 17847 13389 11479 17382 14860 16620 13063 18670 13408 11183 14553 15898 11475 17328 10800 12393 12816 13602 12940 17007 12170 13769 19048 14586 12451 11611 14285 10377 11504 12068 16771 17528 16820 19492 11854 10603 18964 16184 15284 12479 17775 17648 17627 16549 11273 12259 19216 19882 12595 17177 19461 16130 15833 18862 11977 17030 16756 17494 14567 14721 10341 15434 14080 11860 14459 12957 11398 17317 17692 18900 13482 10238 14835 14808 14606 19549 13522 11893 11341 19500 14360 12538 19962 16731 12233 12729 16011 19298 18895 13523 10897 19323 15887 16452 10844 15937 999999 999999 999999 999999 999999 999999 999999 999999 999999 999999 999999 999999 999999 999999 999999 999999 999999 999999 999999 999999 999999 999999 999999 999999 999999 999999 999999 999999 999999 999999 999999 999999 999999 999999 999999 999999 999999 999999 999999 999999 999999 999999 999999 999999 999999 999999 999999 999999 999999 999999 999999 999999 999999 999999 999999 0 999999 999999 999999 999999 999999 999999 999999 999999 999999 999999 999999 999999 999999 999999 999999 999999 999999 999999 999999 999999 999999 999999 999999 999999 999999 999999 999999 999999 999999 999999 999999 999999 999999 999999 999999 999999 999999 999999 999999 999999 999999 999999 999999 999999 14039
999999 19853 18799 15757 19489 17450 10589 12484 17663 15337 15939 19280 13808 16172 18619 12198 13323 13652 18778 18114 17140 16089 11066 17053 18595 12120 17933 14960 14200 10099 17228 14162 17823 14841 10842 15839 15273 14744 14816 11576 12134 16616 12043 17605 12071 10208 10599 11582 12399 16927 11949 11806 10203 17337 15865 11136 15669 19367 16709 10402 10934 11543 13159 14077 13988 10578 13226 12437 14207 17204 15248 15380 10149 13462 14741 19598 12296 12767 15999 18611 12241 19335 13854 19283 16665 14733 18660 15028 16628 15201 12984 13249 17741 19354 14139 18482 15563 19144 11269 11117 11457 999999 999999 999999 999999 999999 999999 999999 999999 999999 999999 999999 999999 999999 999999 999999 999999 999999 999999 999999 999999 999999 999999 999999 999999 999999 999999 999999 999999 999999 999999 999999 999999 999999 999999 999999 999999 999999 999999 999999 999999 999999 999999 999999 999999 999999 999999 999999 999999 999999 999999 999999 999999 999999 999999 999999 999999 0 999999 999999 999999 999999 999999 999999 999999 999999 999999 999999 999999 999999 999999 999999 999999 999999 999999 999999 999999 999999 999999 999999 999999 999999 999999 999999 999999 999999 999999 999999 999999 999999 999999 999999 999999 999999 999999 999999 999999 999999 999999 999999 999999 14454
999999 15856 13896 13926 18345 12269 12633 10862 15838 15091 12868 17522 15278 18806 10075 10160 17659 16911 17207 10772 12881 16843 17705 12291 18100 14020 12486 13764 19070 17631 15670 17561 15409 12553 14743 11657 13729 10866 13606 17980 14065 11388 17710 11915 16242 16896 11325 18996 15555 18532 10257 15142 11854 19881 11427 14516 18746 18961 12108 18386 11706 15150 15750 15400 14918 10746 11419 15328 11275 13226 16520 13463 15235 17706 17122 16244 11750 14728 15738 13408 13377 15314 12363 11336 10831 13099 16640 16699 15174 14697 18163 13388 16205 18042 14666 10183 18676 14029 15854 11030 17846 999999 999999 999999 999999 999999 999999 999999 999999 999999 999999 999999 999999 999999 999999 999999 999999 999999 999999 999999 999999 999999 999999 999999 999999 999999 999999 999999 999999 999999 999999 999999 999999 999999 999999 999999 999999 999999 999999 999999 999999 999999 999999 999999 999999 999999 999999 999999 999999 999999 999999 999999 999999 999999 999999 999999 999999 999999 0 999999 999999 999999 999999 999999 999999 999999 999999 999999 999999 999999 999999 999999 999999 999999 999999 999999 999999 999999 999999 999999 999999 999999 999999 999999 999999 999999 999999 999999 999999 999999 999999 999999 999999 999999 999999 999999 999999 999999 999999 999999 999999 13024
999999 14770 14725 14580 18522 13241 13555 18378 16258 15706 12147 11745 13491 15045 10085 10086 15159 14029 13583 19305 10681 13121 14274 16857 15861 14578 16182 14323 10621 14477 17210 17360 18143 15219 14467 17973 14563 16338 14865 14412 18582 16890 19238 15327 11374 10815 15449 10588 19717 18498 12668 16909 13085 10180 19082 13885 15842 14203 16384 19120 19347 11081 16184 10754 15458 12322 14431 17727 19432 18777 14582 10442 10031 18513 11263 13703 17728 12798 11839 12427 19877 12118 12585 11922 12773 19142 17007 19560 18408 16142 10469 12115 13426 16670 11434 16922 16675 14112 13579 10287 19221 999999 999999 999999 999999 999999 999999 999999 999999 999999 999999 999999 999999 999999 999999 999999 999999 999999 999999 999999 999999 999999 999999 999999 999999 999999 999999 999999 999999 999999 999999 999999 999999 999999 999999 999999 999999 999999 999999 999999 999999 999999 999999 999999 999999 999999 999999 999999 999999 999999 999999 999999 999999 999999 999999 999999 999999 999999 999999 0 999999 999999 999999 999999 999999 999999 999999 999999 999999 999999 999999 999999 999999 999999 999999 999999 999999 999999 999999 999999 999999 999999 999999 999999 999999 999999 999999 999999 999999 999999 999999 999999 999999 999999 999999 999999 999999 999999 999999 999999 999999 6794
999999 14020 12344 16606 19276 18526 16642 11327 10750 15405 10506 19448 19291 15585 18180 10071 11640 19672 17665 12942 17679 14706 13495 13546 10781 16035 15336 15637 16411 18087 17063 10331 12266 18622 19513 16008 14391 19943 14341 13657 14696 16757 17412 15534 12591 17212 16611 18677 19647 19642 12436 11597 15793 12445 10431 11651 11491 18051 19429 12749 13622 14216 11987 19953 10892 16741 13721 10790 12148 12580 14797 16489 13764 12313 19369 12502 17264 17577 14455 13858 13573 12372 11559 12852 18260 19466 15047 12663 17254 15918 19061 19401 12069 16836 14347 19919 13505 19579 13121 19338 15846 999999 999999 999999 999999 999999 999999 999999 999999 999999 999999 999999 999999 999999 999999 999999 999999 999999 999999 999999 999999 999999 999999 999999 999999 999999 999999 999999 999999 999999 999999 999999 999999 999999 999999 999999 999999 999999 999999 999999 999999 999999 999999 999999 999999 999999 999999 999999 999999 999999 999999 999999 999999 999999 999999 999999 999999 999999 999999 999999 0 999999 999999 999999 999999 999999 999999 999999 999999 999999 999999 999999 999999 999999 999999 999999 999999 999999 999999 999999 999999 999999 999999 999999 999999 999999 999999 999999 999999 999999 999999 999999 999999 999999 999999 999999 999999 999999 999999 999999 999999 12144
999999 17540 10558 16383 11928 15426 15446 18143 18579 12528 11940 18872 15354 10595 15233 10322 13170 10477 15897 12370 14815 14585 18833 17532 12254 11270 18625 18392 16488 13861 18613 10883 11797 19064 11526 11458 18461 16844 19134 18770 17280 17938 12581 13130 15716 13121 19564 15307 18686 14464 11446 12276 14639 15891 12741 15289 18373 11852 13384 19894 11626 16850 17739 18334 13390 11814 19150 11921 15101 12575 13983 11672 14896 19652 15315 18093 19567 11924 15058 13742 18761 15052 17965 14911 10311 14746 13068 12224 10887 15117 14197 14476 15329 13113 11772 11086 14444 17175 17970 19818 19811 999999 999999 999999 999999 999999 999999 999999 999999 999999 999999 999999 999999 999999 999999 999999 999999 999999 999999 999999 999999 999999 999999 999999 999999 999999 999999 999999 999999 999999 999999 999999 999999 999999 999999 999999 999999 999999 999999 999999 999999 999999 999999 999999 999999 999999 999999 999999 999999 999999 999999 999999 999999 999999 999999 999999 999999 999999 999999 999999 999999 0 999999 999999 999999 999999 999999 999999 999999 999999 999999 999999 999999 999999 999999 999999 999999 999999 999999 999999 999999 999999 999999 999999 999999 999999 999999 999999 999999 999999 999999 999999 999999 999999 999999 999999 999999 999999 999999 999999 999999 11206
999999 14572 17524 14890 19165 17324 13824 19802 14252 12659 18781 11071 19234 19619 19061 16675 11465 12029 10223 15480 12073 11951 16550 15886 11092 13681 15484 10347 15388 13798 13878 14567 10010 10089 10826 11767 15856 19644 14917 15883 13273 18223 16460 14311 14383 13849 10894 10600 11949 16886 14807 16669 16851 17576 19318 12871 18134 10953 10652 19015 11649 10117 19314 18549 19934 15774 10796 15438 12438 13226 15795 16832 11972 11476 17973 15337 17874 14306 13466 17592 19476 11445 13949 14074 10036 18281 19454 13658 13634 19027 19006 18235 14521 12072 10881 12886 12224 15634 10080 10604 13938 999999 999999 999999 999999 999999 999999 999999 999999 999999 999999 999999 999999 999999 999999 999999 999999 999999 999999 999999 999999 999999 999999 999999 999999 999999 999999 999999 999999 999999 999999 999999 999999 999999 999999 999999 999999 999999 999999 999999 999999 999999 999999 999999 999999 999999 999999 999999 999999 999999 999999 999999 999999 999999 999999 999999 999999 999999 999999 999999 999999 999999 0 999999 999999 999999 999999 999999 999999 999999 999999 999999 999999 999999 999999 999999 999999 999999 999999 999999 999999 999999 999999 999999 999999 999999 999999 999999 999999 999999 999999 999999 999999 999999 999999 999999 999999 999999 999999 999999 999999 14289
999999 18345 17445 18382 15468 12733 17743 15676 16088 15192 13314 17102 17552 18808 17445 19373 13661 13793 19426 11424 14337 13982 13159 14816 16678 12236 16299 10887 11476 13530 15466 12989 15608 12483 13049 13826 10324 15120 17461 16952 19407 19762 14842 11383 16229 16806 12993 14262 11343 11007 12345 12307 16223 19541 16090 15703 19418 15581 13759 10396 16011 15107 16762 14386 13048 17589 13506 17876 19536 12929 19644 15785 14092 16580 13535 18444 16680 15851 13651 17682 19446 11502 19319 10978 11248 11756 13276 18833 12910 13844 13489 11342 10087 16722 19676 12834 19717 12055 13252 15510 11051 999999 999999 999999 999999 999999 999999 999999 999999 999999 999999 999999 999999 999999 999999 999999 999999 999999 999999 999999 999999 999999 999999 999999 999999 999999 999999 999999 999999 999999 999999 999999 999999 999999 999999 999999 999999 999999 999999 999999 999999 999999 999999 999999 999999 999999 999999 999999 999999 999999 999999 999999 999999 999999 999999 999999 999999 999999 999999 999999 999999 999999 999999 0 999999 999999 999999 999999 999999 999999 999999 999999 999999 999999 999999 999999 999999 999999 999999 999999 999999 999999 999999 999999 999999 999999 999999 999999 999999 999999 999999 999999 999999 999999 999999 999999 999999 999999 999999 999999 999999 6760
999999 11467 14952 11413 15041 17434 13928 11188 19574 19961 11408 19839 11609 12669 10996 18904 11270 17190 12138 11512 11003 18081 17876 19890 17827 17712 15194 18287 14787 13879 18048 16489 15759 16266 19693 18810 16800 18465 17408 13146 17097 18617 12631 10722 16388 11663 19164 11243 14251 13721 11978 17354 13872 15186 10048 11239 10671 12932 13849 10106 14042 17944 11494 15769 11854 19707 16021 16694 19257 11048 18549 13422 16363 11197 17799 10103 17623 12753 11191 12591 11086 11763 11426 13518 12672 14880 12068 16888 16895 10219 10714 17545 17858 14918 12256 13945 12536 17531 11746 14930 19652 999999 999999 999999 999999 999999 999999 999999 999999 999999 999999 999999 999999 999999 999999 999999 999999 999999 999999 999999 999999 999999 999999 999999 999999 999999 999999 999999 999999 999999 999999 999999 999999 999999 999999 999999 999999 999999 999999 999999 999999 999999 999999 999999 999999 999999 999999 999999 999999 999999 999999 999999 999999 999999 999999 999999 999999 999999 999999 999999 999999 999999 999999 999999 0 999999 999999 999999 999999 999999 999999 999999 999999 999999 999999 999999 999999 999999 999999 999999 999999 999999 999999 999999 999999 999999 999999 999999 999999 999999 999999 999999 999999 999999 999999 999999 999999 999999 999999 999999 999999 12821
999999 13030 12095 15541 11316 19065 19538 13277 11155 11108 16989 11356 16545 19531 19306 15283 12464 11710 13032 15595 16869 11779 16661 19880 14799 15671 19027 17844 10002 15094 16577 15246 13140 18289 18334 17435 15512 10289 16412 15866 17875 12591 17469 10400 10611 13437 13397 12370 12044 18108 12858 10728 12958 15106 14849 13405 13273 19247 14449 19211 13827 15123 10456 14496 17411 18042 16280 11151 17046 17734 16289 14383 11490 15325 14447 17749 11994 12153 19462 15340 16774 11356 15420 10317 15925 10028 12141 18706 11654 10792 13846 16684 17833 17841 12126 16854 11758 10766 16650 17839 10983 999999 999999 999999 999999 999999 999999 999999 999999 999999 999999 999999 999999 999999 999999 999999 999999 999999 999999 999999 999999 999999 999999 999999 999999 999999 999999 999999 999999 999999 999999 999999 999999 999999 999999 999999 999999 999999 999999 999999 999999 999999 999999 999999 999999 999999 999999 999999 999999 999999 999999 999999 999999 999999 999999 999999 999999 999999 999999 999999 999999 999999 999999 999999 999999 0 999999 999999 999999 999999 999999 999999 999999 999999 999999 999999 999999 999999 999999 999999 999999 999999 999999 999999 999999 999999 999999 999999 999999 999999 999999 999999 999999 999999 999999 999999 999999 999999 999999 999999 999999 7741
999999 16250 18710 18168 19227 18191 17836 11252 11464 13324 11447 11498 15874 15881 15673 12899 11096 15608 19826 16023 14403 10665 11147 17369 10050 10213 12943 17601 19259 15754 18099 13469 11805 13827 13123 14907 13202 15277 13188 12969 13221 19594 18261 14796 12588 13164 18331 17282 12730 16874 14713 15321 17648 15904 17051 14063 10195 12290 16059 12244 17113 10472 14322 16351 10873 11576 13249 12126 18869 10143 14319 16868 14768 12761 14222 13205 17427 10696 13777 15384 19510 13110 15630 13025 13283 11183 13275 10718 17055 14817 13795 15659 18705 17420 13334 13794 18577 18133 18634 10617 16255 999999 999999 999999 999999 999999 999999 999999 999999 999999 999999 999999 999999 999999 999999 999999 999999 999999 999999 999999 999999 999999 999999 999999 999999 999999 999999 999999 999999 999999 999999 999999 999999 999999 999999 999999 999999 999999 999999 999999 999999 999999 999999 999999 999999 999999 999999 999999 999999 999999 999999 999999 999999 999999 999999 999999 999999 999999 999999 999999 999999 999999 999999 999999 999999 999999 0 999999 999999 999999 999999 999999 999999 999999 999999 999999 999999 999999 999999 999999 999999 999999 999999 999999 999999 999999 999999 999999 999999 999999 999999 999999 999999 999999 999999 999999 999999 999999 999999 999999 999999 8150
999999 17400 13514 13346 13834 10638 13433 12059 15681 18087 19608 12210 18240 13104 10766 12853 11545 10459 15547 11215 13794 16060 14191 16878 13329 13698 19748 19821 17695 11987 17345 16155 18247 17273 16699 11778 19609 18143 11572 14421 11156 18148 18372 13233 11014 12825 10835 15415 12137 10242 10555 14409 18372 13629 12847 17873 18273 10097 15502 14974 17773 13326 17980 17912 12251 19854 10454 15328 17171 10645 10962 10085 13745 15767 16300 13028 10794 18904 12949 10203 19336 13687 14229 18289 17970 14946 19274 11793 19400 17417 13959 12244 17394 11249 16719 13620 17803 19034 14957 12394 18028 999999 999999 999999 999999 999999 999999 999999 999999 999999 999999 999999 999999 999999 999999 999999 999999 999999 999999 999999 999999 999999 999999 999999 999999 999999 999999 999999 999999 999999 999999 999999 999999 999999 999999 999999 999999 999999 999999 999999 999999 999999 999999 999999 999999 999999 999999 999999 999999 999999 999999 999999 999999 999999 999999 999999 999999 999999 999999 999999 999999 999999 999999 999999 999999 999999 999999 0 999999 999999 999999 999999 999999 999999 999999 999999 999999 999999 999999 999999 999999 999999 999999 999999 999999 999999 999999 999999 999999 999999 999999 999999 999999 999999 999999 999999 999999 999999 999999 999999 999999 13389
999999 11054 16621 13513 16826 11171 11152 16744 19310 12966 16173 18407 14526 17641 10421 12856 16459 19688 12138 16120 17718 17060 17318 11598 18638 14343 18640 17126 14183 16138 13701 13778 10549 11702 19966 13809 19521 11227 10054 16692 18841 11660 11869 16033 14155 17020 18616 16522 18452 16271 13057 19066 19943 17051 12891 13686 16264 15788 10825 16007 19150 10835 17413 13408 17152 13425 17678 10563 18664 13997 17500 16599 12255 11733 11508 16062 12848 11145 18941 19729 13923 19856 19840 12846 18384 15902 18800 14524 18330 13354 19950 11578 18905 13552 14836 12305 18477 19167 15343 14751 11486 999999 999999 999999 999999 999999 999999 999999 999999 999999 999999 999999 999999 999999 999999 999999 999999 999999 999999 999999 999999 999999 999999 999999 999999 999999 999999 999999 999999 999999 999999 999999 999999 999999 999999 999999 999999 999999 999999 999999 999999 999999 999999 999999 999999 999999 999999 999999 999999 999999 999999 999999 999999 999999 999999 999999 999999 999999 999999 999999 999999 999999 999999 999999 999999 999999 999999 999999 0 999999 999999 999999 999999 999999 999999 999999 999999 999999 999999 999999 999999 999999 999999 999999 999999 999999 999999 999999 999999 999999 999999 999999 999999 999999 999999 999999 999999 999999 999999 999999 999999 11795
999999 11486 12352 12675 19631 13301 13250 18460 19620 19287 15007 17910 16032 11573 17525 13891 16285 17808 10677 11140 18977 17605 16626 13189 15516 17581 12208 18328 10788 12776 18237 12483 18377 17739 14274 10954 18707 11174 19221 10026 15926 13771 13385 15101 19849 17768 16572 19659 10902 12702 11218 12192 16439 12901 12299 15645 12351 10563 19790 13069 15443 15898 18180 13069 13280 10576 15294 10298 10293 16421 14968 18674 18561 13612 16321 11444 15655 14502 18689 10469 10278 17691 12060 19933 19505 13278 11583 13215 19779 13006 11727 18274 14893 18635 14716 18138 19702 13285 12338 13303 14961 999999 999999 999999 999999 999999 999999 999999 999999 999999 999999 999999 999999 999999 999999 999999 999999 999999 999999 999999 999999 999999 999999 999999 999999 999999 999999 999999 999999 999999 999999 999999 999999 999999 999999 999999 999999 999999 999999 999999 999999 999999 999999 999999 999999 999999 999999 999999 999999 999999 999999 999999 999999 999999 999999 999999 999999 999999 999999 999999 999999 999999 999999 999999 999999 999999 999999 999999 999999 0 999999 999999 999999 999999 999999 999999 999999 999999 999999 999999 999999 999999 999999 999999 999999 999999 999999 999999 999999 999999 999999 999999 999999 999999 999999 999999 999999 999999 999999 999999 999999 8102
999999 15810 18192 19163 18799 15292 14561 13727 18598 16600 12755 14364 14637 15985 12698 12341 10760 11732 10216 12087 13700 19754 16032 10737 13426 13334 16717 12653 12638 19311 17966 15647 17041 18531 11120 15618 18019 18681 15650 17728 17566 18321 17943 18822 16705 17513 13834 15123 11848 18420 12213 10222 11952 13521 13383 14338 18308 16050 11708 10406 12168 11026 12818 15300 11265 17465 17265 18265 10982 13426 17579 18661 11710 19123 12526 11230 13905 15300 15433 18092 19130 11349 11732 18622 11102 18534 19492 15821 18954 18623 15822 16708 16105 13145 19416 18090 16288 14071 16451 15336 11346 999999 999999 999999 999999 999999 999999 999999 999999 999999 999999 999999 999999 999999 999999 999999 999999 999999 999999 999999 999999 999999 999999 999999 999999 999999 999999 999999 999999 999999 999999 999999 999999 999999 999999 999999 999999 999999 999999 999999 999999 999999 999999 999999 999999 999999 999999 999999 999999 999999 999999 999999 999999 999999 999999 999999 999999 999999 999999 999999 999999 999999 999999 999999 999999 999999 999999 999999 999999 999999 0 999999 999999 999999 999999 999999 999999 999999 999999 999999 999999 999999 999999 999999 999999 999999 999999 999999 999999 999999 999999 999999 999999 999999 999999 999999 999999 999999 999999 999999 999999 13281
999999 15993 15703 16171 19395 18338 10154 10669 12116 17567 13637 10953 12181 17995 18077 13721 12849 12252 12401 14786 18713 18001 10462 14020 14901 10441 11193 14515 16774 11592 15785 17345 13821 11194 16883 12249 18345 18540 15411 10165 17809 10746 15435 10424 14345 16197 12039 13438 16107 18452 14000 14588 19509 16274 16169 15423 17420 10832 16732 11002 17946 10253 13847 18502 12667 10331 16717 19322 13083 16495 17331 11216 12335 13773 14602 17013 15152 16574 17142 12081 10987 10656 11575 11081 11995 16500 17430 14928 19368 17370 12513 17393 17395 19402 11591 16327 10260 12948 15563 11492 16230 999999 999999 999999 999999 999999 999999 999999 999999 999999 999999 999999 999999 999999 999999 999999 999999 999999 999999 999999 999999 999999 999999 999999 999999 999999 999999 999999 999999 999999 999999 999999 999999 999999 999999 999999 999999 999999 999999 999999 999999 999999 999999 999999 999999 999999 999999 999999 999999 999999 999999 999999 999999 999999 999999 999999 999999 999999 999999 999999 999999 999999 999999 999999 999999 999999 999999 999999 999999 999999 999999 0 999999 999999 999999 999999 999999 999999 999999 999999 999999 999999 999999 999999 999999 999999 999999 999999 999999 999999 999999 999999 999999 999999 999999 999999 999999 999999 999999 999999 999999 10366
999999 19522 10785 18840 11988 10778 12112 18062 14996 18056 15228 15265 18188 19283 16814 13474 10152 13695 12891 15069 18173 14928 18427 12659 15139 10539 15807 19791 18612 17023 16559 11186 12009 16555 17518 13226 12889 18993 18370 18050 10713 11543 13126 14204 17136 11149 10156 13714 13692 13039 16340 15823 18459 14199 15855 10863 15137 17843 15884 14807 18432 19502 15182 19117 19015 17412 12044 11895 13663 18484 16825 10884 17625 13803 19861 13019 11290 12803 13584 15980 16422 14300 15726 14973 13175 13200 12907 19463 10572 13773 18302 14413 17623 15642 17410 12677 19443 14522 18310 11482 10493 999999 999999 999999 999999 999999 999999 999999 999999 999999 999999 999999 999999 999999 999999 999999 999999 999999 999999 999999 999999 999999 999999 999999 999999 999999 999999 999999 999999 999999 999999 999999 999999 999999 999999 999999 999999 999999 999999 999999 999999 999999 999999 999999 999999 999999 999999 999999 999999 999999 999999 999999 999999 999999 999999 999999 999999 999999 999999 999999 999999 999999 999999 999999 999999 999999 999999 999999 999999 999999 999999 999999 0 999999 999999 999999 999999 999999 999999 999999 999999 999999 999999 999999 999999 999999 999999 999999 999999 999999 999999 999999 999999 999999 999999 999999 999999 999999 999999 999999 999999 9505
999999 11443 12153 11547 16085 12687 13744 18086 14284 13174 14273 14948 10087 10796 10116 12470 16033 14652 15086 18187 11556 18509 11076 19691 12297 17314 11842 14053 14081 13921 15699 10154 17496 16204 16545 16912 14535 17069 15980 14935 16952 11478 18848 10679 15413 14110 10231 11111 10305 15420 12614 10018 10028 15726 11762 18623 14504 18107 10015 11990 12131 16128 13911 19534 19559 18048 19364 19526 16573 14563 12372 10983 10105 10572 13243 11297 17086 16105 11526 15248 18743 14277 19794 18824 15664 18767 10544 17267 13437 14784 14452 12093 12559 12574 14018 18445 12818 10751 10358 11989 10793 999999 999999 999999 999999 999999 999999 999999 999999 999999 999999 999999 999999 999999 999999 999999 999999 999999 999999 999999 999999 999999 999999 999999 999999 999999 999999 999999 999999 999999 999999 999999 999999 999999 999999 999999 999999 999999 999999 999999 999999 999999 999999 999999 999999 999999 999999 999999 999999 999999 999999 999999 999999 999999 999999 999999 999999 999999 999999 999999 999999 999999 999999 999999 999999 999999 999999 999999 999999 999999 999999 999999 999999 0 999999 999999 999999 999999 999999 999999 999999 999999 999999 999999 999999 999999 999999 999999 999999 999999 999999 999999 999999 999999 999999 999999 999999 999999 999999 999999 999999 9274
999999 19482 15613 12118 19912 11914 13532 17719 14287 15535 10719 18930 17891 16968 12304 18726 14670 17660 13748 17870 11650 19027 19578 12002 17062 12970 14767 17151 11976 13530 11410 13507 13699 18320 12861 18936 10772 18301 10495 19025 16447 16369 19833 17372 10314 19037 18769 14793 17335 11758 17138 10524 19301 11978 17989 16211 16444 19385 18426 11754 15286 15375 14190 12172 15449 13540 16968 13529 15898 16218 19917 16080 14373 15808 10037 10173 13660 16959 15158 15530 19070 19794 14831 14465 13664 16934 19606 12489 15242 17359 14033 11587 18254 13005 16965 12914 10046 16850 17134 13160 13120 999999 999999 999999 999999 999999 999999 999999 999999 999999 999999 999999 999999 999999 999999 999999 999999 999999 999999 999999 999999 999999 999999 999999 999999 999999 999999 999999 999999 999999 999999 999999 999999 999999 999999 999999 999999 999999 999999 999999 999999 999999 999999 999999 999999 999999 999999 999999 999999 999999 999999 999999 999999 999999 999999 999999 999999 999999 999999 999999 999999 999999 999999 999999 999999 999999 999999 999999 999999 999999 999999 999999 999999 999999 0 999999 999999 999999 999999 999999 999999 999999 999999 999999 999999 999999 999999 999999 999999 999999 999999 999999 999999 999999 999999 999999 999999 999999 999999 999999 999999 10020
999999 11777 11201 18673 10844 17028 12418 19127 12682 10929 13812 12736 10061 12830 15194 14569 14490 16426 18935 19430 10954 16455 17876 11385 11900 12697 12736 11259 13179 16476 10413 13422 12241 19891 19279 19049 15963 18913 16827 18130 17774 17320 13211 19650 16650 12116 13414 11768 12042 12783 19201 13823 18437 19914 17114 10297 14146 18638 16242 13409 13105 19772 15154 18953 19174 15387 17090 12586 15946 16433 18129 10370 15022 14130 14726 16731 19567 14848 16332 10084 11777 14015 18660 11655 10509 10605 18470 10548 14916 15229 14469 16229 18832 10611 13508 18536 18357 15289 12322 13049 18262 999999 999999 999999 999999 999999 999999 999999 999999 999999 999999 999999 999999 999999 999999 999999 999999 999999 999999 999999 999999 999999 999999 999999 999999 999999 999999 999999 999999 999999 999999 999999 999999 999999 999999 999999 999999 999999 999999 999999 999999 999999 999999 999999 999999 999999 999999 999999 999999 999999 999999 999999 999999 999999 999999 999999 999999 999999 999999 999999 999999 999999 999999 999999 999999 999999 999999 999999 999999 999999 999999 999999 999999 999999 999999 0 999999 999999 999999 999999 999999 999999 999999 999999 999999 999999 999999 999999 999999 999999 999999 999999 999999 999999 999999 999999 999999 999999 999999 999999 999999 10782
999999 10194 14381 15964 17636 12979 12159 11532 16199 13155 14496 18949 12235 14565 10373 10006 12767 10308 16752 19895 14450 14795 18862 18025 13537 13118 13255 18517 12550 18399 12428 15257 11628 19643 19853 15734 17071 18387 13930 15261 17595 14158 16104 10028 18936 17397 14881 12228 13991 12394 10282 18631 16464 14589 14758 19657 10864 18925 13545 11089 11084 10253 12083 15782 18369 17328 18923 10717 16224 16597 12654 18005 17640 18978 14453 10078 19117 18236 19932 11610 16426 15434 17222 16423 19482 17188 15758 15705 15010 14780 15889 17685 11945 14824 16371 13973 17142 12449 16529 14854 19198 999999 999999 999999 999999 999999 999999 999999 999999 999999 999999 999999 999999 999999 999999 999999 999999 999999 999999 999999 999999 999999 999999 999999 999999 999999 999999 999999 999999 999999 999999 999999 999999 999999 999999 999999 999999 999999 999999 999999 999999 999999 999999 999999 999999 999999 999999 999999 999999 999999 999999 999999 999999 999999 999999 999999 999999 999999 999999 999999 999999 999999 999999 999999 999999 999999 999999 999999 999999 999999 999999 999999 999999 999999 999999 999999 0 999999 999999 999999 999999 999999 999999 999999 999999 999999 999999 999999 999999 999999 999999 999999 999999 999999 999999 999999 999999 999999 999999 999999 999999 5662
999999 15487 13906 19753 19597 14616 16741 14254 18492 11101 14327 16489 11050 13600 15862 15604 19393 16099 14576 14062 10554 13797 17936 10072 16686 14732 19456 13924 16129 15032 11482 18007 12743 15238 15861 10748 19640 17163 18814 15434 16159 14395 14471 19814 17290 13293 19361 17883 14034 11931 10909 13281 13717 11866 12147 18546 13276 10429 17793 19142 13178 10884 11532 17748 12009 11894 13894 10574 17801 16045 13593 17538 18000 16049 13558 15319 17070 16974 17791 18853 10813 10776 15465 19616 17831 19753 10925 10395 16169 18169 18325 10843 18144 13791 18525 13459 17209 14728 13190 11014 18347 999999 999999 999999 999999 999999 999999 999999 999999 999999 999999 999999 999999 999999 999999 999999 999999 999999 999999 999999 999999 999999 999999 999999 999999 999999 999999 999999 999999 999999 999999 999999 999999 999999 999999 999999 999999 999999 999999 999999 999999 999999 999999 999999 999999 999999 999999 999999 999999 999999 999999 999999 999999 999999 999999 999999 999999 999999 999999 999999 999999 999999 999999 999999 999999 999999 999999 999999 999999 999999 999999 999999 999999 999999 999999 999999 999999 0 999999 999999 999999 999999 999999 999999 999999 999999 999999 999999 999999 999999 999999 999999 999999 999999 999999 999999 999999 999999 999999 999999 999999 8878
999999 16820 17283 13887 19368 19278 14767 19552 19343 13371 14452 15555 19019 14981 13698 17892 14397 19859 18108 11599 13322 14115 11697 17157 14857 17143 11974 17976 13022 16176 19473 18763 18276 14940 19455 16610 13376 13379 17047 17293 16038 14642 10281 11855 18604 17990 14918 18564 14566 12627 15613 12073 17192 17306 10941 10221 15224 12477 10004 19720 18755 17467 11116 11795 16691 15669 10864 11453 10439 16545 18650 19050 14218 11112 10661 13769 19777 16091 19331 14675 11608 13217 13122 18467 15481 10949 11543 13963 10414 10965 11904 17287 12226 16585 17140 12066 10165 18918 10361 13631 15692 999999 999999 999999 999999 999999 999999 999999 999999 999999 999999 999999 999999 999999 999999 999999 999999 999999 999999 999999 999999 999999 999999 999999 999999 999999 999999 999999 999999 999999 999999 999999 999999 999999 999999 999999 999999 999999 999999 999999 999999 999999 999999 999999 999999 999999 999999 999999 999999 999999 999999 999999 999999 999999 999999 999999 999999 999999 999999 999999 999999 999999 999999 999999 999999 999999 999999 999999 999999 999999 999999 999999 999999 999999 999999 999999 999999 999999 0 999999 999999 999999 999999 999999 999999 999999 999999 999999 999999 999999 999999 999999 999999 999999 999999 999999 999999 999999 999999 999999 999999 14429
999999 19397 13540 16856 14831 16313 13621 19472 11914 18721 18551 16480 19891 19161 14070 11458 15572 16706 19718 13926 12939 18942 14651 10561 14716 18529 11826 10445 19356 15456 10881 14566 19572 13297 16966 16835 15735 12625 10813 13454 18514 14091 14435 14025 11153 16663 11582 15888 17639 15226 18484 16028 18475 18367 11137 17139 16187 15120 10581 15996 14325 17689 10516 12455 19315 13726 12643 18882 16946 18152 19934 17819 19662 13282 13513 16023 19089 16936 13115 13727 17984 16954 19884 16787 10505 13639 11197 17506 12017 16271 11710 19411 11912 14231 13138 13892 19043 15812 19703 14014 12773 999999 999999 999999 999999 999999 999999 999999 999999 999999 999999 999999 999999 999999 999999 999999 999999 999999 999999 999999 999999 999999 999999 999999 999999 999999 999999 999999 999999 999999 999999 999999 999999 999999 999999 999999 999999 999999 999999 999999 999999 999999 999999 999999 999999 999999 999999 999999 999999 999999 999999 999999 999999 999999 999999 999999 999999 999999 999999 999999 999999 999999 999999 999999 999999 999999 999999 999999 999999 999999 999999 999999 999999 999999 999999 999999 999999 999999 999999 0 999999 999999 999999 999999 999999 999999 999999 999999 999999 999999 999999 999999 999999 999999 999999 999999 999999 999999 999999 999999 999999 13050
999999 15875 17642 11494 14248 18233 17472 17439 12894 14380 10237 11710 11696 17930 18568 15584 10113 17444 14526 14603 16144 18619 10771 14996 12443 15555 15526 16764 16453 14048 15992 14045 17066 11360 14245 10347 10226 15955 17935 19712 13893 16301 14421 11645 13640 10194 18472 13359 11485 11537 19897 18252 16377 11908 15998 13832 14708 12165 17857 16649 11204 12741 14181 19724 15486 13636 12753 12240 19840 17196 16767 16545 13371 16307 17316 16165 13253 19828 13999 12789 14982 12119 16759 14239 16084 14521 18909 10974 10868 10170 11775 14328 12231 11406 15971 19327 18583 19436 12784 14726 16418 999999 999999 999999 999999 999999 999999 999999 999999 999999 999999 999999 999999 999999 999999 999999 999999 999999 999999 999999 999999 999999 999999 999999 999999 999999 999999 999999 999999 999999 999999 999999 999999 999999 999999 999999 999999 999999 999999 999999 999999 999999 999999 999999 999999 999999 999999 999999 999999 999999 999999 999999 999999 999999 999999 999999 999999 999999 999999 999999 999999 999999 999999 999999 999999 999999 999999 999999 999999 999999 999999 999999 999999 999999 999999 999999 999999 999999 999999 999999 0 999999 999999 999999 999999 999999 999999 999999 999999 999999 999999 999999 999999 999999 999999 999999 999999 999999 999999 999999 999999 8393
999999 18267 15173 14374 13941 17271 15671 15960 12041 16544 17257 10483 18031 19793 14587 15542 15741 14812 14939 17727 14569 18213 12965 17418 18478 14579 13620 14359 19164 11902 19246 15389 16166 13375 15422 15210 12667 13819 18100 19319 13146 19226 12445 10155 16538 14158 12192 10745 17103 15730 13039 14462 17531 18884 14322 15241 19176 16818 14786 12562 19569 11934 12955 19919 17804 10116 10287 17349 14411 18788 18694 13563 16391 14540 15904 19105 15839 14408 19110 19100 11484 12522 10269 16741 15147 17062 15035 14309 15825 12582 12282 11206 12420 19796 13322 13969 11180 13564 12698 12932 12331 999999 999999 999999 999999 999999 999999 999999 999999 999999 999999 999999 999999 999999 999999 999999 999999 999999 999999 999999 999999 999999 999999 999999 999999 999999 999999 999999 999999 999999 999999 999999 999999 999999 999999 999999 999999 999999 999999 999999 999999 999999 999999 999999 999999 999999 999999 999999 999999 999999 999999 999999 999999 999999 999999 999999 999999 999999 999999 999999 999999 999999 999999 999999 999999 999999 999999 999999 999999 999999 999999 999999 999999 999999 999999 999999 999999 999999 999999 999999 999999 0 999999 999999 999999 999999 999999 999999 999999 999999 999999 999999 999999 999999 999999 999999 999999 999999 999999 999999 999999 12011
999999 16629 11569 13200 18064 13645 15244 10239 18472 10819 18430 11700 11844 11289 12281 14164 10103 18162 10680 18094 14654 13221 14731 17274 16492 18647 18948 11355 11296 10039 11192 11575 13009 18080 10892 11729 11400 17111 13403 16717 11931 16086 15943 18348 13635 19266 18917 17699 15992 17567 18629 17527 15310 11759 10638 14570 13435 17351 10438 16599 12152 14357 18477 19244 18789 18062 17936 14507 15281 15624 16041 19096 19985 16704 14193 16105 12947 14544 17679 15401 18829 15845 11658 10483 12244 12563 14770 14691 11653 13445 15488 14909 15560 10531 12216 12418 11024 10008 15833 10805 10176 999999 999999 999999 999999 999999 999999 999999 999999 999999 999999 999999 999999 999999 999999 999999 999999 999999 999999 999999 999999 999999 999999 999999 999999 999999 999999 999999 999999 999999 999999 999999 999999 999999 999999 999999 999999 999999 999999 999999 999999 999999 999999 999999 999999 999999 999999 999999 999999 999999 999999 999999 999999 999999 999999 999999 999999 999999 999999 999999 999999 999999 999999 999999 999999 999999 999999 999999 999999 999999 999999 999999 999999 999999 999999 999999 999999 999999 999999 999999 999999 999999 0 999999 999999 999999 999999 999999 999999 999999 999999 999999 999999 999999 999999 999999 999999 999999 999999 999999 999999 9026
999999 13812 16447 18719 13998 11728 15997 13492 10558 11279 14268 15458 15354 18318 19059 11330 13465 16844 13385 14684 11048 11696 16414 13368 11110 12859 11417 17227 19511 18170 15660 13794 13098 12226 11383 13755 13126 15981 10466 10004 14766 12016 16885 19191 12240 19027 18672 17007 14019 17356 18449 19454 18565 10714 10824 14582 13339 16111 12363 16048 17454 10865 11441 13103 12625 19044 12677 13876 13297 17708 12469 13915 11355 10700 14332 15159 17728 13285 16442 14212 13355 18921 13074 14474 11509 16966 16423 15012 18932 19635 11666 12775 10373 13623 13474 15002 16540 16686 14780 16609 13683 999999 999999 999999 999999 999999 999999 999999 999999 999999 999999 999999 999999 999999 999999 999999 999999 999999 999999 999999 999999 999999 999999 999999 999999 999999 999999 999999 999999 999999 999999 999999 999999 999999 999999 999999 999999 999999 999999 999999 999999 999999 999999 999999 999999 999999 999999 999999 999999 999999 999999 999999 999999 999999 999999 999999 999999 999999 999999 999999 999999 999999 999999 999999 999999 999999 999999 999999 999999 999999 999999 999999 999999 999999 999999 999999 999999 999999 999999 999999 999999 999999 999999 0 999999 999999 999999 999999 999999 999999 999999 999999 999999 999999 999999 999999 999999 999999 999999 999999 999999 8544
999999 11749 10097 11165 13849 17679 18529 16600 19376 12717 13463 18866 17686 14727 19233 10662 16496 10450 10767 10486 16918 19235 19839 13370 12084 11973 12716 13636 18432 17658 13769 14465 10476 17355 19183 11030 13828 17584 16791 10076 17741 15256 13756 18773 13340 11304 18818 19425 17358 12550 19817 12475 16152 11474 16073 10908 14723 12977 17771 10067 15978 19341 18092 10909 14696 18482 18598 10210 17836 12580 13283 14563 19263 11753 16336 17446 11897 20000 19642 12029 13550 13309 10687 10393 12404 15308 18311 19749 17832 17417 14388 16163 11821 15282 13864 19758 15875 17066 19271 14633 19729 999999 999999 999999 999999 999999 999999 999999 999999 999999 999999 999999 999999 999999 999999 999999 999999 999999 999999 999999 999999 999999 999999 999999 999999 999999 999999 999999 999999 999999 999999 999999 999999 999999 999999 999999 999999 999999 999999 999999 999999 999999 999999 999999 999999 999999 999999 999999 999999 999999 999999 999999 999999 999999 999999 999999 999999 999999 999999 999999 999999 999999 999999 999999 999999 999999 999999 999999 999999 999999 999999 999999 999999 999999 999999 999999 999999 999999 999999 999999 999999 999999 999999 999999 0 999999 999999 999999 999999 999999 999999 999999 999999 999999 999999 999999 999999 999999 999999 999999 999999 10387
999999 10789 16248 18987 12207 16732 15635 11276 18235 16940 10356 14672 11568 17165 18239 11570 19249 14752 14678 16868 13609 10777 17409 16305 15837 10526 11451 15013 12757 18135 17490 14784 18231 11817 15058 16680 13381 19407 10345 17827 14298 16478 15340 18911 13271 13642 18897 16668 13101 11728 19559 12472 16452 17434 17752 10222 19647 18451 15292 19274 16313 10761 18678 17899 18123 19068 17874 10581 17595 18119 12346 11748 11358 16783 10629 16305 13101 17200 17718 16622 14633 15908 18806 16109 18741 15495 15517 18804 19146 19636 17306 18173 18691 19042 19783 11562 14805 18714 17967 16774 16689 999999 999999 999999 999999 999999 999999 999999 999999 999999 999999 999999 999999 999999 999999 999999 999999 999999 999999 999999 999999 999999 999999 999999 999999 999999 999999 999999 999999 999999 999999 999999 999999 999999 999999 999999 999999 999999 999999 999999 999999 999999 999999 999999 999999 999999 999999 999999 999999 999999 999999 999999 999999 999999 999999 999999 999999 999999 999999 999999 999999 999999 999999 999999 999999 999999 999999 999999 999999 999999 999999 999999 999999 999999 999999 999999 999999 999999 999999 999999 999999 999999 999999 999999 999999 0 999999 999999 999999 999999 999999 999999 999999 999999 999999 999999 999999 999999 999999 999999 999999 12637
999999 18796 18482 15277 10740 16819 13280 11798 17457 14604 13783 12789 18447 12360 15669 14310 15738 15441 16942 16424 11614 11864 12285 19068 14290 18678 10387 13528 11095 16618 15337 17090 17481 16561 16061 11845 17471 13274 15621 19804 17563 14287 12766 12072 10119 12316 14930 13049 11270 11740 12748 11704 11227 11514 13380 19124 16500 12591 12812 13858 17556 14028 14347 16603 12047 19065 12440 15187 17802 11697 12673 19609 12730 14644 15575 11683 11886 10404 19088 13866 13547 18892 10731 14711 18975 11095 13280 14320 11502 12149 19543 19365 17565 13366 14328 10166 13528 12538 10902 13199 14335 999999 999999 999999 999999 999999 999999 999999 999999 999999 999999 999999 999999 999999 999999 999999 999999 999999 999999 999999 999999 999999 999999 999999 999999 999999 999999 999999 999999 999999 999999 999999 999999 999999 999999 999999 999999 999999 999999 999999 999999 999999 999999 999999 999999 999999 999999 999999 999999 999999 999999 999999 999999 999999 999999 999999 999999 999999 999999 999999 999999 999999 999999 999999 999999 999999 999999 999999 999999 999999 999999 999999 999999 999999 999999 999999 999999 999999 999999 999999 999999 999999 999999 999999 999999 999999 0 999999 999999 999999 999999 999999 999999 999999 999999 999999 999999 999999 999999 999999 999999 7567
999999 15310 13944 14636 10339 15042 13307 16106 13721 13404 15372 10299 14357 15202 16839 14798 16377 19203 18457 10999 11725 10763 13312 14661 14582 14788 12943 16195 12911 16398 12410 18075 11746 19442 15173 16977 16302 11060 10598 15752 12005 19480 14927 13556 17426 16855 17277 11027 18680 12713 15256 15900 16812 13181 10014 10291 18215 18961 16069 15436 19455 17879 13290 18171 17927 11295 14870 12177 13757 11200 11889 18841 15816 17976 17645 19116 11234 19148 10716 10479 19978 18831 19492 12987 14512 11789 11968 12893 11167 13317 15895 13982 15686 10564 14087 18901 18523 18595 17793 11557 10273 999999 999999 999999 999999 999999 999999 999999 999999 999999 999999 999999 999999 999999 999999 999999 999999 999999 999999 999999 999999 999999 999999 999999 999999 999999 999999 999999 999999 999999 999999 999999 999999 999999 999999 999999 999999 999999 999999 999999 999999 999999 999999 999999 999999 999999 999999 999999 999999 999999 999999 999999 999999 999999 999999 999999 999999 999999 999999 999999 999999 999999 999999 999999 999999 999999 999999 999999 999999 999999 999999 999999 999999 999999 999999 999999 999999 999999 999999 999999 999999 999999 999999 999999 999999 999999 999999 0 999999 999999 999999 999999 999999 999999 999999 999999 999999 999999 999999 999999 999999 11957
999999 17631 12793 18980 14346 12713 12045 17293 13893 13921 16609 17004 11474 17716 12339 13129 15364 11559 10672 12240 15522 14741 10813 18549 11582 13016 14871 11280 18524 12366 16084 14337 12774 13282 11896 16501 10700 16757 17814 19030 19135 19978 10080 11507 19976 14160 11748 17684 14070 13752 12365 14240 12364 15712 10917 17897 17572 13703 14995 16016 13034 18580 11917 18453 16047 16653 15383 11231 11885 17933 11575 18685 11190 15955 17481 15755 13727 12364 10731 16876 18149 19261 13327 13247 12841 14771 13512 11060 16817 12701 18487 12561 18521 12830 12850 11387 15943 15176 13985 13155 16367 999999 999999 999999 999999 999999 999999 999999 999999 999999 999999 999999 999999 999999 999999 999999 999999 999999 999999 999999 999999 999999 999999 999999 999999 999999 999999 999999 999999 999999 999999 999999 999999 999999 999999 999999 999999 999999 999999 999999 999999 999999 999999 999999 999999 999999 999999 999999 999999 999999 999999 999999 999999 999999 999999 999999 999999 999999 999999 999999 999999 999999 999999 999999 999999 999999 999999 999999 999999 999999 999999 999999 999999 999999 999999 999999 999999 999999 999999 999999 999999 999999 999999 999999 999999 999999 999999 999999 0 999999 999999 999999 999999 999999 999999 999999 999999 999999 999999 999999 999999 7697
999999 10550 14008 13313 11751 19275 13430 10645 18039 18188 11071 18853 10114 17591 12266 11800 12438 14749 10862 11867 12506 12626 13361 10186 12712 16823 14341 11640 13368 16797 13357 12398 14090 13929 16335 15392 12473 18694 16247 11640 14346 11204 14748 17977 18437 14016 11076 15846 11101 19318 19380 15944 10244 10588 14297 11771 18471 13792 16955 11125 10803 10654 11038 17201 10600 15361 18994 10540 14452 17213 10207 13987 14329 18440 15964 16698 11797 16603 17571 11573 12667 11645 17758 18374 16686 17007 12736 18402 18486 19791 17020 14689 13653 12296 14260 13196 14024 18786 19811 17309 17722 999999 999999 999999 999999 999999 999999 999999 999999 999999 999999 999999 999999 999999 999999 999999 999999 999999 999999 999999 999999 999999 999999 999999 999999 999999 999999 999999 999999 999999 999999 999999 999999 999999 999999 999999 999999 999999 999999 999999 999999 999999 999999 999999 999999 999999 999999 999999 999999 999999 999999 999999 999999 999999 999999 999999 999999 999999 999999 999999 999999 999999 999999 999999 999999 999999 999999 999999 999999 999999 999999 999999 999999 999999 999999 999999 999999 999999 999999 999999 999999 999999 999999 999999 999999 999999 999999 999999 999999 0 999999 999999 999999 999999 999999 999999 999999 999999 999999 999999 999999 14604
999999 19722 18886 14817 15383 11656 12210 15345 13239 10427 19513 17670 12048 10420 10710 11366 14112 11391 11665 18794 12181 14523 19963 13119 10372 16263 16361 17918 19631 11792 14602 18580 12439 11704 14755 18214 14237 18417 14915 17010 13607 18142 14719 11585 19092 11049 14204 10728 19556 18805 16967 17869 13431 16766 19480 17861 19360 10340 16818 10210 19393 11896 15974 17565 18205 11345 17749 11346 11345 12498 10913 19144 15582 15689 10762 16270 11678 18667 18879 15577 10753 10266 13102 14851 19563 13962 12550 19205 13735 14944 18863 12796 16220 14927 12587 18648 12496 18235 15597 10597 19571 999999 999999 999999 999999 999999 999999 999999 999999 999999 999999 999999 999999 999999 999999 999999 999999 999999 999999 999999 999999 999999 999999 999999 999999 999999 999999 999999 999999 999999 999999 999999 999999 999999 999999 999999 999999 999999 999999 999999 999999 999999 999999 999999 999999 999999 999999 999999 999999 999999 999999 999999 999999 999999 999999 999999 999999 999999 999999 999999 999999 999999 999999 999999 999999 999999 999999 999999 999999 999999 999999 999999 999999 999999 999999 999999 999999 999999 999999 999999 999999 999999 999999 999999 999999 999999 999999 999999 999999 999999 0 999999 999999 999999 999999 999999 999999 999999 999999 999999 999999 7038
999999 16765 17996 12458 19262 15726 19595 16090 19913 11939 17031 16281 16470 19856 10323 14693 18152 17396 11124 13844 10778 16115 18847 10871 13504 17797 13531 10899 14804 19857 19722 13296 16828 10523 17007 17823 18604 18674 13569 18421 12799 14299 15554 16598 19723 16574 18153 19986 14065 15708 10149 19513 15799 18819 14080 19082 10709 19551 14652 13815 18912 13365 19818 15849 13028 11785 11311 12566 18713 16578 10279 13084 11244 17640 14831 13705 15705 17934 11353 11441 14839 12612 16744 17332 14453 14679 17781 18644 16225 19257 14527 13503 10146 13720 11578 13271 16476 13337 16056 19878 16981 999999 999999 999999 999999 999999 999999 999999 999999 999999 999999 999999 999999 999999 999999 999999 999999 999999 999999 999999 999999 999999 999999 999999 999999 999999 999999 999999 999999 999999 999999 999999 999999 999999 999999 999999 999999 999999 999999 999999 999999 999999 999999 999999 999999 999999 999999 999999 999999 999999 999999 999999 999999 999999 999999 999999 999999 999999 999999 999999 999999 999999 999999 999999 999999 999999 999999 999999 999999 999999 999999 999999 999999 999999 999999 999999 999999 999999 999999 999999 999999 999999 999999 999999 999999 999999 999999 999999 999999 999999 999999 0 999999 999999 999999 999999 999999 999999 999999 999999 999999 12567
999999 13451 10700 17371 12106 16549 14506 13250 15041 16164 19358 10937 19356 18561 14079 19855 12905 13029 14366 10101 12546 18938 10290 14098 19733 18843 13687 19548 18308 13613 18071 16855 19071 11073 13224 17076 18103 11767 17453 10577 12557 19852 15690 16898 11609 19723 19316 10062 15879 19716 13642 16921 18990 12494 14054 12470 16783 19520 15106 12089 13290 11858 18030 13403 18627 17011 14313 18365 16191 15637 15363 12790 10507 18978 19181 18977 18494 14508 18211 16435 10999 12660 17256 12721 10635 14622 14161 16231 13755 18245 16027 16967 12815 17491 16831 14970 10120 14626 13889 14248 16166 999999 999999 999999 999999 999999 999999 999999 999999 999999 999999 999999 999999 999999 999999 999999 999999 999999 999999 999999 999999 999999 999999 999999 999999 999999 999999 999999 999999 999999 999999 999999 999999 999999 999999 999999 999999 999999 999999 999999 999999 999999 999999 999999 999999 999999 999999 999999 999999 999999 999999 999999 999999 999999 999999 999999 999999 999999 999999 999999 999999 999999 999999 999999 999999 999999 999999 999999 999999 999999 999999 999999 999999 999999 999999 999999 999999 999999 999999 999999 999999 999999 999999 999999 999999 999999 999999 999999 999999 999999 999999 999999 0 999999 999999 999999 999999 999999 999999 999999 999999 6055
999999 16407 13051 12247 16034 15604 12053 17766 12012 19644 18823 19179 12036 15585 17624 16227 12077 15277 18428 19043 11380 11915 10656 10064 12108 17905 14115 13271 12939 15487 16938 19147 11723 17295 13614 18414 14166 17118 11253 18259 10092 14863 18436 17325 16555 10988 14877 11375 17802 11145 19698 14134 14780 17573 14819 12649 19177 17388 10788 15414 10155 15104 12875 15613 14141 10898 16845 19832 17439 14831 18535 12304 14269 18147 15557 14182 19117 11307 18282 14821 11041 14974 16970 19448 14500 14223 16439 14339 19570 17611 17254 18221 18403 10953 18374 15786 18469 14402 15800 19097 17281 999999 999999 999999 999999 999999 999999 999999 999999 999999 999999 999999 999999 999999 999999 999999 999999 999999 999999 999999 999999 999999 999999 999999 999999 999999 999999 999999 999999 999999 999999 999999 999999 999999 999999 999999 999999 999999 999999 999999 999999 999999 999999 999999 999999 999999 999999 999999 999999 999999 999999 999999 999999 999999 999999 999999 999999 999999 999999 999999 999999 999999 999999 999999 999999 999999 999999 999999 999999 999999 999999 999999 999999 999999 999999 999999 999999 999999 999999 999999 999999 999999 999999 999999 999999 999999 999999 999999 999999 999999 999999 999999 999999 0 999999 999999 999999 999999 999999 999999 999999 13715
999999 17401 17660 18542 10792 11665 17140 13825 14337 13813 10807 16145 17347 10531 18677 17439 11384 19976 15108 19354 11140 14749 10706 11174 14962 18708 15419 16575 13438 19418 18973 10790 12175 11287 11246 12728 17437 18742 17425 15218 15292 11705 19761 16639 14196 14647 18513 16356 19903 16570 18718 16591 12543 10822 16557 19884 18589 11955 16503 10768 12146 11403 12639 14801 16625 14224 19923 14221 13537 13657 15178 10562 11947 10334 17535 14910 14647 13461 13452 14302 13592 11383 10354 19275 17047 11393 13043 19125 14307 15167 10611 15016 14507 14036 13958 18836 13458 19439 14047 15809 19504 999999 999999 999999 999999 999999 999999 999999 999999 999999 999999 999999 999999 999999 999999 999999 999999 999999 999999 999999 999999 999999 999999 999999 999999 999999 999999 999999 999999 999999 999999 999999 999999 999999 999999 999999 999999 999999 999999 999999 999999 999999 999999 999999 999999 999999 999999 999999 999999 999999 999999 999999 999999 999999 999999 999999 999999 999999 999999 999999 999999 999999 999999 999999 999999 999999 999999 999999 999999 999999 999999 999999 999999 999999 999999 999999 999999 999999 999999 999999 999999 999999 999999 999999 999999 999999 999999 999999 999999 999999 999999 999999 999999 999999 0 999999 999999 999999 999999 999999 999999 7411
999999 18172 13640 12837 11068 18944 12360 15438 15235 11152 13976 11343 17629 19681 18272 19515 15014 11499 12780 13340 15645 10208 17331 12305 18137 18901 12227 13797 10474 19438 10535 17682 11226 11324 18149 14905 17557 19445 18596 10753 12055 16881 12520 18001 10832 13886 10762 17509 11180 16386 10059 17477 12695 15972 18591 19529 15612 18026 19031 18060 13623 12996 13476 16981 12655 18765 19926 13805 17543 19277 10243 17335 16977 18050 13938 10239 12234 12337 18214 15565 10615 14247 15507 19965 11560 18277 11488 10701 16919 19858 16626 18323 18504 13905 13805 13523 13406 12039 13443 13635 18674 999999 999999 999999 999999 999999 999999 999999 999999 999999 999999 999999 999999 999999 999999 999999 999999 999999 999999 999999 999999 999999 999999 999999 999999 999999 999999 999999 999999 999999 999999 999999 999999 999999 999999 999999 999999 999999 999999 999999 999999 999999 999999 999999 999999 999999 999999 999999 999999 999999 999999 999999 999999 999999 999999 999999 999999 999999 999999 999999 999999 999999 999999 999999 999999 999999 999999 999999 999999 999999 999999 999999 999999 999999 999999 999999 999999 999999 999999 999999 999999 999999 999999 999999 999999 999999 999999 999999 999999 999999 999999 999999 999999 999999 999999 0 999999 999999 999999 999999 999999 6341
999999 18401 11578 19495 10816 19512 14069 18608 12346 19380 12230 15994 14815 18395 18656 11951 12952 17172 11046 18103 15599 11269 10074 11297 14476 11662 14770 14289 17356 17829 11742 16731 10409 18640 14255 17718 10436 12306 13695 16045 15282 11317 13032 19329 14799 15825 17055 17565 19891 15373 10824 17737 15520 14932 15198 12024 17889 15018 18324 15559 18078 12563 16923 12871 10394 12641 18726 11499 15018 10957 13075 13662 14983 17625 17664 18010 16329 11762 16820 18718 19775 14759 11022 10953 16886 10053 16046 18713 13960 16865 14436 11330 16104 18206 14648 12753 14300 11579 12913 13770 13878 999999 999999 999999 999999 999999 999999 999999 999999 999999 999999 999999 999999 999999 999999 999999 999999 999999 999999 999999 999999 999999 999999 999999 999999 999999 999999 999999 999999 999999 999999 999999 999999 999999 999999 999999 999999 999999 999999 999999 999999 999999 999999 999999 999999 999999 999999 999999 999999 999999 999999 999999 999999 999999 999999 999999 999999 999999 999999 999999 999999 999999 999999 999999 999999 999999 999999 999999 999999 999999 999999 999999 999999 999999 999999 999999 999999 999999 999999 999999 999999 999999 999999 999999 999999 999999 999999 999999 999999 999999 999999 999999 999999 999999 999999 999999 0 999999 999999 999999 999999 13765
999999 15801 19230 15003 18971 18804 18592 14889 16947 15903 17587 16731 12235 16584 16676 14629 19931 12027 19258 14059 18680 12613 10645 16408 15566 16180 15248 13649 15243 13729 16902 19088 10661 19136 13184 19741 14922 10138 15797 17313 15111 14645 16635 13150 13714 18059 12468 16217 14498 11069 16874 19613 15214 11487 15181 17719 14910 13141 14841 12422 13677 13283 15166 16895 11448 19450 18959 12680 19941 19420 16070 18834 11131 11688 11900 16130 18655 16123 16197 19418 10238 13573 16110 10652 10331 16325 11283 17702 13333 13064 16768 19992 10837 10179 14875 18845 18501 11599 15890 13030 12387 999999 999999 999999 999999 999999 999999 999999 999999 999999 999999 999999 999999 999999 999999 999999 999999 999999 999999 999999 999999 999999 999999 999999 999999 999999 999999 999999 999999 999999 999999 999999 999999 999999 999999 999999 999999 999999 999999 999999 999999 999999 999999 999999 999999 999999 999999 999999 999999 999999 999999 999999 999999 999999 999999 999999 999999 999999 999999 999999 999999 999999 999999 999999 999999 999999 999999 999999 999999 999999 999999 999999 999999 999999 999999 999999 999999 999999 999999 999999 999999 999999 999999 999999 999999 999999 999999 999999 999999 999999 999999 999999 999999 999999 999999 999999 999999 0 999999 999999 999999 13146
999999 12376 13863 18829 13867 17730 18322 11407 10383 10333 13551 15703 16086 11143 14164 11063 19631 17404 11468 10262 12136 16924 14701 10394 14456 19607 10284 18913 19027 16988 15054 10548 15924 18033 14431 19815 19393 13170 11300 11805 12102 14122 11900 12145 19377 17747 16644 13308 10069 16834 17443 10840 10290 14644 18727 19510 18839 18751 14195 11080 15252 14130 18211 17609 16629 16928 14700 18867 17963 15798 19774 13553 14783 10661 18686 11310 12815 17081 11106 10786 11628 10825 10172 18362 18861 14167 14632 11194 12701 19255 18285 10617 19937 18539 14160 11872 16701 11449 11093 17491 11536 999999 999999 999999 999999 999999 999999 999999 999999 999999 999999 999999 999999 999999 999999 999999 999999 999999 999999 999999 999999 999999 999999 999999 999999 999999 999999 999999 999999 999999 999999 999999 999999 999999 999999 999999 999999 999999 999999 999999 999999 999999 999999 999999 999999 999999 999999 999999 999999 999999 999999 999999 999999 999999 999999 999999 999999 999999 999999 999999 999999 999999 999999 999999 999999 999999 999999 999999 999999 999999 999999 999999 999999 999999 999999 999999 999999 999999 999999 999999 999999 999999 999999 999999 999999 999999 999999 999999 999999 999999 999999 999999 999999 999999 999999 999999 999999 999999 0 999999 999999 10974
999999 17292 19136 15481 14333 16601 18247 11317 17591 15176 12758 11686 12271 19721 14761 16108 14110 16337 10702 19352 14586 13276 16381 11579 19745 10507 13387 10192 13671 12207 15280 13660 15320 14368 14321 15713 10799 12848 10118 14205 10716 16535 15665 16539 16567 14943 15342 19072 18641 14387 11468 13363 14833 19804 12812 16807 17432 14914 12369 19707 18758 15043 17724 10711 12670 14747 11806 15441 19098 11077 11198 19440 10842 18443 12114 11508 12679 10273 13823 16426 18393 17126 16129 15652 12001 10009 18444 18425 17251 15585 13570 15401 19007 17444 11286 14409 11753 13791 15503 13251 14187 999999 999999 999999 999999 999999 999999 999999 999999 999999 999999 999999 999999 999999 999999 999999 999999 999999 999999 999999 999999 999999 999999 999999 999999 999999 999999 999999 999999 999999 999999 999999 999999 999999 999999 999999 999999 999999 999999 999999 999999 999999 999999 999999 999999 999999 999999 999999 999999 999999 999999 999999 999999 999999 999999 999999 999999 999999 999999 999999 999999 999999 999999 999999 999999 999999 999999 999999 999999 999999 999999 999999 999999 999999 999999 999999 999999 999999 999999 999999 999999 999999 999999 999999 999999 999999 999999 999999 999999 999999 999999 999999 999999 999999 999999 999999 999999 999999 999999 0 999999 14139
999999 15922 17873 10259 12543 12122 19928 13526 11881 13873 11740 12972 16011 13865 12631 10220 11904 13923 19655 18719 14809 13041 10690 19874 17256 11846 15639 11840 18336 18571 19870 19716 11994 19243 18746 15301 10661 10928 15429 17094 10595 10997 11463 17783 17734 14381 13399 11296 11582 15447 14557 12511 16794 18793 19008 19785 12645 18194 14749 19368 17077 14591 19574 13348 19182 13094 13655 12174 14105 12588 17104 18439 17127 14275 19991 18222 17492 13984 10645 14222 11252 14376 13979 12937 18164 13249 19397 13070 11034 11836 10149 19491 11815 14736 12407 11690 14735 11515 11938 13598 15453 999999 999999 999999 999999 999999 999999 999999 999999 999999 999999 999999 999999 999999 999999 999999 999999 999999 999999 999999 999999 999999 999999 999999 999999 999999 999999 999999 999999 999999 999999 999999 999999 999999 999999 999999 999999 999999 999999 999999 999999 999999 999999 999999 999999 999999 999999 999999 999999 999999 999999 999999 999999 999999 999999 999999 999999 999999 999999 999999 999999 999999 999999 999999 999999 999999 999999 999999 999999 999999 999999 999999 999999 999999 999999 999999 999999 999999 999999 999999 999999 999999 999999 999999 999999 999999 999999 999999 999999 999999 999999 999999 999999 999999 999999 999999 999999 999999 999999 999999 0 10793
1 999999 999999 999999 999999 999999 999999 999999 999999 999999 999999 999999 999999 999999 999999 999999 999999 999999 999999 999999 999999 999999 999999 999999 999999 999999 999999 999999 999999 999999 999999 999999 999999 999999 999999 999999 999999 999999 999999 999999 999999 999999 999999 999999 999999 999999 999999 999999 999999 999999 999999 999999 999999 999999 999999 999999 999999 999999 999999 999999 999999 999999 999999 999999 999999 999999 999999 999999 999999 999999 999999 999999 999999 999999 999999 999999 999999 999999 999999 999999 999999 999999 999999 999999 999999 999999 999999 999999 999999 999999 999999 999999 999999 999999 999999 999999 999999 999999 999999 999999 999999 999999 999999 999999 999999 999999 999999 999999 999999 999999 999999 999999 999999 999999 999999 999999 999999 999999 999999 999999 999999 999999 999999 999999 999999 999999 999999 999999 999999 999999 999999 999999 999999 999999 999999 999999 999999 999999 999999 999999 999999 999999 999999 999999 999999 999999 999999 999999 999999 999999 999999 999999 999999 999999 999999 999999 999999 999999 999999 999999 999999 999999 999999 999999 999999 999999 999999 999999 999999 999999 999999 999999 999999 999999 999999 999999 999999 999999 999999 999999 999999 999999 999999 999999 999999 999999 999999 999999 999999 999999 999999 999999 999999 999999 999999 999999 999999 999999 999999 999999 999999 0
EOF