NAME: GR_1x2x25_KH_5x10_Run_9
TYPE: TSP
COMMENT: BTSP instance |A|=50 GR nodes |B|=50 KH nodes depot=0.0 end=0.0.0
DIMENSION: 102
EDGE_WEIGHT_TYPE: EXPLICIT
EDGE_WEIGHT_FORMAT: FULL_MATRIX
NODE_COORD_TYPE: NO_COORDS
EDGE_WEIGHT_SECTION
0 9597 7077 11468 13870 12202 6017 13124 5077 10674 13001 13555 12815 8547 5766 10000 10390 8224 8358 11583 11951 11772 8984 13967 8790 7690 14463 6500 11930 10286 13257 12174 10895 14183 14412 8826 12645 8530 14097 12179 7595 13440 12181 10171 6171 11240 13113 12251 10092 13612 13068 999999 999999 999999 999999 999999 999999 999999 999999 999999 999999 999999 999999 999999 999999 999999 999999 999999 999999 999999 999999 999999 999999 999999 999999 999999 999999 999999 999999 999999 999999 999999 999999 999999 999999 999999 999999 999999 999999 999999 999999 999999 999999 999999 999999 999999 999999 999999 999999 999999 999999 999999
999999 0 999999 999999 999999 999999 999999 999999 999999 999999 999999 999999 999999 999999 999999 999999 999999 999999 999999 999999 999999 999999 999999 999999 999999 999999 999999 999999 999999 999999 999999 999999 999999 999999 999999 999999 999999 999999 999999 999999 999999 999999 999999 999999 999999 999999 999999 999999 999999 999999 999999 18298 11597 15042 14316 13244 14618 10036 17694 15848 15423 13576 15080 17621 18141 12069 14597 19459 15938 11352 13487 16098 15350 17728 15401 17982 16888 14698 16731 17254 17375 18857 19632 13500 11153 18347 15791 14423 18497 12683 11440 13421 16749 16850 15892 13848 16072 16531 17152 17690 18573 999999
999999 999999 0 999999 999999 999999 999999 999999 999999 999999 999999 999999 999999 999999 999999 999999 999999 999999 999999 999999 999999 999999 999999 999999 999999 999999 999999 999999 999999 999999 999999 999999 999999 999999 999999 999999 999999 999999 999999 999999 999999 999999 999999 999999 999999 999999 999999 999999 999999 999999 999999 17219 16820 16959 13135 11733 15931 18568 18134 16036 15638 14102 16601 14894 19661 14607 17615 19234 14985 17889 19477 18700 18032 15433 14719 15522 11517 11568 15910 19933 11347 14860 13241 10884 13630 18471 17369 14880 19397 15588 13415 15681 15988 18236 12880 17860 11028 18635 12840 11941 10440 999999
999999 999999 999999 0 999999 999999 999999 999999 999999 999999 999999 999999 999999 999999 999999 999999 999999 999999 999999 999999 999999 999999 999999 999999 999999 999999 999999 999999 999999 999999 999999 999999 999999 999999 999999 999999 999999 999999 999999 999999 999999 999999 999999 999999 999999 999999 999999 999999 999999 999999 999999 19019 16566 10152 11187 10664 17074 10463 10521 10900 19028 18958 11999 14890 13822 15271 12036 16340 17956 12266 17414 11911 10250 13038 16703 15566 19736 15305 18677 17057 12267 12191 12104 16091 11127 16842 13090 18421 17246 14456 14534 15733 16060 19646 12012 13923 16904 11916 15725 18690 18187 999999
999999 999999 999999 999999 0 999999 999999 999999 999999 999999 999999 999999 999999 999999 999999 999999 999999 999999 999999 999999 999999 999999 999999 999999 999999 999999 999999 999999 999999 999999 999999 999999 999999 999999 999999 999999 999999 999999 999999 999999 999999 999999 999999 999999 999999 999999 999999 999999 999999 999999 999999 11258 15442 17818 10283 10156 17016 10889 15883 12096 12607 12514 12128 16448 19310 15407 12046 12309 12823 18486 16014 14868 12388 12905 18415 13156 15262 15857 16222 16868 16835 16889 12047 11546 14968 15209 16034 17243 14013 17674 13045 10438 13044 14749 10455 14142 15194 17450 12249 13503 18371 999999
999999 999999 999999 999999 999999 0 999999 999999 999999 999999 999999 999999 999999 999999 999999 999999 999999 999999 999999 999999 999999 999999 999999 999999 999999 999999 999999 999999 999999 999999 999999 999999 999999 999999 999999 999999 999999 999999 999999 999999 999999 999999 999999 999999 999999 999999 999999 999999 999999 999999 999999 19860 10868 10004 16706 12993 17343 19839 12547 14703 10151 14119 14551 18723 18914 16149 12943 11253 17398 18104 16072 17363 15194 13741 19122 14077 11521 19630 14411 16924 16881 15370 12424 16371 19770 13781 13059 19183 10847 11546 19156 13353 14396 10731 14295 13291 15996 16500 16680 12313 13049 999999
999999 999999 999999 999999 999999 999999 0 999999 999999 999999 999999 999999 999999 999999 999999 999999 999999 999999 999999 999999 999999 999999 999999 999999 999999 999999 999999 999999 999999 999999 999999 999999 999999 999999 999999 999999 999999 999999 999999 999999 999999 999999 999999 999999 999999 999999 999999 999999 999999 999999 999999 13971 11991 11802 15909 18765 15896 14526 12262 10156 15977 15101 15288 13804 10022 14868 12971 17094 16946 19612 15467 18065 17266 18321 16444 10780 17919 17081 14747 15359 10639 12213 10667 18707 10341 10720 15123 16283 15559 18175 18503 16951 18797 13306 15349 16049 16964 19612 18810 14689 12682 999999
999999 999999 999999 999999 999999 999999 999999 0 999999 999999 999999 999999 999999 999999 999999 999999 999999 999999 999999 999999 999999 999999 999999 999999 999999 999999 999999 999999 999999 999999 999999 999999 999999 999999 999999 999999 999999 999999 999999 999999 999999 999999 999999 999999 999999 999999 999999 999999 999999 999999 999999 15000 12861 19392 19735 12464 19878 16113 16346 12147 15422 19530 16889 17563 15414 16689 14029 18900 14141 16090 10015 14041 13307 16936 10617 17608 14493 13961 13330 18628 15997 15266 11142 13495 12356 16269 10344 19158 11200 19986 18797 18251 14101 11598 16722 14306 12993 13981 10146 10935 11829 999999
999999 999999 999999 999999 999999 999999 999999 999999 0 999999 999999 999999 999999 999999 999999 999999 999999 999999 999999 999999 999999 999999 999999 999999 999999 999999 999999 999999 999999 999999 999999 999999 999999 999999 999999 999999 999999 999999 999999 999999 999999 999999 999999 999999 999999 999999 999999 999999 999999 999999 999999 18802 13238 18312 11680 19250 16114 14535 15007 11544 11608 12366 17434 16105 15064 11894 15687 13462 14993 13101 17089 16843 15210 11524 19434 16901 17500 11365 11214 18546 17117 18199 18611 14730 13750 14272 17712 18560 14528 10886 18844 11092 14223 14271 11092 13992 15903 18800 15156 10769 11926 999999
999999 999999 999999 999999 999999 999999 999999 999999 999999 0 999999 999999 999999 999999 999999 999999 999999 999999 999999 999999 999999 999999 999999 999999 999999 999999 999999 999999 999999 999999 999999 999999 999999 999999 999999 999999 999999 999999 999999 999999 999999 999999 999999 999999 999999 999999 999999 999999 999999 999999 999999 15319 13443 10984 12363 19288 19840 13108 15127 16210 18083 15775 18983 16457 14862 12703 10605 11667 14842 11391 19155 11207 12918 15528 17928 19007 14549 12251 18370 16370 17832 18035 15522 10030 11468 14433 13697 17531 16898 18028 19748 12279 15023 11560 11796 10454 13249 17673 12773 19422 13237 999999
999999 999999 999999 999999 999999 999999 999999 999999 999999 999999 0 999999 999999 999999 999999 999999 999999 999999 999999 999999 999999 999999 999999 999999 999999 999999 999999 999999 999999 999999 999999 999999 999999 999999 999999 999999 999999 999999 999999 999999 999999 999999 999999 999999 999999 999999 999999 999999 999999 999999 999999 12463 10600 18463 14596 16717 17868 14114 11853 14808 15547 13228 16587 17857 13485 18499 11999 19631 18953 11413 10598 17769 10433 19846 18258 14662 11878 10248 18199 18008 14955 12205 12710 13392 16579 18197 10739 16750 14338 16617 14010 18120 16712 13613 14220 10055 16849 11842 10406 19743 16638 999999
999999 999999 999999 999999 999999 999999 999999 999999 999999 999999 999999 0 999999 999999 999999 999999 999999 999999 999999 999999 999999 999999 999999 999999 999999 999999 999999 999999 999999 999999 999999 999999 999999 999999 999999 999999 999999 999999 999999 999999 999999 999999 999999 999999 999999 999999 999999 999999 999999 999999 999999 11449 10327 10922 15463 12803 14967 19346 12104 17434 15363 11308 19788 18662 14262 15576 15817 16446 13652 18720 15096 17399 15037 11327 17858 11774 17141 15465 13169 15634 19969 16771 18831 12622 19698 13620 18484 18108 12735 13415 16924 15930 15918 15470 10074 17137 11502 18488 16322 15875 13880 999999
999999 999999 999999 999999 999999 999999 999999 999999 999999 999999 999999 999999 0 999999 999999 999999 999999 999999 999999 999999 999999 999999 999999 999999 999999 999999 999999 999999 999999 999999 999999 999999 999999 999999 999999 999999 999999 999999 999999 999999 999999 999999 999999 999999 999999 999999 999999 999999 999999 999999 999999 13507 19407 15172 19891 12906 18988 19495 16241 13087 19856 15180 15015 17627 11074 17401 15359 16811 11702 18176 18245 10452 13450 18646 11103 18229 10063 11553 17271 10378 19861 16658 17626 15973 16332 11111 15128 18075 14680 11377 19042 11217 17380 10283 14231 16213 12853 19396 15170 15506 15261 999999
999999 999999 999999 999999 999999 999999 999999 999999 999999 999999 999999 999999 999999 0 999999 999999 999999 999999 999999 999999 999999 999999 999999 999999 999999 999999 999999 999999 999999 999999 999999 999999 999999 999999 999999 999999 999999 999999 999999 999999 999999 999999 999999 999999 999999 999999 999999 999999 999999 999999 999999 11754 16770 10813 16998 10820 19637 15563 19869 12065 12537 11688 17240 13066 15107 16869 19294 10518 18700 18573 17312 12674 17021 10926 15723 16463 11003 14917 18690 11247 11351 13786 18812 18479 14322 16694 11321 10101 19843 11899 18678 13933 11004 13274 19726 11013 16701 15388 15425 18449 11792 999999
999999 999999 999999 999999 999999 999999 999999 999999 999999 999999 999999 999999 999999 999999 0 999999 999999 999999 999999 999999 999999 999999 999999 999999 999999 999999 999999 999999 999999 999999 999999 999999 999999 999999 999999 999999 999999 999999 999999 999999 999999 999999 999999 999999 999999 999999 999999 999999 999999 999999 999999 18427 17758 17731 10577 14382 11047 15645 10892 13931 12609 16438 12017 11689 12750 11129 10532 12479 17547 16683 19027 16419 18761 15988 11611 13417 16227 15901 18831 12420 11044 18543 18509 10905 14940 18811 13171 10827 18555 11021 11423 17926 10496 15969 10090 12421 12746 13676 19949 13502 13169 999999
999999 999999 999999 999999 999999 999999 999999 999999 999999 999999 999999 999999 999999 999999 999999 0 999999 999999 999999 999999 999999 999999 999999 999999 999999 999999 999999 999999 999999 999999 999999 999999 999999 999999 999999 999999 999999 999999 999999 999999 999999 999999 999999 999999 999999 999999 999999 999999 999999 999999 999999 11320 13101 14152 19197 19679 14663 17817 17154 13009 10432 15394 10457 15783 11126 14191 13650 16238 16723 10712 12161 18954 12435 12198 11735 16620 17122 11614 19916 13751 19773 11587 19594 16694 12918 12207 13052 13956 15627 15464 12035 16048 12819 12048 12088 10785 19877 13595 17339 15169 10256 999999
999999 999999 999999 999999 999999 999999 999999 999999 999999 999999 999999 999999 999999 999999 999999 999999 0 999999 999999 999999 999999 999999 999999 999999 999999 999999 999999 999999 999999 999999 999999 999999 999999 999999 999999 999999 999999 999999 999999 999999 999999 999999 999999 999999 999999 999999 999999 999999 999999 999999 999999 13752 15507 18959 16128 16176 13415 16033 14019 10184 18918 18938 14737 18627 13110 15438 19319 18570 14104 12181 12784 10610 12516 15674 16904 11343 16717 14137 15019 15326 11428 16305 12432 12718 11496 18086 16113 12290 19245 13716 14047 11581 17223 11396 14628 10798 19105 17267 12510 14883 11164 999999
999999 999999 999999 999999 999999 999999 999999 999999 999999 999999 999999 999999 999999 999999 999999 999999 999999 0 999999 999999 999999 999999 999999 999999 999999 999999 999999 999999 999999 999999 999999 999999 999999 999999 999999 999999 999999 999999 999999 999999 999999 999999 999999 999999 999999 999999 999999 999999 999999 999999 999999 11318 12163 17303 19021 18599 13068 18976 15225 19211 16151 13475 13451 15788 15948 16738 17937 17555 17364 13858 15164 15775 16342 13051 18063 17167 18383 12766 18452 17673 10977 19509 18820 17687 15699 15395 15991 18364 12986 18938 15897 16459 10949 18321 12241 10148 13035 15741 15810 14410 17154 999999
999999 999999 999999 999999 999999 999999 999999 999999 999999 999999 999999 999999 999999 999999 999999 999999 999999 999999 0 999999 999999 999999 999999 999999 999999 999999 999999 999999 999999 999999 999999 999999 999999 999999 999999 999999 999999 999999 999999 999999 999999 999999 999999 999999 999999 999999 999999 999999 999999 999999 999999 19378 11068 13336 12796 17629 13302 19480 18478 18722 10526 11580 13602 17242 16773 16206 19328 17447 19210 15679 14889 19598 14008 13500 17596 16845 19011 16660 12412 13262 11222 11243 14980 11141 13951 11366 16500 16991 16639 18418 10600 17760 18849 12245 18724 18752 13366 15052 18889 14188 15585 999999
999999 999999 999999 999999 999999 999999 999999 999999 999999 999999 999999 999999 999999 999999 999999 999999 999999 999999 999999 0 999999 999999 999999 999999 999999 999999 999999 999999 999999 999999 999999 999999 999999 999999 999999 999999 999999 999999 999999 999999 999999 999999 999999 999999 999999 999999 999999 999999 999999 999999 999999 17900 11006 19443 17598 17945 13383 19313 16580 12883 12259 12864 11676 15665 14313 15050 12143 14160 12596 19830 15217 10319 15167 18261 10871 15900 15212 14113 10885 18261 17841 12006 11023 13833 10210 11022 15999 15755 12311 13674 13598 11001 18552 17293 19757 11112 18142 12144 12294 10069 11903 999999
999999 999999 999999 999999 999999 999999 999999 999999 999999 999999 999999 999999 999999 999999 999999 999999 999999 999999 999999 999999 0 999999 999999 999999 999999 999999 999999 999999 999999 999999 999999 999999 999999 999999 999999 999999 999999 999999 999999 999999 999999 999999 999999 999999 999999 999999 999999 999999 999999 999999 999999 15357 14614 18634 15926 13175 13446 15260 15194 12441 19411 12960 18878 16639 13680 11496 12417 14457 15680 18336 13648 19835 11353 11687 15419 12868 11964 18122 18070 19035 16318 17751 18690 11861 12691 16664 19096 17031 12117 18567 11759 13468 14352 12356 11608 16250 14295 14444 19217 19078 10290 999999
999999 999999 999999 999999 999999 999999 999999 999999 999999 999999 999999 999999 999999 999999 999999 999999 999999 999999 999999 999999 999999 0 999999 999999 999999 999999 999999 999999 999999 999999 999999 999999 999999 999999 999999 999999 999999 999999 999999 999999 999999 999999 999999 999999 999999 999999 999999 999999 999999 999999 999999 15081 18299 16782 11780 13219 15749 11496 14141 13422 16827 11230 16711 13165 13603 18250 17258 19077 12541 10297 18116 18878 19540 12488 18572 16850 19303 16240 18737 16756 16926 12901 15232 11999 11410 19718 12912 11407 18792 12583 19419 15691 13484 19031 16499 18942 14156 11219 10880 12904 16916 999999
999999 999999 999999 999999 999999 999999 999999 999999 999999 999999 999999 999999 999999 999999 999999 999999 999999 999999 999999 999999 999999 999999 0 999999 999999 999999 999999 999999 999999 999999 999999 999999 999999 999999 999999 999999 999999 999999 999999 999999 999999 999999 999999 999999 999999 999999 999999 999999 999999 999999 999999 12717 19645 15663 15845 14952 11242 13304 18424 16402 13996 15904 10735 18060 10088 17550 18726 13533 13773 18939 11787 11244 16483 16329 17835 16059 18295 15805 14469 17990 13575 13228 17028 10809 11216 16395 19250 15349 13693 11634 13020 18285 14981 13176 13515 19729 15877 19592 19675 18036 19560 999999
999999 999999 999999 999999 999999 999999 999999 999999 999999 999999 999999 999999 999999 999999 999999 999999 999999 999999 999999 999999 999999 999999 999999 0 999999 999999 999999 999999 999999 999999 999999 999999 999999 999999 999999 999999 999999 999999 999999 999999 999999 999999 999999 999999 999999 999999 999999 999999 999999 999999 999999 10370 17457 15632 11740 18289 10031 11069 16973 11587 17816 13462 17436 18281 12659 12631 15716 15514 19822 12202 12274 12969 15152 16657 13775 19167 10910 15059 15224 19080 11914 17928 10251 13918 17405 16970 14477 13369 10294 18562 14893 15951 15625 16216 16266 19204 19355 18979 16291 13830 17001 999999
999999 999999 999999 999999 999999 999999 999999 999999 999999 999999 999999 999999 999999 999999 999999 999999 999999 999999 999999 999999 999999 999999 999999 999999 0 999999 999999 999999 999999 999999 999999 999999 999999 999999 999999 999999 999999 999999 999999 999999 999999 999999 999999 999999 999999 999999 999999 999999 999999 999999 999999 10178 15292 10136 15243 11118 12991 16885 14621 10218 18742 17342 19598 10699 14379 10217 13155 19813 16444 14898 13677 18211 14177 19247 10097 11979 14363 16524 17814 11883 19394 12183 15057 10343 16468 15358 15642 18294 14806 17073 13218 11207 19610 18497 18191 17291 15852 13329 19997 15732 18888 999999
999999 999999 999999 999999 999999 999999 999999 999999 999999 999999 999999 999999 999999 999999 999999 999999 999999 999999 999999 999999 999999 999999 999999 999999 999999 0 999999 999999 999999 999999 999999 999999 999999 999999 999999 999999 999999 999999 999999 999999 999999 999999 999999 999999 999999 999999 999999 999999 999999 999999 999999 12920 16702 12686 16359 14651 11811 17258 14600 12307 19340 18075 10324 19954 10634 13377 12585 18243 19003 15298 13692 11995 19435 15176 12057 12327 16527 17771 15492 17741 16340 13767 16678 12307 10373 19302 17167 14865 13605 18711 10317 18399 17607 16639 19294 10253 11689 11487 11503 17639 17149 999999
999999 999999 999999 999999 999999 999999 999999 999999 999999 999999 999999 999999 999999 999999 999999 999999 999999 999999 999999 999999 999999 999999 999999 999999 999999 999999 0 999999 999999 999999 999999 999999 999999 999999 999999 999999 999999 999999 999999 999999 999999 999999 999999 999999 999999 999999 999999 999999 999999 999999 999999 10771 18993 17087 12617 14455 19753 15188 16832 19726 17032 12296 15683 13346 19605 16924 10499 18168 10106 12353 15893 14486 14748 10094 11855 16827 17094 19450 17989 14012 18050 12218 14896 16652 19037 18956 18782 15850 16619 13458 18093 12643 10185 12780 16554 11223 12778 12255 13096 10943 10978 999999
999999 999999 999999 999999 999999 999999 999999 999999 999999 999999 999999 999999 999999 999999 999999 999999 999999 999999 999999 999999 999999 999999 999999 999999 999999 999999 999999 0 999999 999999 999999 999999 999999 999999 999999 999999 999999 999999 999999 999999 999999 999999 999999 999999 999999 999999 999999 999999 999999 999999 999999 19168 15468 11895 12649 17542 11733 12889 10397 15224 11383 14376 15231 15287 11630 10271 18469 12998 13436 13507 15508 19900 16816 18745 15203 19727 12334 12212 17124 16519 15273 13163 16772 12574 19511 18693 10772 12792 14957 16433 14747 10112 19676 17067 19474 10165 10334 11808 16077 12641 14609 999999
999999 999999 999999 999999 999999 999999 999999 999999 999999 999999 999999 999999 999999 999999 999999 999999 999999 999999 999999 999999 999999 999999 999999 999999 999999 999999 999999 999999 0 999999 999999 999999 999999 999999 999999 999999 999999 999999 999999 999999 999999 999999 999999 999999 999999 999999 999999 999999 999999 999999 999999 17738 19635 19888 12543 15266 10481 16063 16473 19509 17533 11692 14551 16640 15720 19378 19264 14689 19783 18019 11311 17335 13154 13532 19779 16743 15542 10986 12470 10991 17395 17220 18622 15883 15582 13319 11791 13151 16771 15614 16652 15126 18341 10497 16111 10893 18710 19605 13718 16510 13147 999999
999999 999999 999999 999999 999999 999999 999999 999999 999999 999999 999999 999999 999999 999999 999999 999999 999999 999999 999999 999999 999999 999999 999999 999999 999999 999999 999999 999999 999999 0 999999 999999 999999 999999 999999 999999 999999 999999 999999 999999 999999 999999 999999 999999 999999 999999 999999 999999 999999 999999 999999 16027 16374 15158 13188 18179 10509 11450 12363 18778 14230 18537 12685 12232 13647 12013 11603 12176 17966 12323 18791 11675 11064 13642 12137 15419 14923 14045 19375 15252 14525 14103 19111 19490 19588 13093 10454 15718 13141 18812 15775 14801 17131 15343 14416 14577 15504 14113 19341 11567 13688 999999
999999 999999 999999 999999 999999 999999 999999 999999 999999 999999 999999 999999 999999 999999 999999 999999 999999 999999 999999 999999 999999 999999 999999 999999 999999 999999 999999 999999 999999 999999 0 999999 999999 999999 999999 999999 999999 999999 999999 999999 999999 999999 999999 999999 999999 999999 999999 999999 999999 999999 999999 11939 13105 17090 12514 15181 18272 10210 12991 15769 13531 11157 11889 15049 19687 10006 19764 14231 15811 16217 19029 16997 15776 11542 18583 16338 10667 15116 16747 13569 12329 14440 18853 16391 13626 19180 17158 12959 14992 14800 18756 13495 16160 17416 17998 17291 19107 18390 12066 18122 12861 999999
999999 999999 999999 999999 999999 999999 999999 999999 999999 999999 999999 999999 999999 999999 999999 999999 999999 999999 999999 999999 999999 999999 999999 999999 999999 999999 999999 999999 999999 999999 999999 0 999999 999999 999999 999999 999999 999999 999999 999999 999999 999999 999999 999999 999999 999999 999999 999999 999999 999999 999999 19031 12473 17827 12156 19770 19089 19715 19907 14106 10189 17667 10116 10711 10378 12846 19692 10304 15067 13387 13841 16235 19314 18133 15968 10252 16924 16530 17857 15957 10144 15581 10088 10689 14318 17418 17600 10297 12691 10303 15182 15138 17572 18058 18658 17803 11206 19371 18241 16944 13823 999999
999999 999999 999999 999999 999999 999999 999999 999999 999999 999999 999999 999999 999999 999999 999999 999999 999999 999999 999999 999999 999999 999999 999999 999999 999999 999999 999999 999999 999999 999999 999999 999999 0 999999 999999 999999 999999 999999 999999 999999 999999 999999 999999 999999 999999 999999 999999 999999 999999 999999 999999 10810 12219 11552 15611 10679 16002 15230 16627 18478 13403 16529 15305 16222 13348 18380 16768 15005 13527 10168 15186 13452 18929 17265 12651 16925 15015 13863 13385 15200 14795 19366 18722 11645 10394 13216 12484 14283 15969 13544 11369 10649 14400 15396 12179 15479 14156 12563 18630 11443 19372 999999
999999 999999 999999 999999 999999 999999 999999 999999 999999 999999 999999 999999 999999 999999 999999 999999 999999 999999 999999 999999 999999 999999 999999 999999 999999 999999 999999 999999 999999 999999 999999 999999 999999 0 999999 999999 999999 999999 999999 999999 999999 999999 999999 999999 999999 999999 999999 999999 999999 999999 999999 13330 14875 12351 10056 10741 19212 12248 18873 17186 17709 16452 10796 12869 16605 16197 18999 15094 10740 15626 13347 18390 12472 15868 17320 11070 17785 19134 15590 10027 18144 14525 12402 14767 12239 12523 17397 13763 10387 16464 13235 16407 15781 14920 19396 17794 13149 14058 10867 16218 19421 999999
999999 999999 999999 999999 999999 999999 999999 999999 999999 999999 999999 999999 999999 999999 999999 999999 999999 999999 999999 999999 999999 999999 999999 999999 999999 999999 999999 999999 999999 999999 999999 999999 999999 999999 0 999999 999999 999999 999999 999999 999999 999999 999999 999999 999999 999999 999999 999999 999999 999999 999999 13382 18371 12289 18397 12748 16246 14108 18646 16423 15350 19222 16050 14891 12712 10340 16167 13015 18040 11221 12372 15395 13404 13536 15127 18500 14149 18917 10481 13481 13213 13181 16920 11496 11094 11549 11974 16410 14563 13198 13000 15072 15626 10386 19646 14931 13271 12852 18432 17042 17752 999999
999999 999999 999999 999999 999999 999999 999999 999999 999999 999999 999999 999999 999999 999999 999999 999999 999999 999999 999999 999999 999999 999999 999999 999999 999999 999999 999999 999999 999999 999999 999999 999999 999999 999999 999999 0 999999 999999 999999 999999 999999 999999 999999 999999 999999 999999 999999 999999 999999 999999 999999 19438 18917 15695 16705 18542 12523 11384 17865 17763 13272 11830 10097 15145 18354 10997 14168 17008 10744 18238 18635 17565 17953 11432 18702 19829 16789 13366 13588 18551 15539 18781 18685 18597 15270 11149 16392 14400 16619 13083 13347 19138 13355 10255 17456 10415 11906 11235 13659 10936 12847 999999
999999 999999 999999 999999 999999 999999 999999 999999 999999 999999 999999 999999 999999 999999 999999 999999 999999 999999 999999 999999 999999 999999 999999 999999 999999 999999 999999 999999 999999 999999 999999 999999 999999 999999 999999 999999 0 999999 999999 999999 999999 999999 999999 999999 999999 999999 999999 999999 999999 999999 999999 11775 10183 11946 12958 17278 13369 12295 16473 16341 14422 16253 18086 16727 12002 18322 16782 13140 14122 17477 12141 14065 10258 12608 19321 13542 16364 11255 14406 16817 18070 18396 13456 16988 19795 18181 12016 15566 10286 11520 16790 16510 12625 14785 11012 18701 13981 11336 15799 18252 10428 999999
999999 999999 999999 999999 999999 999999 999999 999999 999999 999999 999999 999999 999999 999999 999999 999999 999999 999999 999999 999999 999999 999999 999999 999999 999999 999999 999999 999999 999999 999999 999999 999999 999999 999999 999999 999999 999999 0 999999 999999 999999 999999 999999 999999 999999 999999 999999 999999 999999 999999 999999 10093 12850 11660 17749 14390 14724 16015 16909 15722 18027 18522 14529 17963 16254 10355 14197 16617 18259 12727 10098 13111 16972 17850 12799 15815 13131 13718 10025 11811 16900 11652 16325 19384 19139 10988 10606 16050 19623 19442 11157 19924 17827 17220 16378 15242 10626 17655 19636 13377 16287 999999
999999 999999 999999 999999 999999 999999 999999 999999 999999 999999 999999 999999 999999 999999 999999 999999 999999 999999 999999 999999 999999 999999 999999 999999 999999 999999 999999 999999 999999 999999 999999 999999 999999 999999 999999 999999 999999 999999 0 999999 999999 999999 999999 999999 999999 999999 999999 999999 999999 999999 999999 12552 10710 13285 17832 14893 16948 17647 15368 17699 18569 18302 14799 14282 12246 10580 11588 15221 18926 18459 18608 10319 14178 14348 13740 13553 14324 10339 12073 13049 19380 11022 16209 11063 14119 19813 15655 11347 11614 13783 15118 10311 19415 10314 15082 18507 15922 12627 12587 14305 13907 999999
999999 999999 999999 999999 999999 999999 999999 999999 999999 999999 999999 999999 999999 999999 999999 999999 999999 999999 999999 999999 999999 999999 999999 999999 999999 999999 999999 999999 999999 999999 999999 999999 999999 999999 999999 999999 999999 999999 999999 0 999999 999999 999999 999999 999999 999999 999999 999999 999999 999999 999999 15868 13149 12552 13584 12939 12062 10526 17949 18351 13577 15137 17359 16527 13915 18950 16088 16396 19366 13079 12812 13361 16031 18048 11068 19624 19960 10576 17899 11263 13207 14133 12655 10815 12780 19756 15414 18847 14987 19266 16816 16792 17957 16796 17773 13018 10068 18731 18442 17761 13633 999999
999999 999999 999999 999999 999999 999999 999999 999999 999999 999999 999999 999999 999999 999999 999999 999999 999999 999999 999999 999999 999999 999999 999999 999999 999999 999999 999999 999999 999999 999999 999999 999999 999999 999999 999999 999999 999999 999999 999999 999999 0 999999 999999 999999 999999 999999 999999 999999 999999 999999 999999 18117 17601 18151 11443 16552 18944 19051 15222 12477 16070 18877 13381 10914 18389 10118 15836 10722 13066 11445 12677 17731 11186 17902 17761 14741 12783 14448 15269 19771 19096 14076 15975 12532 12350 10231 18607 13081 15218 15057 18128 13499 15542 11191 13413 13701 19540 12550 11165 14428 16195 999999
999999 999999 999999 999999 999999 999999 999999 999999 999999 999999 999999 999999 999999 999999 999999 999999 999999 999999 999999 999999 999999 999999 999999 999999 999999 999999 999999 999999 999999 999999 999999 999999 999999 999999 999999 999999 999999 999999 999999 999999 999999 0 999999 999999 999999 999999 999999 999999 999999 999999 999999 17967 17435 11180 15989 19585 16670 16881 10737 17713 17983 17328 18602 19560 18538 13331 13339 19858 13299 14167 10700 11068 17713 12133 19089 11097 11206 13438 14705 13868 19383 11397 14121 13089 16050 13625 12804 19070 16258 19300 19289 19935 13864 19218 14789 17746 11804 10088 11519 19458 12295 999999
999999 999999 999999 999999 999999 999999 999999 999999 999999 999999 999999 999999 999999 999999 999999 999999 999999 999999 999999 999999 999999 999999 999999 999999 999999 999999 999999 999999 999999 999999 999999 999999 999999 999999 999999 999999 999999 999999 999999 999999 999999 999999 0 999999 999999 999999 999999 999999 999999 999999 999999 17094 15795 19008 12556 15864 18989 10819 12422 11702 18521 10572 17115 14643 11884 19295 10084 10215 17710 12732 18007 18613 15474 13221 11071 14008 14123 15117 16975 18234 18844 18713 16713 17357 13009 10995 19791 14743 18648 17612 19263 14816 16412 12546 14932 17688 18361 17111 11062 11324 14412 999999
999999 999999 999999 999999 999999 999999 999999 999999 999999 999999 999999 999999 999999 999999 999999 999999 999999 999999 999999 999999 999999 999999 999999 999999 999999 999999 999999 999999 999999 999999 999999 999999 999999 999999 999999 999999 999999 999999 999999 999999 999999 999999 999999 0 999999 999999 999999 999999 999999 999999 999999 12407 17305 16652 18199 15025 14276 10974 11637 10535 12157 19756 16029 19586 17556 18906 10500 13841 14340 19187 18081 16692 14981 12050 14362 12779 18899 13037 12665 15644 17748 13764 15245 13187 14231 16727 15477 13319 12057 18895 18113 12009 14217 11800 17612 12054 14654 17364 10822 19781 17169 999999
999999 999999 999999 999999 999999 999999 999999 999999 999999 999999 999999 999999 999999 999999 999999 999999 999999 999999 999999 999999 999999 999999 999999 999999 999999 999999 999999 999999 999999 999999 999999 999999 999999 999999 999999 999999 999999 999999 999999 999999 999999 999999 999999 999999 0 999999 999999 999999 999999 999999 999999 14386 18682 16481 15580 12014 12927 11693 19511 11710 13850 18992 13506 13294 14694 16319 12971 15045 19173 16824 16437 12867 16038 13893 18656 11970 10903 11622 10562 11932 13054 12223 18692 13602 16253 18302 11835 18174 13842 17763 14735 17572 13482 16432 13356 10506 12464 18523 16676 12242 15047 999999
999999 999999 999999 999999 999999 999999 999999 999999 999999 999999 999999 999999 999999 999999 999999 999999 999999 999999 999999 999999 999999 999999 999999 999999 999999 999999 999999 999999 999999 999999 999999 999999 999999 999999 999999 999999 999999 999999 999999 999999 999999 999999 999999 999999 999999 0 999999 999999 999999 999999 999999 14815 11215 14525 11122 19501 12334 11529 16354 19728 15480 18050 12916 11654 15615 17295 13084 16412 11215 10195 13231 19278 16886 17775 12928 18662 17041 15841 11203 11442 11390 11773 16295 14140 11167 16490 13532 19401 13583 15724 18323 17113 13985 15849 11811 16564 18255 12971 16998 15129 16338 999999
999999 999999 999999 999999 999999 999999 999999 999999 999999 999999 999999 999999 999999 999999 999999 999999 999999 999999 999999 999999 999999 999999 999999 999999 999999 999999 999999 999999 999999 999999 999999 999999 999999 999999 999999 999999 999999 999999 999999 999999 999999 999999 999999 999999 999999 999999 0 999999 999999 999999 999999 11530 13902 16765 13350 14043 16349 16564 11581 18087 18246 11609 19243 12534 14429 18473 15364 12217 14283 15217 13101 12963 10835 14370 12866 19102 13174 15080 16580 15727 15598 13018 19187 16510 12538 15479 13432 14555 15572 15101 19782 19542 10373 16885 14242 12180 12077 19559 10194 16009 15780 999999
999999 999999 999999 999999 999999 999999 999999 999999 999999 999999 999999 999999 999999 999999 999999 999999 999999 999999 999999 999999 999999 999999 999999 999999 999999 999999 999999 999999 999999 999999 999999 999999 999999 999999 999999 999999 999999 999999 999999 999999 999999 999999 999999 999999 999999 999999 999999 0 999999 999999 999999 12558 19140 12751 13615 17577 11576 16515 18835 14291 16194 13944 13857 11500 13037 17064 16883 13218 15873 11677 14497 13970 11293 19193 19861 13362 16609 19982 17569 13242 14387 17584 18873 13538 19161 15347 19210 18282 14616 13165 11382 14981 10288 16544 18071 15388 12225 13197 19240 16177 11461 999999
999999 999999 999999 999999 999999 999999 999999 999999 999999 999999 999999 999999 999999 999999 999999 999999 999999 999999 999999 999999 999999 999999 999999 999999 999999 999999 999999 999999 999999 999999 999999 999999 999999 999999 999999 999999 999999 999999 999999 999999 999999 999999 999999 999999 999999 999999 999999 999999 0 999999 999999 18945 17267 12285 11195 13883 19456 12343 10491 11779 11174 14890 11076 16680 17877 12774 18348 15463 15832 13763 14917 17743 18370 12869 14652 12270 12466 12954 17065 15696 11858 17680 16508 12876 10992 15688 16250 16220 19756 19243 19488 16999 13388 13147 16358 12677 14683 18293 14370 10816 13491 999999
999999 999999 999999 999999 999999 999999 999999 999999 999999 999999 999999 999999 999999 999999 999999 999999 999999 999999 999999 999999 999999 999999 999999 999999 999999 999999 999999 999999 999999 999999 999999 999999 999999 999999 999999 999999 999999 999999 999999 999999 999999 999999 999999 999999 999999 999999 999999 999999 999999 0 999999 11067 18560 18110 19436 13440 13853 18647 14076 14237 14356 17115 14532 12098 13327 12484 16827 19669 10384 14956 14977 14724 13620 16388 17516 10294 14075 19266 15661 12360 15635 11211 10472 13776 14369 16652 13869 10997 15219 16958 17555 19136 12929 13314 10830 12707 13253 16455 19972 17496 15602 999999
999999 999999 999999 999999 999999 999999 999999 999999 999999 999999 999999 999999 999999 999999 999999 999999 999999 999999 999999 999999 999999 999999 999999 999999 999999 999999 999999 999999 999999 999999 999999 999999 999999 999999 999999 999999 999999 999999 999999 999999 999999 999999 999999 999999 999999 999999 999999 999999 999999 999999 0 19537 13648 16081 15239 11386 14743 17293 12211 10943 19802 19970 11499 10806 11010 10758 16330 13255 19547 15159 19649 18489 19151 13255 18358 15664 13981 16935 12909 17664 11930 11017 19219 16513 15750 15946 17455 13056 12652 14305 16698 12894 19197 10464 18258 18255 11884 12590 11222 15019 11257 999999
999999 18298 17219 19019 11258 19860 13971 15000 18802 15319 12463 11449 13507 11754 18427 11320 13752 11318 19378 17900 15357 15081 12717 10370 10178 12920 10771 19168 17738 16027 11939 19031 10810 13330 13382 19438 11775 10093 12552 15868 18117 17967 17094 12407 14386 14815 11530 12558 18945 11067 19537 0 999999 999999 999999 999999 999999 999999 999999 999999 999999 999999 999999 999999 999999 999999 999999 999999 999999 999999 999999 999999 999999 999999 999999 999999 999999 999999 999999 999999 999999 999999 999999 999999 999999 999999 999999 999999 999999 999999 999999 999999 999999 999999 999999 999999 999999 999999 999999 999999 999999 13683
999999 11597 16820 16566 15442 10868 11991 12861 13238 13443 10600 10327 19407 16770 17758 13101 15507 12163 11068 11006 14614 18299 19645 17457 15292 16702 18993 15468 19635 16374 13105 12473 12219 14875 18371 18917 10183 12850 10710 13149 17601 17435 15795 17305 18682 11215 13902 19140 17267 18560 13648 999999 0 999999 999999 999999 999999 999999 999999 999999 999999 999999 999999 999999 999999 999999 999999 999999 999999 999999 999999 999999 999999 999999 999999 999999 999999 999999 999999 999999 999999 999999 999999 999999 999999 999999 999999 999999 999999 999999 999999 999999 999999 999999 999999 999999 999999 999999 999999 999999 999999 8876
999999 15042 16959 10152 17818 10004 11802 19392 18312 10984 18463 10922 15172 10813 17731 14152 18959 17303 13336 19443 18634 16782 15663 15632 10136 12686 17087 11895 19888 15158 17090 17827 11552 12351 12289 15695 11946 11660 13285 12552 18151 11180 19008 16652 16481 14525 16765 12751 12285 18110 16081 999999 999999 0 999999 999999 999999 999999 999999 999999 999999 999999 999999 999999 999999 999999 999999 999999 999999 999999 999999 999999 999999 999999 999999 999999 999999 999999 999999 999999 999999 999999 999999 999999 999999 999999 999999 999999 999999 999999 999999 999999 999999 999999 999999 999999 999999 999999 999999 999999 999999 10321
999999 14316 13135 11187 10283 16706 15909 19735 11680 12363 14596 15463 19891 16998 10577 19197 16128 19021 12796 17598 15926 11780 15845 11740 15243 16359 12617 12649 12543 13188 12514 12156 15611 10056 18397 16705 12958 17749 17832 13584 11443 15989 12556 18199 15580 11122 13350 13615 11195 19436 15239 999999 999999 999999 0 999999 999999 999999 999999 999999 999999 999999 999999 999999 999999 999999 999999 999999 999999 999999 999999 999999 999999 999999 999999 999999 999999 999999 999999 999999 999999 999999 999999 999999 999999 999999 999999 999999 999999 999999 999999 999999 999999 999999 999999 999999 999999 999999 999999 999999 999999 9692
999999 13244 11733 10664 10156 12993 18765 12464 19250 19288 16717 12803 12906 10820 14382 19679 16176 18599 17629 17945 13175 13219 14952 18289 11118 14651 14455 17542 15266 18179 15181 19770 10679 10741 12748 18542 17278 14390 14893 12939 16552 19585 15864 15025 12014 19501 14043 17577 13883 13440 11386 999999 999999 999999 999999 0 999999 999999 999999 999999 999999 999999 999999 999999 999999 999999 999999 999999 999999 999999 999999 999999 999999 999999 999999 999999 999999 999999 999999 999999 999999 999999 999999 999999 999999 999999 999999 999999 999999 999999 999999 999999 999999 999999 999999 999999 999999 999999 999999 999999 999999 10764
999999 14618 15931 17074 17016 17343 15896 19878 16114 19840 17868 14967 18988 19637 11047 14663 13415 13068 13302 13383 13446 15749 11242 10031 12991 11811 19753 11733 10481 10509 18272 19089 16002 19212 16246 12523 13369 14724 16948 12062 18944 16670 18989 14276 12927 12334 16349 11576 19456 13853 14743 999999 999999 999999 999999 999999 0 999999 999999 999999 999999 999999 999999 999999 999999 999999 999999 999999 999999 999999 999999 999999 999999 999999 999999 999999 999999 999999 999999 999999 999999 999999 999999 999999 999999 999999 999999 999999 999999 999999 999999 999999 999999 999999 999999 999999 999999 999999 999999 999999 999999 13334
999999 10036 18568 10463 10889 19839 14526 16113 14535 13108 14114 19346 19495 15563 15645 17817 16033 18976 19480 19313 15260 11496 13304 11069 16885 17258 15188 12889 16063 11450 10210 19715 15230 12248 14108 11384 12295 16015 17647 10526 19051 16881 10819 10974 11693 11529 16564 16515 12343 18647 17293 999999 999999 999999 999999 999999 999999 0 999999 999999 999999 999999 999999 999999 999999 999999 999999 999999 999999 999999 999999 999999 999999 999999 999999 999999 999999 999999 999999 999999 999999 999999 999999 999999 999999 999999 999999 999999 999999 999999 999999 999999 999999 999999 999999 999999 999999 999999 999999 999999 999999 7780
999999 17694 18134 10521 15883 12547 12262 16346 15007 15127 11853 12104 16241 19869 10892 17154 14019 15225 18478 16580 15194 14141 18424 16973 14621 14600 16832 10397 16473 12363 12991 19907 16627 18873 18646 17865 16473 16909 15368 17949 15222 10737 12422 11637 19511 16354 11581 18835 10491 14076 12211 999999 999999 999999 999999 999999 999999 999999 0 999999 999999 999999 999999 999999 999999 999999 999999 999999 999999 999999 999999 999999 999999 999999 999999 999999 999999 999999 999999 999999 999999 999999 999999 999999 999999 999999 999999 999999 999999 999999 999999 999999 999999 999999 999999 999999 999999 999999 999999 999999 999999 13232
999999 15848 16036 10900 12096 14703 10156 12147 11544 16210 14808 17434 13087 12065 13931 13009 10184 19211 18722 12883 12441 13422 16402 11587 10218 12307 19726 15224 19509 18778 15769 14106 18478 17186 16423 17763 16341 15722 17699 18351 12477 17713 11702 10535 11710 19728 18087 14291 11779 14237 10943 999999 999999 999999 999999 999999 999999 999999 999999 0 999999 999999 999999 999999 999999 999999 999999 999999 999999 999999 999999 999999 999999 999999 999999 999999 999999 999999 999999 999999 999999 999999 999999 999999 999999 999999 999999 999999 999999 999999 999999 999999 999999 999999 999999 999999 999999 999999 999999 999999 999999 14179
999999 15423 15638 19028 12607 10151 15977 15422 11608 18083 15547 15363 19856 12537 12609 10432 18918 16151 10526 12259 19411 16827 13996 17816 18742 19340 17032 11383 17533 14230 13531 10189 13403 17709 15350 13272 14422 18027 18569 13577 16070 17983 18521 12157 13850 15480 18246 16194 11174 14356 19802 999999 999999 999999 999999 999999 999999 999999 999999 999999 0 999999 999999 999999 999999 999999 999999 999999 999999 999999 999999 999999 999999 999999 999999 999999 999999 999999 999999 999999 999999 999999 999999 999999 999999 999999 999999 999999 999999 999999 999999 999999 999999 999999 999999 999999 999999 999999 999999 999999 999999 6230
999999 13576 14102 18958 12514 14119 15101 19530 12366 15775 13228 11308 15180 11688 16438 15394 18938 13475 11580 12864 12960 11230 15904 13462 17342 18075 12296 14376 11692 18537 11157 17667 16529 16452 19222 11830 16253 18522 18302 15137 18877 17328 10572 19756 18992 18050 11609 13944 14890 17115 19970 999999 999999 999999 999999 999999 999999 999999 999999 999999 999999 0 999999 999999 999999 999999 999999 999999 999999 999999 999999 999999 999999 999999 999999 999999 999999 999999 999999 999999 999999 999999 999999 999999 999999 999999 999999 999999 999999 999999 999999 999999 999999 999999 999999 999999 999999 999999 999999 999999 999999 13682
999999 15080 16601 11999 12128 14551 15288 16889 17434 18983 16587 19788 15015 17240 12017 10457 14737 13451 13602 11676 18878 16711 10735 17436 19598 10324 15683 15231 14551 12685 11889 10116 15305 10796 16050 10097 18086 14529 14799 17359 13381 18602 17115 16029 13506 12916 19243 13857 11076 14532 11499 999999 999999 999999 999999 999999 999999 999999 999999 999999 999999 999999 0 999999 999999 999999 999999 999999 999999 999999 999999 999999 999999 999999 999999 999999 999999 999999 999999 999999 999999 999999 999999 999999 999999 999999 999999 999999 999999 999999 999999 999999 999999 999999 999999 999999 999999 999999 999999 999999 999999 14503
999999 17621 14894 14890 16448 18723 13804 17563 16105 16457 17857 18662 17627 13066 11689 15783 18627 15788 17242 15665 16639 13165 18060 18281 10699 19954 13346 15287 16640 12232 15049 10711 16222 12869 14891 15145 16727 17963 14282 16527 10914 19560 14643 19586 13294 11654 12534 11500 16680 12098 10806 999999 999999 999999 999999 999999 999999 999999 999999 999999 999999 999999 999999 0 999999 999999 999999 999999 999999 999999 999999 999999 999999 999999 999999 999999 999999 999999 999999 999999 999999 999999 999999 999999 999999 999999 999999 999999 999999 999999 999999 999999 999999 999999 999999 999999 999999 999999 999999 999999 999999 13202
999999 18141 19661 13822 19310 18914 10022 15414 15064 14862 13485 14262 11074 15107 12750 11126 13110 15948 16773 14313 13680 13603 10088 12659 14379 10634 19605 11630 15720 13647 19687 10378 13348 16605 12712 18354 12002 16254 12246 13915 18389 18538 11884 17556 14694 15615 14429 13037 17877 13327 11010 999999 999999 999999 999999 999999 999999 999999 999999 999999 999999 999999 999999 999999 0 999999 999999 999999 999999 999999 999999 999999 999999 999999 999999 999999 999999 999999 999999 999999 999999 999999 999999 999999 999999 999999 999999 999999 999999 999999 999999 999999 999999 999999 999999 999999 999999 999999 999999 999999 999999 5656
999999 12069 14607 15271 15407 16149 14868 16689 11894 12703 18499 15576 17401 16869 11129 14191 15438 16738 16206 15050 11496 18250 17550 12631 10217 13377 16924 10271 19378 12013 10006 12846 18380 16197 10340 10997 18322 10355 10580 18950 10118 13331 19295 18906 16319 17295 18473 17064 12774 12484 10758 999999 999999 999999 999999 999999 999999 999999 999999 999999 999999 999999 999999 999999 999999 0 999999 999999 999999 999999 999999 999999 999999 999999 999999 999999 999999 999999 999999 999999 999999 999999 999999 999999 999999 999999 999999 999999 999999 999999 999999 999999 999999 999999 999999 999999 999999 999999 999999 999999 999999 9148
999999 14597 17615 12036 12046 12943 12971 14029 15687 10605 11999 15817 15359 19294 10532 13650 19319 17937 19328 12143 12417 17258 18726 15716 13155 12585 10499 18469 19264 11603 19764 19692 16768 18999 16167 14168 16782 14197 11588 16088 15836 13339 10084 10500 12971 13084 15364 16883 18348 16827 16330 999999 999999 999999 999999 999999 999999 999999 999999 999999 999999 999999 999999 999999 999999 999999 0 999999 999999 999999 999999 999999 999999 999999 999999 999999 999999 999999 999999 999999 999999 999999 999999 999999 999999 999999 999999 999999 999999 999999 999999 999999 999999 999999 999999 999999 999999 999999 999999 999999 999999 12077
999999 19459 19234 16340 12309 11253 17094 18900 13462 11667 19631 16446 16811 10518 12479 16238 18570 17555 17447 14160 14457 19077 13533 15514 19813 18243 18168 12998 14689 12176 14231 10304 15005 15094 13015 17008 13140 16617 15221 16396 10722 19858 10215 13841 15045 16412 12217 13218 15463 19669 13255 999999 999999 999999 999999 999999 999999 999999 999999 999999 999999 999999 999999 999999 999999 999999 999999 0 999999 999999 999999 999999 999999 999999 999999 999999 999999 999999 999999 999999 999999 999999 999999 999999 999999 999999 999999 999999 999999 999999 999999 999999 999999 999999 999999 999999 999999 999999 999999 999999 999999 7962
999999 15938 14985 17956 12823 17398 16946 14141 14993 14842 18953 13652 11702 18700 17547 16723 14104 17364 19210 12596 15680 12541 13773 19822 16444 19003 10106 13436 19783 17966 15811 15067 13527 10740 18040 10744 14122 18259 18926 19366 13066 13299 17710 14340 19173 11215 14283 15873 15832 10384 19547 999999 999999 999999 999999 999999 999999 999999 999999 999999 999999 999999 999999 999999 999999 999999 999999 999999 0 999999 999999 999999 999999 999999 999999 999999 999999 999999 999999 999999 999999 999999 999999 999999 999999 999999 999999 999999 999999 999999 999999 999999 999999 999999 999999 999999 999999 999999 999999 999999 999999 9958
999999 11352 17889 12266 18486 18104 19612 16090 13101 11391 11413 18720 18176 18573 16683 10712 12181 13858 15679 19830 18336 10297 18939 12202 14898 15298 12353 13507 18019 12323 16217 13387 10168 15626 11221 18238 17477 12727 18459 13079 11445 14167 12732 19187 16824 10195 15217 11677 13763 14956 15159 999999 999999 999999 999999 999999 999999 999999 999999 999999 999999 999999 999999 999999 999999 999999 999999 999999 999999 0 999999 999999 999999 999999 999999 999999 999999 999999 999999 999999 999999 999999 999999 999999 999999 999999 999999 999999 999999 999999 999999 999999 999999 999999 999999 999999 999999 999999 999999 999999 999999 11481
999999 13487 19477 17414 16014 16072 15467 10015 17089 19155 10598 15096 18245 17312 19027 12161 12784 15164 14889 15217 13648 18116 11787 12274 13677 13692 15893 15508 11311 18791 19029 13841 15186 13347 12372 18635 12141 10098 18608 12812 12677 10700 18007 18081 16437 13231 13101 14497 14917 14977 19649 999999 999999 999999 999999 999999 999999 999999 999999 999999 999999 999999 999999 999999 999999 999999 999999 999999 999999 999999 0 999999 999999 999999 999999 999999 999999 999999 999999 999999 999999 999999 999999 999999 999999 999999 999999 999999 999999 999999 999999 999999 999999 999999 999999 999999 999999 999999 999999 999999 999999 5246
999999 16098 18700 11911 14868 17363 18065 14041 16843 11207 17769 17399 10452 12674 16419 18954 10610 15775 19598 10319 19835 18878 11244 12969 18211 11995 14486 19900 17335 11675 16997 16235 13452 18390 15395 17565 14065 13111 10319 13361 17731 11068 18613 16692 12867 19278 12963 13970 17743 14724 18489 999999 999999 999999 999999 999999 999999 999999 999999 999999 999999 999999 999999 999999 999999 999999 999999 999999 999999 999999 999999 0 999999 999999 999999 999999 999999 999999 999999 999999 999999 999999 999999 999999 999999 999999 999999 999999 999999 999999 999999 999999 999999 999999 999999 999999 999999 999999 999999 999999 999999 5958
999999 15350 18032 10250 12388 15194 17266 13307 15210 12918 10433 15037 13450 17021 18761 12435 12516 16342 14008 15167 11353 19540 16483 15152 14177 19435 14748 16816 13154 11064 15776 19314 18929 12472 13404 17953 10258 16972 14178 16031 11186 17713 15474 14981 16038 16886 10835 11293 18370 13620 19151 999999 999999 999999 999999 999999 999999 999999 999999 999999 999999 999999 999999 999999 999999 999999 999999 999999 999999 999999 999999 999999 0 999999 999999 999999 999999 999999 999999 999999 999999 999999 999999 999999 999999 999999 999999 999999 999999 999999 999999 999999 999999 999999 999999 999999 999999 999999 999999 999999 999999 6391
999999 17728 15433 13038 12905 13741 18321 16936 11524 15528 19846 11327 18646 10926 15988 12198 15674 13051 13500 18261 11687 12488 16329 16657 19247 15176 10094 18745 13532 13642 11542 18133 17265 15868 13536 11432 12608 17850 14348 18048 17902 12133 13221 12050 13893 17775 14370 19193 12869 16388 13255 999999 999999 999999 999999 999999 999999 999999 999999 999999 999999 999999 999999 999999 999999 999999 999999 999999 999999 999999 999999 999999 999999 0 999999 999999 999999 999999 999999 999999 999999 999999 999999 999999 999999 999999 999999 999999 999999 999999 999999 999999 999999 999999 999999 999999 999999 999999 999999 999999 999999 7534
999999 15401 14719 16703 18415 19122 16444 10617 19434 17928 18258 17858 11103 15723 11611 11735 16904 18063 17596 10871 15419 18572 17835 13775 10097 12057 11855 15203 19779 12137 18583 15968 12651 17320 15127 18702 19321 12799 13740 11068 17761 19089 11071 14362 18656 12928 12866 19861 14652 17516 18358 999999 999999 999999 999999 999999 999999 999999 999999 999999 999999 999999 999999 999999 999999 999999 999999 999999 999999 999999 999999 999999 999999 999999 0 999999 999999 999999 999999 999999 999999 999999 999999 999999 999999 999999 999999 999999 999999 999999 999999 999999 999999 999999 999999 999999 999999 999999 999999 999999 999999 6093
999999 17982 15522 15566 13156 14077 10780 17608 16901 19007 14662 11774 18229 16463 13417 16620 11343 17167 16845 15900 12868 16850 16059 19167 11979 12327 16827 19727 16743 15419 16338 10252 16925 11070 18500 19829 13542 15815 13553 19624 14741 11097 14008 12779 11970 18662 19102 13362 12270 10294 15664 999999 999999 999999 999999 999999 999999 999999 999999 999999 999999 999999 999999 999999 999999 999999 999999 999999 999999 999999 999999 999999 999999 999999 999999 0 999999 999999 999999 999999 999999 999999 999999 999999 999999 999999 999999 999999 999999 999999 999999 999999 999999 999999 999999 999999 999999 999999 999999 999999 999999 10287
999999 16888 11517 19736 15262 11521 17919 14493 17500 14549 11878 17141 10063 11003 16227 17122 16717 18383 19011 15212 11964 19303 18295 10910 14363 16527 17094 12334 15542 14923 10667 16924 15015 17785 14149 16789 16364 13131 14324 19960 12783 11206 14123 18899 10903 17041 13174 16609 12466 14075 13981 999999 999999 999999 999999 999999 999999 999999 999999 999999 999999 999999 999999 999999 999999 999999 999999 999999 999999 999999 999999 999999 999999 999999 999999 999999 0 999999 999999 999999 999999 999999 999999 999999 999999 999999 999999 999999 999999 999999 999999 999999 999999 999999 999999 999999 999999 999999 999999 999999 999999 8045
999999 14698 11568 15305 15857 19630 17081 13961 11365 12251 10248 15465 11553 14917 15901 11614 14137 12766 16660 14113 18122 16240 15805 15059 16524 17771 19450 12212 10986 14045 15116 16530 13863 19134 18917 13366 11255 13718 10339 10576 14448 13438 15117 13037 11622 15841 15080 19982 12954 19266 16935 999999 999999 999999 999999 999999 999999 999999 999999 999999 999999 999999 999999 999999 999999 999999 999999 999999 999999 999999 999999 999999 999999 999999 999999 999999 999999 0 999999 999999 999999 999999 999999 999999 999999 999999 999999 999999 999999 999999 999999 999999 999999 999999 999999 999999 999999 999999 999999 999999 999999 7565
999999 16731 15910 18677 16222 14411 14747 13330 11214 18370 18199 13169 17271 18690 18831 19916 15019 18452 12412 10885 18070 18737 14469 15224 17814 15492 17989 17124 12470 19375 16747 17857 13385 15590 10481 13588 14406 10025 12073 17899 15269 14705 16975 12665 10562 11203 16580 17569 17065 15661 12909 999999 999999 999999 999999 999999 999999 999999 999999 999999 999999 999999 999999 999999 999999 999999 999999 999999 999999 999999 999999 999999 999999 999999 999999 999999 999999 999999 0 999999 999999 999999 999999 999999 999999 999999 999999 999999 999999 999999 999999 999999 999999 999999 999999 999999 999999 999999 999999 999999 999999 9843
999999 17254 19933 17057 16868 16924 15359 18628 18546 16370 18008 15634 10378 11247 12420 13751 15326 17673 13262 18261 19035 16756 17990 19080 11883 17741 14012 16519 10991 15252 13569 15957 15200 10027 13481 18551 16817 11811 13049 11263 19771 13868 18234 15644 11932 11442 15727 13242 15696 12360 17664 999999 999999 999999 999999 999999 999999 999999 999999 999999 999999 999999 999999 999999 999999 999999 999999 999999 999999 999999 999999 999999 999999 999999 999999 999999 999999 999999 999999 0 999999 999999 999999 999999 999999 999999 999999 999999 999999 999999 999999 999999 999999 999999 999999 999999 999999 999999 999999 999999 999999 9170
999999 17375 11347 12267 16835 16881 10639 15997 17117 17832 14955 19969 19861 11351 11044 19773 11428 10977 11222 17841 16318 16926 13575 11914 19394 16340 18050 15273 17395 14525 12329 10144 14795 18144 13213 15539 18070 16900 19380 13207 19096 19383 18844 17748 13054 11390 15598 14387 11858 15635 11930 999999 999999 999999 999999 999999 999999 999999 999999 999999 999999 999999 999999 999999 999999 999999 999999 999999 999999 999999 999999 999999 999999 999999 999999 999999 999999 999999 999999 999999 0 999999 999999 999999 999999 999999 999999 999999 999999 999999 999999 999999 999999 999999 999999 999999 999999 999999 999999 999999 999999 14122
999999 18857 14860 12191 16889 15370 12213 15266 18199 18035 12205 16771 16658 13786 18543 11587 16305 19509 11243 12006 17751 12901 13228 17928 12183 13767 12218 13163 17220 14103 14440 15581 19366 14525 13181 18781 18396 11652 11022 14133 14076 11397 18713 13764 12223 11773 13018 17584 17680 11211 11017 999999 999999 999999 999999 999999 999999 999999 999999 999999 999999 999999 999999 999999 999999 999999 999999 999999 999999 999999 999999 999999 999999 999999 999999 999999 999999 999999 999999 999999 999999 0 999999 999999 999999 999999 999999 999999 999999 999999 999999 999999 999999 999999 999999 999999 999999 999999 999999 999999 999999 6315
999999 19632 13241 12104 12047 12424 10667 11142 18611 15522 12710 18831 17626 18812 18509 19594 12432 18820 14980 11023 18690 15232 17028 10251 15057 16678 14896 16772 18622 19111 18853 10088 18722 12402 16920 18685 13456 16325 16209 12655 15975 14121 16713 15245 18692 16295 19187 18873 16508 10472 19219 999999 999999 999999 999999 999999 999999 999999 999999 999999 999999 999999 999999 999999 999999 999999 999999 999999 999999 999999 999999 999999 999999 999999 999999 999999 999999 999999 999999 999999 999999 999999 0 999999 999999 999999 999999 999999 999999 999999 999999 999999 999999 999999 999999 999999 999999 999999 999999 999999 999999 12345
999999 13500 10884 16091 11546 16371 18707 13495 14730 10030 13392 12622 15973 18479 10905 16694 12718 17687 11141 13833 11861 11999 10809 13918 10343 12307 16652 12574 15883 19490 16391 10689 11645 14767 11496 18597 16988 19384 11063 10815 12532 13089 17357 13187 13602 14140 16510 13538 12876 13776 16513 999999 999999 999999 999999 999999 999999 999999 999999 999999 999999 999999 999999 999999 999999 999999 999999 999999 999999 999999 999999 999999 999999 999999 999999 999999 999999 999999 999999 999999 999999 999999 999999 0 999999 999999 999999 999999 999999 999999 999999 999999 999999 999999 999999 999999 999999 999999 999999 999999 999999 14331
999999 11153 13630 11127 14968 19770 10341 12356 13750 11468 16579 19698 16332 14322 14940 12918 11496 15699 13951 10210 12691 11410 11216 17405 16468 10373 19037 19511 15582 19588 13626 14318 10394 12239 11094 15270 19795 19139 14119 12780 12350 16050 13009 14231 16253 11167 12538 19161 10992 14369 15750 999999 999999 999999 999999 999999 999999 999999 999999 999999 999999 999999 999999 999999 999999 999999 999999 999999 999999 999999 999999 999999 999999 999999 999999 999999 999999 999999 999999 999999 999999 999999 999999 999999 0 999999 999999 999999 999999 999999 999999 999999 999999 999999 999999 999999 999999 999999 999999 999999 999999 14451
999999 18347 18471 16842 15209 13781 10720 16269 14272 14433 18197 13620 11111 16694 18811 12207 18086 15395 11366 11022 16664 19718 16395 16970 15358 19302 18956 18693 13319 13093 19180 17418 13216 12523 11549 11149 18181 10988 19813 19756 10231 13625 10995 16727 18302 16490 15479 15347 15688 16652 15946 999999 999999 999999 999999 999999 999999 999999 999999 999999 999999 999999 999999 999999 999999 999999 999999 999999 999999 999999 999999 999999 999999 999999 999999 999999 999999 999999 999999 999999 999999 999999 999999 999999 999999 0 999999 999999 999999 999999 999999 999999 999999 999999 999999 999999 999999 999999 999999 999999 999999 9706
999999 15791 17369 13090 16034 13059 15123 10344 17712 13697 10739 18484 15128 11321 13171 13052 16113 15991 16500 15999 19096 12912 19250 14477 15642 17167 18782 10772 11791 10454 17158 17600 12484 17397 11974 16392 12016 10606 15655 15414 18607 12804 19791 15477 11835 13532 13432 19210 16250 13869 17455 999999 999999 999999 999999 999999 999999 999999 999999 999999 999999 999999 999999 999999 999999 999999 999999 999999 999999 999999 999999 999999 999999 999999 999999 999999 999999 999999 999999 999999 999999 999999 999999 999999 999999 999999 0 999999 999999 999999 999999 999999 999999 999999 999999 999999 999999 999999 999999 999999 999999 8164
999999 14423 14880 18421 17243 19183 16283 19158 18560 17531 16750 18108 18075 10101 10827 13956 12290 18364 16991 15755 17031 11407 15349 13369 18294 14865 15850 12792 13151 15718 12959 10297 14283 13763 16410 14400 15566 16050 11347 18847 13081 19070 14743 13319 18174 19401 14555 18282 16220 10997 13056 999999 999999 999999 999999 999999 999999 999999 999999 999999 999999 999999 999999 999999 999999 999999 999999 999999 999999 999999 999999 999999 999999 999999 999999 999999 999999 999999 999999 999999 999999 999999 999999 999999 999999 999999 999999 0 999999 999999 999999 999999 999999 999999 999999 999999 999999 999999 999999 999999 999999 6498
999999 18497 19397 17246 14013 10847 15559 11200 14528 16898 14338 12735 14680 19843 18555 15627 19245 12986 16639 12311 12117 18792 13693 10294 14806 13605 16619 14957 16771 13141 14992 12691 15969 10387 14563 16619 10286 19623 11614 14987 15218 16258 18648 12057 13842 13583 15572 14616 19756 15219 12652 999999 999999 999999 999999 999999 999999 999999 999999 999999 999999 999999 999999 999999 999999 999999 999999 999999 999999 999999 999999 999999 999999 999999 999999 999999 999999 999999 999999 999999 999999 999999 999999 999999 999999 999999 999999 999999 0 999999 999999 999999 999999 999999 999999 999999 999999 999999 999999 999999 999999 11190
999999 12683 15588 14456 17674 11546 18175 19986 10886 18028 16617 13415 11377 11899 11021 15464 13716 18938 18418 13674 18567 12583 11634 18562 17073 18711 13458 16433 15614 18812 14800 10303 13544 16464 13198 13083 11520 19442 13783 19266 15057 19300 17612 18895 17763 15724 15101 13165 19243 16958 14305 999999 999999 999999 999999 999999 999999 999999 999999 999999 999999 999999 999999 999999 999999 999999 999999 999999 999999 999999 999999 999999 999999 999999 999999 999999 999999 999999 999999 999999 999999 999999 999999 999999 999999 999999 999999 999999 999999 0 999999 999999 999999 999999 999999 999999 999999 999999 999999 999999 999999 14949
999999 11440 13415 14534 13045 19156 18503 18797 18844 19748 14010 16924 19042 18678 11423 12035 14047 15897 10600 13598 11759 19419 13020 14893 13218 10317 18093 14747 16652 15775 18756 15182 11369 13235 13000 13347 16790 11157 15118 16816 18128 19289 19263 18113 14735 18323 19782 11382 19488 17555 16698 999999 999999 999999 999999 999999 999999 999999 999999 999999 999999 999999 999999 999999 999999 999999 999999 999999 999999 999999 999999 999999 999999 999999 999999 999999 999999 999999 999999 999999 999999 999999 999999 999999 999999 999999 999999 999999 999999 999999 0 999999 999999 999999 999999 999999 999999 999999 999999 999999 999999 14373
999999 13421 15681 15733 10438 13353 16951 18251 11092 12279 18120 15930 11217 13933 17926 16048 11581 16459 17760 11001 13468 15691 18285 15951 11207 18399 12643 10112 15126 14801 13495 15138 10649 16407 15072 19138 16510 19924 10311 16792 13499 19935 14816 12009 17572 17113 19542 14981 16999 19136 12894 999999 999999 999999 999999 999999 999999 999999 999999 999999 999999 999999 999999 999999 999999 999999 999999 999999 999999 999999 999999 999999 999999 999999 999999 999999 999999 999999 999999 999999 999999 999999 999999 999999 999999 999999 999999 999999 999999 999999 999999 0 999999 999999 999999 999999 999999 999999 999999 999999 999999 5169
999999 16749 15988 16060 13044 14396 18797 14101 14223 15023 16712 15918 17380 11004 10496 12819 17223 10949 18849 18552 14352 13484 14981 15625 19610 17607 10185 19676 18341 17131 16160 17572 14400 15781 15626 13355 12625 17827 19415 17957 15542 13864 16412 14217 13482 13985 10373 10288 13388 12929 19197 999999 999999 999999 999999 999999 999999 999999 999999 999999 999999 999999 999999 999999 999999 999999 999999 999999 999999 999999 999999 999999 999999 999999 999999 999999 999999 999999 999999 999999 999999 999999 999999 999999 999999 999999 999999 999999 999999 999999 999999 999999 0 999999 999999 999999 999999 999999 999999 999999 999999 10895
999999 16850 18236 19646 14749 10731 13306 11598 14271 11560 13613 15470 10283 13274 15969 12048 11396 18321 12245 17293 12356 19031 13176 16216 18497 16639 12780 17067 10497 15343 17416 18058 15396 14920 10386 10255 14785 17220 10314 16796 11191 19218 12546 11800 16432 15849 16885 16544 13147 13314 10464 999999 999999 999999 999999 999999 999999 999999 999999 999999 999999 999999 999999 999999 999999 999999 999999 999999 999999 999999 999999 999999 999999 999999 999999 999999 999999 999999 999999 999999 999999 999999 999999 999999 999999 999999 999999 999999 999999 999999 999999 999999 999999 0 999999 999999 999999 999999 999999 999999 999999 7864
999999 15892 12880 12012 10455 14295 15349 16722 11092 11796 14220 10074 14231 19726 10090 12088 14628 12241 18724 19757 11608 16499 13515 16266 18191 19294 16554 19474 16111 14416 17998 18658 12179 19396 19646 17456 11012 16378 15082 17773 13413 14789 14932 17612 13356 11811 14242 18071 16358 10830 18258 999999 999999 999999 999999 999999 999999 999999 999999 999999 999999 999999 999999 999999 999999 999999 999999 999999 999999 999999 999999 999999 999999 999999 999999 999999 999999 999999 999999 999999 999999 999999 999999 999999 999999 999999 999999 999999 999999 999999 999999 999999 999999 999999 0 999999 999999 999999 999999 999999 999999 13210
999999 13848 17860 13923 14142 13291 16049 14306 13992 10454 10055 17137 16213 11013 12421 10785 10798 10148 18752 11112 16250 18942 19729 19204 17291 10253 11223 10165 10893 14577 17291 17803 15479 17794 14931 10415 18701 15242 18507 13018 13701 17746 17688 12054 10506 16564 12180 15388 12677 12707 18255 999999 999999 999999 999999 999999 999999 999999 999999 999999 999999 999999 999999 999999 999999 999999 999999 999999 999999 999999 999999 999999 999999 999999 999999 999999 999999 999999 999999 999999 999999 999999 999999 999999 999999 999999 999999 999999 999999 999999 999999 999999 999999 999999 999999 0 999999 999999 999999 999999 999999 11059
999999 16072 11028 16904 15194 15996 16964 12993 15903 13249 16849 11502 12853 16701 12746 19877 19105 13035 13366 18142 14295 14156 15877 19355 15852 11689 12778 10334 18710 15504 19107 11206 14156 13149 13271 11906 13981 10626 15922 10068 19540 11804 18361 14654 12464 18255 12077 12225 14683 13253 11884 999999 999999 999999 999999 999999 999999 999999 999999 999999 999999 999999 999999 999999 999999 999999 999999 999999 999999 999999 999999 999999 999999 999999 999999 999999 999999 999999 999999 999999 999999 999999 999999 999999 999999 999999 999999 999999 999999 999999 999999 999999 999999 999999 999999 999999 0 999999 999999 999999 999999 11501
999999 16531 18635 11916 17450 16500 19612 13981 18800 17673 11842 18488 19396 15388 13676 13595 17267 15741 15052 12144 14444 11219 19592 18979 13329 11487 12255 11808 19605 14113 18390 19371 12563 14058 12852 11235 11336 17655 12627 18731 12550 10088 17111 17364 18523 12971 19559 13197 18293 16455 12590 999999 999999 999999 999999 999999 999999 999999 999999 999999 999999 999999 999999 999999 999999 999999 999999 999999 999999 999999 999999 999999 999999 999999 999999 999999 999999 999999 999999 999999 999999 999999 999999 999999 999999 999999 999999 999999 999999 999999 999999 999999 999999 999999 999999 999999 999999 0 999999 999999 999999 11998
999999 17152 12840 15725 12249 16680 18810 10146 15156 12773 10406 16322 15170 15425 19949 17339 12510 15810 18889 12294 19217 10880 19675 16291 19997 11503 13096 16077 13718 19341 12066 18241 18630 10867 18432 13659 15799 19636 12587 18442 11165 11519 11062 10822 16676 16998 10194 19240 14370 19972 11222 999999 999999 999999 999999 999999 999999 999999 999999 999999 999999 999999 999999 999999 999999 999999 999999 999999 999999 999999 999999 999999 999999 999999 999999 999999 999999 999999 999999 999999 999999 999999 999999 999999 999999 999999 999999 999999 999999 999999 999999 999999 999999 999999 999999 999999 999999 999999 0 999999 999999 5050
999999 17690 11941 18690 13503 12313 14689 10935 10769 19422 19743 15875 15506 18449 13502 15169 14883 14410 14188 10069 19078 12904 18036 13830 15732 17639 10943 12641 16510 11567 18122 16944 11443 16218 17042 10936 18252 13377 14305 17761 14428 19458 11324 19781 12242 15129 16009 16177 10816 17496 15019 999999 999999 999999 999999 999999 999999 999999 999999 999999 999999 999999 999999 999999 999999 999999 999999 999999 999999 999999 999999 999999 999999 999999 999999 999999 999999 999999 999999 999999 999999 999999 999999 999999 999999 999999 999999 999999 999999 999999 999999 999999 999999 999999 999999 999999 999999 999999 999999 0 999999 13666
999999 18573 10440 18187 18371 13049 12682 11829 11926 13237 16638 13880 15261 11792 13169 10256 11164 17154 15585 11903 10290 16916 19560 17001 18888 17149 10978 14609 13147 13688 12861 13823 19372 19421 17752 12847 10428 16287 13907 13633 16195 12295 14412 17169 15047 16338 15780 11461 13491 15602 11257 999999 999999 999999 999999 999999 999999 999999 999999 999999 999999 999999 999999 999999 999999 999999 999999 999999 999999 999999 999999 999999 999999 999999 999999 999999 999999 999999 999999 999999 999999 999999 999999 999999 999999 999999 999999 999999 999999 999999 999999 999999 999999 999999 999999 999999 999999 999999 999999 999999 0 12790
1 999999 999999 999999 999999 999999 999999 999999 999999 999999 999999 999999 999999 999999 999999 999999 999999 999999 999999 999999 999999 999999 999999 999999 999999 999999 999999 999999 999999 999999 999999 999999 999999 999999 999999 999999 999999 999999 999999 999999 999999 999999 999999 999999 999999 999999 999999 999999 999999 999999 999999 999999 999999 999999 999999 999999 999999 999999 999999 999999 999999 999999 999999 999999 999999 999999 999999 999999 999999 999999 999999 999999 999999 999999 999999 999999 999999 999999 999999 999999 999999 999999 999999 999999 999999 999999 999999 999999 999999 999999 999999 999999 999999 999999 999999 999999 999999 999999 999999 999999 999999 0
EOF