NAME: GR_1x5x12_KH_5x12_Run_7
TYPE: TSP
COMMENT: BTSP instance |A|=60 GR nodes |B|=60 KH nodes depot=0.0 end=0.0.0
DIMENSION: 122
EDGE_WEIGHT_TYPE: EXPLICIT
EDGE_WEIGHT_FORMAT: FULL_MATRIX
NODE_COORD_TYPE: NO_COORDS
EDGE_WEIGHT_SECTION
0 13445 5943 8632 5019 6706 14347 10618 5171 5003 8417 11957 13336 5690 8507 11440 8682 12334 8416 10476 14667 11141 12804 11879 11490 9095 13083 6927 12703 9595 13102 8908 14420 8738 12753 5688 5918 7248 12047 6026 11921 6531 14589 14004 10233 6949 8948 9893 11565 10803 6959 6926 5462 12956 11163 5095 5451 8496 10135 13811 13737 999999 999999 999999 999999 999999 999999 999999 999999 999999 999999 999999 999999 999999 999999 999999 999999 999999 999999 999999 999999 999999 999999 999999 999999 999999 999999 999999 999999 999999 999999 999999 999999 999999 999999 999999 999999 999999 999999 999999 999999 999999 999999 999999 999999 999999 999999 999999 999999 999999 999999 999999 999999 999999 999999 999999 999999 999999 999999 999999 999999 999999
999999 0 999999 999999 999999 999999 999999 999999 999999 999999 999999 999999 999999 999999 999999 999999 999999 999999 999999 999999 999999 999999 999999 999999 999999 999999 999999 999999 999999 999999 999999 999999 999999 999999 999999 999999 999999 999999 999999 999999 999999 999999 999999 999999 999999 999999 999999 999999 999999 999999 999999 999999 999999 999999 999999 999999 999999 999999 999999 999999 999999 17896 17566 17139 13581 18463 14163 10488 16105 17977 10779 13878 13400 17208 14886 17699 17814 18594 18017 11078 17066 10092 15040 17194 18595 16913 13315 13185 19654 19430 15815 17861 16327 10511 15761 14882 14417 11533 11996 19723 17729 11641 15833 16157 14602 18070 18536 14359 13118 15481 17932 19072 15779 12746 19203 19971 16763 11281 13455 13075 11343 999999
999999 999999 0 999999 999999 999999 999999 999999 999999 999999 999999 999999 999999 999999 999999 999999 999999 999999 999999 999999 999999 999999 999999 999999 999999 999999 999999 999999 999999 999999 999999 999999 999999 999999 999999 999999 999999 999999 999999 999999 999999 999999 999999 999999 999999 999999 999999 999999 999999 999999 999999 999999 999999 999999 999999 999999 999999 999999 999999 999999 999999 11730 19138 17386 11540 15291 16327 14646 18051 17023 12122 12048 14792 18016 12732 14591 16490 15286 12848 18114 13579 19768 15155 12714 13256 13334 17515 19826 17639 18240 10874 11684 15178 14937 13624 12809 16284 19851 13818 14332 10320 15964 11893 12111 10951 18059 13171 13972 12326 10845 17366 12759 17293 16219 17921 15318 18905 12627 17431 14146 11833 999999
999999 999999 999999 0 999999 999999 999999 999999 999999 999999 999999 999999 999999 999999 999999 999999 999999 999999 999999 999999 999999 999999 999999 999999 999999 999999 999999 999999 999999 999999 999999 999999 999999 999999 999999 999999 999999 999999 999999 999999 999999 999999 999999 999999 999999 999999 999999 999999 999999 999999 999999 999999 999999 999999 999999 999999 999999 999999 999999 999999 999999 14636 12695 13104 17574 15168 14669 16056 11365 19924 11591 10212 13679 18959 14383 12593 18998 14849 10143 16831 11718 12238 15476 16231 19852 15331 11391 18176 18823 13522 10941 13083 17833 17094 16292 16912 15438 11606 19433 11047 16760 16301 18493 14830 19115 10318 19388 14079 12347 12068 16048 16612 19681 17849 18241 16347 18221 19763 10936 18703 17707 999999
999999 999999 999999 999999 0 999999 999999 999999 999999 999999 999999 999999 999999 999999 999999 999999 999999 999999 999999 999999 999999 999999 999999 999999 999999 999999 999999 999999 999999 999999 999999 999999 999999 999999 999999 999999 999999 999999 999999 999999 999999 999999 999999 999999 999999 999999 999999 999999 999999 999999 999999 999999 999999 999999 999999 999999 999999 999999 999999 999999 999999 16212 10418 13457 17510 12286 14824 16249 13275 18629 16962 19144 19349 10524 11903 15308 11244 16466 19138 19358 15654 15636 19836 10474 18633 15505 11197 12404 14500 16075 18758 16730 12602 14550 15177 14208 16184 13331 17911 18534 14288 19739 13613 12452 14367 11632 15756 16194 19908 17726 19422 15444 19693 11343 18387 18396 13702 19066 13110 10258 12541 999999
999999 999999 999999 999999 999999 0 999999 999999 999999 999999 999999 999999 999999 999999 999999 999999 999999 999999 999999 999999 999999 999999 999999 999999 999999 999999 999999 999999 999999 999999 999999 999999 999999 999999 999999 999999 999999 999999 999999 999999 999999 999999 999999 999999 999999 999999 999999 999999 999999 999999 999999 999999 999999 999999 999999 999999 999999 999999 999999 999999 999999 15827 14537 14776 15007 15957 13235 18505 15769 15633 14985 15269 13296 12411 19490 15261 10324 19344 14679 19975 15341 10248 19125 12722 10220 10970 17769 17271 11530 10874 10331 13516 15309 12693 15741 19099 17389 12227 17031 16858 10128 10042 10389 17915 11594 10510 11174 10186 15894 11716 18355 15739 10192 15069 14554 15464 18392 10103 12328 15860 16393 999999
999999 999999 999999 999999 999999 999999 0 999999 999999 999999 999999 999999 999999 999999 999999 999999 999999 999999 999999 999999 999999 999999 999999 999999 999999 999999 999999 999999 999999 999999 999999 999999 999999 999999 999999 999999 999999 999999 999999 999999 999999 999999 999999 999999 999999 999999 999999 999999 999999 999999 999999 999999 999999 999999 999999 999999 999999 999999 999999 999999 999999 14986 15315 18925 15162 13951 17430 13815 18465 16132 18618 16153 11641 19828 18532 15162 19662 11139 12163 16197 13951 11026 18532 18522 18036 10086 10144 17494 14350 18462 19457 19639 19371 19907 19097 17181 13755 16005 13424 11869 16959 10938 19768 17444 19629 10537 10994 10229 18617 11964 15141 18507 11380 11417 10188 11589 10556 12114 15520 15613 16188 999999
999999 999999 999999 999999 999999 999999 999999 0 999999 999999 999999 999999 999999 999999 999999 999999 999999 999999 999999 999999 999999 999999 999999 999999 999999 999999 999999 999999 999999 999999 999999 999999 999999 999999 999999 999999 999999 999999 999999 999999 999999 999999 999999 999999 999999 999999 999999 999999 999999 999999 999999 999999 999999 999999 999999 999999 999999 999999 999999 999999 999999 10132 15867 18847 19574 16157 13824 14135 13794 19800 12827 19820 18376 18775 12229 15615 15015 11961 10387 16908 12097 11456 19289 14995 13850 13063 19750 16358 12544 19662 13998 11976 11256 19205 11051 10702 11908 16555 13388 19548 16914 10708 16581 11635 11119 13483 12669 19339 18328 12945 14476 10828 17730 16912 11823 19540 17237 15989 16018 12261 17441 999999
999999 999999 999999 999999 999999 999999 999999 999999 0 999999 999999 999999 999999 999999 999999 999999 999999 999999 999999 999999 999999 999999 999999 999999 999999 999999 999999 999999 999999 999999 999999 999999 999999 999999 999999 999999 999999 999999 999999 999999 999999 999999 999999 999999 999999 999999 999999 999999 999999 999999 999999 999999 999999 999999 999999 999999 999999 999999 999999 999999 999999 14955 13814 11960 14369 15624 16822 14282 10764 18050 11998 14882 16393 12606 16199 11081 14045 14784 19505 12789 18550 19826 11755 16259 11524 17425 16471 14982 12383 19348 13766 14106 18282 17906 16528 15860 14327 15452 18300 16047 12365 13014 12029 10054 14408 19103 12689 15842 12724 15017 17383 18620 16289 14571 13217 19826 17278 11804 19267 19230 14219 999999
999999 999999 999999 999999 999999 999999 999999 999999 999999 0 999999 999999 999999 999999 999999 999999 999999 999999 999999 999999 999999 999999 999999 999999 999999 999999 999999 999999 999999 999999 999999 999999 999999 999999 999999 999999 999999 999999 999999 999999 999999 999999 999999 999999 999999 999999 999999 999999 999999 999999 999999 999999 999999 999999 999999 999999 999999 999999 999999 999999 999999 11849 13281 12195 10515 19212 12141 12524 15839 12405 15214 15783 14389 11304 10086 18417 14742 12871 10801 19137 17329 12398 10231 13634 18436 16547 19205 13249 16107 13704 18515 16170 13756 13255 14437 15811 15187 17466 11960 17412 18845 19529 13316 17918 15662 10132 16718 15660 17536 16492 10000 17363 10192 13155 12910 14823 19892 17794 16003 19943 14909 999999
999999 999999 999999 999999 999999 999999 999999 999999 999999 999999 0 999999 999999 999999 999999 999999 999999 999999 999999 999999 999999 999999 999999 999999 999999 999999 999999 999999 999999 999999 999999 999999 999999 999999 999999 999999 999999 999999 999999 999999 999999 999999 999999 999999 999999 999999 999999 999999 999999 999999 999999 999999 999999 999999 999999 999999 999999 999999 999999 999999 999999 18725 16071 17382 14634 11089 13694 17455 14101 12718 13410 16396 13501 13580 19912 12628 19951 10209 18014 19961 18128 13157 12924 15806 14583 11953 18946 15537 19951 13475 10318 10829 11600 15707 19608 13492 18672 14528 19215 15960 10786 11609 13640 12986 12755 16501 15651 14652 17077 16696 18375 11172 18046 18010 16637 13013 12829 11822 19065 16597 19609 999999
999999 999999 999999 999999 999999 999999 999999 999999 999999 999999 999999 0 999999 999999 999999 999999 999999 999999 999999 999999 999999 999999 999999 999999 999999 999999 999999 999999 999999 999999 999999 999999 999999 999999 999999 999999 999999 999999 999999 999999 999999 999999 999999 999999 999999 999999 999999 999999 999999 999999 999999 999999 999999 999999 999999 999999 999999 999999 999999 999999 999999 11436 15343 13021 13510 18496 19722 14068 12163 19907 15328 19721 11434 14648 10466 16800 12086 11980 12702 14044 10777 14159 18966 19142 16762 18277 14216 11479 18216 14402 13041 17530 17163 18668 19034 18406 12556 16044 16839 14018 13643 19423 14393 13621 13566 16745 18429 12511 15208 16212 16257 12811 16583 18115 18673 11604 17866 13123 14831 16394 19106 999999
999999 999999 999999 999999 999999 999999 999999 999999 999999 999999 999999 999999 0 999999 999999 999999 999999 999999 999999 999999 999999 999999 999999 999999 999999 999999 999999 999999 999999 999999 999999 999999 999999 999999 999999 999999 999999 999999 999999 999999 999999 999999 999999 999999 999999 999999 999999 999999 999999 999999 999999 999999 999999 999999 999999 999999 999999 999999 999999 999999 999999 16294 13988 13338 15881 19568 10427 18876 12776 10444 19279 17162 14630 15623 12956 14288 11190 10600 17347 14127 18394 10907 12529 16069 14505 11943 18589 18816 16790 12880 14248 16536 18590 19282 16407 15713 11908 12868 12175 13038 18117 16302 14394 15767 13782 12620 15251 13213 12937 19467 10405 18897 18316 15754 11520 10553 17742 11691 18798 19191 17753 999999
999999 999999 999999 999999 999999 999999 999999 999999 999999 999999 999999 999999 999999 0 999999 999999 999999 999999 999999 999999 999999 999999 999999 999999 999999 999999 999999 999999 999999 999999 999999 999999 999999 999999 999999 999999 999999 999999 999999 999999 999999 999999 999999 999999 999999 999999 999999 999999 999999 999999 999999 999999 999999 999999 999999 999999 999999 999999 999999 999999 999999 10224 14001 14112 14690 13014 12534 19959 16792 14494 19664 14907 11530 19308 19271 12936 10758 19248 18347 16840 16905 10158 19693 17029 15376 12482 11949 12362 15396 15500 16994 15927 18003 12924 13681 12574 17895 13479 17040 17675 13053 12683 16190 14381 16992 17156 14729 12264 15650 10413 10660 13190 10827 13903 18040 17837 18634 15890 18760 10476 18993 999999
999999 999999 999999 999999 999999 999999 999999 999999 999999 999999 999999 999999 999999 999999 0 999999 999999 999999 999999 999999 999999 999999 999999 999999 999999 999999 999999 999999 999999 999999 999999 999999 999999 999999 999999 999999 999999 999999 999999 999999 999999 999999 999999 999999 999999 999999 999999 999999 999999 999999 999999 999999 999999 999999 999999 999999 999999 999999 999999 999999 999999 14058 12424 16483 14538 12071 16605 17527 10043 19545 17285 19561 18975 18515 13502 13461 15158 10434 14118 18932 18335 17866 12502 14683 12514 13114 17487 17289 18588 19275 19081 12210 17232 19069 10270 10655 14685 19025 11984 15262 19729 12278 17822 16354 19646 12228 17755 17295 17677 14235 18578 18349 19549 10797 18441 11511 13736 17729 11795 19171 13209 999999
999999 999999 999999 999999 999999 999999 999999 999999 999999 999999 999999 999999 999999 999999 999999 0 999999 999999 999999 999999 999999 999999 999999 999999 999999 999999 999999 999999 999999 999999 999999 999999 999999 999999 999999 999999 999999 999999 999999 999999 999999 999999 999999 999999 999999 999999 999999 999999 999999 999999 999999 999999 999999 999999 999999 999999 999999 999999 999999 999999 999999 14126 11402 11198 11826 11655 17239 12767 16650 19211 10749 14999 16489 16362 16837 10223 19309 18703 15386 13843 15736 19398 10878 16854 14287 16279 13029 10562 15352 16039 14695 13384 18056 11307 17341 18196 12948 18955 17975 18532 15485 18299 15707 12185 14511 10533 16576 12706 11365 11720 16358 11505 13363 17537 10428 14231 14031 16382 18793 10378 16469 999999
999999 999999 999999 999999 999999 999999 999999 999999 999999 999999 999999 999999 999999 999999 999999 999999 0 999999 999999 999999 999999 999999 999999 999999 999999 999999 999999 999999 999999 999999 999999 999999 999999 999999 999999 999999 999999 999999 999999 999999 999999 999999 999999 999999 999999 999999 999999 999999 999999 999999 999999 999999 999999 999999 999999 999999 999999 999999 999999 999999 999999 11918 12317 16040 15185 15668 15686 10958 17268 18789 16400 15394 15269 17290 14228 17311 14135 19695 16916 18860 18715 17193 19453 17073 16475 10643 17468 13212 15596 12742 10617 14529 11355 11137 14064 19692 12562 18376 13047 11770 13755 14809 19142 15786 13121 12181 15179 19682 14353 14133 15552 15446 11577 19801 16015 14895 19497 18185 16935 13459 15637 999999
999999 999999 999999 999999 999999 999999 999999 999999 999999 999999 999999 999999 999999 999999 999999 999999 999999 0 999999 999999 999999 999999 999999 999999 999999 999999 999999 999999 999999 999999 999999 999999 999999 999999 999999 999999 999999 999999 999999 999999 999999 999999 999999 999999 999999 999999 999999 999999 999999 999999 999999 999999 999999 999999 999999 999999 999999 999999 999999 999999 999999 18924 18867 19667 11239 16785 19058 12981 10262 12322 17857 19735 15873 11644 16769 16966 14301 17940 11599 19577 10793 18817 13175 18719 11497 17285 12761 16222 13695 10356 16341 19499 19296 13324 13275 16559 18053 18515 16049 18093 17234 15801 19707 17329 14739 16328 16793 13828 10324 11404 18595 10749 13139 11781 17261 13030 14440 19555 16379 15788 12375 999999
999999 999999 999999 999999 999999 999999 999999 999999 999999 999999 999999 999999 999999 999999 999999 999999 999999 999999 0 999999 999999 999999 999999 999999 999999 999999 999999 999999 999999 999999 999999 999999 999999 999999 999999 999999 999999 999999 999999 999999 999999 999999 999999 999999 999999 999999 999999 999999 999999 999999 999999 999999 999999 999999 999999 999999 999999 999999 999999 999999 999999 12623 19919 19070 12928 17827 14410 15157 17859 11250 16557 12347 10223 16700 15113 13507 15948 12975 17353 15882 13744 19063 12747 13722 19704 17623 11578 11400 15465 17081 18108 18718 15720 19470 19273 19360 13064 13278 14524 13294 14979 17594 18555 19971 14668 17087 16583 19075 17659 12496 18009 16888 17851 15653 19897 18029 11914 19187 10305 18782 10986 999999
999999 999999 999999 999999 999999 999999 999999 999999 999999 999999 999999 999999 999999 999999 999999 999999 999999 999999 999999 0 999999 999999 999999 999999 999999 999999 999999 999999 999999 999999 999999 999999 999999 999999 999999 999999 999999 999999 999999 999999 999999 999999 999999 999999 999999 999999 999999 999999 999999 999999 999999 999999 999999 999999 999999 999999 999999 999999 999999 999999 999999 15328 10791 19496 19844 11879 13608 13206 12885 18971 15889 17737 12081 16926 18725 19122 11111 11539 15166 14588 14411 10637 13573 10678 13313 19833 18511 19247 19189 19212 13897 16178 12508 18145 14835 10269 18338 13754 11248 15061 17848 16466 19132 19820 19031 18832 11181 12495 13266 15012 13013 18730 17626 11713 17240 17772 17645 15447 14818 13997 10557 999999
999999 999999 999999 999999 999999 999999 999999 999999 999999 999999 999999 999999 999999 999999 999999 999999 999999 999999 999999 999999 0 999999 999999 999999 999999 999999 999999 999999 999999 999999 999999 999999 999999 999999 999999 999999 999999 999999 999999 999999 999999 999999 999999 999999 999999 999999 999999 999999 999999 999999 999999 999999 999999 999999 999999 999999 999999 999999 999999 999999 999999 15034 14542 13632 18121 19524 14853 18843 19579 12277 10199 15831 19154 17890 19524 13348 10539 14250 12679 15623 13677 11071 18410 12701 10033 16921 12304 19194 10303 16832 14389 16010 13358 16194 17361 13379 17049 13970 19373 12553 14631 14056 17020 13111 14746 10738 14407 14723 13403 11521 14568 13236 18325 16069 13291 13939 12866 19770 11185 10480 19231 999999
999999 999999 999999 999999 999999 999999 999999 999999 999999 999999 999999 999999 999999 999999 999999 999999 999999 999999 999999 999999 999999 0 999999 999999 999999 999999 999999 999999 999999 999999 999999 999999 999999 999999 999999 999999 999999 999999 999999 999999 999999 999999 999999 999999 999999 999999 999999 999999 999999 999999 999999 999999 999999 999999 999999 999999 999999 999999 999999 999999 999999 19805 16061 15336 13617 14880 17454 15251 10024 19080 11496 14029 11539 13130 10662 16765 12291 17448 17307 13183 17511 14993 17463 10287 13108 17030 18073 14719 16452 18378 15020 19536 13922 19645 11609 15584 17506 18879 18105 15630 16744 11551 17847 10019 11688 16472 14537 13666 13992 19018 15472 16124 14403 17902 14682 12043 11366 12558 15502 13508 12633 999999
999999 999999 999999 999999 999999 999999 999999 999999 999999 999999 999999 999999 999999 999999 999999 999999 999999 999999 999999 999999 999999 999999 0 999999 999999 999999 999999 999999 999999 999999 999999 999999 999999 999999 999999 999999 999999 999999 999999 999999 999999 999999 999999 999999 999999 999999 999999 999999 999999 999999 999999 999999 999999 999999 999999 999999 999999 999999 999999 999999 999999 19632 11793 13325 11107 16832 14287 11850 19129 16302 19309 19010 18596 18823 15858 19804 10818 16659 10339 15254 15588 17670 14120 14255 18999 12939 18315 11133 10802 16017 13761 17985 13565 17745 12220 17521 10426 11139 14840 18229 12070 11555 18081 15601 19274 12898 16190 17973 17962 19113 11848 16897 15087 10545 18620 16833 12372 18686 13911 10503 15105 999999
999999 999999 999999 999999 999999 999999 999999 999999 999999 999999 999999 999999 999999 999999 999999 999999 999999 999999 999999 999999 999999 999999 999999 0 999999 999999 999999 999999 999999 999999 999999 999999 999999 999999 999999 999999 999999 999999 999999 999999 999999 999999 999999 999999 999999 999999 999999 999999 999999 999999 999999 999999 999999 999999 999999 999999 999999 999999 999999 999999 999999 11539 15824 19702 16492 13690 10478 13858 14611 16926 15123 18819 17500 15913 17430 12662 14325 13564 19198 13511 19919 16723 16690 14909 14848 19053 18766 16462 12447 14284 19810 17341 10890 19936 17567 14896 19494 13654 16375 10308 19825 10943 19633 15448 13971 13106 18520 15151 13292 16768 11071 17838 13313 19056 11435 14950 15641 13415 15712 18216 19162 999999
999999 999999 999999 999999 999999 999999 999999 999999 999999 999999 999999 999999 999999 999999 999999 999999 999999 999999 999999 999999 999999 999999 999999 999999 0 999999 999999 999999 999999 999999 999999 999999 999999 999999 999999 999999 999999 999999 999999 999999 999999 999999 999999 999999 999999 999999 999999 999999 999999 999999 999999 999999 999999 999999 999999 999999 999999 999999 999999 999999 999999 14642 11201 17559 16074 15719 13055 12760 18935 19813 19254 12426 13107 11564 19566 15141 11401 19587 14072 17979 18113 14329 14758 15332 13667 19095 19291 14275 13813 13070 19519 19486 15648 10408 11641 11897 10494 11850 17880 18403 17636 11178 16165 11376 16300 10683 19147 15762 14642 13556 19589 19172 16559 11628 13520 18920 12290 11730 12328 19502 13677 999999
999999 999999 999999 999999 999999 999999 999999 999999 999999 999999 999999 999999 999999 999999 999999 999999 999999 999999 999999 999999 999999 999999 999999 999999 999999 0 999999 999999 999999 999999 999999 999999 999999 999999 999999 999999 999999 999999 999999 999999 999999 999999 999999 999999 999999 999999 999999 999999 999999 999999 999999 999999 999999 999999 999999 999999 999999 999999 999999 999999 999999 12653 11676 18517 16318 16727 19446 15383 10334 17521 14576 10755 19377 13330 10886 11405 18401 15663 10417 16344 15950 17590 17746 16287 19495 11587 16567 17252 16509 14722 13467 16227 13863 10889 16890 10955 11237 15304 17201 16410 14884 13979 17853 15481 16354 10631 13343 10334 10245 10467 12724 10873 10348 18631 17581 13638 18002 11155 19873 10545 10374 999999
999999 999999 999999 999999 999999 999999 999999 999999 999999 999999 999999 999999 999999 999999 999999 999999 999999 999999 999999 999999 999999 999999 999999 999999 999999 999999 0 999999 999999 999999 999999 999999 999999 999999 999999 999999 999999 999999 999999 999999 999999 999999 999999 999999 999999 999999 999999 999999 999999 999999 999999 999999 999999 999999 999999 999999 999999 999999 999999 999999 999999 11359 16651 14852 16393 13609 18295 11080 11460 13752 13018 10957 15992 15892 13101 15213 10366 15367 11729 15738 19475 15094 13398 15006 14405 19880 15106 18355 15966 13723 19874 14365 11269 13161 11664 10983 13367 16542 11771 14891 14280 12442 15475 10886 10872 18144 10983 10158 19073 19381 19746 10258 18680 19674 17080 10247 15007 13343 15197 12896 16996 999999
999999 999999 999999 999999 999999 999999 999999 999999 999999 999999 999999 999999 999999 999999 999999 999999 999999 999999 999999 999999 999999 999999 999999 999999 999999 999999 999999 0 999999 999999 999999 999999 999999 999999 999999 999999 999999 999999 999999 999999 999999 999999 999999 999999 999999 999999 999999 999999 999999 999999 999999 999999 999999 999999 999999 999999 999999 999999 999999 999999 999999 17169 10031 18730 11255 15236 11933 19851 12159 17623 11049 13802 18929 10715 16077 18165 10124 19421 14991 14801 16822 13962 19401 15310 11241 16131 14273 19105 10508 13846 11170 12073 19054 15705 13147 18329 16601 13428 12626 17999 12224 10208 14114 18942 16352 14053 19639 18371 18573 19535 11223 12351 10608 16939 12546 10516 18201 11045 11109 15327 11969 999999
999999 999999 999999 999999 999999 999999 999999 999999 999999 999999 999999 999999 999999 999999 999999 999999 999999 999999 999999 999999 999999 999999 999999 999999 999999 999999 999999 999999 0 999999 999999 999999 999999 999999 999999 999999 999999 999999 999999 999999 999999 999999 999999 999999 999999 999999 999999 999999 999999 999999 999999 999999 999999 999999 999999 999999 999999 999999 999999 999999 999999 18087 16887 10873 10065 18283 10812 18399 16438 19867 16046 18150 18416 15345 17425 19259 18797 12019 12647 19701 11825 10979 18276 19422 11878 10404 18804 15718 18893 15518 13569 15323 18885 19618 19594 15449 10622 19581 13756 11768 16936 13873 10392 16747 14409 19321 10148 15398 16898 14787 18586 16196 14927 13606 14423 10971 14287 16121 15868 12983 10019 999999
999999 999999 999999 999999 999999 999999 999999 999999 999999 999999 999999 999999 999999 999999 999999 999999 999999 999999 999999 999999 999999 999999 999999 999999 999999 999999 999999 999999 999999 0 999999 999999 999999 999999 999999 999999 999999 999999 999999 999999 999999 999999 999999 999999 999999 999999 999999 999999 999999 999999 999999 999999 999999 999999 999999 999999 999999 999999 999999 999999 999999 17439 10832 19560 14093 18988 11370 10593 19318 14568 10234 10187 18640 16274 15396 18623 15123 18665 12972 10779 16664 13179 11212 11727 14397 17092 18679 16525 11888 14089 16946 18958 15509 15542 15846 13918 17811 13396 14871 11575 13165 10546 17778 18349 14844 14572 18754 16242 10602 17210 10389 16490 19235 19264 10697 10259 10846 14237 12475 15455 12297 999999
999999 999999 999999 999999 999999 999999 999999 999999 999999 999999 999999 999999 999999 999999 999999 999999 999999 999999 999999 999999 999999 999999 999999 999999 999999 999999 999999 999999 999999 999999 0 999999 999999 999999 999999 999999 999999 999999 999999 999999 999999 999999 999999 999999 999999 999999 999999 999999 999999 999999 999999 999999 999999 999999 999999 999999 999999 999999 999999 999999 999999 14161 16178 16433 13689 10771 19341 19690 11502 11359 16964 16580 11789 18898 12314 13687 10990 11100 14166 14260 18066 15636 11801 15981 14858 11288 18737 19590 13140 17317 17626 17228 19172 15775 17191 13637 14365 19698 18475 14742 15549 15931 11751 15513 12372 15494 12185 19257 14490 11388 10508 17254 16682 11681 13706 13559 19813 12247 17053 17184 10563 999999
999999 999999 999999 999999 999999 999999 999999 999999 999999 999999 999999 999999 999999 999999 999999 999999 999999 999999 999999 999999 999999 999999 999999 999999 999999 999999 999999 999999 999999 999999 999999 0 999999 999999 999999 999999 999999 999999 999999 999999 999999 999999 999999 999999 999999 999999 999999 999999 999999 999999 999999 999999 999999 999999 999999 999999 999999 999999 999999 999999 999999 19723 10809 18729 11269 18947 18527 19902 14262 10345 12343 10869 11981 11462 19416 19108 10226 10662 19285 18987 18904 14480 16742 13651 15085 10566 10941 18129 13771 10525 14560 10199 14561 14209 17327 14431 17933 18282 13947 10366 19261 18137 14366 14144 10699 15029 15260 15504 16912 15595 15836 19719 18438 17299 18837 14052 11669 15722 18313 17856 17106 999999
999999 999999 999999 999999 999999 999999 999999 999999 999999 999999 999999 999999 999999 999999 999999 999999 999999 999999 999999 999999 999999 999999 999999 999999 999999 999999 999999 999999 999999 999999 999999 999999 0 999999 999999 999999 999999 999999 999999 999999 999999 999999 999999 999999 999999 999999 999999 999999 999999 999999 999999 999999 999999 999999 999999 999999 999999 999999 999999 999999 999999 13886 14676 18475 18021 15392 16201 14440 13180 11253 12669 19011 12299 18693 10211 18404 16696 15261 15729 17377 11139 15685 15156 17504 15929 10957 10247 10134 15287 13366 12243 15481 15909 14023 14757 15073 11766 17127 15056 19767 17653 12511 11246 14911 10305 11164 19777 10254 13008 12102 12895 15135 10240 12690 12816 17122 10269 11951 17188 13721 11024 999999
999999 999999 999999 999999 999999 999999 999999 999999 999999 999999 999999 999999 999999 999999 999999 999999 999999 999999 999999 999999 999999 999999 999999 999999 999999 999999 999999 999999 999999 999999 999999 999999 999999 0 999999 999999 999999 999999 999999 999999 999999 999999 999999 999999 999999 999999 999999 999999 999999 999999 999999 999999 999999 999999 999999 999999 999999 999999 999999 999999 999999 14382 19902 18001 15244 14209 16202 11963 18486 11454 15575 17018 16841 12827 16135 19244 15436 18845 18167 16180 13185 11923 19832 15632 15397 14323 13125 12888 11593 12774 10305 10592 17858 19022 14030 17704 11891 13144 14315 19170 10786 14652 11127 17902 17594 14766 13630 14372 12266 19594 18879 11315 13422 10126 17194 19646 18528 15331 18986 13015 12750 999999
999999 999999 999999 999999 999999 999999 999999 999999 999999 999999 999999 999999 999999 999999 999999 999999 999999 999999 999999 999999 999999 999999 999999 999999 999999 999999 999999 999999 999999 999999 999999 999999 999999 999999 0 999999 999999 999999 999999 999999 999999 999999 999999 999999 999999 999999 999999 999999 999999 999999 999999 999999 999999 999999 999999 999999 999999 999999 999999 999999 999999 16160 19038 13091 16812 17857 19419 17835 13840 12719 12507 11225 12864 17499 13603 15458 17010 18182 17404 19292 17895 17309 16421 17154 18691 12189 12078 19190 13247 14315 19234 17887 13410 18894 19115 12013 11110 19796 12657 15430 19989 13569 15661 12574 18730 10681 17031 14619 18852 13520 11341 17989 19323 13065 17905 10912 17513 12878 13328 15757 18675 999999
999999 999999 999999 999999 999999 999999 999999 999999 999999 999999 999999 999999 999999 999999 999999 999999 999999 999999 999999 999999 999999 999999 999999 999999 999999 999999 999999 999999 999999 999999 999999 999999 999999 999999 999999 0 999999 999999 999999 999999 999999 999999 999999 999999 999999 999999 999999 999999 999999 999999 999999 999999 999999 999999 999999 999999 999999 999999 999999 999999 999999 13672 16684 15203 12487 19950 14784 14012 11732 13049 16560 15348 19637 16285 18703 15065 14627 13863 18963 18557 13228 11781 14864 16559 19073 12811 12384 18191 17973 17223 15743 10758 11935 18252 15422 14721 16888 19484 18506 19592 19744 18462 15420 15952 16237 14371 12734 10998 19385 15336 12449 12967 14993 11390 10778 10922 19027 12319 15360 11865 10602 999999
999999 999999 999999 999999 999999 999999 999999 999999 999999 999999 999999 999999 999999 999999 999999 999999 999999 999999 999999 999999 999999 999999 999999 999999 999999 999999 999999 999999 999999 999999 999999 999999 999999 999999 999999 999999 0 999999 999999 999999 999999 999999 999999 999999 999999 999999 999999 999999 999999 999999 999999 999999 999999 999999 999999 999999 999999 999999 999999 999999 999999 16562 17911 13801 18917 18626 19060 17993 14323 17401 19279 11821 12943 16984 16370 19855 11111 13454 17165 14785 16573 14804 10152 15933 11456 10757 16231 16700 12466 19603 15116 13665 18253 12772 18645 12160 15370 19425 10121 19471 14577 14591 15215 19638 15082 11955 10147 15903 13514 12554 18566 18528 18302 13848 11306 13103 18146 17902 19754 16167 18014 999999
999999 999999 999999 999999 999999 999999 999999 999999 999999 999999 999999 999999 999999 999999 999999 999999 999999 999999 999999 999999 999999 999999 999999 999999 999999 999999 999999 999999 999999 999999 999999 999999 999999 999999 999999 999999 999999 0 999999 999999 999999 999999 999999 999999 999999 999999 999999 999999 999999 999999 999999 999999 999999 999999 999999 999999 999999 999999 999999 999999 999999 19052 10154 19838 16606 11896 15331 10039 16232 12741 12624 13422 19614 11465 15863 17840 17725 11026 18595 13855 11217 16049 15088 16661 19434 12295 11134 19763 18995 14061 11093 16988 18427 13792 18375 19189 16787 16966 14568 15498 14757 16459 17547 15142 12156 17910 14966 15566 10016 11392 14824 10929 18206 15064 16101 17520 15440 18890 18071 16006 13243 999999
999999 999999 999999 999999 999999 999999 999999 999999 999999 999999 999999 999999 999999 999999 999999 999999 999999 999999 999999 999999 999999 999999 999999 999999 999999 999999 999999 999999 999999 999999 999999 999999 999999 999999 999999 999999 999999 999999 0 999999 999999 999999 999999 999999 999999 999999 999999 999999 999999 999999 999999 999999 999999 999999 999999 999999 999999 999999 999999 999999 999999 10862 13049 17861 19621 15438 17391 12165 10777 19438 13973 14155 10946 14038 14516 11420 10890 13142 19656 13851 13043 15412 17914 13783 11137 18188 16451 14395 16118 10110 12265 16388 12464 17557 19794 18097 17356 11450 18274 14482 13082 19400 19346 12351 19636 14837 17228 14852 13620 10234 18726 14965 11811 12949 16487 16086 19242 19519 12554 12901 16615 999999
999999 999999 999999 999999 999999 999999 999999 999999 999999 999999 999999 999999 999999 999999 999999 999999 999999 999999 999999 999999 999999 999999 999999 999999 999999 999999 999999 999999 999999 999999 999999 999999 999999 999999 999999 999999 999999 999999 999999 0 999999 999999 999999 999999 999999 999999 999999 999999 999999 999999 999999 999999 999999 999999 999999 999999 999999 999999 999999 999999 999999 14014 10211 14854 13173 11476 16594 14569 18552 19022 11291 17720 12949 16359 16200 15950 11985 15145 15054 19280 13306 11097 15486 19104 10415 14065 12610 11958 15734 19545 12317 11822 10754 18431 11930 11075 15778 10449 10576 13749 13710 13768 17527 14154 16916 13258 14755 17150 16839 15582 11843 16456 13356 13803 16831 13621 12301 11163 14770 10018 16785 999999
999999 999999 999999 999999 999999 999999 999999 999999 999999 999999 999999 999999 999999 999999 999999 999999 999999 999999 999999 999999 999999 999999 999999 999999 999999 999999 999999 999999 999999 999999 999999 999999 999999 999999 999999 999999 999999 999999 999999 999999 0 999999 999999 999999 999999 999999 999999 999999 999999 999999 999999 999999 999999 999999 999999 999999 999999 999999 999999 999999 999999 16138 18492 15703 10002 15367 18282 15460 19336 15729 15341 18884 15276 18522 10846 14800 14178 15780 12689 11628 18387 13926 14959 12379 19173 17457 15543 15116 14376 17556 11165 13949 13552 15051 15626 12010 16466 15668 14556 11164 15992 11023 11351 11201 13318 18356 10184 18979 10662 15382 18297 14503 16008 15700 13878 14847 14115 10773 18603 15012 19069 999999
999999 999999 999999 999999 999999 999999 999999 999999 999999 999999 999999 999999 999999 999999 999999 999999 999999 999999 999999 999999 999999 999999 999999 999999 999999 999999 999999 999999 999999 999999 999999 999999 999999 999999 999999 999999 999999 999999 999999 999999 999999 0 999999 999999 999999 999999 999999 999999 999999 999999 999999 999999 999999 999999 999999 999999 999999 999999 999999 999999 999999 12471 12811 11528 19075 16829 18490 14009 14365 19935 13185 13879 14489 17289 13265 10834 16661 10058 10871 17359 15949 18455 11871 10453 13136 18017 17838 17075 10413 18420 11978 10929 17949 12177 16062 17661 16518 13755 11067 13643 18405 12568 11589 19255 18712 14066 17433 12052 18348 14442 19895 17250 15047 16794 14237 18882 10678 18189 19102 14752 19251 999999
999999 999999 999999 999999 999999 999999 999999 999999 999999 999999 999999 999999 999999 999999 999999 999999 999999 999999 999999 999999 999999 999999 999999 999999 999999 999999 999999 999999 999999 999999 999999 999999 999999 999999 999999 999999 999999 999999 999999 999999 999999 999999 0 999999 999999 999999 999999 999999 999999 999999 999999 999999 999999 999999 999999 999999 999999 999999 999999 999999 999999 10667 18437 17138 19519 19468 14534 18526 19528 14370 18699 17028 11111 13790 13683 13321 10422 11465 11301 15977 12476 14496 10766 19945 11804 13996 15883 15279 19515 11565 18149 17559 17603 19436 12024 10131 17198 10662 18404 17614 15691 10082 19923 18840 14897 16823 11318 16533 17280 17733 17643 19269 13134 19039 18771 11365 17048 13720 16688 17831 11661 999999
999999 999999 999999 999999 999999 999999 999999 999999 999999 999999 999999 999999 999999 999999 999999 999999 999999 999999 999999 999999 999999 999999 999999 999999 999999 999999 999999 999999 999999 999999 999999 999999 999999 999999 999999 999999 999999 999999 999999 999999 999999 999999 999999 0 999999 999999 999999 999999 999999 999999 999999 999999 999999 999999 999999 999999 999999 999999 999999 999999 999999 13725 13456 16013 11884 11518 12537 18438 18714 19387 15636 16362 14963 17244 19273 19358 12089 18379 18667 13976 11359 16882 10749 15753 14446 15207 18988 19441 16037 14088 10549 18335 17896 18902 18230 17993 19885 15384 18123 12402 15583 19643 10214 16480 17192 11664 15862 10317 18122 12595 12722 15876 17931 10739 12914 14549 15364 17979 15481 16610 17592 999999
999999 999999 999999 999999 999999 999999 999999 999999 999999 999999 999999 999999 999999 999999 999999 999999 999999 999999 999999 999999 999999 999999 999999 999999 999999 999999 999999 999999 999999 999999 999999 999999 999999 999999 999999 999999 999999 999999 999999 999999 999999 999999 999999 999999 0 999999 999999 999999 999999 999999 999999 999999 999999 999999 999999 999999 999999 999999 999999 999999 999999 11211 16198 19035 12403 17526 13746 12133 19989 12578 16120 11607 16162 11945 18762 17755 13611 15720 14082 12487 17162 18717 15231 18524 12078 15511 18769 12029 11273 12579 13868 19211 15214 11844 13286 12817 11020 10118 19008 16803 19643 14506 13164 15210 10278 18853 13573 12304 16171 15861 18656 18268 12230 13971 19859 19144 15249 18566 18378 16730 18226 999999
999999 999999 999999 999999 999999 999999 999999 999999 999999 999999 999999 999999 999999 999999 999999 999999 999999 999999 999999 999999 999999 999999 999999 999999 999999 999999 999999 999999 999999 999999 999999 999999 999999 999999 999999 999999 999999 999999 999999 999999 999999 999999 999999 999999 999999 0 999999 999999 999999 999999 999999 999999 999999 999999 999999 999999 999999 999999 999999 999999 999999 18010 12000 16964 18404 12598 18359 14218 12465 12767 14468 15956 14802 12231 17789 12811 17183 14534 16585 18092 13203 16617 15493 16758 13619 17907 11017 11531 18035 15937 13436 11257 17111 10576 16385 14039 16340 18358 10406 10755 12290 12950 14323 14370 11433 12862 18155 13030 18246 10567 19319 18034 17153 12432 18985 15009 12233 18743 16189 13108 16900 999999
999999 999999 999999 999999 999999 999999 999999 999999 999999 999999 999999 999999 999999 999999 999999 999999 999999 999999 999999 999999 999999 999999 999999 999999 999999 999999 999999 999999 999999 999999 999999 999999 999999 999999 999999 999999 999999 999999 999999 999999 999999 999999 999999 999999 999999 999999 0 999999 999999 999999 999999 999999 999999 999999 999999 999999 999999 999999 999999 999999 999999 14452 19017 19594 10022 14791 11550 15536 16768 13258 12317 12665 10645 14820 13852 14677 18606 12685 15954 11688 10895 12427 12052 19348 19908 14324 16641 13396 13425 13998 17577 16582 19925 14275 12288 10489 11082 16691 11346 18120 12603 19291 13163 15719 12303 18767 17895 12081 14789 14829 11148 12997 10792 10344 12676 19838 16216 14979 17066 15462 16014 999999
999999 999999 999999 999999 999999 999999 999999 999999 999999 999999 999999 999999 999999 999999 999999 999999 999999 999999 999999 999999 999999 999999 999999 999999 999999 999999 999999 999999 999999 999999 999999 999999 999999 999999 999999 999999 999999 999999 999999 999999 999999 999999 999999 999999 999999 999999 999999 0 999999 999999 999999 999999 999999 999999 999999 999999 999999 999999 999999 999999 999999 11916 14834 19861 17134 17283 13152 10658 16893 15110 16164 15528 14243 14785 11571 14213 14553 17592 12738 18081 18895 18469 18462 10196 17747 14425 18424 16828 16065 15727 19927 19429 11921 10274 12919 14765 16922 12711 15250 17762 11197 14985 10826 11123 14359 13791 19927 10909 15078 13103 15640 18883 16626 17780 19960 11170 13506 16706 17456 16245 18258 999999
999999 999999 999999 999999 999999 999999 999999 999999 999999 999999 999999 999999 999999 999999 999999 999999 999999 999999 999999 999999 999999 999999 999999 999999 999999 999999 999999 999999 999999 999999 999999 999999 999999 999999 999999 999999 999999 999999 999999 999999 999999 999999 999999 999999 999999 999999 999999 999999 0 999999 999999 999999 999999 999999 999999 999999 999999 999999 999999 999999 999999 11836 19738 12223 15901 19262 13866 18608 19709 11273 11119 17854 16895 11849 14929 11417 13470 19529 18707 16136 14135 13045 10645 19186 13221 13777 12454 12732 13141 16945 15987 15744 11139 19957 14530 19982 10830 13562 11893 11166 19038 13466 19086 18133 18342 11951 16800 18577 17678 18269 12316 12077 12067 18468 14772 10468 19762 16874 11035 19436 13339 999999
999999 999999 999999 999999 999999 999999 999999 999999 999999 999999 999999 999999 999999 999999 999999 999999 999999 999999 999999 999999 999999 999999 999999 999999 999999 999999 999999 999999 999999 999999 999999 999999 999999 999999 999999 999999 999999 999999 999999 999999 999999 999999 999999 999999 999999 999999 999999 999999 999999 0 999999 999999 999999 999999 999999 999999 999999 999999 999999 999999 999999 16278 19533 10495 10855 15313 11652 16023 11813 12160 14231 13409 14334 11395 17167 17978 19791 13553 17809 16177 13399 16830 10032 17608 16408 17996 18170 17211 11100 18151 17298 16954 11549 18383 16383 12992 15732 15480 16993 16942 19316 15685 11617 14402 13365 19602 14317 12504 15269 14957 12695 17997 17320 10240 19164 19132 17747 11984 15267 10210 10679 999999
999999 999999 999999 999999 999999 999999 999999 999999 999999 999999 999999 999999 999999 999999 999999 999999 999999 999999 999999 999999 999999 999999 999999 999999 999999 999999 999999 999999 999999 999999 999999 999999 999999 999999 999999 999999 999999 999999 999999 999999 999999 999999 999999 999999 999999 999999 999999 999999 999999 999999 0 999999 999999 999999 999999 999999 999999 999999 999999 999999 999999 15611 13477 19956 10235 10420 17869 12939 15357 18985 14574 19637 11873 15503 14812 12304 18657 16202 14935 15132 10553 13339 18691 18879 12877 17439 17087 14455 15573 17831 17613 14436 15688 19247 13178 18671 12841 15732 14662 11772 10609 15788 17634 11670 10968 12173 10603 12177 12158 12957 19366 12233 13294 17584 16780 19475 19760 19065 12368 19726 13964 999999
999999 999999 999999 999999 999999 999999 999999 999999 999999 999999 999999 999999 999999 999999 999999 999999 999999 999999 999999 999999 999999 999999 999999 999999 999999 999999 999999 999999 999999 999999 999999 999999 999999 999999 999999 999999 999999 999999 999999 999999 999999 999999 999999 999999 999999 999999 999999 999999 999999 999999 999999 0 999999 999999 999999 999999 999999 999999 999999 999999 999999 15552 16791 17990 19968 17503 12765 15395 10229 17369 15194 17891 18721 15623 13820 14972 11388 15702 17295 16494 11299 15118 13118 12017 16753 15734 19172 14233 14434 11609 14430 16436 13218 13432 16143 17845 18784 17353 18365 17469 15800 12535 15207 13845 16241 13094 19365 16961 12045 12537 19539 10761 12270 11257 10243 13868 11783 12292 19220 14922 17523 999999
999999 999999 999999 999999 999999 999999 999999 999999 999999 999999 999999 999999 999999 999999 999999 999999 999999 999999 999999 999999 999999 999999 999999 999999 999999 999999 999999 999999 999999 999999 999999 999999 999999 999999 999999 999999 999999 999999 999999 999999 999999 999999 999999 999999 999999 999999 999999 999999 999999 999999 999999 999999 0 999999 999999 999999 999999 999999 999999 999999 999999 12827 18135 18195 15924 13717 15429 17983 14234 11109 15969 11889 16792 18895 13436 13664 15916 11813 15112 12125 18141 10822 18723 13754 18251 10350 12235 18359 10290 11966 18176 18474 12274 19626 10286 18839 17511 13244 11457 18962 16958 18055 14937 12414 16615 11439 19460 18468 14943 10231 15493 13606 10179 15793 16401 12189 18564 13698 13017 16221 14700 999999
999999 999999 999999 999999 999999 999999 999999 999999 999999 999999 999999 999999 999999 999999 999999 999999 999999 999999 999999 999999 999999 999999 999999 999999 999999 999999 999999 999999 999999 999999 999999 999999 999999 999999 999999 999999 999999 999999 999999 999999 999999 999999 999999 999999 999999 999999 999999 999999 999999 999999 999999 999999 999999 0 999999 999999 999999 999999 999999 999999 999999 13779 10286 14811 16772 14132 10992 11257 16888 18657 14352 10156 18361 17415 14671 16610 10043 10066 18609 14850 12760 12452 13053 10869 10882 18462 17437 18676 14338 18053 12031 14877 19099 19169 12526 13838 12855 14441 13844 16033 14401 19164 10678 13753 19438 13117 19136 15786 11101 14151 16325 13332 10154 13346 17228 13920 12887 11547 13598 17213 14059 999999
999999 999999 999999 999999 999999 999999 999999 999999 999999 999999 999999 999999 999999 999999 999999 999999 999999 999999 999999 999999 999999 999999 999999 999999 999999 999999 999999 999999 999999 999999 999999 999999 999999 999999 999999 999999 999999 999999 999999 999999 999999 999999 999999 999999 999999 999999 999999 999999 999999 999999 999999 999999 999999 999999 0 999999 999999 999999 999999 999999 999999 14752 18964 13194 18948 13811 14872 16250 19769 13424 17718 10004 13470 17334 18130 11048 16441 19712 13338 18138 19346 16664 19058 19760 17795 14041 13922 14699 14599 10208 11016 13558 10731 12734 14143 15173 14088 19218 13077 12787 16774 14898 16946 12794 13837 14803 15000 19410 16111 11030 11189 17944 12165 12080 12598 18338 19550 11657 17639 17323 10310 999999
999999 999999 999999 999999 999999 999999 999999 999999 999999 999999 999999 999999 999999 999999 999999 999999 999999 999999 999999 999999 999999 999999 999999 999999 999999 999999 999999 999999 999999 999999 999999 999999 999999 999999 999999 999999 999999 999999 999999 999999 999999 999999 999999 999999 999999 999999 999999 999999 999999 999999 999999 999999 999999 999999 999999 0 999999 999999 999999 999999 999999 14225 14541 10561 12168 19082 17556 16777 19683 15637 17992 12515 18693 15879 17841 10175 10692 11874 14792 10855 15668 16634 12985 16374 17273 12367 17222 10871 16578 17518 19527 14567 12349 19017 10494 14730 19015 11431 13266 14098 19368 16140 19479 19006 17039 15886 18043 10981 19117 19900 10202 12475 16400 13219 14703 17489 16075 11101 17040 13275 12405 999999
999999 999999 999999 999999 999999 999999 999999 999999 999999 999999 999999 999999 999999 999999 999999 999999 999999 999999 999999 999999 999999 999999 999999 999999 999999 999999 999999 999999 999999 999999 999999 999999 999999 999999 999999 999999 999999 999999 999999 999999 999999 999999 999999 999999 999999 999999 999999 999999 999999 999999 999999 999999 999999 999999 999999 999999 0 999999 999999 999999 999999 13342 13977 14988 15348 15760 14626 12014 10419 11738 18433 13505 19804 11877 10436 12445 14783 14298 14362 12851 16917 15307 10263 18392 19866 14548 14276 14472 18403 10841 15604 15574 18300 13759 14299 12912 19511 18576 12502 10598 14324 17957 19149 15326 12390 18775 17281 15203 12944 17949 17284 13060 13877 10959 14796 18054 14941 18447 16442 16239 19230 999999
999999 999999 999999 999999 999999 999999 999999 999999 999999 999999 999999 999999 999999 999999 999999 999999 999999 999999 999999 999999 999999 999999 999999 999999 999999 999999 999999 999999 999999 999999 999999 999999 999999 999999 999999 999999 999999 999999 999999 999999 999999 999999 999999 999999 999999 999999 999999 999999 999999 999999 999999 999999 999999 999999 999999 999999 999999 0 999999 999999 999999 10210 12154 11635 13727 18605 15194 12111 13908 12997 13862 10960 14393 16298 10080 14098 17661 12465 19765 10997 19442 18750 13054 13933 14436 17189 13590 14425 14764 10058 18889 10319 12191 11201 12634 18759 16490 18041 16984 17927 19567 16671 13569 10433 16498 16527 15616 13946 16948 18256 12156 19370 18692 10640 11358 14287 11156 13504 13848 11423 15450 999999
999999 999999 999999 999999 999999 999999 999999 999999 999999 999999 999999 999999 999999 999999 999999 999999 999999 999999 999999 999999 999999 999999 999999 999999 999999 999999 999999 999999 999999 999999 999999 999999 999999 999999 999999 999999 999999 999999 999999 999999 999999 999999 999999 999999 999999 999999 999999 999999 999999 999999 999999 999999 999999 999999 999999 999999 999999 999999 0 999999 999999 17534 10613 15642 18161 13135 15769 12672 15876 15042 19652 12379 11722 11997 13815 15936 10631 11568 17167 10995 12580 15715 11994 12553 18238 11605 15001 13755 17123 10485 12198 17026 10958 11871 12507 14055 16992 16225 12059 18995 19178 17111 11515 18889 13451 19865 16353 15267 15495 10219 19863 18491 12746 10267 19354 17472 13532 17245 16365 11331 16660 999999
999999 999999 999999 999999 999999 999999 999999 999999 999999 999999 999999 999999 999999 999999 999999 999999 999999 999999 999999 999999 999999 999999 999999 999999 999999 999999 999999 999999 999999 999999 999999 999999 999999 999999 999999 999999 999999 999999 999999 999999 999999 999999 999999 999999 999999 999999 999999 999999 999999 999999 999999 999999 999999 999999 999999 999999 999999 999999 999999 0 999999 17154 18092 11280 16080 18664 16587 12082 17734 17503 15100 13671 12720 16176 12598 11871 14047 10793 10374 11590 19300 15126 11394 17936 18091 11477 18962 17876 14903 10510 14061 10069 11227 16914 13260 18749 17338 16905 15510 11510 18930 10281 18519 12725 15211 17711 10635 18904 15462 16248 13156 18733 12191 12176 14197 18845 16148 19204 11180 12449 16791 999999
999999 999999 999999 999999 999999 999999 999999 999999 999999 999999 999999 999999 999999 999999 999999 999999 999999 999999 999999 999999 999999 999999 999999 999999 999999 999999 999999 999999 999999 999999 999999 999999 999999 999999 999999 999999 999999 999999 999999 999999 999999 999999 999999 999999 999999 999999 999999 999999 999999 999999 999999 999999 999999 999999 999999 999999 999999 999999 999999 999999 0 18019 18098 10174 17656 16300 19207 18156 19594 11093 12870 19638 15067 13744 13664 17794 18964 11079 14388 13013 13638 17453 16927 14261 17679 14154 14266 16287 14580 11469 13235 10514 13382 17337 16623 15601 12278 10841 15823 12959 19827 10609 15430 12856 19097 18569 16501 15728 11811 14871 10960 12468 13023 11992 17203 13121 12208 12742 12734 14202 10879 999999
999999 17896 11730 14636 16212 15827 14986 10132 14955 11849 18725 11436 16294 10224 14058 14126 11918 18924 12623 15328 15034 19805 19632 11539 14642 12653 11359 17169 18087 17439 14161 19723 13886 14382 16160 13672 16562 19052 10862 14014 16138 12471 10667 13725 11211 18010 14452 11916 11836 16278 15611 15552 12827 13779 14752 14225 13342 10210 17534 17154 18019 0 999999 999999 999999 999999 999999 999999 999999 999999 999999 999999 999999 999999 999999 999999 999999 999999 999999 999999 999999 999999 999999 999999 999999 999999 999999 999999 999999 999999 999999 999999 999999 999999 999999 999999 999999 999999 999999 999999 999999 999999 999999 999999 999999 999999 999999 999999 999999 999999 999999 999999 999999 999999 999999 999999 999999 999999 999999 999999 999999 6984
999999 17566 19138 12695 10418 14537 15315 15867 13814 13281 16071 15343 13988 14001 12424 11402 12317 18867 19919 10791 14542 16061 11793 15824 11201 11676 16651 10031 16887 10832 16178 10809 14676 19902 19038 16684 17911 10154 13049 10211 18492 12811 18437 13456 16198 12000 19017 14834 19738 19533 13477 16791 18135 10286 18964 14541 13977 12154 10613 18092 18098 999999 0 999999 999999 999999 999999 999999 999999 999999 999999 999999 999999 999999 999999 999999 999999 999999 999999 999999 999999 999999 999999 999999 999999 999999 999999 999999 999999 999999 999999 999999 999999 999999 999999 999999 999999 999999 999999 999999 999999 999999 999999 999999 999999 999999 999999 999999 999999 999999 999999 999999 999999 999999 999999 999999 999999 999999 999999 999999 999999 7860
999999 17139 17386 13104 13457 14776 18925 18847 11960 12195 17382 13021 13338 14112 16483 11198 16040 19667 19070 19496 13632 15336 13325 19702 17559 18517 14852 18730 10873 19560 16433 18729 18475 18001 13091 15203 13801 19838 17861 14854 15703 11528 17138 16013 19035 16964 19594 19861 12223 10495 19956 17990 18195 14811 13194 10561 14988 11635 15642 11280 10174 999999 999999 0 999999 999999 999999 999999 999999 999999 999999 999999 999999 999999 999999 999999 999999 999999 999999 999999 999999 999999 999999 999999 999999 999999 999999 999999 999999 999999 999999 999999 999999 999999 999999 999999 999999 999999 999999 999999 999999 999999 999999 999999 999999 999999 999999 999999 999999 999999 999999 999999 999999 999999 999999 999999 999999 999999 999999 999999 999999 6667
999999 13581 11540 17574 17510 15007 15162 19574 14369 10515 14634 13510 15881 14690 14538 11826 15185 11239 12928 19844 18121 13617 11107 16492 16074 16318 16393 11255 10065 14093 13689 11269 18021 15244 16812 12487 18917 16606 19621 13173 10002 19075 19519 11884 12403 18404 10022 17134 15901 10855 10235 19968 15924 16772 18948 12168 15348 13727 18161 16080 17656 999999 999999 999999 0 999999 999999 999999 999999 999999 999999 999999 999999 999999 999999 999999 999999 999999 999999 999999 999999 999999 999999 999999 999999 999999 999999 999999 999999 999999 999999 999999 999999 999999 999999 999999 999999 999999 999999 999999 999999 999999 999999 999999 999999 999999 999999 999999 999999 999999 999999 999999 999999 999999 999999 999999 999999 999999 999999 999999 999999 13145
999999 18463 15291 15168 12286 15957 13951 16157 15624 19212 11089 18496 19568 13014 12071 11655 15668 16785 17827 11879 19524 14880 16832 13690 15719 16727 13609 15236 18283 18988 10771 18947 15392 14209 17857 19950 18626 11896 15438 11476 15367 16829 19468 11518 17526 12598 14791 17283 19262 15313 10420 17503 13717 14132 13811 19082 15760 18605 13135 18664 16300 999999 999999 999999 999999 0 999999 999999 999999 999999 999999 999999 999999 999999 999999 999999 999999 999999 999999 999999 999999 999999 999999 999999 999999 999999 999999 999999 999999 999999 999999 999999 999999 999999 999999 999999 999999 999999 999999 999999 999999 999999 999999 999999 999999 999999 999999 999999 999999 999999 999999 999999 999999 999999 999999 999999 999999 999999 999999 999999 999999 11077
999999 14163 16327 14669 14824 13235 17430 13824 16822 12141 13694 19722 10427 12534 16605 17239 15686 19058 14410 13608 14853 17454 14287 10478 13055 19446 18295 11933 10812 11370 19341 18527 16201 16202 19419 14784 19060 15331 17391 16594 18282 18490 14534 12537 13746 18359 11550 13152 13866 11652 17869 12765 15429 10992 14872 17556 14626 15194 15769 16587 19207 999999 999999 999999 999999 999999 0 999999 999999 999999 999999 999999 999999 999999 999999 999999 999999 999999 999999 999999 999999 999999 999999 999999 999999 999999 999999 999999 999999 999999 999999 999999 999999 999999 999999 999999 999999 999999 999999 999999 999999 999999 999999 999999 999999 999999 999999 999999 999999 999999 999999 999999 999999 999999 999999 999999 999999 999999 999999 999999 999999 8975
999999 10488 14646 16056 16249 18505 13815 14135 14282 12524 17455 14068 18876 19959 17527 12767 10958 12981 15157 13206 18843 15251 11850 13858 12760 15383 11080 19851 18399 10593 19690 19902 14440 11963 17835 14012 17993 10039 12165 14569 15460 14009 18526 18438 12133 14218 15536 10658 18608 16023 12939 15395 17983 11257 16250 16777 12014 12111 12672 12082 18156 999999 999999 999999 999999 999999 999999 0 999999 999999 999999 999999 999999 999999 999999 999999 999999 999999 999999 999999 999999 999999 999999 999999 999999 999999 999999 999999 999999 999999 999999 999999 999999 999999 999999 999999 999999 999999 999999 999999 999999 999999 999999 999999 999999 999999 999999 999999 999999 999999 999999 999999 999999 999999 999999 999999 999999 999999 999999 999999 999999 7119
999999 16105 18051 11365 13275 15769 18465 13794 10764 15839 14101 12163 12776 16792 10043 16650 17268 10262 17859 12885 19579 10024 19129 14611 18935 10334 11460 12159 16438 19318 11502 14262 13180 18486 13840 11732 14323 16232 10777 18552 19336 14365 19528 18714 19989 12465 16768 16893 19709 11813 15357 10229 14234 16888 19769 19683 10419 13908 15876 17734 19594 999999 999999 999999 999999 999999 999999 999999 0 999999 999999 999999 999999 999999 999999 999999 999999 999999 999999 999999 999999 999999 999999 999999 999999 999999 999999 999999 999999 999999 999999 999999 999999 999999 999999 999999 999999 999999 999999 999999 999999 999999 999999 999999 999999 999999 999999 999999 999999 999999 999999 999999 999999 999999 999999 999999 999999 999999 999999 999999 999999 6393
999999 17977 17023 19924 18629 15633 16132 19800 18050 12405 12718 19907 10444 14494 19545 19211 18789 12322 11250 18971 12277 19080 16302 16926 19813 17521 13752 17623 19867 14568 11359 10345 11253 11454 12719 13049 17401 12741 19438 19022 15729 19935 14370 19387 12578 12767 13258 15110 11273 12160 18985 17369 11109 18657 13424 15637 11738 12997 15042 17503 11093 999999 999999 999999 999999 999999 999999 999999 999999 0 999999 999999 999999 999999 999999 999999 999999 999999 999999 999999 999999 999999 999999 999999 999999 999999 999999 999999 999999 999999 999999 999999 999999 999999 999999 999999 999999 999999 999999 999999 999999 999999 999999 999999 999999 999999 999999 999999 999999 999999 999999 999999 999999 999999 999999 999999 999999 999999 999999 999999 999999 5360
999999 10779 12122 11591 16962 14985 18618 12827 11998 15214 13410 15328 19279 19664 17285 10749 16400 17857 16557 15889 10199 11496 19309 15123 19254 14576 13018 11049 16046 10234 16964 12343 12669 15575 12507 16560 19279 12624 13973 11291 15341 13185 18699 15636 16120 14468 12317 16164 11119 14231 14574 15194 15969 14352 17718 17992 18433 13862 19652 15100 12870 999999 999999 999999 999999 999999 999999 999999 999999 999999 0 999999 999999 999999 999999 999999 999999 999999 999999 999999 999999 999999 999999 999999 999999 999999 999999 999999 999999 999999 999999 999999 999999 999999 999999 999999 999999 999999 999999 999999 999999 999999 999999 999999 999999 999999 999999 999999 999999 999999 999999 999999 999999 999999 999999 999999 999999 999999 999999 999999 999999 6614
999999 13878 12048 10212 19144 15269 16153 19820 14882 15783 16396 19721 17162 14907 19561 14999 15394 19735 12347 17737 15831 14029 19010 18819 12426 10755 10957 13802 18150 10187 16580 10869 19011 17018 11225 15348 11821 13422 14155 17720 18884 13879 17028 16362 11607 15956 12665 15528 17854 13409 19637 17891 11889 10156 10004 12515 13505 10960 12379 13671 19638 999999 999999 999999 999999 999999 999999 999999 999999 999999 999999 0 999999 999999 999999 999999 999999 999999 999999 999999 999999 999999 999999 999999 999999 999999 999999 999999 999999 999999 999999 999999 999999 999999 999999 999999 999999 999999 999999 999999 999999 999999 999999 999999 999999 999999 999999 999999 999999 999999 999999 999999 999999 999999 999999 999999 999999 999999 999999 999999 999999 7169
999999 13400 14792 13679 19349 13296 11641 18376 16393 14389 13501 11434 14630 11530 18975 16489 15269 15873 10223 12081 19154 11539 18596 17500 13107 19377 15992 18929 18416 18640 11789 11981 12299 16841 12864 19637 12943 19614 10946 12949 15276 14489 11111 14963 16162 14802 10645 14243 16895 14334 11873 18721 16792 18361 13470 18693 19804 14393 11722 12720 15067 999999 999999 999999 999999 999999 999999 999999 999999 999999 999999 999999 0 999999 999999 999999 999999 999999 999999 999999 999999 999999 999999 999999 999999 999999 999999 999999 999999 999999 999999 999999 999999 999999 999999 999999 999999 999999 999999 999999 999999 999999 999999 999999 999999 999999 999999 999999 999999 999999 999999 999999 999999 999999 999999 999999 999999 999999 999999 999999 999999 10917
999999 17208 18016 18959 10524 12411 19828 18775 12606 11304 13580 14648 15623 19308 18515 16362 17290 11644 16700 16926 17890 13130 18823 15913 11564 13330 15892 10715 15345 16274 18898 11462 18693 12827 17499 16285 16984 11465 14038 16359 18522 17289 13790 17244 11945 12231 14820 14785 11849 11395 15503 15623 18895 17415 17334 15879 11877 16298 11997 16176 13744 999999 999999 999999 999999 999999 999999 999999 999999 999999 999999 999999 999999 0 999999 999999 999999 999999 999999 999999 999999 999999 999999 999999 999999 999999 999999 999999 999999 999999 999999 999999 999999 999999 999999 999999 999999 999999 999999 999999 999999 999999 999999 999999 999999 999999 999999 999999 999999 999999 999999 999999 999999 999999 999999 999999 999999 999999 999999 999999 999999 12020
999999 14886 12732 14383 11903 19490 18532 12229 16199 10086 19912 10466 12956 19271 13502 16837 14228 16769 15113 18725 19524 10662 15858 17430 19566 10886 13101 16077 17425 15396 12314 19416 10211 16135 13603 18703 16370 15863 14516 16200 10846 13265 13683 19273 18762 17789 13852 11571 14929 17167 14812 13820 13436 14671 18130 17841 10436 10080 13815 12598 13664 999999 999999 999999 999999 999999 999999 999999 999999 999999 999999 999999 999999 999999 0 999999 999999 999999 999999 999999 999999 999999 999999 999999 999999 999999 999999 999999 999999 999999 999999 999999 999999 999999 999999 999999 999999 999999 999999 999999 999999 999999 999999 999999 999999 999999 999999 999999 999999 999999 999999 999999 999999 999999 999999 999999 999999 999999 999999 999999 999999 11122
999999 17699 14591 12593 15308 15261 15162 15615 11081 18417 12628 16800 14288 12936 13461 10223 17311 16966 13507 19122 13348 16765 19804 12662 15141 11405 15213 18165 19259 18623 13687 19108 18404 19244 15458 15065 19855 17840 11420 15950 14800 10834 13321 19358 17755 12811 14677 14213 11417 17978 12304 14972 13664 16610 11048 10175 12445 14098 15936 11871 17794 999999 999999 999999 999999 999999 999999 999999 999999 999999 999999 999999 999999 999999 999999 0 999999 999999 999999 999999 999999 999999 999999 999999 999999 999999 999999 999999 999999 999999 999999 999999 999999 999999 999999 999999 999999 999999 999999 999999 999999 999999 999999 999999 999999 999999 999999 999999 999999 999999 999999 999999 999999 999999 999999 999999 999999 999999 999999 999999 999999 8717
999999 17814 16490 18998 11244 10324 19662 15015 14045 14742 19951 12086 11190 10758 15158 19309 14135 14301 15948 11111 10539 12291 10818 14325 11401 18401 10366 10124 18797 15123 10990 10226 16696 15436 17010 14627 11111 17725 10890 11985 14178 16661 10422 12089 13611 17183 18606 14553 13470 19791 18657 11388 15916 10043 16441 10692 14783 17661 10631 14047 18964 999999 999999 999999 999999 999999 999999 999999 999999 999999 999999 999999 999999 999999 999999 999999 0 999999 999999 999999 999999 999999 999999 999999 999999 999999 999999 999999 999999 999999 999999 999999 999999 999999 999999 999999 999999 999999 999999 999999 999999 999999 999999 999999 999999 999999 999999 999999 999999 999999 999999 999999 999999 999999 999999 999999 999999 999999 999999 999999 999999 6003
999999 18594 15286 14849 16466 19344 11139 11961 14784 12871 10209 11980 10600 19248 10434 18703 19695 17940 12975 11539 14250 17448 16659 13564 19587 15663 15367 19421 12019 18665 11100 10662 15261 18845 18182 13863 13454 11026 13142 15145 15780 10058 11465 18379 15720 14534 12685 17592 19529 13553 16202 15702 11813 10066 19712 11874 14298 12465 11568 10793 11079 999999 999999 999999 999999 999999 999999 999999 999999 999999 999999 999999 999999 999999 999999 999999 999999 0 999999 999999 999999 999999 999999 999999 999999 999999 999999 999999 999999 999999 999999 999999 999999 999999 999999 999999 999999 999999 999999 999999 999999 999999 999999 999999 999999 999999 999999 999999 999999 999999 999999 999999 999999 999999 999999 999999 999999 999999 999999 999999 999999 13542
999999 18017 12848 10143 19138 14679 12163 10387 19505 10801 18014 12702 17347 18347 14118 15386 16916 11599 17353 15166 12679 17307 10339 19198 14072 10417 11729 14991 12647 12972 14166 19285 15729 18167 17404 18963 17165 18595 19656 15054 12689 10871 11301 18667 14082 16585 15954 12738 18707 17809 14935 17295 15112 18609 13338 14792 14362 19765 17167 10374 14388 999999 999999 999999 999999 999999 999999 999999 999999 999999 999999 999999 999999 999999 999999 999999 999999 999999 0 999999 999999 999999 999999 999999 999999 999999 999999 999999 999999 999999 999999 999999 999999 999999 999999 999999 999999 999999 999999 999999 999999 999999 999999 999999 999999 999999 999999 999999 999999 999999 999999 999999 999999 999999 999999 999999 999999 999999 999999 999999 999999 13484
999999 11078 18114 16831 19358 19975 16197 16908 12789 19137 19961 14044 14127 16840 18932 13843 18860 19577 15882 14588 15623 13183 15254 13511 17979 16344 15738 14801 19701 10779 14260 18987 17377 16180 19292 18557 14785 13855 13851 19280 11628 17359 15977 13976 12487 18092 11688 18081 16136 16177 15132 16494 12125 14850 18138 10855 12851 10997 10995 11590 13013 999999 999999 999999 999999 999999 999999 999999 999999 999999 999999 999999 999999 999999 999999 999999 999999 999999 999999 0 999999 999999 999999 999999 999999 999999 999999 999999 999999 999999 999999 999999 999999 999999 999999 999999 999999 999999 999999 999999 999999 999999 999999 999999 999999 999999 999999 999999 999999 999999 999999 999999 999999 999999 999999 999999 999999 999999 999999 999999 999999 10491
999999 17066 13579 11718 15654 15341 13951 12097 18550 17329 18128 10777 18394 16905 18335 15736 18715 10793 13744 14411 13677 17511 15588 19919 18113 15950 19475 16822 11825 16664 18066 18904 11139 13185 17895 13228 16573 11217 13043 13306 18387 15949 12476 11359 17162 13203 10895 18895 14135 13399 10553 11299 18141 12760 19346 15668 16917 19442 12580 19300 13638 999999 999999 999999 999999 999999 999999 999999 999999 999999 999999 999999 999999 999999 999999 999999 999999 999999 999999 999999 0 999999 999999 999999 999999 999999 999999 999999 999999 999999 999999 999999 999999 999999 999999 999999 999999 999999 999999 999999 999999 999999 999999 999999 999999 999999 999999 999999 999999 999999 999999 999999 999999 999999 999999 999999 999999 999999 999999 999999 999999 10213
999999 10092 19768 12238 15636 10248 11026 11456 19826 12398 13157 14159 10907 10158 17866 19398 17193 18817 19063 10637 11071 14993 17670 16723 14329 17590 15094 13962 10979 13179 15636 14480 15685 11923 17309 11781 14804 16049 15412 11097 13926 18455 14496 16882 18717 16617 12427 18469 13045 16830 13339 15118 10822 12452 16664 16634 15307 18750 15715 15126 17453 999999 999999 999999 999999 999999 999999 999999 999999 999999 999999 999999 999999 999999 999999 999999 999999 999999 999999 999999 999999 0 999999 999999 999999 999999 999999 999999 999999 999999 999999 999999 999999 999999 999999 999999 999999 999999 999999 999999 999999 999999 999999 999999 999999 999999 999999 999999 999999 999999 999999 999999 999999 999999 999999 999999 999999 999999 999999 999999 999999 8196
999999 15040 15155 15476 19836 19125 18532 19289 11755 10231 12924 18966 12529 19693 12502 10878 19453 13175 12747 13573 18410 17463 14120 16690 14758 17746 13398 19401 18276 11212 11801 16742 15156 19832 16421 14864 10152 15088 17914 15486 14959 11871 10766 10749 15231 15493 12052 18462 10645 10032 18691 13118 18723 13053 19058 12985 10263 13054 11994 11394 16927 999999 999999 999999 999999 999999 999999 999999 999999 999999 999999 999999 999999 999999 999999 999999 999999 999999 999999 999999 999999 999999 0 999999 999999 999999 999999 999999 999999 999999 999999 999999 999999 999999 999999 999999 999999 999999 999999 999999 999999 999999 999999 999999 999999 999999 999999 999999 999999 999999 999999 999999 999999 999999 999999 999999 999999 999999 999999 999999 999999 14122
999999 17194 12714 16231 10474 12722 18522 14995 16259 13634 15806 19142 16069 17029 14683 16854 17073 18719 13722 10678 12701 10287 14255 14909 15332 16287 15006 15310 19422 11727 15981 13651 17504 15632 17154 16559 15933 16661 13783 19104 12379 10453 19945 15753 18524 16758 19348 10196 19186 17608 18879 12017 13754 10869 19760 16374 18392 13933 12553 17936 14261 999999 999999 999999 999999 999999 999999 999999 999999 999999 999999 999999 999999 999999 999999 999999 999999 999999 999999 999999 999999 999999 999999 0 999999 999999 999999 999999 999999 999999 999999 999999 999999 999999 999999 999999 999999 999999 999999 999999 999999 999999 999999 999999 999999 999999 999999 999999 999999 999999 999999 999999 999999 999999 999999 999999 999999 999999 999999 999999 999999 9527
999999 18595 13256 19852 18633 10220 18036 13850 11524 18436 14583 16762 14505 15376 12514 14287 16475 11497 19704 13313 10033 13108 18999 14848 13667 19495 14405 11241 11878 14397 14858 15085 15929 15397 18691 19073 11456 19434 11137 10415 19173 13136 11804 14446 12078 13619 19908 17747 13221 16408 12877 16753 18251 10882 17795 17273 19866 14436 18238 18091 17679 999999 999999 999999 999999 999999 999999 999999 999999 999999 999999 999999 999999 999999 999999 999999 999999 999999 999999 999999 999999 999999 999999 999999 0 999999 999999 999999 999999 999999 999999 999999 999999 999999 999999 999999 999999 999999 999999 999999 999999 999999 999999 999999 999999 999999 999999 999999 999999 999999 999999 999999 999999 999999 999999 999999 999999 999999 999999 999999 999999 14170
999999 16913 13334 15331 15505 10970 10086 13063 17425 16547 11953 18277 11943 12482 13114 16279 10643 17285 17623 19833 16921 17030 12939 19053 19095 11587 19880 16131 10404 17092 11288 10566 10957 14323 12189 12811 10757 12295 18188 14065 17457 18017 13996 15207 15511 17907 14324 14425 13777 17996 17439 15734 10350 18462 14041 12367 14548 17189 11605 11477 14154 999999 999999 999999 999999 999999 999999 999999 999999 999999 999999 999999 999999 999999 999999 999999 999999 999999 999999 999999 999999 999999 999999 999999 999999 0 999999 999999 999999 999999 999999 999999 999999 999999 999999 999999 999999 999999 999999 999999 999999 999999 999999 999999 999999 999999 999999 999999 999999 999999 999999 999999 999999 999999 999999 999999 999999 999999 999999 999999 999999 12101
999999 13315 17515 11391 11197 17769 10144 19750 16471 19205 18946 14216 18589 11949 17487 13029 17468 12761 11578 18511 12304 18073 18315 18766 19291 16567 15106 14273 18804 18679 18737 10941 10247 13125 12078 12384 16231 11134 16451 12610 15543 17838 15883 18988 18769 11017 16641 18424 12454 18170 17087 19172 12235 17437 13922 17222 14276 13590 15001 18962 14266 999999 999999 999999 999999 999999 999999 999999 999999 999999 999999 999999 999999 999999 999999 999999 999999 999999 999999 999999 999999 999999 999999 999999 999999 999999 0 999999 999999 999999 999999 999999 999999 999999 999999 999999 999999 999999 999999 999999 999999 999999 999999 999999 999999 999999 999999 999999 999999 999999 999999 999999 999999 999999 999999 999999 999999 999999 999999 999999 999999 5448
999999 13185 19826 18176 12404 17271 17494 16358 14982 13249 15537 11479 18816 12362 17289 10562 13212 16222 11400 19247 19194 14719 11133 16462 14275 17252 18355 19105 15718 16525 19590 18129 10134 12888 19190 18191 16700 19763 14395 11958 15116 17075 15279 19441 12029 11531 13396 16828 12732 17211 14455 14233 18359 18676 14699 10871 14472 14425 13755 17876 16287 999999 999999 999999 999999 999999 999999 999999 999999 999999 999999 999999 999999 999999 999999 999999 999999 999999 999999 999999 999999 999999 999999 999999 999999 999999 999999 0 999999 999999 999999 999999 999999 999999 999999 999999 999999 999999 999999 999999 999999 999999 999999 999999 999999 999999 999999 999999 999999 999999 999999 999999 999999 999999 999999 999999 999999 999999 999999 999999 999999 8478
999999 19654 17639 18823 14500 11530 14350 12544 12383 16107 19951 18216 16790 15396 18588 15352 15596 13695 15465 19189 10303 16452 10802 12447 13813 16509 15966 10508 18893 11888 13140 13771 15287 11593 13247 17973 12466 18995 16118 15734 14376 10413 19515 16037 11273 18035 13425 16065 13141 11100 15573 14434 10290 14338 14599 16578 18403 14764 17123 14903 14580 999999 999999 999999 999999 999999 999999 999999 999999 999999 999999 999999 999999 999999 999999 999999 999999 999999 999999 999999 999999 999999 999999 999999 999999 999999 999999 999999 0 999999 999999 999999 999999 999999 999999 999999 999999 999999 999999 999999 999999 999999 999999 999999 999999 999999 999999 999999 999999 999999 999999 999999 999999 999999 999999 999999 999999 999999 999999 999999 999999 5960
999999 19430 18240 13522 16075 10874 18462 19662 19348 13704 13475 14402 12880 15500 19275 16039 12742 10356 17081 19212 16832 18378 16017 14284 13070 14722 13723 13846 15518 14089 17317 10525 13366 12774 14315 17223 19603 14061 10110 19545 17556 18420 11565 14088 12579 15937 13998 15727 16945 18151 17831 11609 11966 18053 10208 17518 10841 10058 10485 10510 11469 999999 999999 999999 999999 999999 999999 999999 999999 999999 999999 999999 999999 999999 999999 999999 999999 999999 999999 999999 999999 999999 999999 999999 999999 999999 999999 999999 999999 0 999999 999999 999999 999999 999999 999999 999999 999999 999999 999999 999999 999999 999999 999999 999999 999999 999999 999999 999999 999999 999999 999999 999999 999999 999999 999999 999999 999999 999999 999999 999999 14449
999999 15815 10874 10941 18758 10331 19457 13998 13766 18515 10318 13041 14248 16994 19081 14695 10617 16341 18108 13897 14389 15020 13761 19810 19519 13467 19874 11170 13569 16946 17626 14560 12243 10305 19234 15743 15116 11093 12265 12317 11165 11978 18149 10549 13868 13436 17577 19927 15987 17298 17613 14430 18176 12031 11016 19527 15604 18889 12198 14061 13235 999999 999999 999999 999999 999999 999999 999999 999999 999999 999999 999999 999999 999999 999999 999999 999999 999999 999999 999999 999999 999999 999999 999999 999999 999999 999999 999999 999999 999999 0 999999 999999 999999 999999 999999 999999 999999 999999 999999 999999 999999 999999 999999 999999 999999 999999 999999 999999 999999 999999 999999 999999 999999 999999 999999 999999 999999 999999 999999 999999 13014
999999 17861 11684 13083 16730 13516 19639 11976 14106 16170 10829 17530 16536 15927 12210 13384 14529 19499 18718 16178 16010 19536 17985 17341 19486 16227 14365 12073 15323 18958 17228 10199 15481 10592 17887 10758 13665 16988 16388 11822 13949 10929 17559 18335 19211 11257 16582 19429 15744 16954 14436 16436 18474 14877 13558 14567 15574 10319 17026 10069 10514 999999 999999 999999 999999 999999 999999 999999 999999 999999 999999 999999 999999 999999 999999 999999 999999 999999 999999 999999 999999 999999 999999 999999 999999 999999 999999 999999 999999 999999 999999 0 999999 999999 999999 999999 999999 999999 999999 999999 999999 999999 999999 999999 999999 999999 999999 999999 999999 999999 999999 999999 999999 999999 999999 999999 999999 999999 999999 999999 999999 10853
999999 16327 15178 17833 12602 15309 19371 11256 18282 13756 11600 17163 18590 18003 17232 18056 11355 19296 15720 12508 13358 13922 13565 10890 15648 13863 11269 19054 18885 15509 19172 14561 15909 17858 13410 11935 18253 18427 12464 10754 13552 17949 17603 17896 15214 17111 19925 11921 11139 11549 15688 13218 12274 19099 10731 12349 18300 12191 10958 11227 13382 999999 999999 999999 999999 999999 999999 999999 999999 999999 999999 999999 999999 999999 999999 999999 999999 999999 999999 999999 999999 999999 999999 999999 999999 999999 999999 999999 999999 999999 999999 999999 0 999999 999999 999999 999999 999999 999999 999999 999999 999999 999999 999999 999999 999999 999999 999999 999999 999999 999999 999999 999999 999999 999999 999999 999999 999999 999999 999999 999999 6511
999999 10511 14937 17094 14550 12693 19907 19205 17906 13255 15707 18668 19282 12924 19069 11307 11137 13324 19470 18145 16194 19645 17745 19936 10408 10889 13161 15705 19618 15542 15775 14209 14023 19022 18894 18252 12772 13792 17557 18431 15051 12177 19436 18902 11844 10576 14275 10274 19957 18383 19247 13432 19626 19169 12734 19017 13759 11201 11871 16914 17337 999999 999999 999999 999999 999999 999999 999999 999999 999999 999999 999999 999999 999999 999999 999999 999999 999999 999999 999999 999999 999999 999999 999999 999999 999999 999999 999999 999999 999999 999999 999999 999999 0 999999 999999 999999 999999 999999 999999 999999 999999 999999 999999 999999 999999 999999 999999 999999 999999 999999 999999 999999 999999 999999 999999 999999 999999 999999 999999 999999 7885
999999 15761 13624 16292 15177 15741 19097 11051 16528 14437 19608 19034 16407 13681 10270 17341 14064 13275 19273 14835 17361 11609 12220 17567 11641 16890 11664 13147 19594 15846 17191 17327 14757 14030 19115 15422 18645 18375 19794 11930 15626 16062 12024 18230 13286 16385 12288 12919 14530 16383 13178 16143 10286 12526 14143 10494 14299 12634 12507 13260 16623 999999 999999 999999 999999 999999 999999 999999 999999 999999 999999 999999 999999 999999 999999 999999 999999 999999 999999 999999 999999 999999 999999 999999 999999 999999 999999 999999 999999 999999 999999 999999 999999 999999 0 999999 999999 999999 999999 999999 999999 999999 999999 999999 999999 999999 999999 999999 999999 999999 999999 999999 999999 999999 999999 999999 999999 999999 999999 999999 999999 5803
999999 14882 12809 16912 14208 19099 17181 10702 15860 15811 13492 18406 15713 12574 10655 18196 19692 16559 19360 10269 13379 15584 17521 14896 11897 10955 10983 18329 15449 13918 13637 14431 15073 17704 12013 14721 12160 19189 18097 11075 12010 17661 10131 17993 12817 14039 10489 14765 19982 12992 18671 17845 18839 13838 15173 14730 12912 18759 14055 18749 15601 999999 999999 999999 999999 999999 999999 999999 999999 999999 999999 999999 999999 999999 999999 999999 999999 999999 999999 999999 999999 999999 999999 999999 999999 999999 999999 999999 999999 999999 999999 999999 999999 999999 999999 0 999999 999999 999999 999999 999999 999999 999999 999999 999999 999999 999999 999999 999999 999999 999999 999999 999999 999999 999999 999999 999999 999999 999999 999999 999999 11166
999999 14417 16284 15438 16184 17389 13755 11908 14327 15187 18672 12556 11908 17895 14685 12948 12562 18053 13064 18338 17049 17506 10426 19494 10494 11237 13367 16601 10622 17811 14365 17933 11766 11891 11110 16888 15370 16787 17356 15778 16466 16518 17198 19885 11020 16340 11082 16922 10830 15732 12841 18784 17511 12855 14088 19015 19511 16490 16992 17338 12278 999999 999999 999999 999999 999999 999999 999999 999999 999999 999999 999999 999999 999999 999999 999999 999999 999999 999999 999999 999999 999999 999999 999999 999999 999999 999999 999999 999999 999999 999999 999999 999999 999999 999999 999999 0 999999 999999 999999 999999 999999 999999 999999 999999 999999 999999 999999 999999 999999 999999 999999 999999 999999 999999 999999 999999 999999 999999 999999 999999 5641
999999 11533 19851 11606 13331 12227 16005 16555 15452 17466 14528 16044 12868 13479 19025 18955 18376 18515 13278 13754 13970 18879 11139 13654 11850 15304 16542 13428 19581 13396 19698 18282 17127 13144 19796 19484 19425 16966 11450 10449 15668 13755 10662 15384 10118 18358 16691 12711 13562 15480 15732 17353 13244 14441 19218 11431 18576 18041 16225 16905 10841 999999 999999 999999 999999 999999 999999 999999 999999 999999 999999 999999 999999 999999 999999 999999 999999 999999 999999 999999 999999 999999 999999 999999 999999 999999 999999 999999 999999 999999 999999 999999 999999 999999 999999 999999 999999 0 999999 999999 999999 999999 999999 999999 999999 999999 999999 999999 999999 999999 999999 999999 999999 999999 999999 999999 999999 999999 999999 999999 999999 7596
999999 11996 13818 19433 17911 17031 13424 13388 18300 11960 19215 16839 12175 17040 11984 17975 13047 16049 14524 11248 19373 18105 14840 16375 17880 17201 11771 12626 13756 14871 18475 13947 15056 14315 12657 18506 10121 14568 18274 10576 14556 11067 18404 18123 19008 10406 11346 15250 11893 16993 14662 18365 11457 13844 13077 13266 12502 16984 12059 15510 15823 999999 999999 999999 999999 999999 999999 999999 999999 999999 999999 999999 999999 999999 999999 999999 999999 999999 999999 999999 999999 999999 999999 999999 999999 999999 999999 999999 999999 999999 999999 999999 999999 999999 999999 999999 999999 999999 0 999999 999999 999999 999999 999999 999999 999999 999999 999999 999999 999999 999999 999999 999999 999999 999999 999999 999999 999999 999999 999999 999999 14945
999999 19723 14332 11047 18534 16858 11869 19548 16047 17412 15960 14018 13038 17675 15262 18532 11770 18093 13294 15061 12553 15630 18229 10308 18403 16410 14891 17999 11768 11575 14742 10366 19767 19170 15430 19592 19471 15498 14482 13749 11164 13643 17614 12402 16803 10755 18120 17762 11166 16942 11772 17469 18962 16033 12787 14098 10598 17927 18995 11510 12959 999999 999999 999999 999999 999999 999999 999999 999999 999999 999999 999999 999999 999999 999999 999999 999999 999999 999999 999999 999999 999999 999999 999999 999999 999999 999999 999999 999999 999999 999999 999999 999999 999999 999999 999999 999999 999999 999999 0 999999 999999 999999 999999 999999 999999 999999 999999 999999 999999 999999 999999 999999 999999 999999 999999 999999 999999 999999 999999 999999 8381
999999 17729 10320 16760 14288 10128 16959 16914 12365 18845 10786 13643 18117 13053 19729 15485 13755 17234 14979 17848 14631 16744 12070 19825 17636 14884 14280 12224 16936 13165 15549 19261 17653 10786 19989 19744 14577 14757 13082 13710 15992 18405 15691 15583 19643 12290 12603 11197 19038 19316 10609 15800 16958 14401 16774 19368 14324 19567 19178 18930 19827 999999 999999 999999 999999 999999 999999 999999 999999 999999 999999 999999 999999 999999 999999 999999 999999 999999 999999 999999 999999 999999 999999 999999 999999 999999 999999 999999 999999 999999 999999 999999 999999 999999 999999 999999 999999 999999 999999 999999 0 999999 999999 999999 999999 999999 999999 999999 999999 999999 999999 999999 999999 999999 999999 999999 999999 999999 999999 999999 999999 12166
999999 11641 15964 16301 19739 10042 10938 10708 13014 19529 11609 19423 16302 12683 12278 18299 14809 15801 17594 16466 14056 11551 11555 10943 11178 13979 12442 10208 13873 10546 15931 18137 12511 14652 13569 18462 14591 16459 19400 13768 11023 12568 10082 19643 14506 12950 19291 14985 13466 15685 15788 12535 18055 19164 14898 16140 17957 16671 17111 10281 10609 999999 999999 999999 999999 999999 999999 999999 999999 999999 999999 999999 999999 999999 999999 999999 999999 999999 999999 999999 999999 999999 999999 999999 999999 999999 999999 999999 999999 999999 999999 999999 999999 999999 999999 999999 999999 999999 999999 999999 999999 0 999999 999999 999999 999999 999999 999999 999999 999999 999999 999999 999999 999999 999999 999999 999999 999999 999999 999999 999999 6407
999999 15833 11893 18493 13613 10389 19768 16581 12029 13316 13640 14393 14394 16190 17822 15707 19142 19707 18555 19132 17020 17847 18081 19633 16165 17853 15475 14114 10392 17778 11751 14366 11246 11127 15661 15420 15215 17547 19346 17527 11351 11589 19923 10214 13164 14323 13163 10826 19086 11617 17634 15207 14937 10678 16946 19479 19149 13569 11515 18519 15430 999999 999999 999999 999999 999999 999999 999999 999999 999999 999999 999999 999999 999999 999999 999999 999999 999999 999999 999999 999999 999999 999999 999999 999999 999999 999999 999999 999999 999999 999999 999999 999999 999999 999999 999999 999999 999999 999999 999999 999999 999999 0 999999 999999 999999 999999 999999 999999 999999 999999 999999 999999 999999 999999 999999 999999 999999 999999 999999 999999 8251
999999 16157 12111 14830 12452 17915 17444 11635 10054 17918 12986 13621 15767 14381 16354 12185 15786 17329 19971 19820 13111 10019 15601 15448 11376 15481 10886 18942 16747 18349 15513 14144 14911 17902 12574 15952 19638 15142 12351 14154 11201 19255 18840 16480 15210 14370 15719 11123 18133 14402 11670 13845 12414 13753 12794 19006 15326 10433 18889 12725 12856 999999 999999 999999 999999 999999 999999 999999 999999 999999 999999 999999 999999 999999 999999 999999 999999 999999 999999 999999 999999 999999 999999 999999 999999 999999 999999 999999 999999 999999 999999 999999 999999 999999 999999 999999 999999 999999 999999 999999 999999 999999 999999 0 999999 999999 999999 999999 999999 999999 999999 999999 999999 999999 999999 999999 999999 999999 999999 999999 999999 12957
999999 14602 10951 19115 14367 11594 19629 11119 14408 15662 12755 13566 13782 16992 19646 14511 13121 14739 14668 19031 14746 11688 19274 13971 16300 16354 10872 16352 14409 14844 12372 10699 10305 17594 18730 16237 15082 12156 19636 16916 13318 18712 14897 17192 10278 11433 12303 14359 18342 13365 10968 16241 16615 19438 13837 17039 12390 16498 13451 15211 19097 999999 999999 999999 999999 999999 999999 999999 999999 999999 999999 999999 999999 999999 999999 999999 999999 999999 999999 999999 999999 999999 999999 999999 999999 999999 999999 999999 999999 999999 999999 999999 999999 999999 999999 999999 999999 999999 999999 999999 999999 999999 999999 999999 0 999999 999999 999999 999999 999999 999999 999999 999999 999999 999999 999999 999999 999999 999999 999999 999999 9381
999999 18070 18059 10318 11632 10510 10537 13483 19103 10132 16501 16745 12620 17156 12228 10533 12181 16328 17087 18832 10738 16472 12898 13106 10683 10631 18144 14053 19321 14572 15494 15029 11164 14766 10681 14371 11955 17910 14837 13258 18356 14066 16823 11664 18853 12862 18767 13791 11951 19602 12173 13094 11439 13117 14803 15886 18775 16527 19865 17711 18569 999999 999999 999999 999999 999999 999999 999999 999999 999999 999999 999999 999999 999999 999999 999999 999999 999999 999999 999999 999999 999999 999999 999999 999999 999999 999999 999999 999999 999999 999999 999999 999999 999999 999999 999999 999999 999999 999999 999999 999999 999999 999999 999999 999999 0 999999 999999 999999 999999 999999 999999 999999 999999 999999 999999 999999 999999 999999 999999 999999 13021
999999 18536 13171 19388 15756 11174 10994 12669 12689 16718 15651 18429 15251 14729 17755 16576 15179 16793 16583 11181 14407 14537 16190 18520 19147 13343 10983 19639 10148 18754 12185 15260 19777 13630 17031 12734 10147 14966 17228 14755 10184 17433 11318 15862 13573 18155 17895 19927 16800 14317 10603 19365 19460 19136 15000 18043 17281 15616 16353 10635 16501 999999 999999 999999 999999 999999 999999 999999 999999 999999 999999 999999 999999 999999 999999 999999 999999 999999 999999 999999 999999 999999 999999 999999 999999 999999 999999 999999 999999 999999 999999 999999 999999 999999 999999 999999 999999 999999 999999 999999 999999 999999 999999 999999 999999 999999 0 999999 999999 999999 999999 999999 999999 999999 999999 999999 999999 999999 999999 999999 999999 10256
999999 14359 13972 14079 16194 10186 10229 19339 15842 15660 14652 12511 13213 12264 17295 12706 19682 13828 19075 12495 14723 13666 17973 15151 15762 10334 10158 18371 15398 16242 19257 15504 10254 14372 14619 10998 15903 15566 14852 17150 18979 12052 16533 10317 12304 13030 12081 10909 18577 12504 12177 16961 18468 15786 19410 10981 15203 13946 15267 18904 15728 999999 999999 999999 999999 999999 999999 999999 999999 999999 999999 999999 999999 999999 999999 999999 999999 999999 999999 999999 999999 999999 999999 999999 999999 999999 999999 999999 999999 999999 999999 999999 999999 999999 999999 999999 999999 999999 999999 999999 999999 999999 999999 999999 999999 999999 999999 0 999999 999999 999999 999999 999999 999999 999999 999999 999999 999999 999999 999999 999999 12702
999999 13118 12326 12347 19908 15894 18617 18328 12724 17536 17077 15208 12937 15650 17677 11365 14353 10324 17659 13266 13403 13992 17962 13292 14642 10245 19073 18573 16898 10602 14490 16912 13008 12266 18852 19385 13514 10016 13620 16839 10662 18348 17280 18122 16171 18246 14789 15078 17678 15269 12158 12045 14943 11101 16111 19117 12944 16948 15495 15462 11811 999999 999999 999999 999999 999999 999999 999999 999999 999999 999999 999999 999999 999999 999999 999999 999999 999999 999999 999999 999999 999999 999999 999999 999999 999999 999999 999999 999999 999999 999999 999999 999999 999999 999999 999999 999999 999999 999999 999999 999999 999999 999999 999999 999999 999999 999999 999999 0 999999 999999 999999 999999 999999 999999 999999 999999 999999 999999 999999 999999 14264
999999 15481 10845 12068 17726 11716 11964 12945 15017 16492 16696 16212 19467 10413 14235 11720 14133 11404 12496 15012 11521 19018 19113 16768 13556 10467 19381 19535 14787 17210 11388 15595 12102 19594 13520 15336 12554 11392 10234 15582 15382 14442 17733 12595 15861 10567 14829 13103 18269 14957 12957 12537 10231 14151 11030 19900 17949 18256 10219 16248 14871 999999 999999 999999 999999 999999 999999 999999 999999 999999 999999 999999 999999 999999 999999 999999 999999 999999 999999 999999 999999 999999 999999 999999 999999 999999 999999 999999 999999 999999 999999 999999 999999 999999 999999 999999 999999 999999 999999 999999 999999 999999 999999 999999 999999 999999 999999 999999 999999 0 999999 999999 999999 999999 999999 999999 999999 999999 999999 999999 999999 7656
999999 17932 17366 16048 19422 18355 15141 14476 17383 10000 18375 16257 10405 10660 18578 16358 15552 18595 18009 13013 14568 15472 11848 11071 19589 12724 19746 11223 18586 10389 10508 15836 12895 18879 11341 12449 18566 14824 18726 11843 18297 19895 17643 12722 18656 19319 11148 15640 12316 12695 19366 19539 15493 16325 11189 10202 17284 12156 19863 13156 10960 999999 999999 999999 999999 999999 999999 999999 999999 999999 999999 999999 999999 999999 999999 999999 999999 999999 999999 999999 999999 999999 999999 999999 999999 999999 999999 999999 999999 999999 999999 999999 999999 999999 999999 999999 999999 999999 999999 999999 999999 999999 999999 999999 999999 999999 999999 999999 999999 999999 0 999999 999999 999999 999999 999999 999999 999999 999999 999999 999999 7689
999999 19072 12759 16612 15444 15739 18507 10828 18620 17363 11172 12811 18897 13190 18349 11505 15446 10749 16888 18730 13236 16124 16897 17838 19172 10873 10258 12351 16196 16490 17254 19719 15135 11315 17989 12967 18528 10929 14965 16456 14503 17250 19269 15876 18268 18034 12997 18883 12077 17997 12233 10761 13606 13332 17944 12475 13060 19370 18491 18733 12468 999999 999999 999999 999999 999999 999999 999999 999999 999999 999999 999999 999999 999999 999999 999999 999999 999999 999999 999999 999999 999999 999999 999999 999999 999999 999999 999999 999999 999999 999999 999999 999999 999999 999999 999999 999999 999999 999999 999999 999999 999999 999999 999999 999999 999999 999999 999999 999999 999999 999999 0 999999 999999 999999 999999 999999 999999 999999 999999 999999 6939
999999 15779 17293 19681 19693 10192 11380 17730 16289 10192 18046 16583 18316 10827 19549 13363 11577 13139 17851 17626 18325 14403 15087 13313 16559 10348 18680 10608 14927 19235 16682 18438 10240 13422 19323 14993 18302 18206 11811 13356 16008 15047 13134 17931 12230 17153 10792 16626 12067 17320 13294 12270 10179 10154 12165 16400 13877 18692 12746 12191 13023 999999 999999 999999 999999 999999 999999 999999 999999 999999 999999 999999 999999 999999 999999 999999 999999 999999 999999 999999 999999 999999 999999 999999 999999 999999 999999 999999 999999 999999 999999 999999 999999 999999 999999 999999 999999 999999 999999 999999 999999 999999 999999 999999 999999 999999 999999 999999 999999 999999 999999 999999 0 999999 999999 999999 999999 999999 999999 999999 999999 6328
999999 12746 16219 17849 11343 15069 11417 16912 14571 13155 18010 18115 15754 13903 10797 17537 19801 11781 15653 11713 16069 17902 10545 19056 11628 18631 19674 16939 13606 19264 11681 17299 12690 10126 13065 11390 13848 15064 12949 13803 15700 16794 19039 10739 13971 12432 10344 17780 18468 10240 17584 11257 15793 13346 12080 13219 10959 10640 10267 12176 11992 999999 999999 999999 999999 999999 999999 999999 999999 999999 999999 999999 999999 999999 999999 999999 999999 999999 999999 999999 999999 999999 999999 999999 999999 999999 999999 999999 999999 999999 999999 999999 999999 999999 999999 999999 999999 999999 999999 999999 999999 999999 999999 999999 999999 999999 999999 999999 999999 999999 999999 999999 999999 0 999999 999999 999999 999999 999999 999999 999999 11588
999999 19203 17921 18241 18387 14554 10188 11823 13217 12910 16637 18673 11520 18040 18441 10428 16015 17261 19897 17240 13291 14682 18620 11435 13520 17581 17080 12546 14423 10697 13706 18837 12816 17194 17905 10778 11306 16101 16487 16831 13878 14237 18771 12914 19859 18985 12676 19960 14772 19164 16780 10243 16401 17228 12598 14703 14796 11358 19354 14197 17203 999999 999999 999999 999999 999999 999999 999999 999999 999999 999999 999999 999999 999999 999999 999999 999999 999999 999999 999999 999999 999999 999999 999999 999999 999999 999999 999999 999999 999999 999999 999999 999999 999999 999999 999999 999999 999999 999999 999999 999999 999999 999999 999999 999999 999999 999999 999999 999999 999999 999999 999999 999999 999999 0 999999 999999 999999 999999 999999 999999 12523
999999 19971 15318 16347 18396 15464 11589 19540 19826 14823 13013 11604 10553 17837 11511 14231 14895 13030 18029 17772 13939 12043 16833 14950 18920 13638 10247 10516 10971 10259 13559 14052 17122 19646 10912 10922 13103 17520 16086 13621 14847 18882 11365 14549 19144 15009 19838 11170 10468 19132 19475 13868 12189 13920 18338 17489 18054 14287 17472 18845 13121 999999 999999 999999 999999 999999 999999 999999 999999 999999 999999 999999 999999 999999 999999 999999 999999 999999 999999 999999 999999 999999 999999 999999 999999 999999 999999 999999 999999 999999 999999 999999 999999 999999 999999 999999 999999 999999 999999 999999 999999 999999 999999 999999 999999 999999 999999 999999 999999 999999 999999 999999 999999 999999 999999 0 999999 999999 999999 999999 999999 9685
999999 16763 18905 18221 13702 18392 10556 17237 17278 19892 12829 17866 17742 18634 13736 14031 19497 14440 11914 17645 12866 11366 12372 15641 12290 18002 15007 18201 14287 10846 19813 11669 10269 18528 17513 19027 18146 15440 19242 12301 14115 10678 17048 15364 15249 12233 16216 13506 19762 17747 19760 11783 18564 12887 19550 16075 14941 11156 13532 16148 12208 999999 999999 999999 999999 999999 999999 999999 999999 999999 999999 999999 999999 999999 999999 999999 999999 999999 999999 999999 999999 999999 999999 999999 999999 999999 999999 999999 999999 999999 999999 999999 999999 999999 999999 999999 999999 999999 999999 999999 999999 999999 999999 999999 999999 999999 999999 999999 999999 999999 999999 999999 999999 999999 999999 999999 0 999999 999999 999999 999999 10032
999999 11281 12627 19763 19066 10103 12114 15989 11804 17794 11822 13123 11691 15890 17729 16382 18185 19555 19187 15447 19770 12558 18686 13415 11730 11155 13343 11045 16121 14237 12247 15722 11951 15331 12878 12319 17902 18890 19519 11163 10773 18189 13720 17979 18566 18743 14979 16706 16874 11984 19065 12292 13698 11547 11657 11101 18447 13504 17245 19204 12742 999999 999999 999999 999999 999999 999999 999999 999999 999999 999999 999999 999999 999999 999999 999999 999999 999999 999999 999999 999999 999999 999999 999999 999999 999999 999999 999999 999999 999999 999999 999999 999999 999999 999999 999999 999999 999999 999999 999999 999999 999999 999999 999999 999999 999999 999999 999999 999999 999999 999999 999999 999999 999999 999999 999999 999999 0 999999 999999 999999 5423
999999 13455 17431 10936 13110 12328 15520 16018 19267 16003 19065 14831 18798 18760 11795 18793 16935 16379 10305 14818 11185 15502 13911 15712 12328 19873 15197 11109 15868 12475 17053 18313 17188 18986 13328 15360 19754 18071 12554 14770 18603 19102 16688 15481 18378 16189 17066 17456 11035 15267 12368 19220 13017 13598 17639 17040 16442 13848 16365 11180 12734 999999 999999 999999 999999 999999 999999 999999 999999 999999 999999 999999 999999 999999 999999 999999 999999 999999 999999 999999 999999 999999 999999 999999 999999 999999 999999 999999 999999 999999 999999 999999 999999 999999 999999 999999 999999 999999 999999 999999 999999 999999 999999 999999 999999 999999 999999 999999 999999 999999 999999 999999 999999 999999 999999 999999 999999 999999 0 999999 999999 10554
999999 13075 14146 18703 10258 15860 15613 12261 19230 19943 16597 16394 19191 10476 19171 10378 13459 15788 18782 13997 10480 13508 10503 18216 19502 10545 12896 15327 12983 15455 17184 17856 13721 13015 15757 11865 16167 16006 12901 10018 15012 14752 17831 16610 16730 13108 15462 16245 19436 10210 19726 14922 16221 17213 17323 13275 16239 11423 11331 12449 14202 999999 999999 999999 999999 999999 999999 999999 999999 999999 999999 999999 999999 999999 999999 999999 999999 999999 999999 999999 999999 999999 999999 999999 999999 999999 999999 999999 999999 999999 999999 999999 999999 999999 999999 999999 999999 999999 999999 999999 999999 999999 999999 999999 999999 999999 999999 999999 999999 999999 999999 999999 999999 999999 999999 999999 999999 999999 999999 0 999999 7870
999999 11343 11833 17707 12541 16393 16188 17441 14219 14909 19609 19106 17753 18993 13209 16469 15637 12375 10986 10557 19231 12633 15105 19162 13677 10374 16996 11969 10019 12297 10563 17106 11024 12750 18675 10602 18014 13243 16615 16785 19069 19251 11661 17592 18226 16900 16014 18258 13339 10679 13964 17523 14700 14059 10310 12405 19230 15450 16660 16791 10879 999999 999999 999999 999999 999999 999999 999999 999999 999999 999999 999999 999999 999999 999999 999999 999999 999999 999999 999999 999999 999999 999999 999999 999999 999999 999999 999999 999999 999999 999999 999999 999999 999999 999999 999999 999999 999999 999999 999999 999999 999999 999999 999999 999999 999999 999999 999999 999999 999999 999999 999999 999999 999999 999999 999999 999999 999999 999999 999999 0 7213
1 999999 999999 999999 999999 999999 999999 999999 999999 999999 999999 999999 999999 999999 999999 999999 999999 999999 999999 999999 999999 999999 999999 999999 999999 999999 999999 999999 999999 999999 999999 999999 999999 999999 999999 999999 999999 999999 999999 999999 999999 999999 999999 999999 999999 999999 999999 999999 999999 999999 999999 999999 999999 999999 999999 999999 999999 999999 999999 999999 999999 999999 999999 999999 999999 999999 999999 999999 999999 999999 999999 999999 999999 999999 999999 999999 999999 999999 999999 999999 999999 999999 999999 999999 999999 999999 999999 999999 999999 999999 999999 999999 999999 999999 999999 999999 999999 999999 999999 999999 999999 999999 999999 999999 999999 999999 999999 999999 999999 999999 999999 999999 999999 999999 999999 999999 999999 999999 999999 999999 999999 0
EOF