NAME: GR_1x5x6_KH_5x6_Run_10
TYPE: TSP
COMMENT: BTSP instance |A|=30 GR nodes |B|=30 KH nodes depot=0.0 end=0.0.0
DIMENSION: 62
EDGE_WEIGHT_TYPE: EXPLICIT
EDGE_WEIGHT_FORMAT: FULL_MATRIX
NODE_COORD_TYPE: NO_COORDS
EDGE_WEIGHT_SECTION
0 5271 8556 13576 9797 9099 12180 8402 6609 12357 10404 11034 12328 12328 14676 12936 12296 11965 7677 6133 5011 14343 14965 9559 12170 10372 8847 7500 14817 9251 6169 999999 999999 999999 999999 999999 999999 999999 999999 999999 999999 999999 999999 999999 999999 999999 999999 999999 999999 999999 999999 999999 999999 999999 999999 999999 999999 999999 999999 999999 999999 999999
999999 0 999999 999999 999999 999999 999999 999999 999999 999999 999999 999999 999999 999999 999999 999999 999999 999999 999999 999999 999999 999999 999999 999999 999999 999999 999999 999999 999999 999999 999999 15728 15952 17856 18994 12604 12186 16932 13610 13853 14425 12302 13669 10700 15609 17272 11737 12337 17958 11909 18122 16024 17890 16471 14302 10438 15730 18129 19421 12748 14083 999999
999999 999999 0 999999 999999 999999 999999 999999 999999 999999 999999 999999 999999 999999 999999 999999 999999 999999 999999 999999 999999 999999 999999 999999 999999 999999 999999 999999 999999 999999 999999 19626 16368 13556 14735 13514 17658 17718 11873 15351 19855 15623 12118 13269 17986 12695 10766 18767 10893 15198 11210 10467 10762 11451 19594 11147 14922 11453 15353 15137 19667 999999
999999 999999 999999 0 999999 999999 999999 999999 999999 999999 999999 999999 999999 999999 999999 999999 999999 999999 999999 999999 999999 999999 999999 999999 999999 999999 999999 999999 999999 999999 999999 15549 18560 18491 10145 11868 14433 15987 10333 13347 12757 11158 19171 15422 12953 13123 18275 16830 16602 10788 16993 11098 19979 12266 18278 16695 19043 19964 19115 10873 16582 999999
999999 999999 999999 999999 0 999999 999999 999999 999999 999999 999999 999999 999999 999999 999999 999999 999999 999999 999999 999999 999999 999999 999999 999999 999999 999999 999999 999999 999999 999999 999999 12185 18452 12917 17344 12731 18384 11648 10571 18269 14203 18303 10289 17397 11877 17754 14908 17578 15829 11877 18848 12245 13069 15935 12974 16554 12310 16254 18391 18269 10574 999999
999999 999999 999999 999999 999999 0 999999 999999 999999 999999 999999 999999 999999 999999 999999 999999 999999 999999 999999 999999 999999 999999 999999 999999 999999 999999 999999 999999 999999 999999 999999 15344 16909 17725 10879 13233 19925 18397 10876 12334 18805 12425 17611 17484 13598 14646 14373 10653 10528 18680 18284 19867 15369 13349 19901 12463 17483 14972 18394 13171 15079 999999
999999 999999 999999 999999 999999 999999 0 999999 999999 999999 999999 999999 999999 999999 999999 999999 999999 999999 999999 999999 999999 999999 999999 999999 999999 999999 999999 999999 999999 999999 999999 10469 18199 18596 18592 13614 16866 10163 16266 15893 13398 12519 15230 10011 12007 12070 14281 12222 13397 13461 15383 12691 14352 11795 17641 12528 12727 11293 17848 13546 13424 999999
999999 999999 999999 999999 999999 999999 999999 0 999999 999999 999999 999999 999999 999999 999999 999999 999999 999999 999999 999999 999999 999999 999999 999999 999999 999999 999999 999999 999999 999999 999999 19382 15295 11957 15177 16425 13774 14394 12368 13402 13333 12906 16081 11589 16722 10522 17844 19818 17947 12061 14607 17621 15505 12550 18214 16420 10815 14128 16989 11824 10430 999999
999999 999999 999999 999999 999999 999999 999999 999999 0 999999 999999 999999 999999 999999 999999 999999 999999 999999 999999 999999 999999 999999 999999 999999 999999 999999 999999 999999 999999 999999 999999 14307 10860 17188 13140 13676 17537 14195 19003 10690 10861 17819 14119 13569 13736 11263 18764 19645 14265 10654 14398 14642 19742 18423 18315 11460 18468 19302 11686 17799 14009 999999
999999 999999 999999 999999 999999 999999 999999 999999 999999 0 999999 999999 999999 999999 999999 999999 999999 999999 999999 999999 999999 999999 999999 999999 999999 999999 999999 999999 999999 999999 999999 13195 11326 18358 13440 18020 17252 15165 16774 17274 11615 13062 11286 18047 18394 11955 12430 12441 10401 15593 17657 18274 16907 12637 13430 11932 14588 18365 15620 19227 19150 999999
999999 999999 999999 999999 999999 999999 999999 999999 999999 999999 0 999999 999999 999999 999999 999999 999999 999999 999999 999999 999999 999999 999999 999999 999999 999999 999999 999999 999999 999999 999999 12996 17006 10530 19213 11463 10275 12017 14498 13466 17575 18592 15201 11678 17281 12717 12825 15918 17754 18384 10134 11158 16036 13207 18689 11105 17908 14958 11532 16918 17529 999999
999999 999999 999999 999999 999999 999999 999999 999999 999999 999999 999999 0 999999 999999 999999 999999 999999 999999 999999 999999 999999 999999 999999 999999 999999 999999 999999 999999 999999 999999 999999 14666 10962 17605 17143 12009 16737 17833 15250 11505 17594 14227 13705 15176 12194 15966 15499 15373 14594 14281 13966 13122 13455 16928 14118 15093 15091 10144 14073 13840 13629 999999
999999 999999 999999 999999 999999 999999 999999 999999 999999 999999 999999 999999 0 999999 999999 999999 999999 999999 999999 999999 999999 999999 999999 999999 999999 999999 999999 999999 999999 999999 999999 13612 17529 14741 12825 10862 12316 17059 14291 13032 11114 19869 15812 15007 15485 13417 10964 18492 18926 17924 17398 15229 11633 15460 13315 16934 10486 12476 10296 13396 16096 999999
999999 999999 999999 999999 999999 999999 999999 999999 999999 999999 999999 999999 999999 0 999999 999999 999999 999999 999999 999999 999999 999999 999999 999999 999999 999999 999999 999999 999999 999999 999999 12808 16266 15048 11168 10229 11542 14761 13461 10729 13836 17385 18859 15526 18800 11369 14822 13473 12974 18417 18815 10508 11377 13955 10850 14961 12242 12790 12847 18008 12054 999999
999999 999999 999999 999999 999999 999999 999999 999999 999999 999999 999999 999999 999999 999999 0 999999 999999 999999 999999 999999 999999 999999 999999 999999 999999 999999 999999 999999 999999 999999 999999 19573 17730 17031 15815 18028 13276 18344 12889 14403 19426 19006 12864 11832 10428 11684 12112 19592 16425 18399 17415 12002 16089 10184 13569 10551 17701 17693 11063 18509 15444 999999
999999 999999 999999 999999 999999 999999 999999 999999 999999 999999 999999 999999 999999 999999 999999 0 999999 999999 999999 999999 999999 999999 999999 999999 999999 999999 999999 999999 999999 999999 999999 16747 14781 18812 18607 16328 10483 15721 11807 16929 19763 13775 13797 15828 14934 13044 17823 11588 11917 12178 16543 11637 16788 14882 11768 13125 14543 16347 19916 10548 15794 999999
999999 999999 999999 999999 999999 999999 999999 999999 999999 999999 999999 999999 999999 999999 999999 999999 0 999999 999999 999999 999999 999999 999999 999999 999999 999999 999999 999999 999999 999999 999999 13289 17229 16587 16011 13744 13203 15780 14356 10697 19065 16060 17139 18806 17805 11085 17268 15990 18227 19082 15789 11872 17555 14750 12739 11771 17401 17766 14501 13994 16691 999999
999999 999999 999999 999999 999999 999999 999999 999999 999999 999999 999999 999999 999999 999999 999999 999999 999999 0 999999 999999 999999 999999 999999 999999 999999 999999 999999 999999 999999 999999 999999 15250 11803 17606 15725 13582 11635 13314 16495 15703 15483 12917 18509 17619 18085 19296 19294 18219 10578 18847 16620 11715 17926 13371 17181 13366 19153 16788 18124 16239 11161 999999
999999 999999 999999 999999 999999 999999 999999 999999 999999 999999 999999 999999 999999 999999 999999 999999 999999 999999 0 999999 999999 999999 999999 999999 999999 999999 999999 999999 999999 999999 999999 13819 15472 16118 14821 12190 10084 15154 16499 13303 16332 11164 18980 10575 19433 19647 14488 12996 10172 16330 13001 16930 16205 12495 10292 14189 17009 16585 18275 14814 11509 999999
999999 999999 999999 999999 999999 999999 999999 999999 999999 999999 999999 999999 999999 999999 999999 999999 999999 999999 999999 0 999999 999999 999999 999999 999999 999999 999999 999999 999999 999999 999999 17741 10572 10385 11670 13019 17968 18553 17448 13040 10971 17800 13571 18258 15485 14742 17455 13093 15247 14019 15391 17809 13979 13995 17501 12368 12023 18214 14011 14664 12283 999999
999999 999999 999999 999999 999999 999999 999999 999999 999999 999999 999999 999999 999999 999999 999999 999999 999999 999999 999999 999999 0 999999 999999 999999 999999 999999 999999 999999 999999 999999 999999 18277 11994 17815 17944 19189 12719 17872 17722 14056 11420 12801 10670 17825 11450 14491 10043 11355 17187 16348 11965 13251 15687 16839 19859 18353 19333 11136 19509 17317 18184 999999
999999 999999 999999 999999 999999 999999 999999 999999 999999 999999 999999 999999 999999 999999 999999 999999 999999 999999 999999 999999 999999 0 999999 999999 999999 999999 999999 999999 999999 999999 999999 14566 15702 11959 12800 10719 18904 10780 12780 13562 18491 14819 17288 13425 12331 12025 15283 12367 18286 15822 17620 10617 16786 12993 19785 14042 17187 18918 10181 15547 14332 999999
999999 999999 999999 999999 999999 999999 999999 999999 999999 999999 999999 999999 999999 999999 999999 999999 999999 999999 999999 999999 999999 999999 0 999999 999999 999999 999999 999999 999999 999999 999999 11677 16734 17298 10470 14750 11079 12360 18831 11799 16141 18167 15918 19711 16321 14727 11819 10010 11519 12672 16768 15545 15285 11170 13946 16873 11432 10829 16193 10280 12582 999999
999999 999999 999999 999999 999999 999999 999999 999999 999999 999999 999999 999999 999999 999999 999999 999999 999999 999999 999999 999999 999999 999999 999999 0 999999 999999 999999 999999 999999 999999 999999 19992 12380 15816 18811 11757 19812 14832 18052 19032 14597 11994 18738 13027 10025 16542 19837 10641 11071 15981 17666 18420 15785 12216 18989 16241 13533 13681 11260 10880 15119 999999
999999 999999 999999 999999 999999 999999 999999 999999 999999 999999 999999 999999 999999 999999 999999 999999 999999 999999 999999 999999 999999 999999 999999 999999 0 999999 999999 999999 999999 999999 999999 15191 10064 12331 13359 18231 19405 18418 17970 18264 10483 13934 14967 10412 15168 19786 19429 18659 13642 10363 15166 13671 14507 12566 11673 19830 14483 10206 10243 14289 18387 999999
999999 999999 999999 999999 999999 999999 999999 999999 999999 999999 999999 999999 999999 999999 999999 999999 999999 999999 999999 999999 999999 999999 999999 999999 999999 0 999999 999999 999999 999999 999999 17593 19962 17403 12253 14658 18518 19071 14285 15691 18317 17874 15388 13306 12387 18275 15386 12352 11533 16137 12874 17662 16997 15643 14324 18766 12088 13938 14935 19359 13075 999999
999999 999999 999999 999999 999999 999999 999999 999999 999999 999999 999999 999999 999999 999999 999999 999999 999999 999999 999999 999999 999999 999999 999999 999999 999999 999999 0 999999 999999 999999 999999 17164 19495 11176 15560 11245 15522 12760 10524 11150 12531 12981 17596 14126 13918 18152 13020 12139 17071 16837 19080 17402 18964 15797 12130 12347 16994 15421 11056 18780 15427 999999
999999 999999 999999 999999 999999 999999 999999 999999 999999 999999 999999 999999 999999 999999 999999 999999 999999 999999 999999 999999 999999 999999 999999 999999 999999 999999 999999 0 999999 999999 999999 10057 10160 13449 12714 18131 13683 18223 14865 12579 16856 16537 13184 15061 19545 19386 11037 19415 18250 17994 19370 16733 15609 17955 15907 15127 14675 13627 11641 15630 11515 999999
999999 999999 999999 999999 999999 999999 999999 999999 999999 999999 999999 999999 999999 999999 999999 999999 999999 999999 999999 999999 999999 999999 999999 999999 999999 999999 999999 999999 0 999999 999999 13779 12414 12062 13190 11730 15668 10658 13011 11773 11522 12286 10762 10644 13169 15015 10093 14691 17485 15335 13461 10443 19294 10270 16852 14561 15059 18573 16761 16675 17330 999999
999999 999999 999999 999999 999999 999999 999999 999999 999999 999999 999999 999999 999999 999999 999999 999999 999999 999999 999999 999999 999999 999999 999999 999999 999999 999999 999999 999999 999999 0 999999 10076 11514 17124 11703 16350 10296 18993 17822 16624 14868 11011 17300 10077 19783 11023 17832 15945 17206 19306 17257 16562 15171 10481 16670 14825 17596 12811 14205 18170 18585 999999
999999 999999 999999 999999 999999 999999 999999 999999 999999 999999 999999 999999 999999 999999 999999 999999 999999 999999 999999 999999 999999 999999 999999 999999 999999 999999 999999 999999 999999 999999 0 19023 11859 11317 15166 17743 15999 10850 16391 11299 10775 10599 19813 18361 12014 12014 10015 14678 10832 13002 18972 14432 10263 10579 13128 15925 11027 19287 11351 14459 18338 999999
999999 15728 19626 15549 12185 15344 10469 19382 14307 13195 12996 14666 13612 12808 19573 16747 13289 15250 13819 17741 18277 14566 11677 19992 15191 17593 17164 10057 13779 10076 19023 0 999999 999999 999999 999999 999999 999999 999999 999999 999999 999999 999999 999999 999999 999999 999999 999999 999999 999999 999999 999999 999999 999999 999999 999999 999999 999999 999999 999999 999999 13529
999999 15952 16368 18560 18452 16909 18199 15295 10860 11326 17006 10962 17529 16266 17730 14781 17229 11803 15472 10572 11994 15702 16734 12380 10064 19962 19495 10160 12414 11514 11859 999999 0 999999 999999 999999 999999 999999 999999 999999 999999 999999 999999 999999 999999 999999 999999 999999 999999 999999 999999 999999 999999 999999 999999 999999 999999 999999 999999 999999 999999 10801
999999 17856 13556 18491 12917 17725 18596 11957 17188 18358 10530 17605 14741 15048 17031 18812 16587 17606 16118 10385 17815 11959 17298 15816 12331 17403 11176 13449 12062 17124 11317 999999 999999 0 999999 999999 999999 999999 999999 999999 999999 999999 999999 999999 999999 999999 999999 999999 999999 999999 999999 999999 999999 999999 999999 999999 999999 999999 999999 999999 999999 9373
999999 18994 14735 10145 17344 10879 18592 15177 13140 13440 19213 17143 12825 11168 15815 18607 16011 15725 14821 11670 17944 12800 10470 18811 13359 12253 15560 12714 13190 11703 15166 999999 999999 999999 0 999999 999999 999999 999999 999999 999999 999999 999999 999999 999999 999999 999999 999999 999999 999999 999999 999999 999999 999999 999999 999999 999999 999999 999999 999999 999999 12537
999999 12604 13514 11868 12731 13233 13614 16425 13676 18020 11463 12009 10862 10229 18028 16328 13744 13582 12190 13019 19189 10719 14750 11757 18231 14658 11245 18131 11730 16350 17743 999999 999999 999999 999999 0 999999 999999 999999 999999 999999 999999 999999 999999 999999 999999 999999 999999 999999 999999 999999 999999 999999 999999 999999 999999 999999 999999 999999 999999 999999 10502
999999 12186 17658 14433 18384 19925 16866 13774 17537 17252 10275 16737 12316 11542 13276 10483 13203 11635 10084 17968 12719 18904 11079 19812 19405 18518 15522 13683 15668 10296 15999 999999 999999 999999 999999 999999 0 999999 999999 999999 999999 999999 999999 999999 999999 999999 999999 999999 999999 999999 999999 999999 999999 999999 999999 999999 999999 999999 999999 999999 999999 6201
999999 16932 17718 15987 11648 18397 10163 14394 14195 15165 12017 17833 17059 14761 18344 15721 15780 13314 15154 18553 17872 10780 12360 14832 18418 19071 12760 18223 10658 18993 10850 999999 999999 999999 999999 999999 999999 0 999999 999999 999999 999999 999999 999999 999999 999999 999999 999999 999999 999999 999999 999999 999999 999999 999999 999999 999999 999999 999999 999999 999999 6912
999999 13610 11873 10333 10571 10876 16266 12368 19003 16774 14498 15250 14291 13461 12889 11807 14356 16495 16499 17448 17722 12780 18831 18052 17970 14285 10524 14865 13011 17822 16391 999999 999999 999999 999999 999999 999999 999999 0 999999 999999 999999 999999 999999 999999 999999 999999 999999 999999 999999 999999 999999 999999 999999 999999 999999 999999 999999 999999 999999 999999 5439
999999 13853 15351 13347 18269 12334 15893 13402 10690 17274 13466 11505 13032 10729 14403 16929 10697 15703 13303 13040 14056 13562 11799 19032 18264 15691 11150 12579 11773 16624 11299 999999 999999 999999 999999 999999 999999 999999 999999 0 999999 999999 999999 999999 999999 999999 999999 999999 999999 999999 999999 999999 999999 999999 999999 999999 999999 999999 999999 999999 999999 10618
999999 14425 19855 12757 14203 18805 13398 13333 10861 11615 17575 17594 11114 13836 19426 19763 19065 15483 16332 10971 11420 18491 16141 14597 10483 18317 12531 16856 11522 14868 10775 999999 999999 999999 999999 999999 999999 999999 999999 999999 0 999999 999999 999999 999999 999999 999999 999999 999999 999999 999999 999999 999999 999999 999999 999999 999999 999999 999999 999999 999999 14503
999999 12302 15623 11158 18303 12425 12519 12906 17819 13062 18592 14227 19869 17385 19006 13775 16060 12917 11164 17800 12801 14819 18167 11994 13934 17874 12981 16537 12286 11011 10599 999999 999999 999999 999999 999999 999999 999999 999999 999999 999999 0 999999 999999 999999 999999 999999 999999 999999 999999 999999 999999 999999 999999 999999 999999 999999 999999 999999 999999 999999 5505
999999 13669 12118 19171 10289 17611 15230 16081 14119 11286 15201 13705 15812 18859 12864 13797 17139 18509 18980 13571 10670 17288 15918 18738 14967 15388 17596 13184 10762 17300 19813 999999 999999 999999 999999 999999 999999 999999 999999 999999 999999 999999 0 999999 999999 999999 999999 999999 999999 999999 999999 999999 999999 999999 999999 999999 999999 999999 999999 999999 999999 13566
999999 10700 13269 15422 17397 17484 10011 11589 13569 18047 11678 15176 15007 15526 11832 15828 18806 17619 10575 18258 17825 13425 19711 13027 10412 13306 14126 15061 10644 10077 18361 999999 999999 999999 999999 999999 999999 999999 999999 999999 999999 999999 999999 0 999999 999999 999999 999999 999999 999999 999999 999999 999999 999999 999999 999999 999999 999999 999999 999999 999999 10774
999999 15609 17986 12953 11877 13598 12007 16722 13736 18394 17281 12194 15485 18800 10428 14934 17805 18085 19433 15485 11450 12331 16321 10025 15168 12387 13918 19545 13169 19783 12014 999999 999999 999999 999999 999999 999999 999999 999999 999999 999999 999999 999999 999999 0 999999 999999 999999 999999 999999 999999 999999 999999 999999 999999 999999 999999 999999 999999 999999 999999 14817
999999 17272 12695 13123 17754 14646 12070 10522 11263 11955 12717 15966 13417 11369 11684 13044 11085 19296 19647 14742 14491 12025 14727 16542 19786 18275 18152 19386 15015 11023 12014 999999 999999 999999 999999 999999 999999 999999 999999 999999 999999 999999 999999 999999 999999 0 999999 999999 999999 999999 999999 999999 999999 999999 999999 999999 999999 999999 999999 999999 999999 14412
999999 11737 10766 18275 14908 14373 14281 17844 18764 12430 12825 15499 10964 14822 12112 17823 17268 19294 14488 17455 10043 15283 11819 19837 19429 15386 13020 11037 10093 17832 10015 999999 999999 999999 999999 999999 999999 999999 999999 999999 999999 999999 999999 999999 999999 999999 0 999999 999999 999999 999999 999999 999999 999999 999999 999999 999999 999999 999999 999999 999999 13406
999999 12337 18767 16830 17578 10653 12222 19818 19645 12441 15918 15373 18492 13473 19592 11588 15990 18219 12996 13093 11355 12367 10010 10641 18659 12352 12139 19415 14691 15945 14678 999999 999999 999999 999999 999999 999999 999999 999999 999999 999999 999999 999999 999999 999999 999999 999999 0 999999 999999 999999 999999 999999 999999 999999 999999 999999 999999 999999 999999 999999 12455
999999 17958 10893 16602 15829 10528 13397 17947 14265 10401 17754 14594 18926 12974 16425 11917 18227 10578 10172 15247 17187 18286 11519 11071 13642 11533 17071 18250 17485 17206 10832 999999 999999 999999 999999 999999 999999 999999 999999 999999 999999 999999 999999 999999 999999 999999 999999 999999 0 999999 999999 999999 999999 999999 999999 999999 999999 999999 999999 999999 999999 14636
999999 11909 15198 10788 11877 18680 13461 12061 10654 15593 18384 14281 17924 18417 18399 12178 19082 18847 16330 14019 16348 15822 12672 15981 10363 16137 16837 17994 15335 19306 13002 999999 999999 999999 999999 999999 999999 999999 999999 999999 999999 999999 999999 999999 999999 999999 999999 999999 999999 0 999999 999999 999999 999999 999999 999999 999999 999999 999999 999999 999999 6563
999999 18122 11210 16993 18848 18284 15383 14607 14398 17657 10134 13966 17398 18815 17415 16543 15789 16620 13001 15391 11965 17620 16768 17666 15166 12874 19080 19370 13461 17257 18972 999999 999999 999999 999999 999999 999999 999999 999999 999999 999999 999999 999999 999999 999999 999999 999999 999999 999999 999999 0 999999 999999 999999 999999 999999 999999 999999 999999 999999 999999 8064
999999 16024 10467 11098 12245 19867 12691 17621 14642 18274 11158 13122 15229 10508 12002 11637 11872 11715 16930 17809 13251 10617 15545 18420 13671 17662 17402 16733 10443 16562 14432 999999 999999 999999 999999 999999 999999 999999 999999 999999 999999 999999 999999 999999 999999 999999 999999 999999 999999 999999 999999 0 999999 999999 999999 999999 999999 999999 999999 999999 999999 5880
999999 17890 10762 19979 13069 15369 14352 15505 19742 16907 16036 13455 11633 11377 16089 16788 17555 17926 16205 13979 15687 16786 15285 15785 14507 16997 18964 15609 19294 15171 10263 999999 999999 999999 999999 999999 999999 999999 999999 999999 999999 999999 999999 999999 999999 999999 999999 999999 999999 999999 999999 999999 0 999999 999999 999999 999999 999999 999999 999999 999999 9753
999999 16471 11451 12266 15935 13349 11795 12550 18423 12637 13207 16928 15460 13955 10184 14882 14750 13371 12495 13995 16839 12993 11170 12216 12566 15643 15797 17955 10270 10481 10579 999999 999999 999999 999999 999999 999999 999999 999999 999999 999999 999999 999999 999999 999999 999999 999999 999999 999999 999999 999999 999999 999999 0 999999 999999 999999 999999 999999 999999 999999 12786
999999 14302 19594 18278 12974 19901 17641 18214 18315 13430 18689 14118 13315 10850 13569 11768 12739 17181 10292 17501 19859 19785 13946 18989 11673 14324 12130 15907 16852 16670 13128 999999 999999 999999 999999 999999 999999 999999 999999 999999 999999 999999 999999 999999 999999 999999 999999 999999 999999 999999 999999 999999 999999 999999 0 999999 999999 999999 999999 999999 999999 14768
999999 10438 11147 16695 16554 12463 12528 16420 11460 11932 11105 15093 16934 14961 10551 13125 11771 13366 14189 12368 18353 14042 16873 16241 19830 18766 12347 15127 14561 14825 15925 999999 999999 999999 999999 999999 999999 999999 999999 999999 999999 999999 999999 999999 999999 999999 999999 999999 999999 999999 999999 999999 999999 999999 999999 0 999999 999999 999999 999999 999999 13771
999999 15730 14922 19043 12310 17483 12727 10815 18468 14588 17908 15091 10486 12242 17701 14543 17401 19153 17009 12023 19333 17187 11432 13533 14483 12088 16994 14675 15059 17596 11027 999999 999999 999999 999999 999999 999999 999999 999999 999999 999999 999999 999999 999999 999999 999999 999999 999999 999999 999999 999999 999999 999999 999999 999999 999999 0 999999 999999 999999 999999 10400
999999 18129 11453 19964 16254 14972 11293 14128 19302 18365 14958 10144 12476 12790 17693 16347 17766 16788 16585 18214 11136 18918 10829 13681 10206 13938 15421 13627 18573 12811 19287 999999 999999 999999 999999 999999 999999 999999 999999 999999 999999 999999 999999 999999 999999 999999 999999 999999 999999 999999 999999 999999 999999 999999 999999 999999 999999 0 999999 999999 999999 13881
999999 19421 15353 19115 18391 18394 17848 16989 11686 15620 11532 14073 10296 12847 11063 19916 14501 18124 18275 14011 19509 10181 16193 11260 10243 14935 11056 11641 16761 14205 11351 999999 999999 999999 999999 999999 999999 999999 999999 999999 999999 999999 999999 999999 999999 999999 999999 999999 999999 999999 999999 999999 999999 999999 999999 999999 999999 999999 0 999999 999999 9975
999999 12748 15137 10873 18269 13171 13546 11824 17799 19227 16918 13840 13396 18008 18509 10548 13994 16239 14814 14664 17317 15547 10280 10880 14289 19359 18780 15630 16675 18170 14459 999999 999999 999999 999999 999999 999999 999999 999999 999999 999999 999999 999999 999999 999999 999999 999999 999999 999999 999999 999999 999999 999999 999999 999999 999999 999999 999999 999999 0 999999 12380
999999 14083 19667 16582 10574 15079 13424 10430 14009 19150 17529 13629 16096 12054 15444 15794 16691 11161 11509 12283 18184 14332 12582 15119 18387 13075 15427 11515 17330 18585 18338 999999 999999 999999 999999 999999 999999 999999 999999 999999 999999 999999 999999 999999 999999 999999 999999 999999 999999 999999 999999 999999 999999 999999 999999 999999 999999 999999 999999 999999 0 5418
1 999999 999999 999999 999999 999999 999999 999999 999999 999999 999999 999999 999999 999999 999999 999999 999999 999999 999999 999999 999999 999999 999999 999999 999999 999999 999999 999999 999999 999999 999999 999999 999999 999999 999999 999999 999999 999999 999999 999999 999999 999999 999999 999999 999999 999999 999999 999999 999999 999999 999999 999999 999999 999999 999999 999999 999999 999999 999999 999999 999999 0
EOF