NAME: GR_1x5x10_KH_5x10_Run_3
TYPE: TSP
COMMENT: BTSP instance |A|=50 GR nodes |B|=50 KH nodes depot=0.0 end=0.0.0
DIMENSION: 102
EDGE_WEIGHT_TYPE: EXPLICIT
EDGE_WEIGHT_FORMAT: FULL_MATRIX
NODE_COORD_TYPE: NO_COORDS
EDGE_WEIGHT_SECTION
0 6427 11293 5039 8158 6103 13423 12653 5896 12195 6163 11050 13344 13372 8517 11730 9518 7756 12820 9841 14663 7918 12969 8028 10505 10275 6866 11612 8866 10957 8447 5137 10244 5937 5727 11114 13499 5531 7855 14321 8361 13225 11457 13726 12578 9951 6255 6101 6127 9631 14072 999999 999999 999999 999999 999999 999999 999999 999999 999999 999999 999999 999999 999999 999999 999999 999999 999999 999999 999999 999999 999999 999999 999999 999999 999999 999999 999999 999999 999999 999999 999999 999999 999999 999999 999999 999999 999999 999999 999999 999999 999999 999999 999999 999999 999999 999999 999999 999999 999999 999999 999999
999999 0 999999 999999 999999 999999 999999 999999 999999 999999 999999 999999 999999 999999 999999 999999 999999 999999 999999 999999 999999 999999 999999 999999 999999 999999 999999 999999 999999 999999 999999 999999 999999 999999 999999 999999 999999 999999 999999 999999 999999 999999 999999 999999 999999 999999 999999 999999 999999 999999 999999 14504 19442 13493 11619 12655 15585 15966 13917 15481 15139 13362 14886 12502 12142 16097 15458 11048 16089 17430 11203 17790 18926 14089 17990 15674 17284 14202 10348 16057 17720 16346 16016 14144 18360 12008 15146 15130 16460 14747 18525 11547 13841 18623 14042 11001 19542 14645 10595 13248 11803 999999
999999 999999 0 999999 999999 999999 999999 999999 999999 999999 999999 999999 999999 999999 999999 999999 999999 999999 999999 999999 999999 999999 999999 999999 999999 999999 999999 999999 999999 999999 999999 999999 999999 999999 999999 999999 999999 999999 999999 999999 999999 999999 999999 999999 999999 999999 999999 999999 999999 999999 999999 11059 14483 13190 12454 11792 15505 12569 15993 11739 15530 19888 15243 13238 15839 11266 11257 16607 15077 15461 10019 17562 12440 11215 16446 15576 14622 14931 11145 16228 12385 10691 12721 14869 18035 19350 18883 17464 12366 18432 14618 14167 19263 15826 13226 11039 12685 16583 16060 14683 12772 999999
999999 999999 999999 0 999999 999999 999999 999999 999999 999999 999999 999999 999999 999999 999999 999999 999999 999999 999999 999999 999999 999999 999999 999999 999999 999999 999999 999999 999999 999999 999999 999999 999999 999999 999999 999999 999999 999999 999999 999999 999999 999999 999999 999999 999999 999999 999999 999999 999999 999999 999999 16020 18586 19081 10120 19058 15194 19285 12105 13948 18647 17619 13211 13341 19321 16672 10757 11147 10247 13318 19617 16913 15080 17515 18943 12159 16887 10201 19050 13773 18046 11486 12319 11646 19642 14371 16843 16393 17418 16720 12977 15508 15222 19389 19697 13842 10179 14297 10842 10221 18577 999999
999999 999999 999999 999999 0 999999 999999 999999 999999 999999 999999 999999 999999 999999 999999 999999 999999 999999 999999 999999 999999 999999 999999 999999 999999 999999 999999 999999 999999 999999 999999 999999 999999 999999 999999 999999 999999 999999 999999 999999 999999 999999 999999 999999 999999 999999 999999 999999 999999 999999 999999 17259 18542 15514 19108 15113 14617 14114 15236 13384 18556 15594 16526 15817 16692 12125 18442 19216 15302 10087 19095 12702 10831 14047 12057 15267 18100 19560 10607 12793 17709 14888 14057 16360 19651 19829 16478 16443 15987 13118 15324 15876 10991 14055 19242 16794 13815 18630 12489 12503 12257 999999
999999 999999 999999 999999 999999 0 999999 999999 999999 999999 999999 999999 999999 999999 999999 999999 999999 999999 999999 999999 999999 999999 999999 999999 999999 999999 999999 999999 999999 999999 999999 999999 999999 999999 999999 999999 999999 999999 999999 999999 999999 999999 999999 999999 999999 999999 999999 999999 999999 999999 999999 14641 11158 19986 12979 11929 14630 17083 11153 10338 13083 19836 18516 11794 19391 13098 13204 13502 12261 18827 19245 15143 14732 14179 19453 16521 12363 15409 16840 16805 10042 13075 14008 18536 15484 11200 16269 11460 16413 15282 16304 12308 15028 12155 19892 10452 18130 13456 10132 14331 18450 999999
999999 999999 999999 999999 999999 999999 0 999999 999999 999999 999999 999999 999999 999999 999999 999999 999999 999999 999999 999999 999999 999999 999999 999999 999999 999999 999999 999999 999999 999999 999999 999999 999999 999999 999999 999999 999999 999999 999999 999999 999999 999999 999999 999999 999999 999999 999999 999999 999999 999999 999999 15757 14829 19520 10710 12387 16567 19524 14727 15814 15061 18406 12058 12241 12530 17182 19610 18859 19752 11809 12443 13998 13333 11294 16479 16765 17659 10385 12695 13686 18876 19970 14856 12128 15702 10689 13044 14789 19739 10173 13143 15863 10086 11353 18456 15072 16054 17664 12198 13872 16528 999999
999999 999999 999999 999999 999999 999999 999999 0 999999 999999 999999 999999 999999 999999 999999 999999 999999 999999 999999 999999 999999 999999 999999 999999 999999 999999 999999 999999 999999 999999 999999 999999 999999 999999 999999 999999 999999 999999 999999 999999 999999 999999 999999 999999 999999 999999 999999 999999 999999 999999 999999 13927 18322 19260 17096 12967 10604 14357 17384 10224 15793 11900 14233 16417 16930 17114 15733 19762 12638 12831 12134 18042 11986 13064 13336 13233 12674 15370 16033 16519 14378 14503 19570 16568 13027 16324 13898 12320 13353 12975 13768 17984 16723 18615 18149 17689 16098 16547 10156 10273 18949 999999
999999 999999 999999 999999 999999 999999 999999 999999 0 999999 999999 999999 999999 999999 999999 999999 999999 999999 999999 999999 999999 999999 999999 999999 999999 999999 999999 999999 999999 999999 999999 999999 999999 999999 999999 999999 999999 999999 999999 999999 999999 999999 999999 999999 999999 999999 999999 999999 999999 999999 999999 12280 12131 14956 12894 18167 17488 19935 11044 12919 15238 19729 11134 11128 16401 16558 11559 14265 19228 16491 18117 15242 12425 15467 12133 13476 17493 15398 19895 17689 10886 18569 19745 13001 15625 17163 10452 19247 14246 16223 11826 14344 10195 19004 18485 14886 19977 13837 11731 19028 12026 999999
999999 999999 999999 999999 999999 999999 999999 999999 999999 0 999999 999999 999999 999999 999999 999999 999999 999999 999999 999999 999999 999999 999999 999999 999999 999999 999999 999999 999999 999999 999999 999999 999999 999999 999999 999999 999999 999999 999999 999999 999999 999999 999999 999999 999999 999999 999999 999999 999999 999999 999999 16493 18555 18625 11844 15996 14527 19525 18524 12493 19999 10163 17961 16465 15764 17680 14092 17825 10022 18829 18085 11248 12783 13975 16898 16471 13632 18112 18217 13560 14192 18050 12397 17870 14790 10225 12306 17807 14105 14132 14694 18052 16168 10008 12713 13332 13142 12964 16794 17495 17114 999999
999999 999999 999999 999999 999999 999999 999999 999999 999999 999999 0 999999 999999 999999 999999 999999 999999 999999 999999 999999 999999 999999 999999 999999 999999 999999 999999 999999 999999 999999 999999 999999 999999 999999 999999 999999 999999 999999 999999 999999 999999 999999 999999 999999 999999 999999 999999 999999 999999 999999 999999 14300 18055 11533 18164 18202 19124 12787 17196 15955 10017 14160 14264 13503 18223 19100 12923 16932 10715 10953 18383 13919 12251 17546 14713 10965 11671 13904 18412 16304 18819 18585 11287 18786 12431 15732 12713 12363 18711 15286 16144 13205 10130 16558 11953 19184 11856 16896 17347 18400 19907 999999
999999 999999 999999 999999 999999 999999 999999 999999 999999 999999 999999 0 999999 999999 999999 999999 999999 999999 999999 999999 999999 999999 999999 999999 999999 999999 999999 999999 999999 999999 999999 999999 999999 999999 999999 999999 999999 999999 999999 999999 999999 999999 999999 999999 999999 999999 999999 999999 999999 999999 999999 18517 13049 18610 16142 12891 16756 16180 18736 15264 15269 17231 16188 12071 18045 15304 10117 11242 19278 14161 13194 19190 19356 15586 17478 12992 17727 15333 15737 12461 11875 16868 14988 14465 10510 13721 10410 18391 15100 12875 19767 13792 11164 10969 19223 10224 19774 16489 16039 17277 16139 999999
999999 999999 999999 999999 999999 999999 999999 999999 999999 999999 999999 999999 0 999999 999999 999999 999999 999999 999999 999999 999999 999999 999999 999999 999999 999999 999999 999999 999999 999999 999999 999999 999999 999999 999999 999999 999999 999999 999999 999999 999999 999999 999999 999999 999999 999999 999999 999999 999999 999999 999999 13633 15570 14179 18696 17412 10295 11737 17507 19093 11386 15924 11816 19137 10545 13325 10548 19061 19771 11729 11485 18537 18916 19732 14853 17539 10576 16990 16610 16081 13437 19916 10683 15656 10824 10061 11903 13344 17828 16056 16744 11476 12304 12363 18571 15610 11364 16876 12565 17350 15438 999999
999999 999999 999999 999999 999999 999999 999999 999999 999999 999999 999999 999999 999999 0 999999 999999 999999 999999 999999 999999 999999 999999 999999 999999 999999 999999 999999 999999 999999 999999 999999 999999 999999 999999 999999 999999 999999 999999 999999 999999 999999 999999 999999 999999 999999 999999 999999 999999 999999 999999 999999 17805 15284 18361 14625 14305 18693 11930 13387 16456 14393 10518 15456 16407 10853 18795 15742 18563 19301 17009 16898 13095 15079 16511 14238 12854 16285 17624 14061 12804 16249 10662 16449 16036 13922 12307 16411 13478 19418 19526 12614 12642 18837 19702 13961 18990 13404 19902 13983 17302 18836 999999
999999 999999 999999 999999 999999 999999 999999 999999 999999 999999 999999 999999 999999 999999 0 999999 999999 999999 999999 999999 999999 999999 999999 999999 999999 999999 999999 999999 999999 999999 999999 999999 999999 999999 999999 999999 999999 999999 999999 999999 999999 999999 999999 999999 999999 999999 999999 999999 999999 999999 999999 10278 10051 14554 18685 15216 10522 18648 18797 11734 15169 13270 15628 11974 19993 12675 16150 12625 10612 10922 14435 14615 13760 10906 13163 14466 12066 18887 10539 16529 12636 12247 18598 15479 15236 13057 14578 11529 18434 19634 16369 18938 10397 19579 18538 17969 19746 13238 12226 19639 13497 999999
999999 999999 999999 999999 999999 999999 999999 999999 999999 999999 999999 999999 999999 999999 999999 0 999999 999999 999999 999999 999999 999999 999999 999999 999999 999999 999999 999999 999999 999999 999999 999999 999999 999999 999999 999999 999999 999999 999999 999999 999999 999999 999999 999999 999999 999999 999999 999999 999999 999999 999999 11254 11957 11880 16348 17227 17450 15409 14543 11560 11631 16218 15973 14999 19110 18950 16410 13825 10006 12563 15056 12898 16348 13654 13319 18224 13436 15472 17585 19190 13086 17138 11342 19784 14532 18708 14342 15669 12741 18822 17931 17912 17844 17641 11459 19991 10904 12983 19811 19036 11489 999999
999999 999999 999999 999999 999999 999999 999999 999999 999999 999999 999999 999999 999999 999999 999999 999999 0 999999 999999 999999 999999 999999 999999 999999 999999 999999 999999 999999 999999 999999 999999 999999 999999 999999 999999 999999 999999 999999 999999 999999 999999 999999 999999 999999 999999 999999 999999 999999 999999 999999 999999 12085 18684 16012 13907 13615 13682 14357 19703 15847 12654 11691 13010 19839 16449 11133 11251 13651 14007 19424 11681 19378 13735 19275 12082 17363 16203 14936 12219 18129 12242 13172 13548 18704 14258 18277 19576 12166 18094 17464 14622 12964 13659 19969 18461 10838 12356 12716 12877 14813 14440 999999
999999 999999 999999 999999 999999 999999 999999 999999 999999 999999 999999 999999 999999 999999 999999 999999 999999 0 999999 999999 999999 999999 999999 999999 999999 999999 999999 999999 999999 999999 999999 999999 999999 999999 999999 999999 999999 999999 999999 999999 999999 999999 999999 999999 999999 999999 999999 999999 999999 999999 999999 16266 16602 19213 17177 12139 18234 19015 14781 18100 17976 14204 12843 19581 17549 18865 18899 17039 11048 18189 15945 17347 11837 15661 16852 11306 13440 13677 12662 17247 18544 17848 10560 16333 17198 14887 14735 16074 14578 17676 19755 16841 16627 17104 15743 18678 15363 16938 11547 11112 18626 999999
999999 999999 999999 999999 999999 999999 999999 999999 999999 999999 999999 999999 999999 999999 999999 999999 999999 999999 0 999999 999999 999999 999999 999999 999999 999999 999999 999999 999999 999999 999999 999999 999999 999999 999999 999999 999999 999999 999999 999999 999999 999999 999999 999999 999999 999999 999999 999999 999999 999999 999999 15153 12497 14452 16912 14186 15974 13989 19401 13358 19536 17752 15215 16979 14851 19806 10919 13002 17842 10079 12765 19574 13580 11275 11305 14054 11871 18521 15542 18055 16692 19290 16701 14800 18462 13801 19776 10965 13244 14918 12269 10588 13323 12491 14221 19472 19525 19723 19031 19318 12598 999999
999999 999999 999999 999999 999999 999999 999999 999999 999999 999999 999999 999999 999999 999999 999999 999999 999999 999999 999999 0 999999 999999 999999 999999 999999 999999 999999 999999 999999 999999 999999 999999 999999 999999 999999 999999 999999 999999 999999 999999 999999 999999 999999 999999 999999 999999 999999 999999 999999 999999 999999 11989 15939 14022 10914 11674 10004 12994 13849 12913 12417 14290 10492 13465 18309 12453 10258 14334 14840 15490 18236 10772 16062 18052 11551 13709 10733 14512 10847 16500 15120 18013 12796 14233 16527 10843 15386 15090 12180 15487 12411 17220 19966 15881 16157 14025 13011 14049 18112 16190 11743 999999
999999 999999 999999 999999 999999 999999 999999 999999 999999 999999 999999 999999 999999 999999 999999 999999 999999 999999 999999 999999 0 999999 999999 999999 999999 999999 999999 999999 999999 999999 999999 999999 999999 999999 999999 999999 999999 999999 999999 999999 999999 999999 999999 999999 999999 999999 999999 999999 999999 999999 999999 15006 11437 14730 19238 10066 10667 13547 18461 18024 11447 13256 14476 17459 14234 11342 18591 11892 12756 11266 18718 16866 16814 15022 16752 11075 13362 14310 12118 14813 16090 15370 19440 10678 19485 11074 16323 19950 17945 13827 10911 16091 16524 18043 14688 13243 11675 12068 16588 19533 10318 999999
999999 999999 999999 999999 999999 999999 999999 999999 999999 999999 999999 999999 999999 999999 999999 999999 999999 999999 999999 999999 999999 0 999999 999999 999999 999999 999999 999999 999999 999999 999999 999999 999999 999999 999999 999999 999999 999999 999999 999999 999999 999999 999999 999999 999999 999999 999999 999999 999999 999999 999999 14666 12578 17378 14630 14656 15137 17643 16754 11345 11004 17880 10099 16998 17857 19318 10980 12679 16480 11073 16467 11261 13170 13022 18663 18669 17163 11495 16022 14405 14907 13666 10294 13223 11989 11698 18167 14263 15609 14837 10410 17546 14240 13070 11675 12514 15006 14493 17744 11723 18341 999999
999999 999999 999999 999999 999999 999999 999999 999999 999999 999999 999999 999999 999999 999999 999999 999999 999999 999999 999999 999999 999999 999999 0 999999 999999 999999 999999 999999 999999 999999 999999 999999 999999 999999 999999 999999 999999 999999 999999 999999 999999 999999 999999 999999 999999 999999 999999 999999 999999 999999 999999 18307 13057 17872 11978 13925 14828 17503 19380 16674 11153 19962 13674 14652 10904 14418 12265 19296 14870 12449 10312 12563 15280 15834 11514 17440 12805 17525 16791 13411 15022 17854 11065 18616 17797 19426 18304 19552 10381 15801 19085 12744 11961 12591 16187 13233 11040 15254 12556 10178 16705 999999
999999 999999 999999 999999 999999 999999 999999 999999 999999 999999 999999 999999 999999 999999 999999 999999 999999 999999 999999 999999 999999 999999 999999 0 999999 999999 999999 999999 999999 999999 999999 999999 999999 999999 999999 999999 999999 999999 999999 999999 999999 999999 999999 999999 999999 999999 999999 999999 999999 999999 999999 18857 10327 15026 14082 13479 18750 11428 19789 16959 16095 12884 15872 13813 10008 12147 19962 16810 10769 12990 11698 11293 10001 16268 16812 10817 16318 14811 15753 11216 19097 10659 12614 11300 14775 19188 13038 18373 14089 13693 15414 18194 17566 18678 12988 19089 19362 12645 18174 18875 18962 999999
999999 999999 999999 999999 999999 999999 999999 999999 999999 999999 999999 999999 999999 999999 999999 999999 999999 999999 999999 999999 999999 999999 999999 999999 0 999999 999999 999999 999999 999999 999999 999999 999999 999999 999999 999999 999999 999999 999999 999999 999999 999999 999999 999999 999999 999999 999999 999999 999999 999999 999999 10802 15191 18451 14567 11130 14937 19641 11373 11839 15931 16454 14194 18424 16833 15653 17982 13299 10408 13186 15561 18170 18063 10182 11610 16649 18935 13188 14778 14593 13013 12675 15245 15508 13353 16746 19814 18940 11423 16527 19310 12820 18316 18332 17500 14428 12812 19672 12346 13708 16694 999999
999999 999999 999999 999999 999999 999999 999999 999999 999999 999999 999999 999999 999999 999999 999999 999999 999999 999999 999999 999999 999999 999999 999999 999999 999999 0 999999 999999 999999 999999 999999 999999 999999 999999 999999 999999 999999 999999 999999 999999 999999 999999 999999 999999 999999 999999 999999 999999 999999 999999 999999 13871 14565 19987 13952 14315 13630 18025 12789 12083 14537 13601 14184 17239 14950 18071 12447 10386 12295 17253 10950 17681 16901 13868 17663 12958 18469 15589 11246 15517 10811 19993 13206 12388 12282 19227 14768 11837 17894 13128 12684 13662 19088 12549 19146 12729 19295 10199 15124 11887 16574 999999
999999 999999 999999 999999 999999 999999 999999 999999 999999 999999 999999 999999 999999 999999 999999 999999 999999 999999 999999 999999 999999 999999 999999 999999 999999 999999 0 999999 999999 999999 999999 999999 999999 999999 999999 999999 999999 999999 999999 999999 999999 999999 999999 999999 999999 999999 999999 999999 999999 999999 999999 13436 17679 11466 18784 13401 18632 17904 12749 10421 11451 18662 14265 10006 13720 18984 16141 16783 18052 10810 11016 17974 11377 11595 15248 10604 16851 19077 11075 18722 15468 16040 16983 17453 10913 13964 16215 15349 13881 13012 11779 11110 16902 15148 10958 18215 14468 14524 19915 17668 18457 999999
999999 999999 999999 999999 999999 999999 999999 999999 999999 999999 999999 999999 999999 999999 999999 999999 999999 999999 999999 999999 999999 999999 999999 999999 999999 999999 999999 0 999999 999999 999999 999999 999999 999999 999999 999999 999999 999999 999999 999999 999999 999999 999999 999999 999999 999999 999999 999999 999999 999999 999999 18337 12923 11452 14572 12561 19456 10230 14496 12974 18875 18426 12669 10762 15260 13003 15621 17646 19157 16320 10532 13140 18657 18988 19008 14212 10787 12218 12185 15437 10499 11637 16636 15723 14617 14109 13224 12003 10141 17111 11377 19732 18095 10006 10760 17943 13914 19888 19927 16666 11258 999999
999999 999999 999999 999999 999999 999999 999999 999999 999999 999999 999999 999999 999999 999999 999999 999999 999999 999999 999999 999999 999999 999999 999999 999999 999999 999999 999999 999999 0 999999 999999 999999 999999 999999 999999 999999 999999 999999 999999 999999 999999 999999 999999 999999 999999 999999 999999 999999 999999 999999 999999 17733 10961 10638 11870 18318 14990 12949 18736 17261 10669 12685 14477 14691 17414 13080 18540 10708 17557 15345 10093 18686 11971 13824 14934 14476 13928 19060 12885 15191 19273 15071 19519 10917 14694 16868 13229 14202 14601 18454 10199 12986 12520 16332 19264 18652 16792 17736 10390 10714 13330 999999
999999 999999 999999 999999 999999 999999 999999 999999 999999 999999 999999 999999 999999 999999 999999 999999 999999 999999 999999 999999 999999 999999 999999 999999 999999 999999 999999 999999 999999 0 999999 999999 999999 999999 999999 999999 999999 999999 999999 999999 999999 999999 999999 999999 999999 999999 999999 999999 999999 999999 999999 13210 14291 18581 17060 18389 13565 16239 10447 17826 16474 12649 10229 14763 13660 13767 12048 11971 16329 17478 16259 18638 16798 13691 14414 16739 12092 14214 10180 10755 16738 10173 18150 14879 12194 15571 12512 14895 17887 18736 14289 18082 17369 11904 14170 18193 13507 13760 13626 17736 10958 999999
999999 999999 999999 999999 999999 999999 999999 999999 999999 999999 999999 999999 999999 999999 999999 999999 999999 999999 999999 999999 999999 999999 999999 999999 999999 999999 999999 999999 999999 999999 0 999999 999999 999999 999999 999999 999999 999999 999999 999999 999999 999999 999999 999999 999999 999999 999999 999999 999999 999999 999999 17247 14724 15137 19961 16685 15253 17017 14135 13509 15711 15927 12886 12738 15769 17550 14044 13415 12297 15376 10293 12837 11592 19148 10666 18646 18897 10708 18020 18713 19965 13502 12655 16409 12623 13937 15229 19266 16399 15076 12851 12816 13575 10002 15640 10292 18090 16412 15911 12226 15008 999999
999999 999999 999999 999999 999999 999999 999999 999999 999999 999999 999999 999999 999999 999999 999999 999999 999999 999999 999999 999999 999999 999999 999999 999999 999999 999999 999999 999999 999999 999999 999999 0 999999 999999 999999 999999 999999 999999 999999 999999 999999 999999 999999 999999 999999 999999 999999 999999 999999 999999 999999 11675 11990 18156 19444 18452 17631 12742 16377 14238 10518 18862 18922 17570 16325 12098 15931 15165 12995 11620 11384 13112 15595 14243 10604 11621 12565 19945 13718 13663 16198 14740 16437 16276 18592 15240 11218 10966 14922 19183 15774 15147 14851 19474 13525 10017 16877 10698 14415 11155 19340 999999
999999 999999 999999 999999 999999 999999 999999 999999 999999 999999 999999 999999 999999 999999 999999 999999 999999 999999 999999 999999 999999 999999 999999 999999 999999 999999 999999 999999 999999 999999 999999 999999 0 999999 999999 999999 999999 999999 999999 999999 999999 999999 999999 999999 999999 999999 999999 999999 999999 999999 999999 18343 18540 16747 17498 15819 19181 10207 16934 13032 11922 14206 17418 15587 11649 19284 19939 16368 15262 13624 11059 19905 19438 11910 13399 12204 16428 16012 14096 19597 10684 14753 10106 16625 12514 16379 11218 10936 11210 17030 10859 18068 17681 19640 12193 14693 10207 13978 17936 19601 11262 999999
999999 999999 999999 999999 999999 999999 999999 999999 999999 999999 999999 999999 999999 999999 999999 999999 999999 999999 999999 999999 999999 999999 999999 999999 999999 999999 999999 999999 999999 999999 999999 999999 999999 0 999999 999999 999999 999999 999999 999999 999999 999999 999999 999999 999999 999999 999999 999999 999999 999999 999999 11491 17047 19350 14280 15444 12419 18167 17428 17556 18219 12169 18754 19860 16684 15562 17269 10365 16970 10811 18802 11599 11634 13126 14116 17148 19848 17835 12632 10327 17937 19750 11969 18651 14123 12370 15787 12644 19189 11088 13238 11115 11706 13822 18831 10470 17296 16470 19353 11903 18824 999999
999999 999999 999999 999999 999999 999999 999999 999999 999999 999999 999999 999999 999999 999999 999999 999999 999999 999999 999999 999999 999999 999999 999999 999999 999999 999999 999999 999999 999999 999999 999999 999999 999999 999999 0 999999 999999 999999 999999 999999 999999 999999 999999 999999 999999 999999 999999 999999 999999 999999 999999 19473 10761 16325 17658 12729 19755 19822 12019 12278 15500 17701 19326 18821 15851 14820 13576 15286 18201 16435 19162 14014 16432 15875 16610 11252 14231 15013 12462 13332 17847 17789 13526 11457 10771 12538 18628 13858 13199 18285 17390 14452 13649 16651 14278 18975 13966 16882 18173 12270 10992 999999
999999 999999 999999 999999 999999 999999 999999 999999 999999 999999 999999 999999 999999 999999 999999 999999 999999 999999 999999 999999 999999 999999 999999 999999 999999 999999 999999 999999 999999 999999 999999 999999 999999 999999 999999 0 999999 999999 999999 999999 999999 999999 999999 999999 999999 999999 999999 999999 999999 999999 999999 16868 13056 10972 12623 17109 17517 10509 13690 15429 12564 15206 18475 10953 15949 12918 11441 15344 14095 17456 15482 15569 11560 15771 13765 12497 13503 11086 19443 18924 10350 17174 14502 10901 14764 14112 15282 10226 19317 12250 17280 18616 18183 18223 15359 16386 15495 19609 11410 12974 12690 999999
999999 999999 999999 999999 999999 999999 999999 999999 999999 999999 999999 999999 999999 999999 999999 999999 999999 999999 999999 999999 999999 999999 999999 999999 999999 999999 999999 999999 999999 999999 999999 999999 999999 999999 999999 999999 0 999999 999999 999999 999999 999999 999999 999999 999999 999999 999999 999999 999999 999999 999999 14548 19882 18555 11615 16988 17407 13731 14070 16329 19974 17203 19710 17900 10284 11913 15253 19292 10117 10220 16377 13425 15072 10994 12697 12243 15895 10950 17645 17509 13386 14199 17427 18001 17813 12505 10175 13344 19027 15258 10259 12539 10057 11403 19760 15046 12167 16930 13784 17057 17511 999999
999999 999999 999999 999999 999999 999999 999999 999999 999999 999999 999999 999999 999999 999999 999999 999999 999999 999999 999999 999999 999999 999999 999999 999999 999999 999999 999999 999999 999999 999999 999999 999999 999999 999999 999999 999999 999999 0 999999 999999 999999 999999 999999 999999 999999 999999 999999 999999 999999 999999 999999 13877 19846 12587 12336 19928 11519 16667 16578 11167 11262 12348 10265 13299 12329 16805 17479 15288 10767 10896 18913 15819 15703 14447 10410 13808 17727 18202 15169 12724 10028 12295 17860 18806 12524 12835 18952 11651 19359 12345 19098 14703 13855 11684 18202 12989 10928 11923 16338 19534 10685 999999
999999 999999 999999 999999 999999 999999 999999 999999 999999 999999 999999 999999 999999 999999 999999 999999 999999 999999 999999 999999 999999 999999 999999 999999 999999 999999 999999 999999 999999 999999 999999 999999 999999 999999 999999 999999 999999 999999 0 999999 999999 999999 999999 999999 999999 999999 999999 999999 999999 999999 999999 16184 18328 16481 17116 16054 13036 16794 18690 18562 11956 15498 12246 15223 11136 15722 10247 15140 16866 12849 19876 14501 10542 10471 19446 17674 13910 12484 19152 18065 11600 16361 16776 13189 15418 18152 10744 11768 14756 14264 16551 13411 17385 17151 11234 17419 17589 17549 10615 10001 11471 999999
999999 999999 999999 999999 999999 999999 999999 999999 999999 999999 999999 999999 999999 999999 999999 999999 999999 999999 999999 999999 999999 999999 999999 999999 999999 999999 999999 999999 999999 999999 999999 999999 999999 999999 999999 999999 999999 999999 999999 0 999999 999999 999999 999999 999999 999999 999999 999999 999999 999999 999999 18969 12096 11573 12913 14141 11275 13140 14982 14790 17566 11952 10559 19160 12915 12765 11445 19438 18094 11626 12720 18705 12533 18983 17594 16533 16714 16457 10512 13995 16672 16636 19245 11762 17293 18814 15170 12838 11598 15285 16474 18432 13485 19675 14722 15062 15228 11178 18836 15255 18094 999999
999999 999999 999999 999999 999999 999999 999999 999999 999999 999999 999999 999999 999999 999999 999999 999999 999999 999999 999999 999999 999999 999999 999999 999999 999999 999999 999999 999999 999999 999999 999999 999999 999999 999999 999999 999999 999999 999999 999999 999999 0 999999 999999 999999 999999 999999 999999 999999 999999 999999 999999 16209 12006 10102 12977 16794 15896 17504 18473 13201 19316 16592 16504 13876 13062 17136 14828 16651 18899 13692 13283 17274 15002 16917 18697 13740 16658 15447 11857 19289 17004 18330 11381 10716 18431 11800 11254 13786 14593 16803 13858 15399 13495 12310 14730 18900 16143 19252 10842 15024 11257 999999
999999 999999 999999 999999 999999 999999 999999 999999 999999 999999 999999 999999 999999 999999 999999 999999 999999 999999 999999 999999 999999 999999 999999 999999 999999 999999 999999 999999 999999 999999 999999 999999 999999 999999 999999 999999 999999 999999 999999 999999 999999 0 999999 999999 999999 999999 999999 999999 999999 999999 999999 19279 13284 17711 13842 19737 13562 17630 13750 16142 10913 18005 19132 17728 18444 16959 11174 17750 18974 11503 12602 14986 13715 13862 14672 19803 14339 17105 14922 18266 17788 11916 12794 10232 18605 17244 15103 11807 10404 14970 10477 17007 12099 15946 15611 11739 17752 18534 11541 13362 11256 999999
999999 999999 999999 999999 999999 999999 999999 999999 999999 999999 999999 999999 999999 999999 999999 999999 999999 999999 999999 999999 999999 999999 999999 999999 999999 999999 999999 999999 999999 999999 999999 999999 999999 999999 999999 999999 999999 999999 999999 999999 999999 999999 0 999999 999999 999999 999999 999999 999999 999999 999999 17722 12064 18492 17157 11116 14189 16264 17521 19983 19784 16058 15681 17182 13589 11890 18821 12557 10668 17700 18080 13277 13033 16184 10177 19047 12412 10495 11297 10381 15035 18523 12044 19553 16670 15903 10427 10038 17834 10576 13253 14071 19009 12263 15259 16189 13582 10130 11250 14909 19972 999999
999999 999999 999999 999999 999999 999999 999999 999999 999999 999999 999999 999999 999999 999999 999999 999999 999999 999999 999999 999999 999999 999999 999999 999999 999999 999999 999999 999999 999999 999999 999999 999999 999999 999999 999999 999999 999999 999999 999999 999999 999999 999999 999999 0 999999 999999 999999 999999 999999 999999 999999 11305 19715 13095 14031 19181 10361 17279 13943 14162 10867 19045 13425 18791 13836 11583 14034 19377 11851 16800 19781 17705 14309 12071 16828 11356 17341 17032 18819 15857 18904 12102 18639 19939 13867 11439 13423 12733 18711 10027 19099 19603 12014 15595 12161 11456 18220 19442 19854 18619 16965 999999
999999 999999 999999 999999 999999 999999 999999 999999 999999 999999 999999 999999 999999 999999 999999 999999 999999 999999 999999 999999 999999 999999 999999 999999 999999 999999 999999 999999 999999 999999 999999 999999 999999 999999 999999 999999 999999 999999 999999 999999 999999 999999 999999 999999 0 999999 999999 999999 999999 999999 999999 16249 17156 15609 13379 17986 11059 17559 19593 15023 18222 15300 11096 13084 13431 13964 16620 15435 11006 10642 10683 17219 14742 17863 10800 19979 12392 19150 16962 16944 12226 17648 14266 11804 18361 14704 10255 12773 11571 14060 18070 16104 19879 16214 10509 16044 12875 19936 19654 13805 11061 999999
999999 999999 999999 999999 999999 999999 999999 999999 999999 999999 999999 999999 999999 999999 999999 999999 999999 999999 999999 999999 999999 999999 999999 999999 999999 999999 999999 999999 999999 999999 999999 999999 999999 999999 999999 999999 999999 999999 999999 999999 999999 999999 999999 999999 999999 0 999999 999999 999999 999999 999999 14714 19887 15729 10809 10374 16668 10971 12761 15535 17188 14896 17811 19592 13849 10052 16826 19987 14656 15781 11256 13129 14059 15937 14945 13450 13797 19435 18302 12288 10473 15529 18331 16702 18826 11289 19414 16273 14938 15558 16426 10587 12444 19397 17856 12995 10841 19694 10223 19650 17760 999999
999999 999999 999999 999999 999999 999999 999999 999999 999999 999999 999999 999999 999999 999999 999999 999999 999999 999999 999999 999999 999999 999999 999999 999999 999999 999999 999999 999999 999999 999999 999999 999999 999999 999999 999999 999999 999999 999999 999999 999999 999999 999999 999999 999999 999999 999999 0 999999 999999 999999 999999 16003 11332 17703 16417 13940 13055 14243 19898 12637 13964 12661 18618 19354 13353 15811 14246 14582 11968 16274 11039 19702 10206 10551 12832 13767 17365 12356 14178 18771 12668 19081 10784 12084 13867 16536 15095 18855 14425 16761 19584 19555 10239 13446 15676 18198 13986 11957 19700 11348 13605 999999
999999 999999 999999 999999 999999 999999 999999 999999 999999 999999 999999 999999 999999 999999 999999 999999 999999 999999 999999 999999 999999 999999 999999 999999 999999 999999 999999 999999 999999 999999 999999 999999 999999 999999 999999 999999 999999 999999 999999 999999 999999 999999 999999 999999 999999 999999 999999 0 999999 999999 999999 19046 17834 14204 16211 18725 14557 14858 14136 17653 17502 13543 12787 15261 18727 19278 11570 14589 13352 15946 15499 10503 16958 11158 11475 13142 17850 19704 13572 18364 12718 18554 15867 12392 12223 12645 19185 17333 11110 13640 15641 19851 11182 12143 15384 13586 13680 15987 10529 17213 13722 999999
999999 999999 999999 999999 999999 999999 999999 999999 999999 999999 999999 999999 999999 999999 999999 999999 999999 999999 999999 999999 999999 999999 999999 999999 999999 999999 999999 999999 999999 999999 999999 999999 999999 999999 999999 999999 999999 999999 999999 999999 999999 999999 999999 999999 999999 999999 999999 999999 0 999999 999999 17512 11359 16250 10461 14861 15695 13806 16284 10044 16341 11947 12820 19708 10314 11329 15001 19575 11588 15293 14109 13988 16467 17975 14431 12681 15690 16338 10784 17849 13676 14567 13184 15964 15030 13385 15847 13981 15649 19349 13926 19836 19768 10059 19736 16485 19699 11262 12041 11872 16139 999999
999999 999999 999999 999999 999999 999999 999999 999999 999999 999999 999999 999999 999999 999999 999999 999999 999999 999999 999999 999999 999999 999999 999999 999999 999999 999999 999999 999999 999999 999999 999999 999999 999999 999999 999999 999999 999999 999999 999999 999999 999999 999999 999999 999999 999999 999999 999999 999999 999999 0 999999 14964 16092 17495 16249 19603 19700 12320 13898 17434 13263 11431 17782 17778 17327 10585 12157 13074 15866 11739 19891 11978 16778 18244 15788 11113 15650 12999 12801 18607 14535 12255 14686 11325 17154 18414 12446 14196 14294 11261 16583 15101 12018 17040 16460 13154 14501 11652 14279 15647 11450 999999
999999 999999 999999 999999 999999 999999 999999 999999 999999 999999 999999 999999 999999 999999 999999 999999 999999 999999 999999 999999 999999 999999 999999 999999 999999 999999 999999 999999 999999 999999 999999 999999 999999 999999 999999 999999 999999 999999 999999 999999 999999 999999 999999 999999 999999 999999 999999 999999 999999 999999 0 14772 14771 15258 13603 16010 15305 17548 13533 12991 17084 12581 10672 10161 10184 14632 10406 19546 17893 15146 11584 11030 16714 12956 15714 14376 14612 15745 17741 19802 16659 11557 18387 16310 10342 17090 11045 10311 13967 18708 13942 11473 18508 16537 11722 15695 14008 13181 14636 15234 16565 999999
999999 14504 11059 16020 17259 14641 15757 13927 12280 16493 14300 18517 13633 17805 10278 11254 12085 16266 15153 11989 15006 14666 18307 18857 10802 13871 13436 18337 17733 13210 17247 11675 18343 11491 19473 16868 14548 13877 16184 18969 16209 19279 17722 11305 16249 14714 16003 19046 17512 14964 14772 0 999999 999999 999999 999999 999999 999999 999999 999999 999999 999999 999999 999999 999999 999999 999999 999999 999999 999999 999999 999999 999999 999999 999999 999999 999999 999999 999999 999999 999999 999999 999999 999999 999999 999999 999999 999999 999999 999999 999999 999999 999999 999999 999999 999999 999999 999999 999999 999999 999999 10349
999999 19442 14483 18586 18542 11158 14829 18322 12131 18555 18055 13049 15570 15284 10051 11957 18684 16602 12497 15939 11437 12578 13057 10327 15191 14565 17679 12923 10961 14291 14724 11990 18540 17047 10761 13056 19882 19846 18328 12096 12006 13284 12064 19715 17156 19887 11332 17834 11359 16092 14771 999999 0 999999 999999 999999 999999 999999 999999 999999 999999 999999 999999 999999 999999 999999 999999 999999 999999 999999 999999 999999 999999 999999 999999 999999 999999 999999 999999 999999 999999 999999 999999 999999 999999 999999 999999 999999 999999 999999 999999 999999 999999 999999 999999 999999 999999 999999 999999 999999 999999 6720
999999 13493 13190 19081 15514 19986 19520 19260 14956 18625 11533 18610 14179 18361 14554 11880 16012 19213 14452 14022 14730 17378 17872 15026 18451 19987 11466 11452 10638 18581 15137 18156 16747 19350 16325 10972 18555 12587 16481 11573 10102 17711 18492 13095 15609 15729 17703 14204 16250 17495 15258 999999 999999 0 999999 999999 999999 999999 999999 999999 999999 999999 999999 999999 999999 999999 999999 999999 999999 999999 999999 999999 999999 999999 999999 999999 999999 999999 999999 999999 999999 999999 999999 999999 999999 999999 999999 999999 999999 999999 999999 999999 999999 999999 999999 999999 999999 999999 999999 999999 999999 5831
999999 11619 12454 10120 19108 12979 10710 17096 12894 11844 18164 16142 18696 14625 18685 16348 13907 17177 16912 10914 19238 14630 11978 14082 14567 13952 18784 14572 11870 17060 19961 19444 17498 14280 17658 12623 11615 12336 17116 12913 12977 13842 17157 14031 13379 10809 16417 16211 10461 16249 13603 999999 999999 999999 0 999999 999999 999999 999999 999999 999999 999999 999999 999999 999999 999999 999999 999999 999999 999999 999999 999999 999999 999999 999999 999999 999999 999999 999999 999999 999999 999999 999999 999999 999999 999999 999999 999999 999999 999999 999999 999999 999999 999999 999999 999999 999999 999999 999999 999999 999999 8736
999999 12655 11792 19058 15113 11929 12387 12967 18167 15996 18202 12891 17412 14305 15216 17227 13615 12139 14186 11674 10066 14656 13925 13479 11130 14315 13401 12561 18318 18389 16685 18452 15819 15444 12729 17109 16988 19928 16054 14141 16794 19737 11116 19181 17986 10374 13940 18725 14861 19603 16010 999999 999999 999999 999999 0 999999 999999 999999 999999 999999 999999 999999 999999 999999 999999 999999 999999 999999 999999 999999 999999 999999 999999 999999 999999 999999 999999 999999 999999 999999 999999 999999 999999 999999 999999 999999 999999 999999 999999 999999 999999 999999 999999 999999 999999 999999 999999 999999 999999 999999 12404
999999 15585 15505 15194 14617 14630 16567 10604 17488 14527 19124 16756 10295 18693 10522 17450 13682 18234 15974 10004 10667 15137 14828 18750 14937 13630 18632 19456 14990 13565 15253 17631 19181 12419 19755 17517 17407 11519 13036 11275 15896 13562 14189 10361 11059 16668 13055 14557 15695 19700 15305 999999 999999 999999 999999 999999 0 999999 999999 999999 999999 999999 999999 999999 999999 999999 999999 999999 999999 999999 999999 999999 999999 999999 999999 999999 999999 999999 999999 999999 999999 999999 999999 999999 999999 999999 999999 999999 999999 999999 999999 999999 999999 999999 999999 999999 999999 999999 999999 999999 999999 14527
999999 15966 12569 19285 14114 17083 19524 14357 19935 19525 12787 16180 11737 11930 18648 15409 14357 19015 13989 12994 13547 17643 17503 11428 19641 18025 17904 10230 12949 16239 17017 12742 10207 18167 19822 10509 13731 16667 16794 13140 17504 17630 16264 17279 17559 10971 14243 14858 13806 12320 17548 999999 999999 999999 999999 999999 999999 0 999999 999999 999999 999999 999999 999999 999999 999999 999999 999999 999999 999999 999999 999999 999999 999999 999999 999999 999999 999999 999999 999999 999999 999999 999999 999999 999999 999999 999999 999999 999999 999999 999999 999999 999999 999999 999999 999999 999999 999999 999999 999999 999999 11776
999999 13917 15993 12105 15236 11153 14727 17384 11044 18524 17196 18736 17507 13387 18797 14543 19703 14781 19401 13849 18461 16754 19380 19789 11373 12789 12749 14496 18736 10447 14135 16377 16934 17428 12019 13690 14070 16578 18690 14982 18473 13750 17521 13943 19593 12761 19898 14136 16284 13898 13533 999999 999999 999999 999999 999999 999999 999999 0 999999 999999 999999 999999 999999 999999 999999 999999 999999 999999 999999 999999 999999 999999 999999 999999 999999 999999 999999 999999 999999 999999 999999 999999 999999 999999 999999 999999 999999 999999 999999 999999 999999 999999 999999 999999 999999 999999 999999 999999 999999 999999 8754
999999 15481 11739 13948 13384 10338 15814 10224 12919 12493 15955 15264 19093 16456 11734 11560 15847 18100 13358 12913 18024 11345 16674 16959 11839 12083 10421 12974 17261 17826 13509 14238 13032 17556 12278 15429 16329 11167 18562 14790 13201 16142 19983 14162 15023 15535 12637 17653 10044 17434 12991 999999 999999 999999 999999 999999 999999 999999 999999 0 999999 999999 999999 999999 999999 999999 999999 999999 999999 999999 999999 999999 999999 999999 999999 999999 999999 999999 999999 999999 999999 999999 999999 999999 999999 999999 999999 999999 999999 999999 999999 999999 999999 999999 999999 999999 999999 999999 999999 999999 999999 14936
999999 15139 15530 18647 18556 13083 15061 15793 15238 19999 10017 15269 11386 14393 15169 11631 12654 17976 19536 12417 11447 11004 11153 16095 15931 14537 11451 18875 10669 16474 15711 10518 11922 18219 15500 12564 19974 11262 11956 17566 19316 10913 19784 10867 18222 17188 13964 17502 16341 13263 17084 999999 999999 999999 999999 999999 999999 999999 999999 999999 0 999999 999999 999999 999999 999999 999999 999999 999999 999999 999999 999999 999999 999999 999999 999999 999999 999999 999999 999999 999999 999999 999999 999999 999999 999999 999999 999999 999999 999999 999999 999999 999999 999999 999999 999999 999999 999999 999999 999999 999999 14456
999999 13362 19888 17619 15594 19836 18406 11900 19729 10163 14160 17231 15924 10518 13270 16218 11691 14204 17752 14290 13256 17880 19962 12884 16454 13601 18662 18426 12685 12649 15927 18862 14206 12169 17701 15206 17203 12348 15498 11952 16592 18005 16058 19045 15300 14896 12661 13543 11947 11431 12581 999999 999999 999999 999999 999999 999999 999999 999999 999999 999999 0 999999 999999 999999 999999 999999 999999 999999 999999 999999 999999 999999 999999 999999 999999 999999 999999 999999 999999 999999 999999 999999 999999 999999 999999 999999 999999 999999 999999 999999 999999 999999 999999 999999 999999 999999 999999 999999 999999 999999 7531
999999 14886 15243 13211 16526 18516 12058 14233 11134 17961 14264 16188 11816 15456 15628 15973 13010 12843 15215 10492 14476 10099 13674 15872 14194 14184 14265 12669 14477 10229 12886 18922 17418 18754 19326 18475 19710 10265 12246 10559 16504 19132 15681 13425 11096 17811 18618 12787 12820 17782 10672 999999 999999 999999 999999 999999 999999 999999 999999 999999 999999 999999 0 999999 999999 999999 999999 999999 999999 999999 999999 999999 999999 999999 999999 999999 999999 999999 999999 999999 999999 999999 999999 999999 999999 999999 999999 999999 999999 999999 999999 999999 999999 999999 999999 999999 999999 999999 999999 999999 999999 11946
999999 12502 13238 13341 15817 11794 12241 16417 11128 16465 13503 12071 19137 16407 11974 14999 19839 19581 16979 13465 17459 16998 14652 13813 18424 17239 10006 10762 14691 14763 12738 17570 15587 19860 18821 10953 17900 13299 15223 19160 13876 17728 17182 18791 13084 19592 19354 15261 19708 17778 10161 999999 999999 999999 999999 999999 999999 999999 999999 999999 999999 999999 999999 0 999999 999999 999999 999999 999999 999999 999999 999999 999999 999999 999999 999999 999999 999999 999999 999999 999999 999999 999999 999999 999999 999999 999999 999999 999999 999999 999999 999999 999999 999999 999999 999999 999999 999999 999999 999999 999999 12954
999999 12142 15839 19321 16692 19391 12530 16930 16401 15764 18223 18045 10545 10853 19993 19110 16449 17549 14851 18309 14234 17857 10904 10008 16833 14950 13720 15260 17414 13660 15769 16325 11649 16684 15851 15949 10284 12329 11136 12915 13062 18444 13589 13836 13431 13849 13353 18727 10314 17327 10184 999999 999999 999999 999999 999999 999999 999999 999999 999999 999999 999999 999999 999999 0 999999 999999 999999 999999 999999 999999 999999 999999 999999 999999 999999 999999 999999 999999 999999 999999 999999 999999 999999 999999 999999 999999 999999 999999 999999 999999 999999 999999 999999 999999 999999 999999 999999 999999 999999 999999 10718
999999 16097 11266 16672 12125 13098 17182 17114 16558 17680 19100 15304 13325 18795 12675 18950 11133 18865 19806 12453 11342 19318 14418 12147 15653 18071 18984 13003 13080 13767 17550 12098 19284 15562 14820 12918 11913 16805 15722 12765 17136 16959 11890 11583 13964 10052 15811 19278 11329 10585 14632 999999 999999 999999 999999 999999 999999 999999 999999 999999 999999 999999 999999 999999 999999 0 999999 999999 999999 999999 999999 999999 999999 999999 999999 999999 999999 999999 999999 999999 999999 999999 999999 999999 999999 999999 999999 999999 999999 999999 999999 999999 999999 999999 999999 999999 999999 999999 999999 999999 999999 14830
999999 15458 11257 10757 18442 13204 19610 15733 11559 14092 12923 10117 10548 15742 16150 16410 11251 18899 10919 10258 18591 10980 12265 19962 17982 12447 16141 15621 18540 12048 14044 15931 19939 17269 13576 11441 15253 17479 10247 11445 14828 11174 18821 14034 16620 16826 14246 11570 15001 12157 10406 999999 999999 999999 999999 999999 999999 999999 999999 999999 999999 999999 999999 999999 999999 999999 0 999999 999999 999999 999999 999999 999999 999999 999999 999999 999999 999999 999999 999999 999999 999999 999999 999999 999999 999999 999999 999999 999999 999999 999999 999999 999999 999999 999999 999999 999999 999999 999999 999999 999999 10025
999999 11048 16607 11147 19216 13502 18859 19762 14265 17825 16932 11242 19061 18563 12625 13825 13651 17039 13002 14334 11892 12679 19296 16810 13299 10386 16783 17646 10708 11971 13415 15165 16368 10365 15286 15344 19292 15288 15140 19438 16651 17750 12557 19377 15435 19987 14582 14589 19575 13074 19546 999999 999999 999999 999999 999999 999999 999999 999999 999999 999999 999999 999999 999999 999999 999999 999999 0 999999 999999 999999 999999 999999 999999 999999 999999 999999 999999 999999 999999 999999 999999 999999 999999 999999 999999 999999 999999 999999 999999 999999 999999 999999 999999 999999 999999 999999 999999 999999 999999 999999 12240
999999 16089 15077 10247 15302 12261 19752 12638 19228 10022 10715 19278 19771 19301 10612 10006 14007 11048 17842 14840 12756 16480 14870 10769 10408 12295 18052 19157 17557 16329 12297 12995 15262 16970 18201 14095 10117 10767 16866 18094 18899 18974 10668 11851 11006 14656 11968 13352 11588 15866 17893 999999 999999 999999 999999 999999 999999 999999 999999 999999 999999 999999 999999 999999 999999 999999 999999 999999 0 999999 999999 999999 999999 999999 999999 999999 999999 999999 999999 999999 999999 999999 999999 999999 999999 999999 999999 999999 999999 999999 999999 999999 999999 999999 999999 999999 999999 999999 999999 999999 999999 7135
999999 17430 15461 13318 10087 18827 11809 12831 16491 18829 10953 14161 11729 17009 10922 12563 19424 18189 10079 15490 11266 11073 12449 12990 13186 17253 10810 16320 15345 17478 15376 11620 13624 10811 16435 17456 10220 10896 12849 11626 13692 11503 17700 16800 10642 15781 16274 15946 15293 11739 15146 999999 999999 999999 999999 999999 999999 999999 999999 999999 999999 999999 999999 999999 999999 999999 999999 999999 999999 0 999999 999999 999999 999999 999999 999999 999999 999999 999999 999999 999999 999999 999999 999999 999999 999999 999999 999999 999999 999999 999999 999999 999999 999999 999999 999999 999999 999999 999999 999999 999999 5059
999999 11203 10019 19617 19095 19245 12443 12134 18117 18085 18383 13194 11485 16898 14435 15056 11681 15945 12765 18236 18718 16467 10312 11698 15561 10950 11016 10532 10093 16259 10293 11384 11059 18802 19162 15482 16377 18913 19876 12720 13283 12602 18080 19781 10683 11256 11039 15499 14109 19891 11584 999999 999999 999999 999999 999999 999999 999999 999999 999999 999999 999999 999999 999999 999999 999999 999999 999999 999999 999999 0 999999 999999 999999 999999 999999 999999 999999 999999 999999 999999 999999 999999 999999 999999 999999 999999 999999 999999 999999 999999 999999 999999 999999 999999 999999 999999 999999 999999 999999 999999 5864
999999 17790 17562 16913 12702 15143 13998 18042 15242 11248 13919 19190 18537 13095 14615 12898 19378 17347 19574 10772 16866 11261 12563 11293 18170 17681 17974 13140 18686 18638 12837 13112 19905 11599 14014 15569 13425 15819 14501 18705 17274 14986 13277 17705 17219 13129 19702 10503 13988 11978 11030 999999 999999 999999 999999 999999 999999 999999 999999 999999 999999 999999 999999 999999 999999 999999 999999 999999 999999 999999 999999 0 999999 999999 999999 999999 999999 999999 999999 999999 999999 999999 999999 999999 999999 999999 999999 999999 999999 999999 999999 999999 999999 999999 999999 999999 999999 999999 999999 999999 999999 11335
999999 18926 12440 15080 10831 14732 13333 11986 12425 12783 12251 19356 18916 15079 13760 16348 13735 11837 13580 16062 16814 13170 15280 10001 18063 16901 11377 18657 11971 16798 11592 15595 19438 11634 16432 11560 15072 15703 10542 12533 15002 13715 13033 14309 14742 14059 10206 16958 16467 16778 16714 999999 999999 999999 999999 999999 999999 999999 999999 999999 999999 999999 999999 999999 999999 999999 999999 999999 999999 999999 999999 999999 0 999999 999999 999999 999999 999999 999999 999999 999999 999999 999999 999999 999999 999999 999999 999999 999999 999999 999999 999999 999999 999999 999999 999999 999999 999999 999999 999999 999999 6464
999999 14089 11215 17515 14047 14179 11294 13064 15467 13975 17546 15586 19732 16511 10906 13654 19275 15661 11275 18052 15022 13022 15834 16268 10182 13868 11595 18988 13824 13691 19148 14243 11910 13126 15875 15771 10994 14447 10471 18983 16917 13862 16184 12071 17863 15937 10551 11158 17975 18244 12956 999999 999999 999999 999999 999999 999999 999999 999999 999999 999999 999999 999999 999999 999999 999999 999999 999999 999999 999999 999999 999999 999999 0 999999 999999 999999 999999 999999 999999 999999 999999 999999 999999 999999 999999 999999 999999 999999 999999 999999 999999 999999 999999 999999 999999 999999 999999 999999 999999 999999 12125
999999 17990 16446 18943 12057 19453 16479 13336 12133 16898 14713 17478 14853 14238 13163 13319 12082 16852 11305 11551 16752 18663 11514 16812 11610 17663 15248 19008 14934 14414 10666 10604 13399 14116 16610 13765 12697 10410 19446 17594 18697 14672 10177 16828 10800 14945 12832 11475 14431 15788 15714 999999 999999 999999 999999 999999 999999 999999 999999 999999 999999 999999 999999 999999 999999 999999 999999 999999 999999 999999 999999 999999 999999 999999 0 999999 999999 999999 999999 999999 999999 999999 999999 999999 999999 999999 999999 999999 999999 999999 999999 999999 999999 999999 999999 999999 999999 999999 999999 999999 999999 8070
999999 15674 15576 12159 15267 16521 16765 13233 13476 16471 10965 12992 17539 12854 14466 18224 17363 11306 14054 13709 11075 18669 17440 10817 16649 12958 10604 14212 14476 16739 18646 11621 12204 17148 11252 12497 12243 13808 17674 16533 13740 19803 19047 11356 19979 13450 13767 13142 12681 11113 14376 999999 999999 999999 999999 999999 999999 999999 999999 999999 999999 999999 999999 999999 999999 999999 999999 999999 999999 999999 999999 999999 999999 999999 999999 0 999999 999999 999999 999999 999999 999999 999999 999999 999999 999999 999999 999999 999999 999999 999999 999999 999999 999999 999999 999999 999999 999999 999999 999999 999999 8597
999999 17284 14622 16887 18100 12363 17659 12674 17493 13632 11671 17727 10576 16285 12066 13436 16203 13440 11871 10733 13362 17163 12805 16318 18935 18469 16851 10787 13928 12092 18897 12565 16428 19848 14231 13503 15895 17727 13910 16714 16658 14339 12412 17341 12392 13797 17365 17850 15690 15650 14612 999999 999999 999999 999999 999999 999999 999999 999999 999999 999999 999999 999999 999999 999999 999999 999999 999999 999999 999999 999999 999999 999999 999999 999999 999999 0 999999 999999 999999 999999 999999 999999 999999 999999 999999 999999 999999 999999 999999 999999 999999 999999 999999 999999 999999 999999 999999 999999 999999 999999 10943
999999 14202 14931 10201 19560 15409 10385 15370 15398 18112 13904 15333 16990 17624 18887 15472 14936 13677 18521 14512 14310 11495 17525 14811 13188 15589 19077 12218 19060 14214 10708 19945 16012 17835 15013 11086 10950 18202 12484 16457 15447 17105 10495 17032 19150 19435 12356 19704 16338 12999 15745 999999 999999 999999 999999 999999 999999 999999 999999 999999 999999 999999 999999 999999 999999 999999 999999 999999 999999 999999 999999 999999 999999 999999 999999 999999 999999 0 999999 999999 999999 999999 999999 999999 999999 999999 999999 999999 999999 999999 999999 999999 999999 999999 999999 999999 999999 999999 999999 999999 999999 12986
999999 10348 11145 19050 10607 16840 12695 16033 19895 18217 18412 15737 16610 14061 10539 17585 12219 12662 15542 10847 12118 16022 16791 15753 14778 11246 11075 12185 12885 10180 18020 13718 14096 12632 12462 19443 17645 15169 19152 10512 11857 14922 11297 18819 16962 18302 14178 13572 10784 12801 17741 999999 999999 999999 999999 999999 999999 999999 999999 999999 999999 999999 999999 999999 999999 999999 999999 999999 999999 999999 999999 999999 999999 999999 999999 999999 999999 999999 0 999999 999999 999999 999999 999999 999999 999999 999999 999999 999999 999999 999999 999999 999999 999999 999999 999999 999999 999999 999999 999999 999999 10473
999999 16057 16228 13773 12793 16805 13686 16519 17689 13560 16304 12461 16081 12804 16529 19190 18129 17247 18055 16500 14813 14405 13411 11216 14593 15517 18722 15437 15191 10755 18713 13663 19597 10327 13332 18924 17509 12724 18065 13995 19289 18266 10381 15857 16944 12288 18771 18364 17849 18607 19802 999999 999999 999999 999999 999999 999999 999999 999999 999999 999999 999999 999999 999999 999999 999999 999999 999999 999999 999999 999999 999999 999999 999999 999999 999999 999999 999999 999999 0 999999 999999 999999 999999 999999 999999 999999 999999 999999 999999 999999 999999 999999 999999 999999 999999 999999 999999 999999 999999 999999 14058
999999 17720 12385 18046 17709 10042 18876 14378 10886 14192 18819 11875 13437 16249 12636 13086 12242 18544 16692 15120 16090 14907 15022 19097 13013 10811 15468 10499 19273 16738 19965 16198 10684 17937 17847 10350 13386 10028 11600 16672 17004 17788 15035 18904 12226 10473 12668 12718 13676 14535 16659 999999 999999 999999 999999 999999 999999 999999 999999 999999 999999 999999 999999 999999 999999 999999 999999 999999 999999 999999 999999 999999 999999 999999 999999 999999 999999 999999 999999 999999 0 999999 999999 999999 999999 999999 999999 999999 999999 999999 999999 999999 999999 999999 999999 999999 999999 999999 999999 999999 999999 7184
999999 16346 10691 11486 14888 13075 19970 14503 18569 18050 18585 16868 19916 10662 12247 17138 13172 17848 19290 18013 15370 13666 17854 10659 12675 19993 16040 11637 15071 10173 13502 14740 14753 19750 17789 17174 14199 12295 16361 16636 18330 11916 18523 12102 17648 15529 19081 18554 14567 12255 11557 999999 999999 999999 999999 999999 999999 999999 999999 999999 999999 999999 999999 999999 999999 999999 999999 999999 999999 999999 999999 999999 999999 999999 999999 999999 999999 999999 999999 999999 999999 0 999999 999999 999999 999999 999999 999999 999999 999999 999999 999999 999999 999999 999999 999999 999999 999999 999999 999999 999999 7756
999999 16016 12721 12319 14057 14008 14856 19570 19745 12397 11287 14988 10683 16449 18598 11342 13548 10560 16701 12796 19440 10294 11065 12614 15245 13206 16983 16636 19519 18150 12655 16437 10106 11969 13526 14502 17427 17860 16776 19245 11381 12794 12044 18639 14266 18331 10784 15867 13184 14686 18387 999999 999999 999999 999999 999999 999999 999999 999999 999999 999999 999999 999999 999999 999999 999999 999999 999999 999999 999999 999999 999999 999999 999999 999999 999999 999999 999999 999999 999999 999999 999999 0 999999 999999 999999 999999 999999 999999 999999 999999 999999 999999 999999 999999 999999 999999 999999 999999 999999 999999 7714
999999 14144 14869 11646 16360 18536 12128 16568 13001 17870 18786 14465 15656 16036 15479 19784 18704 16333 14800 14233 10678 13223 18616 11300 15508 12388 17453 15723 10917 14879 16409 16276 16625 18651 11457 10901 18001 18806 13189 11762 10716 10232 19553 19939 11804 16702 12084 12392 15964 11325 16310 999999 999999 999999 999999 999999 999999 999999 999999 999999 999999 999999 999999 999999 999999 999999 999999 999999 999999 999999 999999 999999 999999 999999 999999 999999 999999 999999 999999 999999 999999 999999 999999 0 999999 999999 999999 999999 999999 999999 999999 999999 999999 999999 999999 999999 999999 999999 999999 999999 999999 9566
999999 18360 18035 19642 19651 15484 15702 13027 15625 14790 12431 10510 10824 13922 15236 14532 14258 17198 18462 16527 19485 11989 17797 14775 13353 12282 10913 14617 14694 12194 12623 18592 12514 14123 10771 14764 17813 12524 15418 17293 18431 18605 16670 13867 18361 18826 13867 12223 15030 17154 10342 999999 999999 999999 999999 999999 999999 999999 999999 999999 999999 999999 999999 999999 999999 999999 999999 999999 999999 999999 999999 999999 999999 999999 999999 999999 999999 999999 999999 999999 999999 999999 999999 999999 0 999999 999999 999999 999999 999999 999999 999999 999999 999999 999999 999999 999999 999999 999999 999999 999999 13610
999999 12008 19350 14371 19829 11200 10689 16324 17163 10225 15732 13721 10061 12307 13057 18708 18277 14887 13801 10843 11074 11698 19426 19188 16746 19227 13964 14109 16868 15571 13937 15240 16379 12370 12538 14112 12505 12835 18152 18814 11800 17244 15903 11439 14704 11289 16536 12645 13385 18414 17090 999999 999999 999999 999999 999999 999999 999999 999999 999999 999999 999999 999999 999999 999999 999999 999999 999999 999999 999999 999999 999999 999999 999999 999999 999999 999999 999999 999999 999999 999999 999999 999999 999999 999999 0 999999 999999 999999 999999 999999 999999 999999 999999 999999 999999 999999 999999 999999 999999 999999 6482
999999 15146 18883 16843 16478 16269 13044 13898 10452 12306 12713 10410 11903 16411 14578 14342 19576 14735 19776 15386 16323 18167 18304 13038 19814 14768 16215 13224 13229 12512 15229 11218 11218 15787 18628 15282 10175 18952 10744 15170 11254 15103 10427 13423 10255 19414 15095 19185 15847 12446 11045 999999 999999 999999 999999 999999 999999 999999 999999 999999 999999 999999 999999 999999 999999 999999 999999 999999 999999 999999 999999 999999 999999 999999 999999 999999 999999 999999 999999 999999 999999 999999 999999 999999 999999 999999 0 999999 999999 999999 999999 999999 999999 999999 999999 999999 999999 999999 999999 999999 999999 9515
999999 15130 17464 16393 16443 11460 14789 12320 19247 17807 12363 18391 13344 13478 11529 15669 12166 16074 10965 15090 19950 14263 19552 18373 18940 11837 15349 12003 14202 14895 19266 10966 10936 12644 13858 10226 13344 11651 11768 12838 13786 11807 10038 12733 12773 16273 18855 17333 13981 14196 10311 999999 999999 999999 999999 999999 999999 999999 999999 999999 999999 999999 999999 999999 999999 999999 999999 999999 999999 999999 999999 999999 999999 999999 999999 999999 999999 999999 999999 999999 999999 999999 999999 999999 999999 999999 999999 0 999999 999999 999999 999999 999999 999999 999999 999999 999999 999999 999999 999999 999999 14689
999999 16460 12366 17418 15987 16413 19739 13353 14246 14105 18711 15100 17828 19418 18434 12741 18094 14578 13244 12180 17945 15609 10381 14089 11423 17894 13881 10141 14601 17887 16399 14922 11210 19189 13199 19317 19027 19359 14756 11598 14593 10404 17834 18711 11571 14938 14425 11110 15649 14294 13967 999999 999999 999999 999999 999999 999999 999999 999999 999999 999999 999999 999999 999999 999999 999999 999999 999999 999999 999999 999999 999999 999999 999999 999999 999999 999999 999999 999999 999999 999999 999999 999999 999999 999999 999999 999999 999999 0 999999 999999 999999 999999 999999 999999 999999 999999 999999 999999 999999 999999 6891
999999 14747 18432 16720 13118 15282 10173 12975 16223 14132 15286 12875 16056 19526 19634 18822 17464 17676 14918 15487 13827 14837 15801 13693 16527 13128 13012 17111 18454 18736 15076 19183 17030 11088 18285 12250 15258 12345 14264 15285 16803 14970 10576 10027 14060 15558 16761 13640 19349 11261 18708 999999 999999 999999 999999 999999 999999 999999 999999 999999 999999 999999 999999 999999 999999 999999 999999 999999 999999 999999 999999 999999 999999 999999 999999 999999 999999 999999 999999 999999 999999 999999 999999 999999 999999 999999 999999 999999 999999 0 999999 999999 999999 999999 999999 999999 999999 999999 999999 999999 999999 8909
999999 18525 14618 12977 15324 16304 13143 13768 11826 14694 16144 19767 16744 12614 16369 17931 14622 19755 12269 12411 10911 10410 19085 15414 19310 12684 11779 11377 10199 14289 12851 15774 10859 13238 17390 17280 10259 19098 16551 16474 13858 10477 13253 19099 18070 16426 19584 15641 13926 16583 13942 999999 999999 999999 999999 999999 999999 999999 999999 999999 999999 999999 999999 999999 999999 999999 999999 999999 999999 999999 999999 999999 999999 999999 999999 999999 999999 999999 999999 999999 999999 999999 999999 999999 999999 999999 999999 999999 999999 999999 0 999999 999999 999999 999999 999999 999999 999999 999999 999999 999999 5675
999999 11547 14167 15508 15876 12308 15863 17984 14344 18052 13205 13792 11476 12642 18938 17912 12964 16841 10588 17220 16091 17546 12744 18194 12820 13662 11110 19732 12986 18082 12816 15147 18068 11115 14452 18616 12539 14703 13411 18432 15399 17007 14071 19603 16104 10587 19555 19851 19836 15101 11473 999999 999999 999999 999999 999999 999999 999999 999999 999999 999999 999999 999999 999999 999999 999999 999999 999999 999999 999999 999999 999999 999999 999999 999999 999999 999999 999999 999999 999999 999999 999999 999999 999999 999999 999999 999999 999999 999999 999999 999999 0 999999 999999 999999 999999 999999 999999 999999 999999 999999 14060
999999 13841 19263 15222 10991 15028 10086 16723 10195 16168 10130 11164 12304 18837 10397 17844 13659 16627 13323 19966 16524 14240 11961 17566 18316 19088 16902 18095 12520 17369 13575 14851 17681 11706 13649 18183 10057 13855 17385 13485 13495 12099 19009 12014 19879 12444 10239 11182 19768 12018 18508 999999 999999 999999 999999 999999 999999 999999 999999 999999 999999 999999 999999 999999 999999 999999 999999 999999 999999 999999 999999 999999 999999 999999 999999 999999 999999 999999 999999 999999 999999 999999 999999 999999 999999 999999 999999 999999 999999 999999 999999 999999 0 999999 999999 999999 999999 999999 999999 999999 999999 14761
999999 18623 15826 19389 14055 12155 11353 18615 19004 10008 16558 10969 12363 19702 19579 17641 19969 17104 12491 15881 18043 13070 12591 18678 18332 12549 15148 10006 16332 11904 10002 19474 19640 13822 16651 18223 11403 11684 17151 19675 12310 15946 12263 15595 16214 19397 13446 12143 10059 17040 16537 999999 999999 999999 999999 999999 999999 999999 999999 999999 999999 999999 999999 999999 999999 999999 999999 999999 999999 999999 999999 999999 999999 999999 999999 999999 999999 999999 999999 999999 999999 999999 999999 999999 999999 999999 999999 999999 999999 999999 999999 999999 999999 0 999999 999999 999999 999999 999999 999999 999999 8877
999999 14042 13226 19697 19242 19892 18456 18149 18485 12713 11953 19223 18571 13961 18538 11459 18461 15743 14221 16157 14688 11675 16187 12988 17500 19146 10958 10760 19264 14170 15640 13525 12193 18831 14278 15359 19760 18202 11234 14722 14730 15611 15259 12161 10509 17856 15676 15384 19736 16460 11722 999999 999999 999999 999999 999999 999999 999999 999999 999999 999999 999999 999999 999999 999999 999999 999999 999999 999999 999999 999999 999999 999999 999999 999999 999999 999999 999999 999999 999999 999999 999999 999999 999999 999999 999999 999999 999999 999999 999999 999999 999999 999999 999999 0 999999 999999 999999 999999 999999 999999 7910
999999 11001 11039 13842 16794 10452 15072 17689 14886 13332 19184 10224 15610 18990 17969 19991 10838 18678 19472 14025 13243 12514 13233 19089 14428 12729 18215 17943 18652 18193 10292 10017 14693 10470 18975 16386 15046 12989 17419 15062 18900 11739 16189 11456 16044 12995 18198 13586 16485 13154 15695 999999 999999 999999 999999 999999 999999 999999 999999 999999 999999 999999 999999 999999 999999 999999 999999 999999 999999 999999 999999 999999 999999 999999 999999 999999 999999 999999 999999 999999 999999 999999 999999 999999 999999 999999 999999 999999 999999 999999 999999 999999 999999 999999 999999 0 999999 999999 999999 999999 999999 11552
999999 19542 12685 10179 13815 18130 16054 16098 19977 13142 11856 19774 11364 13404 19746 10904 12356 15363 19525 13011 11675 15006 11040 19362 12812 19295 14468 13914 16792 13507 18090 16877 10207 17296 13966 15495 12167 10928 17589 15228 16143 17752 13582 18220 12875 10841 13986 13680 19699 14501 14008 999999 999999 999999 999999 999999 999999 999999 999999 999999 999999 999999 999999 999999 999999 999999 999999 999999 999999 999999 999999 999999 999999 999999 999999 999999 999999 999999 999999 999999 999999 999999 999999 999999 999999 999999 999999 999999 999999 999999 999999 999999 999999 999999 999999 999999 0 999999 999999 999999 999999 10189
999999 14645 16583 14297 18630 13456 17664 16547 13837 12964 16896 16489 16876 19902 13238 12983 12716 16938 19723 14049 12068 14493 15254 12645 19672 10199 14524 19888 17736 13760 16412 10698 13978 16470 16882 19609 16930 11923 17549 11178 19252 18534 10130 19442 19936 19694 11957 15987 11262 11652 13181 999999 999999 999999 999999 999999 999999 999999 999999 999999 999999 999999 999999 999999 999999 999999 999999 999999 999999 999999 999999 999999 999999 999999 999999 999999 999999 999999 999999 999999 999999 999999 999999 999999 999999 999999 999999 999999 999999 999999 999999 999999 999999 999999 999999 999999 999999 0 999999 999999 999999 14817
999999 10595 16060 10842 12489 10132 12198 10156 11731 16794 17347 16039 12565 13983 12226 19811 12877 11547 19031 18112 16588 17744 12556 18174 12346 15124 19915 19927 10390 13626 15911 14415 17936 19353 18173 11410 13784 16338 10615 18836 10842 11541 11250 19854 19654 10223 19700 10529 12041 14279 14636 999999 999999 999999 999999 999999 999999 999999 999999 999999 999999 999999 999999 999999 999999 999999 999999 999999 999999 999999 999999 999999 999999 999999 999999 999999 999999 999999 999999 999999 999999 999999 999999 999999 999999 999999 999999 999999 999999 999999 999999 999999 999999 999999 999999 999999 999999 999999 0 999999 999999 13120
999999 13248 14683 10221 12503 14331 13872 10273 19028 17495 18400 17277 17350 17302 19639 19036 14813 11112 19318 16190 19533 11723 10178 18875 13708 11887 17668 16666 10714 17736 12226 11155 19601 11903 12270 12974 17057 19534 10001 15255 15024 13362 14909 18619 13805 19650 11348 17213 11872 15647 15234 999999 999999 999999 999999 999999 999999 999999 999999 999999 999999 999999 999999 999999 999999 999999 999999 999999 999999 999999 999999 999999 999999 999999 999999 999999 999999 999999 999999 999999 999999 999999 999999 999999 999999 999999 999999 999999 999999 999999 999999 999999 999999 999999 999999 999999 999999 999999 999999 0 999999 13384
999999 11803 12772 18577 12257 18450 16528 18949 12026 17114 19907 16139 15438 18836 13497 11489 14440 18626 12598 11743 10318 18341 16705 18962 16694 16574 18457 11258 13330 10958 15008 19340 11262 18824 10992 12690 17511 10685 11471 18094 11257 11256 19972 16965 11061 17760 13605 13722 16139 11450 16565 999999 999999 999999 999999 999999 999999 999999 999999 999999 999999 999999 999999 999999 999999 999999 999999 999999 999999 999999 999999 999999 999999 999999 999999 999999 999999 999999 999999 999999 999999 999999 999999 999999 999999 999999 999999 999999 999999 999999 999999 999999 999999 999999 999999 999999 999999 999999 999999 999999 0 7146
1 999999 999999 999999 999999 999999 999999 999999 999999 999999 999999 999999 999999 999999 999999 999999 999999 999999 999999 999999 999999 999999 999999 999999 999999 999999 999999 999999 999999 999999 999999 999999 999999 999999 999999 999999 999999 999999 999999 999999 999999 999999 999999 999999 999999 999999 999999 999999 999999 999999 999999 999999 999999 999999 999999 999999 999999 999999 999999 999999 999999 999999 999999 999999 999999 999999 999999 999999 999999 999999 999999 999999 999999 999999 999999 999999 999999 999999 999999 999999 999999 999999 999999 999999 999999 999999 999999 999999 999999 999999 999999 999999 999999 999999 999999 999999 999999 999999 999999 999999 999999 0
EOF