NAME: GR_5x2x10_KH_4x25_Run_5
TYPE: TSP
COMMENT: BTSP instance |A|=100 GR nodes |B|=100 KH nodes depot=0.0 end=0.0.0
DIMENSION: 202
EDGE_WEIGHT_TYPE: EXPLICIT
EDGE_WEIGHT_FORMAT: FULL_MATRIX
NODE_COORD_TYPE: NO_COORDS
EDGE_WEIGHT_SECTION
0 6079 14402 13372 8022 14498 10797 5657 8470 8458 7308 5416 9738 8939 5067 9178 8847 11093 7487 10655 11826 12621 9443 12053 5410 12947 14904 5113 14312 8405 8108 6578 12723 5949 12715 13838 6552 9592 10661 8635 8069 9415 8362 7269 11533 11230 6713 14475 12294 6662 13633 5326 5611 14105 7157 7616 11766 5924 11955 8176 11270 5881 5686 7810 12245 10732 8843 11695 7192 7706 13957 14069 12664 9848 8023 10227 8141 9853 11990 9105 7137 9081 10855 9352 10108 14851 14611 5003 10983 12241 14060 13749 13375 14663 10784 7742 12581 8481 10870 12924 14179 999999 999999 999999 999999 999999 999999 999999 999999 999999 999999 999999 999999 999999 999999 999999 999999 999999 999999 999999 999999 999999 999999 999999 999999 999999 999999 999999 999999 999999 999999 999999 999999 999999 999999 999999 999999 999999 999999 999999 999999 999999 999999 999999 999999 999999 999999 999999 999999 999999 999999 999999 999999 999999 999999 999999 999999 999999 999999 999999 999999 999999 999999 999999 999999 999999 999999 999999 999999 999999 999999 999999 999999 999999 999999 999999 999999 999999 999999 999999 999999 999999 999999 999999 999999 999999 999999 999999 999999 999999 999999 999999 999999 999999 999999 999999 999999 999999 999999 999999 999999 999999
999999 0 999999 999999 999999 999999 999999 999999 999999 999999 999999 999999 999999 999999 999999 999999 999999 999999 999999 999999 999999 999999 999999 999999 999999 999999 999999 999999 999999 999999 999999 999999 999999 999999 999999 999999 999999 999999 999999 999999 999999 999999 999999 999999 999999 999999 999999 999999 999999 999999 999999 999999 999999 999999 999999 999999 999999 999999 999999 999999 999999 999999 999999 999999 999999 999999 999999 999999 999999 999999 999999 999999 999999 999999 999999 999999 999999 999999 999999 999999 999999 999999 999999 999999 999999 999999 999999 999999 999999 999999 999999 999999 999999 999999 999999 999999 999999 999999 999999 999999 999999 15119 19703 19484 16449 14315 14566 11462 15758 17552 15838 19926 10210 15003 10917 17464 12650 14021 10699 16552 14118 14997 19833 13069 19522 12849 11571 10956 17178 16479 19891 15001 18270 16581 10330 10933 16395 16655 11576 14431 16457 19846 17101 17896 18364 14946 18218 16610 15549 10492 10710 19450 11978 12218 18509 13144 16070 16227 18729 18187 19972 14055 11049 14985 18745 11318 14355 17868 15776 11193 12010 17357 16888 12413 13525 11901 12441 10386 11290 12328 19974 11467 18113 18012 17709 14316 15107 10475 14020 13996 19781 11615 12785 11943 16962 18215 18758 17568 18718 14057 19822 999999
999999 999999 0 999999 999999 999999 999999 999999 999999 999999 999999 999999 999999 999999 999999 999999 999999 999999 999999 999999 999999 999999 999999 999999 999999 999999 999999 999999 999999 999999 999999 999999 999999 999999 999999 999999 999999 999999 999999 999999 999999 999999 999999 999999 999999 999999 999999 999999 999999 999999 999999 999999 999999 999999 999999 999999 999999 999999 999999 999999 999999 999999 999999 999999 999999 999999 999999 999999 999999 999999 999999 999999 999999 999999 999999 999999 999999 999999 999999 999999 999999 999999 999999 999999 999999 999999 999999 999999 999999 999999 999999 999999 999999 999999 999999 999999 999999 999999 999999 999999 999999 13572 10180 11203 18962 13486 10854 10500 19451 15865 14368 13783 14240 16426 19585 15711 19309 18973 12550 16321 14090 14791 12553 18399 14569 17628 11396 10873 19170 14739 16028 12852 18414 11712 16886 11271 10928 11448 10537 14459 13474 18985 19589 14634 17941 10551 18848 16059 16375 12767 18379 11894 17377 13278 12429 19068 16272 12804 10930 10414 11800 19852 14341 11478 18630 13869 14762 15286 18870 11932 15089 11285 17887 14390 17438 17064 16920 16659 12038 12213 14523 12055 13920 14784 13230 18294 10296 11173 10520 10605 11127 15708 18460 19173 15542 17822 16954 12829 11141 19273 12744 999999
999999 999999 999999 0 999999 999999 999999 999999 999999 999999 999999 999999 999999 999999 999999 999999 999999 999999 999999 999999 999999 999999 999999 999999 999999 999999 999999 999999 999999 999999 999999 999999 999999 999999 999999 999999 999999 999999 999999 999999 999999 999999 999999 999999 999999 999999 999999 999999 999999 999999 999999 999999 999999 999999 999999 999999 999999 999999 999999 999999 999999 999999 999999 999999 999999 999999 999999 999999 999999 999999 999999 999999 999999 999999 999999 999999 999999 999999 999999 999999 999999 999999 999999 999999 999999 999999 999999 999999 999999 999999 999999 999999 999999 999999 999999 999999 999999 999999 999999 999999 999999 13163 12675 18584 18979 12272 16728 10461 12713 17453 13409 15757 11166 10072 10478 19785 10839 17996 13202 17110 14098 12826 10853 11345 11288 15448 11885 19635 16675 17817 11956 16259 12141 16300 18930 13771 12575 17731 11876 18989 18585 18974 18921 19906 13316 11675 13447 13572 19666 17231 17540 17810 11123 10581 18366 14674 10510 10049 10213 11975 16300 16301 11874 10055 12315 15145 17002 11667 13329 15747 13164 17253 18846 17503 19928 17946 13508 14268 14633 19742 19388 17268 17759 10575 18890 12601 15234 13996 11213 19509 14224 16355 12698 15079 10583 13228 10196 18682 17569 16187 16065 999999
999999 999999 999999 999999 0 999999 999999 999999 999999 999999 999999 999999 999999 999999 999999 999999 999999 999999 999999 999999 999999 999999 999999 999999 999999 999999 999999 999999 999999 999999 999999 999999 999999 999999 999999 999999 999999 999999 999999 999999 999999 999999 999999 999999 999999 999999 999999 999999 999999 999999 999999 999999 999999 999999 999999 999999 999999 999999 999999 999999 999999 999999 999999 999999 999999 999999 999999 999999 999999 999999 999999 999999 999999 999999 999999 999999 999999 999999 999999 999999 999999 999999 999999 999999 999999 999999 999999 999999 999999 999999 999999 999999 999999 999999 999999 999999 999999 999999 999999 999999 999999 15465 19195 10267 16318 10904 14275 14639 11796 17896 17188 14631 19712 12058 16592 14981 11037 18318 17495 17429 16445 19818 13352 19141 15250 19892 16751 17577 16428 18773 13777 11374 12028 10059 17329 18934 15059 12623 16467 19676 18836 19047 12343 10791 17020 11969 17187 16212 16822 18431 13032 14900 17005 15849 19576 14414 16749 18342 14915 14912 18705 11451 18910 12184 12218 18376 19175 11781 18200 13152 10996 12627 19517 18197 16989 18298 10839 12785 19183 10340 10833 15720 19214 18133 14479 15065 15425 15598 13849 12841 10657 17926 13419 15271 13878 14912 18658 18787 12388 16264 16037 999999
999999 999999 999999 999999 999999 0 999999 999999 999999 999999 999999 999999 999999 999999 999999 999999 999999 999999 999999 999999 999999 999999 999999 999999 999999 999999 999999 999999 999999 999999 999999 999999 999999 999999 999999 999999 999999 999999 999999 999999 999999 999999 999999 999999 999999 999999 999999 999999 999999 999999 999999 999999 999999 999999 999999 999999 999999 999999 999999 999999 999999 999999 999999 999999 999999 999999 999999 999999 999999 999999 999999 999999 999999 999999 999999 999999 999999 999999 999999 999999 999999 999999 999999 999999 999999 999999 999999 999999 999999 999999 999999 999999 999999 999999 999999 999999 999999 999999 999999 999999 999999 11453 11837 15158 15882 11902 12421 10694 10235 19298 15996 11168 13949 10445 10072 19401 19098 10878 10015 18223 18067 12933 18573 19025 12516 16092 13010 10484 19590 14769 18016 16892 19186 13882 16217 14839 19774 13357 15908 15489 10649 18840 19637 12499 11079 17891 17447 11610 14298 13349 16895 14066 19986 10296 13082 14819 12790 17308 13100 17544 11413 12304 15749 17529 17871 17655 19213 11467 12178 13283 17840 16435 11935 15229 18335 14932 13256 15142 11677 15850 14723 10624 18102 14407 12654 10261 14749 15322 18967 18790 15781 19619 14851 14890 10739 12125 15150 17745 19011 18897 12587 999999
999999 999999 999999 999999 999999 999999 0 999999 999999 999999 999999 999999 999999 999999 999999 999999 999999 999999 999999 999999 999999 999999 999999 999999 999999 999999 999999 999999 999999 999999 999999 999999 999999 999999 999999 999999 999999 999999 999999 999999 999999 999999 999999 999999 999999 999999 999999 999999 999999 999999 999999 999999 999999 999999 999999 999999 999999 999999 999999 999999 999999 999999 999999 999999 999999 999999 999999 999999 999999 999999 999999 999999 999999 999999 999999 999999 999999 999999 999999 999999 999999 999999 999999 999999 999999 999999 999999 999999 999999 999999 999999 999999 999999 999999 999999 999999 999999 999999 999999 999999 999999 14397 19903 18085 15821 16150 16058 14295 13582 19536 11909 11211 16205 15859 15431 11635 14747 12033 15421 14890 11673 19061 11886 15477 14287 16751 16477 18303 11417 15677 17782 13840 16700 10326 12377 16426 12985 12443 13281 10658 12387 17422 19218 12294 16415 19614 16772 14887 13060 10900 12433 15513 15143 13598 18297 14803 18943 18545 15264 18245 17617 13778 13859 14066 14638 11658 12670 18559 16654 12628 17328 14579 11936 16674 15309 17334 15466 17222 16914 18837 12109 11808 17800 19704 13143 13136 13404 18371 16168 12275 18920 10956 18229 13751 15907 11750 14236 19269 10302 15169 17996 999999
999999 999999 999999 999999 999999 999999 999999 0 999999 999999 999999 999999 999999 999999 999999 999999 999999 999999 999999 999999 999999 999999 999999 999999 999999 999999 999999 999999 999999 999999 999999 999999 999999 999999 999999 999999 999999 999999 999999 999999 999999 999999 999999 999999 999999 999999 999999 999999 999999 999999 999999 999999 999999 999999 999999 999999 999999 999999 999999 999999 999999 999999 999999 999999 999999 999999 999999 999999 999999 999999 999999 999999 999999 999999 999999 999999 999999 999999 999999 999999 999999 999999 999999 999999 999999 999999 999999 999999 999999 999999 999999 999999 999999 999999 999999 999999 999999 999999 999999 999999 999999 12041 10632 17561 12529 12408 13744 11075 15154 13735 18922 19934 10586 10746 16041 14439 16532 10061 19923 13962 15357 10505 10099 16295 18249 10570 19487 15398 12475 10346 18253 17238 13110 14197 18945 12763 10749 16389 13897 17486 18217 13780 15546 17631 14144 11507 13528 18907 17381 17048 17431 13371 16279 12076 15831 11968 12268 10556 19696 17970 15024 18739 12023 17480 15842 10330 15296 19626 10903 11841 17558 12010 14148 15998 19452 13896 14082 13060 12709 16368 10503 19198 17419 11719 16158 10538 13928 19292 14939 18033 17060 10537 19748 13698 10118 13041 12310 19400 16114 19945 19450 999999
999999 999999 999999 999999 999999 999999 999999 999999 0 999999 999999 999999 999999 999999 999999 999999 999999 999999 999999 999999 999999 999999 999999 999999 999999 999999 999999 999999 999999 999999 999999 999999 999999 999999 999999 999999 999999 999999 999999 999999 999999 999999 999999 999999 999999 999999 999999 999999 999999 999999 999999 999999 999999 999999 999999 999999 999999 999999 999999 999999 999999 999999 999999 999999 999999 999999 999999 999999 999999 999999 999999 999999 999999 999999 999999 999999 999999 999999 999999 999999 999999 999999 999999 999999 999999 999999 999999 999999 999999 999999 999999 999999 999999 999999 999999 999999 999999 999999 999999 999999 999999 13188 14013 19984 10651 12315 14460 14094 16800 11908 13738 10476 14048 14013 10363 12213 13103 14868 10987 19714 19848 19669 12738 16550 12522 19625 13015 18329 19766 19005 19103 19782 19918 19009 15514 14297 10273 12470 12295 19274 12584 18945 14186 15631 16711 14128 14143 19839 19637 19918 14130 16462 19027 14917 10867 18149 14571 16785 18424 12424 13966 14103 10300 13428 10720 12798 11985 19246 13471 11752 16945 11469 11794 11668 19937 10700 16176 19563 13818 10582 19348 18995 10933 19555 14775 17170 11993 11821 16490 10580 10185 18616 19705 14308 11998 17394 16086 16580 15845 17003 14051 999999
999999 999999 999999 999999 999999 999999 999999 999999 999999 0 999999 999999 999999 999999 999999 999999 999999 999999 999999 999999 999999 999999 999999 999999 999999 999999 999999 999999 999999 999999 999999 999999 999999 999999 999999 999999 999999 999999 999999 999999 999999 999999 999999 999999 999999 999999 999999 999999 999999 999999 999999 999999 999999 999999 999999 999999 999999 999999 999999 999999 999999 999999 999999 999999 999999 999999 999999 999999 999999 999999 999999 999999 999999 999999 999999 999999 999999 999999 999999 999999 999999 999999 999999 999999 999999 999999 999999 999999 999999 999999 999999 999999 999999 999999 999999 999999 999999 999999 999999 999999 999999 15667 11238 11322 11787 19688 15210 10705 10591 15637 10972 19214 10376 13751 18235 17421 18255 13906 12524 19757 13849 15749 18040 18130 14098 14327 19692 16647 19574 10297 12565 12284 19635 17547 17207 13646 10858 14009 18439 17019 10953 17668 16757 18899 16088 18081 17017 17556 15049 12707 10206 12881 19124 11813 15099 17174 15698 15042 14893 14093 13714 11826 16340 18099 19179 15879 12773 15797 10102 16901 14033 17817 17771 17127 13617 13035 10415 12917 17316 12151 10652 16521 11819 11324 17448 17185 14014 14847 15439 15749 17065 13586 14653 11151 16659 19757 12099 15302 18127 13664 12528 999999
999999 999999 999999 999999 999999 999999 999999 999999 999999 999999 0 999999 999999 999999 999999 999999 999999 999999 999999 999999 999999 999999 999999 999999 999999 999999 999999 999999 999999 999999 999999 999999 999999 999999 999999 999999 999999 999999 999999 999999 999999 999999 999999 999999 999999 999999 999999 999999 999999 999999 999999 999999 999999 999999 999999 999999 999999 999999 999999 999999 999999 999999 999999 999999 999999 999999 999999 999999 999999 999999 999999 999999 999999 999999 999999 999999 999999 999999 999999 999999 999999 999999 999999 999999 999999 999999 999999 999999 999999 999999 999999 999999 999999 999999 999999 999999 999999 999999 999999 999999 999999 19741 17699 19850 19879 13310 10647 13374 15485 16796 13827 19900 12500 13692 11039 12184 17171 11330 17394 12304 15222 13991 13018 16221 13951 17150 14911 13810 19694 16425 12111 17565 18459 11677 17264 10029 17487 10674 11814 12013 18734 16940 11115 18758 10313 19681 11491 13015 15615 12320 16520 14045 15230 10161 14757 16786 12503 17009 12033 12612 11415 16569 10175 18544 12882 10202 15101 10302 13047 13017 15762 10839 13396 18647 14774 18361 17298 16455 12956 19860 12474 16129 10509 14460 19210 19240 19981 18295 14809 15292 10984 18862 11017 18794 19760 19144 14857 15153 19403 10857 14165 999999
999999 999999 999999 999999 999999 999999 999999 999999 999999 999999 999999 0 999999 999999 999999 999999 999999 999999 999999 999999 999999 999999 999999 999999 999999 999999 999999 999999 999999 999999 999999 999999 999999 999999 999999 999999 999999 999999 999999 999999 999999 999999 999999 999999 999999 999999 999999 999999 999999 999999 999999 999999 999999 999999 999999 999999 999999 999999 999999 999999 999999 999999 999999 999999 999999 999999 999999 999999 999999 999999 999999 999999 999999 999999 999999 999999 999999 999999 999999 999999 999999 999999 999999 999999 999999 999999 999999 999999 999999 999999 999999 999999 999999 999999 999999 999999 999999 999999 999999 999999 999999 17279 12710 13861 12646 17121 13662 13215 13869 11429 19097 10048 12049 12436 15016 18836 10937 19869 17662 13072 13446 13261 15076 17430 18616 10514 14189 17560 19085 17764 10142 10975 12632 13406 19709 19925 17184 17306 12125 13336 16150 13793 17324 11407 18163 11278 12741 12542 12932 15901 11289 19017 13247 19047 18927 17385 12917 19295 15893 17493 12981 12852 15599 15842 13373 12723 10575 12387 19644 14873 13765 15539 11937 13334 18680 18007 15303 18547 10617 19622 19866 10060 15720 18424 19966 13775 15739 14892 11059 16672 13394 18644 18723 19692 16398 10222 11296 14865 12430 11645 19558 999999
999999 999999 999999 999999 999999 999999 999999 999999 999999 999999 999999 999999 0 999999 999999 999999 999999 999999 999999 999999 999999 999999 999999 999999 999999 999999 999999 999999 999999 999999 999999 999999 999999 999999 999999 999999 999999 999999 999999 999999 999999 999999 999999 999999 999999 999999 999999 999999 999999 999999 999999 999999 999999 999999 999999 999999 999999 999999 999999 999999 999999 999999 999999 999999 999999 999999 999999 999999 999999 999999 999999 999999 999999 999999 999999 999999 999999 999999 999999 999999 999999 999999 999999 999999 999999 999999 999999 999999 999999 999999 999999 999999 999999 999999 999999 999999 999999 999999 999999 999999 999999 16129 13154 10713 16358 17631 14862 14487 16026 18551 10230 13367 18008 19433 16842 18112 15061 10406 19055 18763 18815 19123 10894 17712 10476 17420 13823 10257 17132 17964 13120 16200 15281 15881 11426 10415 13115 15031 14867 16309 19636 12277 19297 17235 14296 15482 19905 17171 16084 13717 12167 16817 13173 15318 10388 19110 13904 13505 17176 13144 19494 17813 18440 18753 14112 13964 18164 16865 18378 17528 13774 11162 19944 18856 16310 19455 10893 19737 19444 13808 18351 13847 12798 19724 14136 17727 15552 17934 10191 10292 15082 18390 19891 15375 13032 17383 18281 15134 14848 13564 13096 999999
999999 999999 999999 999999 999999 999999 999999 999999 999999 999999 999999 999999 999999 0 999999 999999 999999 999999 999999 999999 999999 999999 999999 999999 999999 999999 999999 999999 999999 999999 999999 999999 999999 999999 999999 999999 999999 999999 999999 999999 999999 999999 999999 999999 999999 999999 999999 999999 999999 999999 999999 999999 999999 999999 999999 999999 999999 999999 999999 999999 999999 999999 999999 999999 999999 999999 999999 999999 999999 999999 999999 999999 999999 999999 999999 999999 999999 999999 999999 999999 999999 999999 999999 999999 999999 999999 999999 999999 999999 999999 999999 999999 999999 999999 999999 999999 999999 999999 999999 999999 999999 13452 17992 17338 16763 12024 10812 19499 15227 17182 10174 19657 16312 16791 19671 14283 11611 18863 12854 15977 13369 14757 17910 14434 13428 13442 16493 14207 19659 11866 14877 16417 19727 18771 13957 11452 17228 18099 13245 17964 13690 18373 13113 12489 18623 18276 17057 15686 13198 10437 11326 16294 10545 12769 10607 13832 10929 10667 10584 18718 11319 18579 13762 11930 18614 12223 10591 15832 11406 11702 19844 13671 18113 19567 10431 18873 14676 17114 19921 16131 13483 12790 18443 12377 16012 19076 13551 13032 14677 18168 16130 15663 12134 18584 15173 18109 18630 16968 16567 17243 12653 999999
999999 999999 999999 999999 999999 999999 999999 999999 999999 999999 999999 999999 999999 999999 0 999999 999999 999999 999999 999999 999999 999999 999999 999999 999999 999999 999999 999999 999999 999999 999999 999999 999999 999999 999999 999999 999999 999999 999999 999999 999999 999999 999999 999999 999999 999999 999999 999999 999999 999999 999999 999999 999999 999999 999999 999999 999999 999999 999999 999999 999999 999999 999999 999999 999999 999999 999999 999999 999999 999999 999999 999999 999999 999999 999999 999999 999999 999999 999999 999999 999999 999999 999999 999999 999999 999999 999999 999999 999999 999999 999999 999999 999999 999999 999999 999999 999999 999999 999999 999999 999999 11894 17036 11231 11324 13365 11318 13054 16940 13850 17384 19638 13428 19526 10499 17218 17389 10567 16732 16625 15319 18326 17790 11972 15102 17807 18296 18331 19293 10829 14479 16937 13830 16976 14894 12563 13155 19224 15388 12034 17221 10001 10743 18576 11761 17763 15879 12398 15895 12062 13823 12165 16779 11878 19979 17263 16611 16122 15225 11080 14829 19076 11690 18279 13200 19455 18471 18064 17251 10954 15828 19083 13271 18254 18902 18540 14506 17430 19578 11440 13502 15990 16562 18433 10673 13777 13976 13554 13215 15118 15990 17930 14840 14853 14827 12763 13282 17840 14236 18594 17512 999999
999999 999999 999999 999999 999999 999999 999999 999999 999999 999999 999999 999999 999999 999999 999999 0 999999 999999 999999 999999 999999 999999 999999 999999 999999 999999 999999 999999 999999 999999 999999 999999 999999 999999 999999 999999 999999 999999 999999 999999 999999 999999 999999 999999 999999 999999 999999 999999 999999 999999 999999 999999 999999 999999 999999 999999 999999 999999 999999 999999 999999 999999 999999 999999 999999 999999 999999 999999 999999 999999 999999 999999 999999 999999 999999 999999 999999 999999 999999 999999 999999 999999 999999 999999 999999 999999 999999 999999 999999 999999 999999 999999 999999 999999 999999 999999 999999 999999 999999 999999 999999 15730 13668 19626 17297 12861 12278 10274 10774 10796 10453 10476 11958 10737 11474 19163 15386 12322 14134 12955 15561 17733 18558 18019 19783 11986 12248 13278 17425 10653 18126 16330 13310 14229 15985 17167 19165 10871 10740 14981 15903 18700 19612 11690 13398 14422 17986 17090 11698 11340 10026 19982 12069 12084 19495 13271 13334 18203 11581 19995 19508 16920 15466 10506 19701 19216 10736 18178 14734 10365 13276 10750 19268 15885 19092 16375 13388 18265 15318 11034 18387 13125 12041 14582 17193 10570 16145 17321 17408 17292 16773 19091 13345 18426 18292 16831 17109 10275 18144 14231 16592 999999
999999 999999 999999 999999 999999 999999 999999 999999 999999 999999 999999 999999 999999 999999 999999 999999 0 999999 999999 999999 999999 999999 999999 999999 999999 999999 999999 999999 999999 999999 999999 999999 999999 999999 999999 999999 999999 999999 999999 999999 999999 999999 999999 999999 999999 999999 999999 999999 999999 999999 999999 999999 999999 999999 999999 999999 999999 999999 999999 999999 999999 999999 999999 999999 999999 999999 999999 999999 999999 999999 999999 999999 999999 999999 999999 999999 999999 999999 999999 999999 999999 999999 999999 999999 999999 999999 999999 999999 999999 999999 999999 999999 999999 999999 999999 999999 999999 999999 999999 999999 999999 12864 18873 16534 13252 17606 12480 15628 14330 12294 16058 15667 15937 12045 17877 18843 13326 14041 15768 15608 19172 13458 14630 19642 17870 11395 15018 13066 17448 11500 12731 10137 11573 15896 10475 10257 12969 16445 19372 13014 15293 15831 16048 16611 14201 19040 19132 15218 10971 16907 12516 16955 13680 19365 10054 10367 14303 16289 14495 12118 13654 12081 13104 18036 13551 19230 10700 12728 16117 18979 14903 16274 12080 12702 16243 17568 19433 17482 13425 12119 13558 16507 14994 17282 17100 10177 15177 18150 18351 19552 13712 17330 14876 17755 15920 10904 15213 11730 18628 13857 19483 999999
999999 999999 999999 999999 999999 999999 999999 999999 999999 999999 999999 999999 999999 999999 999999 999999 999999 0 999999 999999 999999 999999 999999 999999 999999 999999 999999 999999 999999 999999 999999 999999 999999 999999 999999 999999 999999 999999 999999 999999 999999 999999 999999 999999 999999 999999 999999 999999 999999 999999 999999 999999 999999 999999 999999 999999 999999 999999 999999 999999 999999 999999 999999 999999 999999 999999 999999 999999 999999 999999 999999 999999 999999 999999 999999 999999 999999 999999 999999 999999 999999 999999 999999 999999 999999 999999 999999 999999 999999 999999 999999 999999 999999 999999 999999 999999 999999 999999 999999 999999 999999 13266 11102 16043 14175 17342 13428 15954 18575 17002 13019 12785 11075 18655 17023 18121 18298 13848 13184 18987 12223 18572 10669 19527 13519 16111 12043 14900 11345 15504 19493 17264 10363 13707 14942 12117 10716 19493 16301 10674 16292 11723 15872 18253 11423 14948 13661 13190 10635 12848 16512 15919 19976 17208 11696 18684 17823 13501 10993 17901 16732 16182 18156 14180 14701 14228 13501 12857 11908 15530 13101 15297 16100 16053 14533 11811 19799 12978 11520 15175 10604 17302 11657 17579 17215 18213 14999 13633 11525 10905 18880 10144 11407 16114 15087 10476 12282 12548 11413 11862 12143 999999
999999 999999 999999 999999 999999 999999 999999 999999 999999 999999 999999 999999 999999 999999 999999 999999 999999 999999 0 999999 999999 999999 999999 999999 999999 999999 999999 999999 999999 999999 999999 999999 999999 999999 999999 999999 999999 999999 999999 999999 999999 999999 999999 999999 999999 999999 999999 999999 999999 999999 999999 999999 999999 999999 999999 999999 999999 999999 999999 999999 999999 999999 999999 999999 999999 999999 999999 999999 999999 999999 999999 999999 999999 999999 999999 999999 999999 999999 999999 999999 999999 999999 999999 999999 999999 999999 999999 999999 999999 999999 999999 999999 999999 999999 999999 999999 999999 999999 999999 999999 999999 15563 14705 15951 17798 19317 18298 10047 19459 15036 11848 16705 19302 10241 14471 13806 12013 10931 14441 19670 13280 18326 17120 13737 12581 11966 12248 14011 15162 13961 10980 16373 15483 14591 18253 14498 12428 14212 11298 10387 15658 12461 19509 13397 16091 15688 12643 10211 11124 14131 19094 13247 14237 11737 11121 14914 12226 15879 13333 15323 18600 10073 12052 14300 10314 18429 12128 12298 18232 11545 11098 13191 14867 12557 13727 15489 19540 15385 19638 15788 19000 10142 13296 17379 16485 15259 18925 14631 12885 14517 17314 15614 12358 16413 11947 13963 17633 10158 10102 15545 10067 999999
999999 999999 999999 999999 999999 999999 999999 999999 999999 999999 999999 999999 999999 999999 999999 999999 999999 999999 999999 0 999999 999999 999999 999999 999999 999999 999999 999999 999999 999999 999999 999999 999999 999999 999999 999999 999999 999999 999999 999999 999999 999999 999999 999999 999999 999999 999999 999999 999999 999999 999999 999999 999999 999999 999999 999999 999999 999999 999999 999999 999999 999999 999999 999999 999999 999999 999999 999999 999999 999999 999999 999999 999999 999999 999999 999999 999999 999999 999999 999999 999999 999999 999999 999999 999999 999999 999999 999999 999999 999999 999999 999999 999999 999999 999999 999999 999999 999999 999999 999999 999999 10353 18898 18543 17726 13821 13197 19044 10609 10940 15425 14901 11549 16825 15990 13319 17904 11953 15635 17824 16381 19217 13732 15426 12907 16100 19225 13380 19620 10082 15318 14574 15145 14496 17329 11684 10456 16630 16520 11052 15738 19758 14697 17630 10023 13440 11828 14898 14323 14021 12692 17178 11621 14897 12747 15456 12132 19731 14838 14128 11879 15932 13925 17378 10578 13009 18577 11800 13518 13117 13229 15859 19774 10628 14788 18977 11275 14026 13915 13951 18332 16484 13440 13856 12279 10210 17982 13367 14703 10516 10576 16729 14550 13558 15496 12856 12683 12315 19952 12532 10143 999999
999999 999999 999999 999999 999999 999999 999999 999999 999999 999999 999999 999999 999999 999999 999999 999999 999999 999999 999999 999999 0 999999 999999 999999 999999 999999 999999 999999 999999 999999 999999 999999 999999 999999 999999 999999 999999 999999 999999 999999 999999 999999 999999 999999 999999 999999 999999 999999 999999 999999 999999 999999 999999 999999 999999 999999 999999 999999 999999 999999 999999 999999 999999 999999 999999 999999 999999 999999 999999 999999 999999 999999 999999 999999 999999 999999 999999 999999 999999 999999 999999 999999 999999 999999 999999 999999 999999 999999 999999 999999 999999 999999 999999 999999 999999 999999 999999 999999 999999 999999 999999 11737 14744 15945 17697 11484 16428 12414 10813 16235 18688 15720 13153 16568 11218 12173 17923 12895 19626 13290 12113 16279 13368 18709 13747 12820 18022 13607 15768 16183 12325 10525 18994 14305 13603 14709 14868 18035 16041 11132 16392 11221 15310 19009 17314 14725 10010 10989 18757 12405 16092 16560 15794 15364 14445 12696 14555 12512 15500 18795 13055 13435 15572 14329 11887 18685 11630 15102 12573 13357 18807 17022 13248 18721 11571 17386 14234 17994 11803 12593 18528 17885 14438 18946 12909 12087 16777 19242 15120 11660 13514 12876 10357 18566 18264 17324 16880 12509 10155 18373 11983 999999
999999 999999 999999 999999 999999 999999 999999 999999 999999 999999 999999 999999 999999 999999 999999 999999 999999 999999 999999 999999 999999 0 999999 999999 999999 999999 999999 999999 999999 999999 999999 999999 999999 999999 999999 999999 999999 999999 999999 999999 999999 999999 999999 999999 999999 999999 999999 999999 999999 999999 999999 999999 999999 999999 999999 999999 999999 999999 999999 999999 999999 999999 999999 999999 999999 999999 999999 999999 999999 999999 999999 999999 999999 999999 999999 999999 999999 999999 999999 999999 999999 999999 999999 999999 999999 999999 999999 999999 999999 999999 999999 999999 999999 999999 999999 999999 999999 999999 999999 999999 999999 15960 10055 15712 18498 10236 17348 19994 17163 18118 19674 15132 14175 18893 18547 18419 14369 13994 13259 19978 14170 18998 17036 11542 16383 12622 17544 15116 17445 14387 17210 11524 17010 17828 11780 12434 12380 18210 13222 15203 12038 15084 19274 10216 16144 13850 16057 15200 10379 10780 13667 14531 10510 17668 11657 19835 12508 18545 18632 14257 12525 13731 12717 17263 15766 13477 13969 14869 17744 18961 16349 12565 11380 17442 19037 16193 17510 11073 12604 13295 11872 14065 17910 11192 19372 17638 14095 14712 13823 18844 10846 12176 18790 16712 16715 12387 16020 15205 10251 14374 18088 999999
999999 999999 999999 999999 999999 999999 999999 999999 999999 999999 999999 999999 999999 999999 999999 999999 999999 999999 999999 999999 999999 999999 0 999999 999999 999999 999999 999999 999999 999999 999999 999999 999999 999999 999999 999999 999999 999999 999999 999999 999999 999999 999999 999999 999999 999999 999999 999999 999999 999999 999999 999999 999999 999999 999999 999999 999999 999999 999999 999999 999999 999999 999999 999999 999999 999999 999999 999999 999999 999999 999999 999999 999999 999999 999999 999999 999999 999999 999999 999999 999999 999999 999999 999999 999999 999999 999999 999999 999999 999999 999999 999999 999999 999999 999999 999999 999999 999999 999999 999999 999999 19455 19103 13535 10482 17534 11269 14534 13847 18866 10936 10803 17955 13148 19373 11607 19532 15463 17255 18010 12560 12271 12463 13841 12018 17596 15475 11355 10638 17410 11608 19042 14008 17633 19792 11930 16618 10711 16179 11500 19300 10490 13062 12099 17268 14518 18946 17550 17667 17724 14461 10548 19053 10184 17752 13859 10252 10065 18766 11346 17792 13258 19137 14476 16532 19218 18283 16047 13262 12133 11332 15025 19992 11793 13806 12364 16508 17058 11020 11403 18839 19401 10725 16406 17289 18152 13550 10458 17352 19605 19886 10978 12311 17444 10615 10439 10521 12901 19991 17633 18593 999999
999999 999999 999999 999999 999999 999999 999999 999999 999999 999999 999999 999999 999999 999999 999999 999999 999999 999999 999999 999999 999999 999999 999999 0 999999 999999 999999 999999 999999 999999 999999 999999 999999 999999 999999 999999 999999 999999 999999 999999 999999 999999 999999 999999 999999 999999 999999 999999 999999 999999 999999 999999 999999 999999 999999 999999 999999 999999 999999 999999 999999 999999 999999 999999 999999 999999 999999 999999 999999 999999 999999 999999 999999 999999 999999 999999 999999 999999 999999 999999 999999 999999 999999 999999 999999 999999 999999 999999 999999 999999 999999 999999 999999 999999 999999 999999 999999 999999 999999 999999 999999 17904 13637 10349 15111 19133 12597 12678 18178 11145 17950 10644 11062 13874 15848 10574 13357 11974 13530 14668 16411 18993 10266 18286 12311 11836 16477 15388 12904 18834 17074 10318 16713 18378 15119 16504 11564 11423 10649 15066 19161 16737 13413 17886 10898 17251 19476 19214 18989 12034 13556 10204 18216 15814 15142 10630 18825 19732 14039 18209 10401 15944 14120 16873 19201 15122 13123 14737 14001 18138 14486 19830 16180 11729 19710 16391 18485 16894 13875 17490 14726 11593 15921 14395 17304 12313 19780 13915 16805 18990 13359 10813 14177 16927 19923 11551 16990 13923 13717 17467 14366 999999
999999 999999 999999 999999 999999 999999 999999 999999 999999 999999 999999 999999 999999 999999 999999 999999 999999 999999 999999 999999 999999 999999 999999 999999 0 999999 999999 999999 999999 999999 999999 999999 999999 999999 999999 999999 999999 999999 999999 999999 999999 999999 999999 999999 999999 999999 999999 999999 999999 999999 999999 999999 999999 999999 999999 999999 999999 999999 999999 999999 999999 999999 999999 999999 999999 999999 999999 999999 999999 999999 999999 999999 999999 999999 999999 999999 999999 999999 999999 999999 999999 999999 999999 999999 999999 999999 999999 999999 999999 999999 999999 999999 999999 999999 999999 999999 999999 999999 999999 999999 999999 12014 10392 14871 16124 14592 19389 10821 12636 12895 17913 17495 15729 15808 12845 11603 13774 16539 12686 15073 19363 13500 14726 14761 15194 14362 19728 11264 15041 17511 14370 18720 11662 19673 14307 15645 13431 19593 11159 19275 10705 15211 14913 10159 10546 13511 14198 12105 10641 14112 14993 18710 19343 11891 18095 19597 14852 18643 11113 17004 11221 14796 10223 18060 14256 11785 17483 12661 10060 14285 15050 13313 12607 16359 14195 12822 15874 15949 13882 13468 13731 14165 12614 12844 16070 13142 14246 18917 14912 12535 16341 10646 10326 18696 15374 19115 15270 12814 12294 14219 17432 999999
999999 999999 999999 999999 999999 999999 999999 999999 999999 999999 999999 999999 999999 999999 999999 999999 999999 999999 999999 999999 999999 999999 999999 999999 999999 0 999999 999999 999999 999999 999999 999999 999999 999999 999999 999999 999999 999999 999999 999999 999999 999999 999999 999999 999999 999999 999999 999999 999999 999999 999999 999999 999999 999999 999999 999999 999999 999999 999999 999999 999999 999999 999999 999999 999999 999999 999999 999999 999999 999999 999999 999999 999999 999999 999999 999999 999999 999999 999999 999999 999999 999999 999999 999999 999999 999999 999999 999999 999999 999999 999999 999999 999999 999999 999999 999999 999999 999999 999999 999999 999999 13685 11096 17788 16195 12035 15953 16791 10911 16898 10685 16105 18246 18237 11772 18687 18942 10148 10685 19468 15396 12647 13829 11494 13161 18117 17449 17795 14256 14781 16803 19065 18628 16577 19476 12873 13262 13397 10776 17668 19145 11082 17142 12245 16062 11298 14425 14382 19870 10518 19728 16756 13485 16169 14271 11066 11123 12663 19401 17802 13292 17389 19663 15255 12898 18272 19856 18067 12438 18319 12449 13594 16711 14521 11854 11755 14878 16612 18857 16009 16807 12643 11229 11261 11513 13866 14850 14061 15861 19802 19008 10834 16032 19113 12333 10605 17864 19644 11102 16218 12176 999999
999999 999999 999999 999999 999999 999999 999999 999999 999999 999999 999999 999999 999999 999999 999999 999999 999999 999999 999999 999999 999999 999999 999999 999999 999999 999999 0 999999 999999 999999 999999 999999 999999 999999 999999 999999 999999 999999 999999 999999 999999 999999 999999 999999 999999 999999 999999 999999 999999 999999 999999 999999 999999 999999 999999 999999 999999 999999 999999 999999 999999 999999 999999 999999 999999 999999 999999 999999 999999 999999 999999 999999 999999 999999 999999 999999 999999 999999 999999 999999 999999 999999 999999 999999 999999 999999 999999 999999 999999 999999 999999 999999 999999 999999 999999 999999 999999 999999 999999 999999 999999 16771 13986 12345 15736 13167 15928 11054 16489 19727 13174 18947 12575 14445 15333 13968 12649 17253 15703 11432 15077 17498 10176 11368 16782 11467 15001 15944 18444 19507 16746 11081 12569 14085 14981 16580 10583 17528 13543 15173 13270 16884 12092 13204 16566 10281 12960 19251 15678 10950 19731 19636 17983 10746 18320 11467 14226 13785 13854 18920 11717 18262 17611 17027 19530 13018 18656 14526 18906 17812 16747 15048 18389 15400 10353 14892 10009 11334 11105 10283 16823 14170 11978 14603 18675 13769 12854 19385 11299 18168 16304 11496 12348 11128 10679 18089 11236 13484 13815 13342 13001 999999
999999 999999 999999 999999 999999 999999 999999 999999 999999 999999 999999 999999 999999 999999 999999 999999 999999 999999 999999 999999 999999 999999 999999 999999 999999 999999 999999 0 999999 999999 999999 999999 999999 999999 999999 999999 999999 999999 999999 999999 999999 999999 999999 999999 999999 999999 999999 999999 999999 999999 999999 999999 999999 999999 999999 999999 999999 999999 999999 999999 999999 999999 999999 999999 999999 999999 999999 999999 999999 999999 999999 999999 999999 999999 999999 999999 999999 999999 999999 999999 999999 999999 999999 999999 999999 999999 999999 999999 999999 999999 999999 999999 999999 999999 999999 999999 999999 999999 999999 999999 999999 15427 14912 11646 13076 18600 13354 11006 11799 17616 10397 11500 19852 14008 12015 17351 11559 13194 14940 17967 10555 12399 16355 19588 16780 18293 16243 18067 16851 12420 19448 19839 13751 15477 13754 15800 15310 14092 10789 15281 17222 14138 12007 16645 14380 16180 17535 19663 16249 13522 12161 18021 13257 15239 16176 12047 13618 13382 17691 17477 12005 13890 12155 15323 11443 14959 17078 18539 10846 10716 10068 11065 16506 10464 18590 15299 11825 10959 18516 18069 10183 10725 16810 12637 12996 19772 13459 19254 12338 11906 16874 13562 19993 10333 14148 18006 15070 17671 15182 13082 17162 999999
999999 999999 999999 999999 999999 999999 999999 999999 999999 999999 999999 999999 999999 999999 999999 999999 999999 999999 999999 999999 999999 999999 999999 999999 999999 999999 999999 999999 0 999999 999999 999999 999999 999999 999999 999999 999999 999999 999999 999999 999999 999999 999999 999999 999999 999999 999999 999999 999999 999999 999999 999999 999999 999999 999999 999999 999999 999999 999999 999999 999999 999999 999999 999999 999999 999999 999999 999999 999999 999999 999999 999999 999999 999999 999999 999999 999999 999999 999999 999999 999999 999999 999999 999999 999999 999999 999999 999999 999999 999999 999999 999999 999999 999999 999999 999999 999999 999999 999999 999999 999999 19419 14046 11587 18765 14065 12157 10590 19764 14017 13919 14453 17562 18423 10458 10919 10980 16463 13955 12243 19994 17076 12674 14535 10393 18213 18794 17755 13654 15891 16612 19076 13956 11584 11701 17450 18353 16279 14165 14358 19974 14848 11634 19030 18810 19074 19536 18774 12756 10565 18289 15070 10299 18142 13544 14401 17895 12059 13368 15654 16239 12081 18090 17136 17783 19446 19309 18560 13801 18797 17980 15838 13541 14127 14841 18383 18245 15674 12055 16956 17504 17244 16655 19142 16815 18964 13783 17028 13975 18294 18415 11562 17070 17124 14344 12785 12101 17013 19569 14530 19436 999999
999999 999999 999999 999999 999999 999999 999999 999999 999999 999999 999999 999999 999999 999999 999999 999999 999999 999999 999999 999999 999999 999999 999999 999999 999999 999999 999999 999999 999999 0 999999 999999 999999 999999 999999 999999 999999 999999 999999 999999 999999 999999 999999 999999 999999 999999 999999 999999 999999 999999 999999 999999 999999 999999 999999 999999 999999 999999 999999 999999 999999 999999 999999 999999 999999 999999 999999 999999 999999 999999 999999 999999 999999 999999 999999 999999 999999 999999 999999 999999 999999 999999 999999 999999 999999 999999 999999 999999 999999 999999 999999 999999 999999 999999 999999 999999 999999 999999 999999 999999 999999 19605 17717 12275 19027 12390 10161 14840 15282 16693 18699 19915 12763 17504 12114 12512 19323 13701 13065 19695 11507 17746 13421 10510 14825 17592 16830 10091 12579 12056 10266 10089 10101 17596 13672 19838 13032 10508 13451 15726 15219 18176 12437 11571 18418 19230 11025 19797 12786 16642 10410 10662 19579 16520 12922 12943 15269 17689 12486 11516 16652 16514 11763 12026 18105 18800 11036 13866 17109 18746 11372 15416 14990 17695 19842 18586 15717 10751 16190 17212 15782 16847 12231 18773 11549 10367 18940 17009 12434 12506 13165 18402 15302 15639 12199 11455 14444 15489 11221 16202 15856 999999
999999 999999 999999 999999 999999 999999 999999 999999 999999 999999 999999 999999 999999 999999 999999 999999 999999 999999 999999 999999 999999 999999 999999 999999 999999 999999 999999 999999 999999 999999 0 999999 999999 999999 999999 999999 999999 999999 999999 999999 999999 999999 999999 999999 999999 999999 999999 999999 999999 999999 999999 999999 999999 999999 999999 999999 999999 999999 999999 999999 999999 999999 999999 999999 999999 999999 999999 999999 999999 999999 999999 999999 999999 999999 999999 999999 999999 999999 999999 999999 999999 999999 999999 999999 999999 999999 999999 999999 999999 999999 999999 999999 999999 999999 999999 999999 999999 999999 999999 999999 999999 18729 17025 19923 14874 12045 12771 12925 18743 10264 14767 13576 11274 13708 15597 15853 12427 10226 17778 15398 16990 18204 12504 11348 10097 12810 12476 17222 12434 18579 11861 10816 18269 12687 16228 13377 11511 18009 12609 14310 10307 12976 15522 14455 13481 17841 13403 19787 17054 16699 15145 14682 11367 11966 13550 10233 16783 12861 11355 13660 12627 13178 18390 15310 18812 13735 17058 10188 18309 16499 19812 10504 12524 14051 14791 11718 11493 19664 13563 15756 19738 11310 11569 14745 10547 15506 12564 14994 17937 19327 10329 19077 10665 12689 14353 10506 17597 15187 15009 13183 11574 999999
999999 999999 999999 999999 999999 999999 999999 999999 999999 999999 999999 999999 999999 999999 999999 999999 999999 999999 999999 999999 999999 999999 999999 999999 999999 999999 999999 999999 999999 999999 999999 0 999999 999999 999999 999999 999999 999999 999999 999999 999999 999999 999999 999999 999999 999999 999999 999999 999999 999999 999999 999999 999999 999999 999999 999999 999999 999999 999999 999999 999999 999999 999999 999999 999999 999999 999999 999999 999999 999999 999999 999999 999999 999999 999999 999999 999999 999999 999999 999999 999999 999999 999999 999999 999999 999999 999999 999999 999999 999999 999999 999999 999999 999999 999999 999999 999999 999999 999999 999999 999999 10896 17423 16777 16163 17771 18371 15057 10589 10476 15712 19492 14298 10536 13906 13731 13816 18859 12937 11506 16760 18898 11042 12766 11739 17269 16228 19896 10200 15764 15769 18068 14026 14003 10856 19181 19006 10928 15564 14933 12470 11128 11916 13310 19294 15625 19806 14097 10686 12351 18842 18986 17738 17274 10445 13496 15892 13011 11855 12306 18360 10915 16225 17016 11822 19898 12876 14425 16610 10610 18500 19608 16794 18942 15847 18963 17452 16582 18659 17118 19991 19721 12316 11113 16676 15718 10790 13107 19327 15085 14753 10378 12146 13604 13618 18228 12396 10574 18403 14630 17271 999999
999999 999999 999999 999999 999999 999999 999999 999999 999999 999999 999999 999999 999999 999999 999999 999999 999999 999999 999999 999999 999999 999999 999999 999999 999999 999999 999999 999999 999999 999999 999999 999999 0 999999 999999 999999 999999 999999 999999 999999 999999 999999 999999 999999 999999 999999 999999 999999 999999 999999 999999 999999 999999 999999 999999 999999 999999 999999 999999 999999 999999 999999 999999 999999 999999 999999 999999 999999 999999 999999 999999 999999 999999 999999 999999 999999 999999 999999 999999 999999 999999 999999 999999 999999 999999 999999 999999 999999 999999 999999 999999 999999 999999 999999 999999 999999 999999 999999 999999 999999 999999 14497 10917 10554 10798 17907 10987 15814 14788 18251 17527 15941 19808 11294 14369 15753 19338 17914 15416 12888 12542 11823 18142 19151 13487 14283 14230 20000 15037 16564 16317 18851 17868 15491 11808 14399 12833 19131 19165 11073 19379 19899 18627 10826 12040 18937 18055 15655 12753 18503 14598 18583 18149 14625 16689 16063 11957 10223 13626 19060 12161 18478 11536 11168 10105 14508 15115 17962 18683 11888 14383 14837 19745 14056 12496 11161 16833 13967 11471 18149 13834 13526 14158 13481 14165 13068 15890 14088 17012 17981 16890 17829 19582 10313 10088 11897 11523 12323 18461 18817 15246 999999
999999 999999 999999 999999 999999 999999 999999 999999 999999 999999 999999 999999 999999 999999 999999 999999 999999 999999 999999 999999 999999 999999 999999 999999 999999 999999 999999 999999 999999 999999 999999 999999 999999 0 999999 999999 999999 999999 999999 999999 999999 999999 999999 999999 999999 999999 999999 999999 999999 999999 999999 999999 999999 999999 999999 999999 999999 999999 999999 999999 999999 999999 999999 999999 999999 999999 999999 999999 999999 999999 999999 999999 999999 999999 999999 999999 999999 999999 999999 999999 999999 999999 999999 999999 999999 999999 999999 999999 999999 999999 999999 999999 999999 999999 999999 999999 999999 999999 999999 999999 999999 11676 17476 19238 17323 15068 12381 19665 19843 17518 16414 12029 11730 14748 17893 18080 10460 15892 15381 16807 10629 19955 11946 12778 18975 15889 14670 13139 16458 10383 15668 16579 14530 17864 17023 17826 14960 12194 14218 10148 12777 10115 16962 18893 12955 15630 11259 18258 14546 12606 19903 13023 13398 17477 19243 18446 16237 17331 13691 19596 12856 19245 18007 15337 19820 16383 13130 19408 13673 16654 14824 19182 15099 13774 13618 11219 13080 11080 16401 17832 12873 18412 13283 16718 10649 16056 10928 15366 15192 14181 19833 11612 11307 17192 10636 19446 16496 10786 19553 19212 17739 999999
999999 999999 999999 999999 999999 999999 999999 999999 999999 999999 999999 999999 999999 999999 999999 999999 999999 999999 999999 999999 999999 999999 999999 999999 999999 999999 999999 999999 999999 999999 999999 999999 999999 999999 0 999999 999999 999999 999999 999999 999999 999999 999999 999999 999999 999999 999999 999999 999999 999999 999999 999999 999999 999999 999999 999999 999999 999999 999999 999999 999999 999999 999999 999999 999999 999999 999999 999999 999999 999999 999999 999999 999999 999999 999999 999999 999999 999999 999999 999999 999999 999999 999999 999999 999999 999999 999999 999999 999999 999999 999999 999999 999999 999999 999999 999999 999999 999999 999999 999999 999999 11650 13257 16758 18084 18941 10982 19574 15136 14808 18904 14874 16516 10480 14614 13250 17676 10376 16070 10229 14658 15472 19363 18735 19093 19169 17253 13623 19926 13217 17159 11190 15026 18939 10030 10574 15684 18916 16466 16664 14441 10210 16390 17084 12480 14117 18290 10450 18165 18553 10525 17631 16132 13092 18183 15341 16233 18007 18224 11659 19049 18864 16906 12450 13345 17591 18172 11958 12200 12451 11850 10298 14635 17280 13913 11094 15031 14818 10715 10378 10412 13343 10110 13459 19795 19827 13866 13471 12796 19435 10458 11003 11579 11330 17623 14425 14433 15861 12960 10890 12269 999999
999999 999999 999999 999999 999999 999999 999999 999999 999999 999999 999999 999999 999999 999999 999999 999999 999999 999999 999999 999999 999999 999999 999999 999999 999999 999999 999999 999999 999999 999999 999999 999999 999999 999999 999999 0 999999 999999 999999 999999 999999 999999 999999 999999 999999 999999 999999 999999 999999 999999 999999 999999 999999 999999 999999 999999 999999 999999 999999 999999 999999 999999 999999 999999 999999 999999 999999 999999 999999 999999 999999 999999 999999 999999 999999 999999 999999 999999 999999 999999 999999 999999 999999 999999 999999 999999 999999 999999 999999 999999 999999 999999 999999 999999 999999 999999 999999 999999 999999 999999 999999 10420 14377 17986 19124 17942 17753 16395 17886 17097 14789 12684 15547 19035 13186 15987 19710 18465 14361 16749 16802 13417 12894 19474 18846 12944 19432 13597 15486 19802 11300 14440 14484 17114 10705 12576 11121 13260 16514 16397 10423 11321 13181 13428 18766 18587 17086 10347 14046 15637 18791 17492 12412 18539 12115 15892 19960 15563 18845 15207 12189 15377 16506 16471 14423 10023 19590 11682 15359 15853 14118 12592 12965 14139 15647 16596 16078 16030 12224 11819 11979 18784 11951 15650 18416 17551 17276 10161 19781 12552 14071 19868 13210 13349 11897 16860 11726 12888 17565 12191 16976 999999
999999 999999 999999 999999 999999 999999 999999 999999 999999 999999 999999 999999 999999 999999 999999 999999 999999 999999 999999 999999 999999 999999 999999 999999 999999 999999 999999 999999 999999 999999 999999 999999 999999 999999 999999 999999 0 999999 999999 999999 999999 999999 999999 999999 999999 999999 999999 999999 999999 999999 999999 999999 999999 999999 999999 999999 999999 999999 999999 999999 999999 999999 999999 999999 999999 999999 999999 999999 999999 999999 999999 999999 999999 999999 999999 999999 999999 999999 999999 999999 999999 999999 999999 999999 999999 999999 999999 999999 999999 999999 999999 999999 999999 999999 999999 999999 999999 999999 999999 999999 999999 16833 11804 11435 13780 10611 15750 14169 16495 11770 18603 10624 18068 12619 18333 12141 19886 12823 15527 16871 15243 19842 10739 15703 13782 19756 12702 13117 10928 14218 11565 10030 12152 18078 14474 10580 19022 12579 10709 16246 13914 11598 19564 15023 11007 15226 15931 10878 10547 13665 13275 19300 16116 14416 14414 11637 17454 18695 16420 10098 18062 11907 10359 13703 19553 17545 13970 19508 12569 10687 14356 17720 16752 12187 17231 14849 13793 13995 19534 18090 12907 15881 18475 14401 10965 19556 12145 14170 15257 13358 11734 11092 16373 15228 10712 11702 12208 19161 15114 17947 19136 999999
999999 999999 999999 999999 999999 999999 999999 999999 999999 999999 999999 999999 999999 999999 999999 999999 999999 999999 999999 999999 999999 999999 999999 999999 999999 999999 999999 999999 999999 999999 999999 999999 999999 999999 999999 999999 999999 0 999999 999999 999999 999999 999999 999999 999999 999999 999999 999999 999999 999999 999999 999999 999999 999999 999999 999999 999999 999999 999999 999999 999999 999999 999999 999999 999999 999999 999999 999999 999999 999999 999999 999999 999999 999999 999999 999999 999999 999999 999999 999999 999999 999999 999999 999999 999999 999999 999999 999999 999999 999999 999999 999999 999999 999999 999999 999999 999999 999999 999999 999999 999999 11791 13667 13086 14904 17222 19406 17834 10314 10298 17181 14052 11401 13656 18203 10938 14898 18538 11961 16712 16993 15358 15385 11684 16357 11932 15848 13993 13712 11734 14442 16172 18813 12650 15413 10068 16550 19082 13787 18161 17300 13666 15879 13190 13972 10986 10379 18034 19270 10387 12744 15160 18672 13738 16283 13129 13039 18872 13404 14912 13221 19454 15666 19342 12117 17798 19241 16377 19615 10934 17225 15964 17716 13025 17521 13634 16605 10593 11144 17886 10409 11907 17792 15654 11709 14533 11144 17600 19282 10900 13479 19814 17239 17188 13828 18525 17097 14294 17592 15005 11496 999999
999999 999999 999999 999999 999999 999999 999999 999999 999999 999999 999999 999999 999999 999999 999999 999999 999999 999999 999999 999999 999999 999999 999999 999999 999999 999999 999999 999999 999999 999999 999999 999999 999999 999999 999999 999999 999999 999999 0 999999 999999 999999 999999 999999 999999 999999 999999 999999 999999 999999 999999 999999 999999 999999 999999 999999 999999 999999 999999 999999 999999 999999 999999 999999 999999 999999 999999 999999 999999 999999 999999 999999 999999 999999 999999 999999 999999 999999 999999 999999 999999 999999 999999 999999 999999 999999 999999 999999 999999 999999 999999 999999 999999 999999 999999 999999 999999 999999 999999 999999 999999 18157 15118 10609 10360 11608 19282 14782 19410 14303 17595 13972 17412 11458 13716 16159 16675 14216 19694 10118 13718 14742 10613 12046 12906 10923 13523 10022 15734 11751 10704 11684 13738 16853 19184 15085 18988 16473 17571 12878 12789 17066 18988 17667 14761 12376 14613 18864 19956 13808 12655 13213 14531 11572 19548 10740 11808 14905 14191 12788 12144 18142 16043 16667 13754 12054 16120 17884 16716 15984 16563 15567 18853 15300 17736 12823 10997 15090 14659 17445 12364 10962 10507 14138 13412 10639 11410 16208 19265 14485 16722 16365 18400 10216 16434 14882 17338 16850 19994 10589 19757 999999
999999 999999 999999 999999 999999 999999 999999 999999 999999 999999 999999 999999 999999 999999 999999 999999 999999 999999 999999 999999 999999 999999 999999 999999 999999 999999 999999 999999 999999 999999 999999 999999 999999 999999 999999 999999 999999 999999 999999 0 999999 999999 999999 999999 999999 999999 999999 999999 999999 999999 999999 999999 999999 999999 999999 999999 999999 999999 999999 999999 999999 999999 999999 999999 999999 999999 999999 999999 999999 999999 999999 999999 999999 999999 999999 999999 999999 999999 999999 999999 999999 999999 999999 999999 999999 999999 999999 999999 999999 999999 999999 999999 999999 999999 999999 999999 999999 999999 999999 999999 999999 11145 16168 10071 15519 15469 15452 10036 19509 16390 15134 13384 17348 12721 17564 17272 13546 10229 12028 10668 16961 10596 15568 18901 10423 17041 11316 19142 18127 14054 11907 17539 11893 15838 16562 13808 19100 15130 16558 19223 19571 12013 18674 14739 11104 12532 10419 15663 15746 18545 10021 12304 17815 16871 15870 18280 18433 12075 19757 19248 18193 15081 17227 15791 15904 12826 18011 10826 10806 12357 16474 12671 16776 15026 15424 13411 15825 18319 15848 18297 16687 14355 14548 17120 19366 18493 19043 12278 11657 13976 18625 11848 11633 14672 19405 18557 10876 14285 17710 12177 12562 999999
999999 999999 999999 999999 999999 999999 999999 999999 999999 999999 999999 999999 999999 999999 999999 999999 999999 999999 999999 999999 999999 999999 999999 999999 999999 999999 999999 999999 999999 999999 999999 999999 999999 999999 999999 999999 999999 999999 999999 999999 0 999999 999999 999999 999999 999999 999999 999999 999999 999999 999999 999999 999999 999999 999999 999999 999999 999999 999999 999999 999999 999999 999999 999999 999999 999999 999999 999999 999999 999999 999999 999999 999999 999999 999999 999999 999999 999999 999999 999999 999999 999999 999999 999999 999999 999999 999999 999999 999999 999999 999999 999999 999999 999999 999999 999999 999999 999999 999999 999999 999999 18926 10667 16100 18669 15531 17496 11964 10925 13732 12327 11697 14592 15592 10364 13683 16539 12805 16182 11451 13954 14535 12751 19218 18907 18927 16421 15067 18370 15412 15700 14977 15519 18133 18723 16953 16439 18336 14607 16010 18755 13528 17260 15810 19109 17683 16330 15451 14064 11828 12380 18041 17574 10849 13462 12245 13413 17102 15888 18255 10410 19042 12381 14785 10589 18938 19236 14378 16415 10368 14964 14042 19931 14540 12272 16943 10365 18430 10113 15531 12016 15225 12722 18676 15916 12373 16192 10351 15459 14911 12673 16109 10287 17721 17262 19892 11015 13100 11325 19163 14437 999999
999999 999999 999999 999999 999999 999999 999999 999999 999999 999999 999999 999999 999999 999999 999999 999999 999999 999999 999999 999999 999999 999999 999999 999999 999999 999999 999999 999999 999999 999999 999999 999999 999999 999999 999999 999999 999999 999999 999999 999999 999999 0 999999 999999 999999 999999 999999 999999 999999 999999 999999 999999 999999 999999 999999 999999 999999 999999 999999 999999 999999 999999 999999 999999 999999 999999 999999 999999 999999 999999 999999 999999 999999 999999 999999 999999 999999 999999 999999 999999 999999 999999 999999 999999 999999 999999 999999 999999 999999 999999 999999 999999 999999 999999 999999 999999 999999 999999 999999 999999 999999 10223 17445 17465 18575 15119 12511 16916 11282 16175 14452 12214 15631 11529 19981 11848 17376 12634 11100 14020 18551 10611 11358 11228 18908 18671 16394 13693 12763 15082 17090 17353 12510 10534 10300 16513 18514 12615 16983 18831 18771 16372 17391 19424 11456 10169 12118 10011 18014 12628 15156 19421 14081 15555 14384 14923 17302 15972 16790 16245 14489 13478 15051 17073 16368 14564 14914 16619 18208 18949 13584 17380 10550 11682 19164 10345 19056 11360 14694 18945 13208 16740 11395 11113 11193 13991 19704 12758 14460 10658 15714 12923 13036 19223 12457 18381 13491 10280 15925 16223 18199 999999
999999 999999 999999 999999 999999 999999 999999 999999 999999 999999 999999 999999 999999 999999 999999 999999 999999 999999 999999 999999 999999 999999 999999 999999 999999 999999 999999 999999 999999 999999 999999 999999 999999 999999 999999 999999 999999 999999 999999 999999 999999 999999 0 999999 999999 999999 999999 999999 999999 999999 999999 999999 999999 999999 999999 999999 999999 999999 999999 999999 999999 999999 999999 999999 999999 999999 999999 999999 999999 999999 999999 999999 999999 999999 999999 999999 999999 999999 999999 999999 999999 999999 999999 999999 999999 999999 999999 999999 999999 999999 999999 999999 999999 999999 999999 999999 999999 999999 999999 999999 999999 14700 18422 12720 10130 10394 18613 18618 11458 15283 12518 16536 18076 17360 15900 14150 10628 15402 19048 11489 19150 16150 13499 15514 18063 12952 11622 13159 17407 11739 10270 19548 15090 19360 15445 13824 19419 10352 16127 13577 10444 16378 16442 17423 13348 11792 10746 11647 11991 10857 14910 10290 14357 18466 16025 12577 13337 18461 15965 10287 16547 16575 18842 19497 17625 14297 17029 13597 12360 12076 18166 13794 19904 18438 14122 10770 12841 12980 15133 15096 13382 12640 16411 11594 19737 19920 17607 17617 13092 16343 17947 12077 15633 11893 15104 18947 16275 15855 16139 13000 18040 999999
999999 999999 999999 999999 999999 999999 999999 999999 999999 999999 999999 999999 999999 999999 999999 999999 999999 999999 999999 999999 999999 999999 999999 999999 999999 999999 999999 999999 999999 999999 999999 999999 999999 999999 999999 999999 999999 999999 999999 999999 999999 999999 999999 0 999999 999999 999999 999999 999999 999999 999999 999999 999999 999999 999999 999999 999999 999999 999999 999999 999999 999999 999999 999999 999999 999999 999999 999999 999999 999999 999999 999999 999999 999999 999999 999999 999999 999999 999999 999999 999999 999999 999999 999999 999999 999999 999999 999999 999999 999999 999999 999999 999999 999999 999999 999999 999999 999999 999999 999999 999999 10784 12573 13349 14328 11669 12705 15526 16662 12898 12497 12643 12803 11956 18098 10775 11100 12766 11525 19456 13893 11958 13031 11938 12895 11500 13880 18437 18081 10529 16791 12152 17069 12029 18841 14438 10056 13144 13170 19871 17848 14811 14661 10219 16556 15359 11389 14220 17727 19265 14924 13484 17313 10545 19117 19417 10151 10260 12724 11112 16752 15818 19097 10678 14493 17745 17789 15200 18842 18071 18989 10869 15482 11673 15884 12787 18044 19032 11624 19352 17231 14637 13577 18590 13711 18351 11426 10974 14894 18811 13257 13870 17040 13840 16580 11870 12167 19535 15591 17021 13269 999999
999999 999999 999999 999999 999999 999999 999999 999999 999999 999999 999999 999999 999999 999999 999999 999999 999999 999999 999999 999999 999999 999999 999999 999999 999999 999999 999999 999999 999999 999999 999999 999999 999999 999999 999999 999999 999999 999999 999999 999999 999999 999999 999999 999999 0 999999 999999 999999 999999 999999 999999 999999 999999 999999 999999 999999 999999 999999 999999 999999 999999 999999 999999 999999 999999 999999 999999 999999 999999 999999 999999 999999 999999 999999 999999 999999 999999 999999 999999 999999 999999 999999 999999 999999 999999 999999 999999 999999 999999 999999 999999 999999 999999 999999 999999 999999 999999 999999 999999 999999 999999 13671 15231 19247 18547 19242 11423 13299 17172 13381 10553 10325 19675 18985 15041 14741 11835 12706 19806 19317 19751 11275 15675 14309 15720 14191 10606 14111 15369 12016 12854 13749 17101 14294 12337 16514 18745 18065 16955 15143 17059 19151 12991 13256 15671 17585 16363 18649 16163 10264 12571 19877 14241 18497 10489 18086 14112 13679 10929 19128 16779 11029 16831 18337 17435 11108 13303 18181 18936 16553 10147 10946 13152 16230 19268 19379 10121 18223 17179 13941 14455 17455 18191 16084 15514 19492 14100 14827 15854 14627 12268 17944 12644 19160 14571 14271 10731 10971 17731 13745 18286 999999
999999 999999 999999 999999 999999 999999 999999 999999 999999 999999 999999 999999 999999 999999 999999 999999 999999 999999 999999 999999 999999 999999 999999 999999 999999 999999 999999 999999 999999 999999 999999 999999 999999 999999 999999 999999 999999 999999 999999 999999 999999 999999 999999 999999 999999 0 999999 999999 999999 999999 999999 999999 999999 999999 999999 999999 999999 999999 999999 999999 999999 999999 999999 999999 999999 999999 999999 999999 999999 999999 999999 999999 999999 999999 999999 999999 999999 999999 999999 999999 999999 999999 999999 999999 999999 999999 999999 999999 999999 999999 999999 999999 999999 999999 999999 999999 999999 999999 999999 999999 999999 18858 13416 17117 18447 11112 11460 15393 18944 17810 12858 17072 17220 18448 13690 18471 19655 15381 16989 10163 16361 14201 18225 14643 12348 10918 14535 13569 10178 19009 19199 18440 11097 19048 15613 13748 16911 14475 18619 11864 11683 18608 12316 15310 13656 10374 18947 13176 13851 16751 12164 11416 19009 17947 13389 18874 16225 18643 15257 16693 15868 14568 15702 19964 19468 14393 16086 13928 18980 18371 13336 15447 15232 12497 16860 18733 17046 17653 17596 13089 19504 14887 15848 10218 13001 12859 17125 19456 16066 10727 12334 15760 16857 14260 13696 17765 10376 18338 16538 12053 14967 999999
999999 999999 999999 999999 999999 999999 999999 999999 999999 999999 999999 999999 999999 999999 999999 999999 999999 999999 999999 999999 999999 999999 999999 999999 999999 999999 999999 999999 999999 999999 999999 999999 999999 999999 999999 999999 999999 999999 999999 999999 999999 999999 999999 999999 999999 999999 0 999999 999999 999999 999999 999999 999999 999999 999999 999999 999999 999999 999999 999999 999999 999999 999999 999999 999999 999999 999999 999999 999999 999999 999999 999999 999999 999999 999999 999999 999999 999999 999999 999999 999999 999999 999999 999999 999999 999999 999999 999999 999999 999999 999999 999999 999999 999999 999999 999999 999999 999999 999999 999999 999999 19091 13678 13913 17676 18998 10020 12205 12509 12822 17832 18614 11435 16031 13314 11433 19753 19520 13025 10846 17370 10995 19716 11513 16938 16442 19547 14691 16813 14170 14598 15534 15794 14586 17361 10968 11530 18673 18777 19119 16004 16954 14920 17891 10551 15996 19216 14521 12629 18731 13486 12246 13637 16446 18508 18491 16362 13382 13892 11594 13609 10440 18657 13478 16226 19949 17373 12320 16542 18409 19285 11130 10186 13786 16906 19550 14703 15068 10391 12134 13814 11573 18222 15642 17915 14411 10416 13312 10972 11835 12961 11315 11002 19392 14203 10334 14801 11559 13628 12862 12185 999999
999999 999999 999999 999999 999999 999999 999999 999999 999999 999999 999999 999999 999999 999999 999999 999999 999999 999999 999999 999999 999999 999999 999999 999999 999999 999999 999999 999999 999999 999999 999999 999999 999999 999999 999999 999999 999999 999999 999999 999999 999999 999999 999999 999999 999999 999999 999999 0 999999 999999 999999 999999 999999 999999 999999 999999 999999 999999 999999 999999 999999 999999 999999 999999 999999 999999 999999 999999 999999 999999 999999 999999 999999 999999 999999 999999 999999 999999 999999 999999 999999 999999 999999 999999 999999 999999 999999 999999 999999 999999 999999 999999 999999 999999 999999 999999 999999 999999 999999 999999 999999 15059 16030 11940 13700 19433 10858 12076 18374 17785 12818 18342 12521 13259 19201 15050 10356 14120 15688 13184 14609 18639 17643 19354 19285 16482 18280 13455 18228 19078 16707 14139 18075 11950 12989 13068 11085 19175 15690 19569 16342 15637 18208 13937 11797 11636 15954 16519 11897 16913 13683 12504 11608 14647 10798 12554 11466 12630 17506 17416 10732 13875 15801 19750 17968 18068 14945 18924 10108 13568 13969 12973 11456 11207 18524 15803 14967 12973 18060 12642 19088 16656 19450 16955 19522 11256 15020 13842 11123 12700 11171 12275 12469 19828 11699 15983 12290 19231 10132 15796 10071 999999
999999 999999 999999 999999 999999 999999 999999 999999 999999 999999 999999 999999 999999 999999 999999 999999 999999 999999 999999 999999 999999 999999 999999 999999 999999 999999 999999 999999 999999 999999 999999 999999 999999 999999 999999 999999 999999 999999 999999 999999 999999 999999 999999 999999 999999 999999 999999 999999 0 999999 999999 999999 999999 999999 999999 999999 999999 999999 999999 999999 999999 999999 999999 999999 999999 999999 999999 999999 999999 999999 999999 999999 999999 999999 999999 999999 999999 999999 999999 999999 999999 999999 999999 999999 999999 999999 999999 999999 999999 999999 999999 999999 999999 999999 999999 999999 999999 999999 999999 999999 999999 13573 15497 11787 11686 10175 19822 17382 16355 12193 18257 10325 16025 13240 11012 17336 19437 19644 19324 19538 19325 11277 12064 13492 12479 17009 14637 11790 19400 14038 10169 12405 13340 15026 19038 12798 15155 15268 18482 18922 17586 14815 14486 11151 14333 14985 17969 15831 17361 15639 12375 11944 16010 18842 16824 16267 14962 11679 13142 19896 17376 18307 16981 10957 13179 16290 17729 12054 12324 18461 15763 12320 12585 13832 16776 15245 10802 16107 15974 16032 11693 11726 19909 19111 18755 10968 18030 13577 18677 12611 10937 16019 15025 17340 13541 17651 14012 12858 10138 16256 14349 999999
999999 999999 999999 999999 999999 999999 999999 999999 999999 999999 999999 999999 999999 999999 999999 999999 999999 999999 999999 999999 999999 999999 999999 999999 999999 999999 999999 999999 999999 999999 999999 999999 999999 999999 999999 999999 999999 999999 999999 999999 999999 999999 999999 999999 999999 999999 999999 999999 999999 0 999999 999999 999999 999999 999999 999999 999999 999999 999999 999999 999999 999999 999999 999999 999999 999999 999999 999999 999999 999999 999999 999999 999999 999999 999999 999999 999999 999999 999999 999999 999999 999999 999999 999999 999999 999999 999999 999999 999999 999999 999999 999999 999999 999999 999999 999999 999999 999999 999999 999999 999999 10667 19676 17241 10535 17644 11818 18303 19736 19955 17633 11561 13195 19210 12498 17344 18637 10843 10131 12147 17247 18646 17080 18890 12320 16606 10411 16317 10935 19528 11051 19228 12049 18599 14609 19339 13171 11736 13045 13691 10152 19782 13072 12999 17100 14514 13662 16876 11388 11158 12367 10835 17812 10243 11433 11898 15398 14601 19760 16297 18275 17481 10842 17219 15762 12977 17179 11918 12434 10072 16129 16245 13107 10431 12551 11381 19202 11575 14298 17558 10723 15402 13057 12576 16502 13199 17622 19885 12455 19585 18689 11962 12597 11705 19081 17172 18097 12029 10636 17638 18279 999999
999999 999999 999999 999999 999999 999999 999999 999999 999999 999999 999999 999999 999999 999999 999999 999999 999999 999999 999999 999999 999999 999999 999999 999999 999999 999999 999999 999999 999999 999999 999999 999999 999999 999999 999999 999999 999999 999999 999999 999999 999999 999999 999999 999999 999999 999999 999999 999999 999999 999999 0 999999 999999 999999 999999 999999 999999 999999 999999 999999 999999 999999 999999 999999 999999 999999 999999 999999 999999 999999 999999 999999 999999 999999 999999 999999 999999 999999 999999 999999 999999 999999 999999 999999 999999 999999 999999 999999 999999 999999 999999 999999 999999 999999 999999 999999 999999 999999 999999 999999 999999 16454 14468 14816 11091 13069 19037 11031 10271 17217 11016 12041 14408 14271 18366 18208 13534 10832 14520 16016 12875 12903 15717 17553 16808 18723 16609 11948 18435 17451 18382 19174 17301 15447 19880 19387 18268 12417 19025 12739 11549 18942 16296 18579 19548 19794 12866 13202 16893 18608 19303 15219 13361 12992 14171 10439 14990 15055 14318 13984 12259 17351 14088 15468 11183 15013 12369 17155 16108 17146 17637 11541 12393 11236 12898 13172 11560 19313 14864 18310 14491 11017 15793 11816 10595 11902 17839 14562 15998 10433 18337 11032 17156 10045 16450 13611 12225 18750 15616 15177 18369 999999
999999 999999 999999 999999 999999 999999 999999 999999 999999 999999 999999 999999 999999 999999 999999 999999 999999 999999 999999 999999 999999 999999 999999 999999 999999 999999 999999 999999 999999 999999 999999 999999 999999 999999 999999 999999 999999 999999 999999 999999 999999 999999 999999 999999 999999 999999 999999 999999 999999 999999 999999 0 999999 999999 999999 999999 999999 999999 999999 999999 999999 999999 999999 999999 999999 999999 999999 999999 999999 999999 999999 999999 999999 999999 999999 999999 999999 999999 999999 999999 999999 999999 999999 999999 999999 999999 999999 999999 999999 999999 999999 999999 999999 999999 999999 999999 999999 999999 999999 999999 999999 16722 18966 10810 11913 17673 12500 11699 18447 12973 16081 16957 12358 13680 17503 19123 15864 11136 18105 13979 10870 19532 18494 14404 13368 18294 19422 10096 10775 14037 16666 12136 11600 17029 12417 16805 17242 18611 10541 19233 18787 17762 18341 13877 18587 19462 13660 15770 12613 12643 10898 10728 11793 15508 19560 13934 11607 11298 11863 19851 11670 15282 12500 16843 14956 14029 14966 17510 16710 13796 10820 11539 18663 19700 19192 17553 15912 11123 10237 15079 14545 10386 17419 14374 17456 11978 16452 19966 14564 16657 16309 15408 14301 19861 17509 19982 18212 11924 15307 15241 19885 999999
999999 999999 999999 999999 999999 999999 999999 999999 999999 999999 999999 999999 999999 999999 999999 999999 999999 999999 999999 999999 999999 999999 999999 999999 999999 999999 999999 999999 999999 999999 999999 999999 999999 999999 999999 999999 999999 999999 999999 999999 999999 999999 999999 999999 999999 999999 999999 999999 999999 999999 999999 999999 0 999999 999999 999999 999999 999999 999999 999999 999999 999999 999999 999999 999999 999999 999999 999999 999999 999999 999999 999999 999999 999999 999999 999999 999999 999999 999999 999999 999999 999999 999999 999999 999999 999999 999999 999999 999999 999999 999999 999999 999999 999999 999999 999999 999999 999999 999999 999999 999999 13486 15531 13840 15047 11425 19422 16600 14334 14319 11620 19907 13421 10481 10274 18705 13562 14538 14398 12092 18939 14732 13509 12298 13613 15331 19305 12221 12631 10357 16040 17093 15641 14007 16516 11385 19133 13610 10594 12865 13372 12471 16829 13696 10173 15637 19273 19930 12033 19256 12684 18276 13396 14937 16325 15177 13042 12607 13464 18334 18321 16914 15720 15054 15682 17251 11516 14519 17818 12325 10486 15684 18140 18200 16844 10386 16148 12630 11293 15714 18781 12274 15258 10855 19248 17075 10633 13445 16024 10969 12927 12794 10714 16923 14115 19588 13165 13573 10963 13347 16115 999999
999999 999999 999999 999999 999999 999999 999999 999999 999999 999999 999999 999999 999999 999999 999999 999999 999999 999999 999999 999999 999999 999999 999999 999999 999999 999999 999999 999999 999999 999999 999999 999999 999999 999999 999999 999999 999999 999999 999999 999999 999999 999999 999999 999999 999999 999999 999999 999999 999999 999999 999999 999999 999999 0 999999 999999 999999 999999 999999 999999 999999 999999 999999 999999 999999 999999 999999 999999 999999 999999 999999 999999 999999 999999 999999 999999 999999 999999 999999 999999 999999 999999 999999 999999 999999 999999 999999 999999 999999 999999 999999 999999 999999 999999 999999 999999 999999 999999 999999 999999 999999 15549 11916 13103 13551 11905 18414 16275 19538 11595 11328 17812 16050 15607 18113 17121 16208 14123 10253 11468 14183 10374 10000 10446 18510 12681 10110 11679 15607 17187 16817 17119 12180 18315 12624 19862 14603 14474 14953 19169 18651 17183 12873 11722 14527 14306 11617 12500 13174 15306 14109 19171 11936 15115 13106 17065 10363 19635 14099 17188 14713 16164 13898 16688 11219 19302 10130 10557 11550 12829 19796 16781 11730 11155 11890 14835 13862 18673 13869 15424 13104 15678 11735 16651 11310 10102 19423 11220 18591 14173 19543 18306 17030 18156 15641 11077 15920 15894 14433 17576 15978 999999
999999 999999 999999 999999 999999 999999 999999 999999 999999 999999 999999 999999 999999 999999 999999 999999 999999 999999 999999 999999 999999 999999 999999 999999 999999 999999 999999 999999 999999 999999 999999 999999 999999 999999 999999 999999 999999 999999 999999 999999 999999 999999 999999 999999 999999 999999 999999 999999 999999 999999 999999 999999 999999 999999 0 999999 999999 999999 999999 999999 999999 999999 999999 999999 999999 999999 999999 999999 999999 999999 999999 999999 999999 999999 999999 999999 999999 999999 999999 999999 999999 999999 999999 999999 999999 999999 999999 999999 999999 999999 999999 999999 999999 999999 999999 999999 999999 999999 999999 999999 999999 17541 10510 12228 10249 18045 10570 16210 16346 15030 19541 18339 16010 19597 15952 11882 17693 16011 10844 14141 18255 14823 15674 13289 14092 13178 19220 13658 11351 15989 17553 15900 19870 11331 18069 10290 12689 16761 18684 14585 12896 10036 11920 14644 11341 19289 19044 11752 16350 15707 14972 17219 18202 12005 11913 17126 10680 12330 18130 14224 15381 14550 12016 16766 12118 11614 13086 15147 15084 13625 15558 15845 15574 13447 14322 12352 11477 19984 10763 15194 12149 11019 18626 14918 18471 18192 17159 13634 16306 14363 14305 16337 18913 16358 17991 13848 17080 16052 12260 17163 17567 999999
999999 999999 999999 999999 999999 999999 999999 999999 999999 999999 999999 999999 999999 999999 999999 999999 999999 999999 999999 999999 999999 999999 999999 999999 999999 999999 999999 999999 999999 999999 999999 999999 999999 999999 999999 999999 999999 999999 999999 999999 999999 999999 999999 999999 999999 999999 999999 999999 999999 999999 999999 999999 999999 999999 999999 0 999999 999999 999999 999999 999999 999999 999999 999999 999999 999999 999999 999999 999999 999999 999999 999999 999999 999999 999999 999999 999999 999999 999999 999999 999999 999999 999999 999999 999999 999999 999999 999999 999999 999999 999999 999999 999999 999999 999999 999999 999999 999999 999999 999999 999999 18583 14454 15456 10171 11897 19579 14944 18013 15814 11129 12126 15808 12143 11926 19994 17453 16479 18172 19314 14294 18425 17532 18512 14117 17145 15898 10186 16595 13314 12609 14515 11277 15954 12684 14158 19861 19961 15174 14445 17319 18057 12825 17803 15066 19667 11847 14255 19781 16536 16349 10777 18314 12394 15094 17415 14471 13625 19922 12660 15161 13454 16895 16809 10650 14696 18323 11109 18616 16598 11233 16628 13898 18233 19918 19801 17817 17463 12850 17612 15847 15117 10761 17549 10688 12002 17178 15960 18996 10454 13894 11055 14383 11312 15290 19893 12838 14771 16663 17908 14130 999999
999999 999999 999999 999999 999999 999999 999999 999999 999999 999999 999999 999999 999999 999999 999999 999999 999999 999999 999999 999999 999999 999999 999999 999999 999999 999999 999999 999999 999999 999999 999999 999999 999999 999999 999999 999999 999999 999999 999999 999999 999999 999999 999999 999999 999999 999999 999999 999999 999999 999999 999999 999999 999999 999999 999999 999999 0 999999 999999 999999 999999 999999 999999 999999 999999 999999 999999 999999 999999 999999 999999 999999 999999 999999 999999 999999 999999 999999 999999 999999 999999 999999 999999 999999 999999 999999 999999 999999 999999 999999 999999 999999 999999 999999 999999 999999 999999 999999 999999 999999 999999 18115 13704 12240 17498 12377 16226 19737 18556 18837 13422 18223 12291 11859 10619 10401 14069 11223 13402 11961 17248 18516 17373 17265 18923 11194 10254 14063 14890 14334 16942 14112 14757 12940 11474 10801 13194 17528 19956 10879 16346 19904 13984 15302 14894 12084 15883 13968 15985 11600 16853 11786 11660 16338 13309 14329 13455 18432 10463 14156 15685 16088 13164 11139 10784 19155 18613 19002 12119 12856 18833 12118 18684 19748 13137 13492 18990 14254 13731 18806 10562 17940 15863 13884 17689 14250 15392 15210 19215 17597 14165 14036 14147 18624 11336 10714 17281 16110 15369 13441 13750 999999
999999 999999 999999 999999 999999 999999 999999 999999 999999 999999 999999 999999 999999 999999 999999 999999 999999 999999 999999 999999 999999 999999 999999 999999 999999 999999 999999 999999 999999 999999 999999 999999 999999 999999 999999 999999 999999 999999 999999 999999 999999 999999 999999 999999 999999 999999 999999 999999 999999 999999 999999 999999 999999 999999 999999 999999 999999 0 999999 999999 999999 999999 999999 999999 999999 999999 999999 999999 999999 999999 999999 999999 999999 999999 999999 999999 999999 999999 999999 999999 999999 999999 999999 999999 999999 999999 999999 999999 999999 999999 999999 999999 999999 999999 999999 999999 999999 999999 999999 999999 999999 17047 13111 15997 19018 11068 18375 12511 15222 13898 11483 11692 12157 17433 16953 12809 16109 19019 17978 17942 18658 16488 16560 10269 19198 17781 18098 10254 15436 18775 10648 17945 11025 16926 17705 12915 14774 19445 15232 16571 11604 15342 13217 12359 18129 14418 10335 16065 12626 16459 16559 10258 18572 19946 16238 10527 13998 19456 13314 11691 12535 10342 14878 12587 13069 14037 12054 10987 19715 15768 15921 10178 16656 14823 16038 11731 19468 16507 19724 14256 12052 11192 14116 18772 13311 10411 14415 19362 18497 12440 14237 19234 10842 14527 15672 19978 12397 17024 11835 16660 16998 999999
999999 999999 999999 999999 999999 999999 999999 999999 999999 999999 999999 999999 999999 999999 999999 999999 999999 999999 999999 999999 999999 999999 999999 999999 999999 999999 999999 999999 999999 999999 999999 999999 999999 999999 999999 999999 999999 999999 999999 999999 999999 999999 999999 999999 999999 999999 999999 999999 999999 999999 999999 999999 999999 999999 999999 999999 999999 999999 0 999999 999999 999999 999999 999999 999999 999999 999999 999999 999999 999999 999999 999999 999999 999999 999999 999999 999999 999999 999999 999999 999999 999999 999999 999999 999999 999999 999999 999999 999999 999999 999999 999999 999999 999999 999999 999999 999999 999999 999999 999999 999999 16149 11496 17929 14919 17034 10203 19072 11163 18299 16634 12834 13781 17529 15866 16329 11969 16773 14523 12861 12498 14322 13153 19032 11923 11826 17947 11992 11969 11566 10886 10678 14754 11635 15487 13959 18864 18646 11790 11959 12421 17422 12377 15268 16160 15882 13543 18646 18879 12232 10052 19104 12435 14479 14989 10955 11176 12395 19447 14014 18045 17478 19940 19637 14892 19564 16885 14035 10224 19863 13416 11706 12766 16954 18266 15824 11376 18112 13576 14810 11758 13427 10762 12376 16983 14919 11790 14988 14768 17755 13404 14377 18200 13647 18071 12503 11492 19194 14612 10553 14804 999999
999999 999999 999999 999999 999999 999999 999999 999999 999999 999999 999999 999999 999999 999999 999999 999999 999999 999999 999999 999999 999999 999999 999999 999999 999999 999999 999999 999999 999999 999999 999999 999999 999999 999999 999999 999999 999999 999999 999999 999999 999999 999999 999999 999999 999999 999999 999999 999999 999999 999999 999999 999999 999999 999999 999999 999999 999999 999999 999999 0 999999 999999 999999 999999 999999 999999 999999 999999 999999 999999 999999 999999 999999 999999 999999 999999 999999 999999 999999 999999 999999 999999 999999 999999 999999 999999 999999 999999 999999 999999 999999 999999 999999 999999 999999 999999 999999 999999 999999 999999 999999 14061 13433 17973 14771 19338 13682 18951 13855 11148 16776 11238 17665 11568 16653 11865 14185 18212 10622 17484 14568 17336 18102 16150 18615 14257 14897 14561 17324 12671 12445 19866 13987 19399 15625 16868 17207 17167 12280 14208 17173 11963 13738 15355 19706 18058 18016 17048 15457 11600 12130 11850 19851 15441 17858 12149 13247 19080 12887 11756 14771 15079 14774 10794 13934 17916 13413 18541 18538 10435 14247 12714 14350 16287 18228 15707 13849 12459 19273 13452 14627 12819 16566 10979 18786 11840 10778 14114 11521 14535 15700 13420 18317 18033 17515 10021 15316 18349 16630 17371 13998 999999
999999 999999 999999 999999 999999 999999 999999 999999 999999 999999 999999 999999 999999 999999 999999 999999 999999 999999 999999 999999 999999 999999 999999 999999 999999 999999 999999 999999 999999 999999 999999 999999 999999 999999 999999 999999 999999 999999 999999 999999 999999 999999 999999 999999 999999 999999 999999 999999 999999 999999 999999 999999 999999 999999 999999 999999 999999 999999 999999 999999 0 999999 999999 999999 999999 999999 999999 999999 999999 999999 999999 999999 999999 999999 999999 999999 999999 999999 999999 999999 999999 999999 999999 999999 999999 999999 999999 999999 999999 999999 999999 999999 999999 999999 999999 999999 999999 999999 999999 999999 999999 14102 11914 16275 17253 12920 18467 15619 13718 10519 16034 17895 11533 17647 15435 19088 18503 15441 10689 11327 13379 15198 15814 17416 15174 12034 14737 16870 15581 15441 10329 18990 17679 17289 11798 15952 16873 11785 10698 14022 14167 10098 17893 16035 11924 10975 17750 12673 11090 13375 17053 16492 10191 16865 14012 19298 16769 15428 19022 12324 12356 10453 18405 10449 16353 13353 14595 11196 17305 11533 16215 18309 18022 14231 14521 17249 19717 18168 18571 17293 14056 13626 14982 10344 10557 10177 15567 18359 15163 15333 14117 13892 14530 12413 11701 12900 12595 10392 11862 18583 10060 999999
999999 999999 999999 999999 999999 999999 999999 999999 999999 999999 999999 999999 999999 999999 999999 999999 999999 999999 999999 999999 999999 999999 999999 999999 999999 999999 999999 999999 999999 999999 999999 999999 999999 999999 999999 999999 999999 999999 999999 999999 999999 999999 999999 999999 999999 999999 999999 999999 999999 999999 999999 999999 999999 999999 999999 999999 999999 999999 999999 999999 999999 0 999999 999999 999999 999999 999999 999999 999999 999999 999999 999999 999999 999999 999999 999999 999999 999999 999999 999999 999999 999999 999999 999999 999999 999999 999999 999999 999999 999999 999999 999999 999999 999999 999999 999999 999999 999999 999999 999999 999999 10172 19668 16499 12037 16130 12455 14111 18916 13883 11092 18767 10487 15444 12316 13567 16359 19806 12498 15555 12487 14570 10385 17116 14510 14544 18832 15066 17136 19799 19748 18914 10302 19442 13942 15973 12937 10174 14220 14777 18850 10699 15016 17607 11967 16335 12733 16961 16950 19636 19897 11494 13886 10510 19679 10559 12347 14885 19156 11534 17870 14618 16458 15695 15798 18234 15034 16127 11582 13614 11405 17137 15322 14123 18604 17552 13671 17088 13389 14888 16081 10366 16819 18959 12381 12672 18751 15497 16178 16048 16120 16376 15544 11482 16049 15932 14349 19537 14735 18171 19807 999999
999999 999999 999999 999999 999999 999999 999999 999999 999999 999999 999999 999999 999999 999999 999999 999999 999999 999999 999999 999999 999999 999999 999999 999999 999999 999999 999999 999999 999999 999999 999999 999999 999999 999999 999999 999999 999999 999999 999999 999999 999999 999999 999999 999999 999999 999999 999999 999999 999999 999999 999999 999999 999999 999999 999999 999999 999999 999999 999999 999999 999999 999999 0 999999 999999 999999 999999 999999 999999 999999 999999 999999 999999 999999 999999 999999 999999 999999 999999 999999 999999 999999 999999 999999 999999 999999 999999 999999 999999 999999 999999 999999 999999 999999 999999 999999 999999 999999 999999 999999 999999 10906 18725 13546 14815 18971 10728 19986 10781 12645 11499 17500 17652 13864 16397 15755 19182 12463 15591 13069 16435 18731 18798 17277 17414 12767 11805 14276 15435 16318 10854 14202 14607 18608 15262 12150 12478 10907 16985 13357 15365 15123 18001 10894 13895 11104 15364 17989 11226 16123 14136 16420 12370 19105 19148 14325 19327 19988 19808 14428 17134 15444 10894 15801 15207 10041 18619 14062 11795 12335 16010 12024 16353 18828 18978 19016 15612 14814 12034 13440 11807 16396 15768 11315 14881 18776 11654 19630 13177 18280 15243 16231 17694 15627 11995 16252 14741 12743 17567 18956 13431 999999
999999 999999 999999 999999 999999 999999 999999 999999 999999 999999 999999 999999 999999 999999 999999 999999 999999 999999 999999 999999 999999 999999 999999 999999 999999 999999 999999 999999 999999 999999 999999 999999 999999 999999 999999 999999 999999 999999 999999 999999 999999 999999 999999 999999 999999 999999 999999 999999 999999 999999 999999 999999 999999 999999 999999 999999 999999 999999 999999 999999 999999 999999 999999 0 999999 999999 999999 999999 999999 999999 999999 999999 999999 999999 999999 999999 999999 999999 999999 999999 999999 999999 999999 999999 999999 999999 999999 999999 999999 999999 999999 999999 999999 999999 999999 999999 999999 999999 999999 999999 999999 15877 13309 14658 16629 19162 12902 16888 15941 17659 11126 17176 15374 19941 18283 16535 10957 13311 15588 11573 18394 12346 17387 14535 17556 14125 17314 15953 18673 12200 19410 17233 17154 12670 19593 15034 11732 18276 17829 12260 10029 15221 10898 18409 14934 18053 16179 12855 19431 19845 16185 16866 19731 16993 10852 11291 11412 19836 12833 11220 16811 14056 15915 12659 13357 18853 10962 10796 15351 10227 11387 15060 18383 17130 10834 13430 12286 18746 17147 16834 13100 19190 14618 10110 16245 10429 15009 10646 13493 15576 17140 17654 10306 17740 14512 18202 19113 19274 13993 18738 16704 999999
999999 999999 999999 999999 999999 999999 999999 999999 999999 999999 999999 999999 999999 999999 999999 999999 999999 999999 999999 999999 999999 999999 999999 999999 999999 999999 999999 999999 999999 999999 999999 999999 999999 999999 999999 999999 999999 999999 999999 999999 999999 999999 999999 999999 999999 999999 999999 999999 999999 999999 999999 999999 999999 999999 999999 999999 999999 999999 999999 999999 999999 999999 999999 999999 0 999999 999999 999999 999999 999999 999999 999999 999999 999999 999999 999999 999999 999999 999999 999999 999999 999999 999999 999999 999999 999999 999999 999999 999999 999999 999999 999999 999999 999999 999999 999999 999999 999999 999999 999999 999999 10401 10239 13882 14908 14275 12012 19369 13196 15092 19418 10977 17439 15499 13487 15148 10779 15622 11885 10861 16465 19649 15311 14765 16690 16195 11924 14018 10203 15152 18456 13315 11554 13659 16894 14189 10819 16232 13628 19851 19863 12268 16789 12504 19846 16464 16730 16269 16735 11154 19084 14052 18635 17734 17702 18206 13451 19783 14152 12388 13201 12078 17279 13880 12111 13179 19055 12443 13316 14517 14321 14030 11538 13000 11131 11561 15966 18279 12304 16004 14074 16149 17077 15066 17461 13512 17026 14510 18255 17185 10313 15691 13113 18152 15041 19000 10965 14743 14046 12268 10612 999999
999999 999999 999999 999999 999999 999999 999999 999999 999999 999999 999999 999999 999999 999999 999999 999999 999999 999999 999999 999999 999999 999999 999999 999999 999999 999999 999999 999999 999999 999999 999999 999999 999999 999999 999999 999999 999999 999999 999999 999999 999999 999999 999999 999999 999999 999999 999999 999999 999999 999999 999999 999999 999999 999999 999999 999999 999999 999999 999999 999999 999999 999999 999999 999999 999999 0 999999 999999 999999 999999 999999 999999 999999 999999 999999 999999 999999 999999 999999 999999 999999 999999 999999 999999 999999 999999 999999 999999 999999 999999 999999 999999 999999 999999 999999 999999 999999 999999 999999 999999 999999 14112 13935 12057 17153 11598 13987 17032 15570 15974 10994 18384 17807 14292 10900 12855 15811 12025 17491 15526 16294 18494 19339 16554 17801 10330 12018 19397 17188 12470 16338 16582 19854 18256 16984 19289 15888 18394 19226 18085 10424 18736 13248 19695 18158 13164 18924 19530 14504 18262 16685 16674 11848 16019 11870 16337 10169 17690 16738 15235 18803 12567 18537 17623 14098 18012 15526 12966 17675 10285 12010 10751 19205 12619 14953 11490 15736 18855 11838 16230 16046 18479 15974 12150 15670 10284 16525 12769 14159 11934 12897 13296 14378 15311 15174 12086 10842 16136 10353 19805 11988 999999
999999 999999 999999 999999 999999 999999 999999 999999 999999 999999 999999 999999 999999 999999 999999 999999 999999 999999 999999 999999 999999 999999 999999 999999 999999 999999 999999 999999 999999 999999 999999 999999 999999 999999 999999 999999 999999 999999 999999 999999 999999 999999 999999 999999 999999 999999 999999 999999 999999 999999 999999 999999 999999 999999 999999 999999 999999 999999 999999 999999 999999 999999 999999 999999 999999 999999 0 999999 999999 999999 999999 999999 999999 999999 999999 999999 999999 999999 999999 999999 999999 999999 999999 999999 999999 999999 999999 999999 999999 999999 999999 999999 999999 999999 999999 999999 999999 999999 999999 999999 999999 18135 16815 19766 12982 11780 14217 13174 17629 12913 17237 18867 18582 11098 10136 16467 18996 14516 17828 12683 12461 17734 16502 15636 11856 16756 11133 17180 11941 11471 19286 16052 16514 11398 16091 17598 19012 14479 11984 13598 10631 10710 12440 10298 16892 10927 14567 15495 19097 18154 15060 19551 16488 11884 16394 17077 13142 16744 10828 15542 11835 15692 18826 13960 13684 13258 17591 18634 15511 16697 10077 19142 17885 16603 16854 19466 17534 16826 10860 11861 19897 15981 13298 10059 10423 14753 18491 19180 19965 13133 10996 15898 18709 11471 11073 16337 10266 10903 14910 16284 10870 999999
999999 999999 999999 999999 999999 999999 999999 999999 999999 999999 999999 999999 999999 999999 999999 999999 999999 999999 999999 999999 999999 999999 999999 999999 999999 999999 999999 999999 999999 999999 999999 999999 999999 999999 999999 999999 999999 999999 999999 999999 999999 999999 999999 999999 999999 999999 999999 999999 999999 999999 999999 999999 999999 999999 999999 999999 999999 999999 999999 999999 999999 999999 999999 999999 999999 999999 999999 0 999999 999999 999999 999999 999999 999999 999999 999999 999999 999999 999999 999999 999999 999999 999999 999999 999999 999999 999999 999999 999999 999999 999999 999999 999999 999999 999999 999999 999999 999999 999999 999999 999999 15774 15340 19478 14169 16041 19062 13552 18310 16196 18108 17023 10977 10678 13971 10179 19385 11603 18481 12722 16999 14220 14090 12921 12965 16443 14463 18694 10939 19089 18497 17888 15652 16134 18039 10909 10850 14897 15696 11495 12718 18268 17967 12847 14421 18533 18434 15842 12861 16473 18401 13512 13823 17224 10819 12471 17885 15841 12343 18727 10242 14622 16397 13065 18269 15873 14912 10214 15775 13246 15104 10081 18288 15069 19646 19160 18330 19534 11363 17830 18620 18164 14127 18098 13074 15917 16804 19250 14514 13793 15522 13419 13640 17092 10267 17802 11857 17577 18459 15598 16583 999999
999999 999999 999999 999999 999999 999999 999999 999999 999999 999999 999999 999999 999999 999999 999999 999999 999999 999999 999999 999999 999999 999999 999999 999999 999999 999999 999999 999999 999999 999999 999999 999999 999999 999999 999999 999999 999999 999999 999999 999999 999999 999999 999999 999999 999999 999999 999999 999999 999999 999999 999999 999999 999999 999999 999999 999999 999999 999999 999999 999999 999999 999999 999999 999999 999999 999999 999999 999999 0 999999 999999 999999 999999 999999 999999 999999 999999 999999 999999 999999 999999 999999 999999 999999 999999 999999 999999 999999 999999 999999 999999 999999 999999 999999 999999 999999 999999 999999 999999 999999 999999 19431 17648 19704 19396 19593 19572 11192 17174 12198 13589 13598 15373 18423 19347 10470 14922 18703 14726 19195 19046 11198 13476 16850 12088 17201 11997 15491 13182 14614 12033 13211 19492 19125 19799 14022 16732 18008 16708 15910 18800 14997 19859 16306 16426 19447 14556 18944 16171 18224 16214 15595 19695 14962 11801 15273 12978 19325 12437 12620 11207 13480 12436 13712 18441 13302 12652 10240 14233 17652 14740 18763 15009 13169 18725 14787 13288 14247 17119 13647 10120 18293 16876 14424 18854 13353 17585 11598 17499 14050 19993 19617 12013 17799 10252 17856 11239 14199 10965 11076 18995 999999
999999 999999 999999 999999 999999 999999 999999 999999 999999 999999 999999 999999 999999 999999 999999 999999 999999 999999 999999 999999 999999 999999 999999 999999 999999 999999 999999 999999 999999 999999 999999 999999 999999 999999 999999 999999 999999 999999 999999 999999 999999 999999 999999 999999 999999 999999 999999 999999 999999 999999 999999 999999 999999 999999 999999 999999 999999 999999 999999 999999 999999 999999 999999 999999 999999 999999 999999 999999 999999 0 999999 999999 999999 999999 999999 999999 999999 999999 999999 999999 999999 999999 999999 999999 999999 999999 999999 999999 999999 999999 999999 999999 999999 999999 999999 999999 999999 999999 999999 999999 999999 11970 18910 16816 12722 19387 16833 18822 11445 16922 11835 19859 16731 14583 15107 11419 11492 10785 19204 12214 18703 10383 19851 13542 11095 16437 16518 11381 14929 14133 13107 15923 17641 16225 15530 17183 18941 19108 13573 10083 19827 11620 14132 15646 11353 15396 11764 17163 17015 16253 11094 17190 17099 15366 15294 18231 12705 16315 10098 14144 10603 15392 16227 17709 17906 10645 18424 13395 11093 17388 10577 19010 12780 12831 18247 12466 13376 19660 12399 10575 11686 18062 17219 14872 18087 13464 13508 15812 16150 18813 16957 17234 16642 19676 17235 19700 13998 15849 13614 19160 15074 999999
999999 999999 999999 999999 999999 999999 999999 999999 999999 999999 999999 999999 999999 999999 999999 999999 999999 999999 999999 999999 999999 999999 999999 999999 999999 999999 999999 999999 999999 999999 999999 999999 999999 999999 999999 999999 999999 999999 999999 999999 999999 999999 999999 999999 999999 999999 999999 999999 999999 999999 999999 999999 999999 999999 999999 999999 999999 999999 999999 999999 999999 999999 999999 999999 999999 999999 999999 999999 999999 999999 0 999999 999999 999999 999999 999999 999999 999999 999999 999999 999999 999999 999999 999999 999999 999999 999999 999999 999999 999999 999999 999999 999999 999999 999999 999999 999999 999999 999999 999999 999999 14859 10439 11542 12472 17064 11150 17839 19929 19154 10574 14152 12240 14277 15753 17401 19632 11519 12173 17102 10793 19664 12616 18604 17026 10202 15123 17700 14056 14562 14856 16044 17600 12112 16646 16457 12630 13861 12490 11638 13484 11002 19981 11872 17269 17180 19749 12757 12058 11822 13310 17245 14412 16911 12155 12377 18593 19091 18151 12187 16932 14507 15012 16760 19827 11024 15327 13243 10983 18327 14302 13630 10629 11918 15398 17440 15486 11997 12797 14461 12810 18242 10152 10179 13231 12985 14209 13763 16506 10462 19244 13778 17729 18201 18799 13840 14666 18705 19048 18392 11441 999999
999999 999999 999999 999999 999999 999999 999999 999999 999999 999999 999999 999999 999999 999999 999999 999999 999999 999999 999999 999999 999999 999999 999999 999999 999999 999999 999999 999999 999999 999999 999999 999999 999999 999999 999999 999999 999999 999999 999999 999999 999999 999999 999999 999999 999999 999999 999999 999999 999999 999999 999999 999999 999999 999999 999999 999999 999999 999999 999999 999999 999999 999999 999999 999999 999999 999999 999999 999999 999999 999999 999999 0 999999 999999 999999 999999 999999 999999 999999 999999 999999 999999 999999 999999 999999 999999 999999 999999 999999 999999 999999 999999 999999 999999 999999 999999 999999 999999 999999 999999 999999 10517 17578 13185 11257 11367 17946 18646 16546 15708 10991 15267 19387 10240 18366 17503 19845 10583 13493 16090 12767 11868 19664 19586 11393 14453 11754 19612 12555 14930 17400 17968 19803 16049 12048 18471 16241 18613 13830 19800 11058 14986 14817 12756 19539 11230 16088 14702 12941 12106 14638 19006 12695 11150 11005 13705 18112 12549 16515 14960 18043 11216 15479 18393 13190 13737 17621 14369 10486 16022 12073 15136 17177 12097 17688 13700 12096 18504 17692 10587 16525 11631 18892 13953 17937 13927 12210 16008 15329 15102 14143 18369 11547 18317 14539 15278 19154 14296 19525 15564 15789 999999
999999 999999 999999 999999 999999 999999 999999 999999 999999 999999 999999 999999 999999 999999 999999 999999 999999 999999 999999 999999 999999 999999 999999 999999 999999 999999 999999 999999 999999 999999 999999 999999 999999 999999 999999 999999 999999 999999 999999 999999 999999 999999 999999 999999 999999 999999 999999 999999 999999 999999 999999 999999 999999 999999 999999 999999 999999 999999 999999 999999 999999 999999 999999 999999 999999 999999 999999 999999 999999 999999 999999 999999 0 999999 999999 999999 999999 999999 999999 999999 999999 999999 999999 999999 999999 999999 999999 999999 999999 999999 999999 999999 999999 999999 999999 999999 999999 999999 999999 999999 999999 11976 16122 12246 16569 16706 11537 12318 17271 10253 16347 17707 14064 15168 14912 16499 16211 13739 13440 11043 13476 11891 18108 10929 17367 14021 11972 11397 17632 16132 10669 17411 13109 19222 14180 12637 15877 17810 13083 11938 13639 16574 12935 12106 10417 12036 18288 18073 19908 17877 13937 17279 14822 11630 16590 11036 16237 14907 15378 15392 17742 12411 15493 15389 16767 14541 11465 17619 11268 12685 15798 17497 13213 12185 16298 16577 15197 16710 18639 14013 17818 13986 19469 12638 13607 17864 10226 14787 10990 15244 18094 19973 18282 15118 10019 16520 19240 17981 14804 15835 19136 999999
999999 999999 999999 999999 999999 999999 999999 999999 999999 999999 999999 999999 999999 999999 999999 999999 999999 999999 999999 999999 999999 999999 999999 999999 999999 999999 999999 999999 999999 999999 999999 999999 999999 999999 999999 999999 999999 999999 999999 999999 999999 999999 999999 999999 999999 999999 999999 999999 999999 999999 999999 999999 999999 999999 999999 999999 999999 999999 999999 999999 999999 999999 999999 999999 999999 999999 999999 999999 999999 999999 999999 999999 999999 0 999999 999999 999999 999999 999999 999999 999999 999999 999999 999999 999999 999999 999999 999999 999999 999999 999999 999999 999999 999999 999999 999999 999999 999999 999999 999999 999999 15463 16506 17355 13932 13245 12512 12055 10689 18692 19694 19657 19477 14190 16646 13942 17212 13920 18826 10498 13360 19868 19749 15011 11703 15239 12766 14344 15396 19100 17075 16633 11689 11495 16965 16025 15162 17388 17105 14307 10826 15869 19484 18405 19003 16724 15446 14821 14680 18853 13866 17164 18675 17629 13899 10439 10170 16560 15706 16134 16932 11717 11758 16421 17222 16435 11384 11710 15024 17739 15767 14016 15456 10201 15580 11887 14013 16558 10012 13458 14658 17253 18005 19862 19471 12600 17843 12688 15151 11568 12822 16209 10520 15418 15058 17267 12503 18480 10947 10437 11974 999999
999999 999999 999999 999999 999999 999999 999999 999999 999999 999999 999999 999999 999999 999999 999999 999999 999999 999999 999999 999999 999999 999999 999999 999999 999999 999999 999999 999999 999999 999999 999999 999999 999999 999999 999999 999999 999999 999999 999999 999999 999999 999999 999999 999999 999999 999999 999999 999999 999999 999999 999999 999999 999999 999999 999999 999999 999999 999999 999999 999999 999999 999999 999999 999999 999999 999999 999999 999999 999999 999999 999999 999999 999999 999999 0 999999 999999 999999 999999 999999 999999 999999 999999 999999 999999 999999 999999 999999 999999 999999 999999 999999 999999 999999 999999 999999 999999 999999 999999 999999 999999 10498 14143 15267 14329 19875 12095 12951 14182 13520 13119 18381 17030 11416 11704 17557 10435 14240 10869 16781 13661 15339 13449 13553 19590 13566 15983 16525 11701 18904 17538 11093 10402 12414 16042 16869 18898 11917 19521 10527 16453 17880 13554 10236 12107 18163 19899 12618 17085 16183 18641 10414 19944 10831 14514 13884 14159 14033 18560 16292 17349 15649 13400 19965 16096 18077 10947 10029 19661 15370 10360 18358 10566 16637 19437 10391 12941 16070 11296 13786 11928 17145 10500 17788 18334 17838 13429 19445 14456 12135 18443 17363 18069 13485 12979 14155 14335 14479 18729 18220 19506 999999
999999 999999 999999 999999 999999 999999 999999 999999 999999 999999 999999 999999 999999 999999 999999 999999 999999 999999 999999 999999 999999 999999 999999 999999 999999 999999 999999 999999 999999 999999 999999 999999 999999 999999 999999 999999 999999 999999 999999 999999 999999 999999 999999 999999 999999 999999 999999 999999 999999 999999 999999 999999 999999 999999 999999 999999 999999 999999 999999 999999 999999 999999 999999 999999 999999 999999 999999 999999 999999 999999 999999 999999 999999 999999 999999 0 999999 999999 999999 999999 999999 999999 999999 999999 999999 999999 999999 999999 999999 999999 999999 999999 999999 999999 999999 999999 999999 999999 999999 999999 999999 10295 10715 15141 16028 12265 17492 18609 17689 14193 15523 12442 14096 19495 17433 18144 18723 15820 16299 13939 11946 19312 11955 19199 11681 15862 14617 12962 17031 10982 14905 13205 16987 15154 10872 15925 18340 16268 17736 11489 12886 10468 11688 12854 19324 10325 19797 16970 12805 13649 16486 18550 15691 17042 18649 19718 13414 19395 17771 15277 17073 15471 10901 12036 14463 13753 17586 16619 11678 13464 12387 11441 12682 10475 10543 19211 17424 16379 18166 18779 14928 12825 13993 15333 18711 19927 19009 13604 10864 11139 14181 13699 19597 19575 15044 14836 14416 13099 16435 18877 16724 999999
999999 999999 999999 999999 999999 999999 999999 999999 999999 999999 999999 999999 999999 999999 999999 999999 999999 999999 999999 999999 999999 999999 999999 999999 999999 999999 999999 999999 999999 999999 999999 999999 999999 999999 999999 999999 999999 999999 999999 999999 999999 999999 999999 999999 999999 999999 999999 999999 999999 999999 999999 999999 999999 999999 999999 999999 999999 999999 999999 999999 999999 999999 999999 999999 999999 999999 999999 999999 999999 999999 999999 999999 999999 999999 999999 999999 0 999999 999999 999999 999999 999999 999999 999999 999999 999999 999999 999999 999999 999999 999999 999999 999999 999999 999999 999999 999999 999999 999999 999999 999999 17817 18542 13304 12322 12710 14881 12278 12263 19041 17392 14947 11198 16286 14593 12354 11107 17320 19799 17045 10325 13091 17233 17564 13866 12485 15589 12766 17472 12128 17786 12656 12598 12718 18634 16456 18491 13543 10780 14515 12669 14651 19236 10770 12111 15700 10162 15286 10856 15372 15361 16978 10695 10731 11445 15114 11826 15120 13848 19707 18445 17606 16666 13108 18954 12592 12100 10439 12497 15573 17341 18834 17256 16844 12025 18459 18210 10834 15144 14012 19213 10960 15039 19042 13097 11839 19494 14196 16880 10169 13964 12707 10800 15376 19828 10060 10505 17096 13276 19575 18749 999999
999999 999999 999999 999999 999999 999999 999999 999999 999999 999999 999999 999999 999999 999999 999999 999999 999999 999999 999999 999999 999999 999999 999999 999999 999999 999999 999999 999999 999999 999999 999999 999999 999999 999999 999999 999999 999999 999999 999999 999999 999999 999999 999999 999999 999999 999999 999999 999999 999999 999999 999999 999999 999999 999999 999999 999999 999999 999999 999999 999999 999999 999999 999999 999999 999999 999999 999999 999999 999999 999999 999999 999999 999999 999999 999999 999999 999999 0 999999 999999 999999 999999 999999 999999 999999 999999 999999 999999 999999 999999 999999 999999 999999 999999 999999 999999 999999 999999 999999 999999 999999 19685 12028 13527 10622 16525 14597 13258 16192 16316 19008 14981 13642 15720 16761 13371 18267 19119 17174 13939 14535 15417 16770 16252 19562 12903 14959 11916 12598 12519 15663 16269 12164 10184 19268 18493 19967 18013 10584 15587 11210 13414 19004 11651 19362 19305 15532 16228 11046 19900 13521 15005 19975 19343 13359 12342 15848 18111 19596 10861 14160 13699 14626 13590 17194 15786 14604 10574 14921 12276 10101 16012 18845 18940 16012 11493 14308 10137 18021 11477 10768 16981 16341 10494 13454 15109 14117 11063 17030 12845 12403 10677 17681 11357 13565 17054 11946 17048 13709 18754 10302 999999
999999 999999 999999 999999 999999 999999 999999 999999 999999 999999 999999 999999 999999 999999 999999 999999 999999 999999 999999 999999 999999 999999 999999 999999 999999 999999 999999 999999 999999 999999 999999 999999 999999 999999 999999 999999 999999 999999 999999 999999 999999 999999 999999 999999 999999 999999 999999 999999 999999 999999 999999 999999 999999 999999 999999 999999 999999 999999 999999 999999 999999 999999 999999 999999 999999 999999 999999 999999 999999 999999 999999 999999 999999 999999 999999 999999 999999 999999 0 999999 999999 999999 999999 999999 999999 999999 999999 999999 999999 999999 999999 999999 999999 999999 999999 999999 999999 999999 999999 999999 999999 17474 15689 16379 11736 14633 16305 17954 12105 18549 10001 18853 17255 17876 17918 12516 17985 18084 13771 15223 16254 10284 12231 10258 13759 16307 17087 13366 15017 14146 13159 15354 16836 12110 18998 16347 12790 11245 13839 16214 19818 11530 19320 19793 18002 18061 16777 12248 19490 17944 17149 12861 11965 11585 15482 18922 16567 19193 19405 18552 14019 14195 16284 10713 12586 10573 19693 18103 16702 14865 11586 10440 17661 18282 19984 12972 12367 18301 13741 19721 18842 11578 10476 19148 14924 13614 10533 11234 17388 12808 15385 19080 18133 12884 10294 14751 14283 16007 11611 19655 15825 999999
999999 999999 999999 999999 999999 999999 999999 999999 999999 999999 999999 999999 999999 999999 999999 999999 999999 999999 999999 999999 999999 999999 999999 999999 999999 999999 999999 999999 999999 999999 999999 999999 999999 999999 999999 999999 999999 999999 999999 999999 999999 999999 999999 999999 999999 999999 999999 999999 999999 999999 999999 999999 999999 999999 999999 999999 999999 999999 999999 999999 999999 999999 999999 999999 999999 999999 999999 999999 999999 999999 999999 999999 999999 999999 999999 999999 999999 999999 999999 0 999999 999999 999999 999999 999999 999999 999999 999999 999999 999999 999999 999999 999999 999999 999999 999999 999999 999999 999999 999999 999999 12062 12668 16448 11898 11701 13756 16955 19404 13803 16147 12397 17997 11882 19348 13904 15312 16121 11287 14523 14492 15435 17366 19942 18444 10958 12659 17382 12741 17600 18663 19517 12889 16014 10773 18942 15661 17533 19264 13191 13565 18984 12803 14770 14926 19246 13226 11293 13071 18434 14942 10886 12174 19902 18010 11194 18002 11343 10803 15515 13905 12699 13425 19294 15480 19556 12081 14413 14477 18280 11225 12603 17483 19657 14776 15962 19719 11052 16804 15506 15195 18780 14837 11263 12262 18663 13595 15130 19797 19761 19170 11922 14566 19007 10163 11587 10274 17081 15899 18997 10130 999999
999999 999999 999999 999999 999999 999999 999999 999999 999999 999999 999999 999999 999999 999999 999999 999999 999999 999999 999999 999999 999999 999999 999999 999999 999999 999999 999999 999999 999999 999999 999999 999999 999999 999999 999999 999999 999999 999999 999999 999999 999999 999999 999999 999999 999999 999999 999999 999999 999999 999999 999999 999999 999999 999999 999999 999999 999999 999999 999999 999999 999999 999999 999999 999999 999999 999999 999999 999999 999999 999999 999999 999999 999999 999999 999999 999999 999999 999999 999999 999999 0 999999 999999 999999 999999 999999 999999 999999 999999 999999 999999 999999 999999 999999 999999 999999 999999 999999 999999 999999 999999 19691 16904 15771 17005 16036 18066 11130 16190 11240 12923 11863 19741 10887 10916 19963 14669 14998 16714 16462 14949 13461 11932 12794 11390 19300 15369 13026 10079 17301 14432 12420 10475 15709 14065 18345 14749 14667 16107 13966 17969 14406 16734 14720 12019 18124 12513 10448 14179 14788 14718 14592 12354 13476 18541 11127 13892 12857 10516 13638 14328 17048 12445 18369 18711 19287 11949 19847 17484 16767 11775 14434 10676 14777 14762 13039 18170 12816 12808 11305 13771 10632 11411 12724 10736 14540 15249 17688 14456 19688 18942 15198 10219 10541 12558 11462 13344 13201 18756 19950 12649 999999
999999 999999 999999 999999 999999 999999 999999 999999 999999 999999 999999 999999 999999 999999 999999 999999 999999 999999 999999 999999 999999 999999 999999 999999 999999 999999 999999 999999 999999 999999 999999 999999 999999 999999 999999 999999 999999 999999 999999 999999 999999 999999 999999 999999 999999 999999 999999 999999 999999 999999 999999 999999 999999 999999 999999 999999 999999 999999 999999 999999 999999 999999 999999 999999 999999 999999 999999 999999 999999 999999 999999 999999 999999 999999 999999 999999 999999 999999 999999 999999 999999 0 999999 999999 999999 999999 999999 999999 999999 999999 999999 999999 999999 999999 999999 999999 999999 999999 999999 999999 999999 13623 15584 18170 18977 14116 17460 14302 12492 11240 12012 15037 18772 19812 15526 12178 11911 10720 15006 13616 14725 14997 16121 14334 13569 18490 15002 19647 16398 11541 14686 14501 17392 11760 16171 12504 11258 10866 12712 10729 13652 19757 11518 13204 17053 17357 19697 14449 13100 12062 10612 12180 14660 16752 16045 10311 17481 16756 16629 18375 13237 17494 15029 15503 19021 17552 19881 16790 11653 14824 16178 11130 17501 13702 19808 15284 11876 17265 14623 13876 14671 12899 13350 10157 10172 16011 14429 19923 19899 10698 15954 10646 18197 17665 19394 13308 10029 16167 12886 16131 11052 999999
999999 999999 999999 999999 999999 999999 999999 999999 999999 999999 999999 999999 999999 999999 999999 999999 999999 999999 999999 999999 999999 999999 999999 999999 999999 999999 999999 999999 999999 999999 999999 999999 999999 999999 999999 999999 999999 999999 999999 999999 999999 999999 999999 999999 999999 999999 999999 999999 999999 999999 999999 999999 999999 999999 999999 999999 999999 999999 999999 999999 999999 999999 999999 999999 999999 999999 999999 999999 999999 999999 999999 999999 999999 999999 999999 999999 999999 999999 999999 999999 999999 999999 0 999999 999999 999999 999999 999999 999999 999999 999999 999999 999999 999999 999999 999999 999999 999999 999999 999999 999999 10661 11835 15639 11652 11532 10953 12896 18561 17318 14121 13302 13989 12218 16826 14183 16303 10170 10800 12327 15815 14802 19411 19519 19817 18954 16053 18174 10615 15892 17668 13176 18892 13534 12196 12730 13260 19286 18432 14070 17109 17814 12480 18453 15652 17477 13458 13028 11388 14295 15394 11885 12120 11555 14604 11003 16864 16135 12121 16502 19822 11514 19410 12884 15073 17688 12544 13341 17369 13994 12144 16763 13963 17871 10249 15106 19658 14830 14641 10158 16230 14562 16301 13828 19484 16852 11558 16653 12206 19664 10713 12658 14764 17291 19156 19231 13697 17258 18356 16959 14573 999999
999999 999999 999999 999999 999999 999999 999999 999999 999999 999999 999999 999999 999999 999999 999999 999999 999999 999999 999999 999999 999999 999999 999999 999999 999999 999999 999999 999999 999999 999999 999999 999999 999999 999999 999999 999999 999999 999999 999999 999999 999999 999999 999999 999999 999999 999999 999999 999999 999999 999999 999999 999999 999999 999999 999999 999999 999999 999999 999999 999999 999999 999999 999999 999999 999999 999999 999999 999999 999999 999999 999999 999999 999999 999999 999999 999999 999999 999999 999999 999999 999999 999999 999999 0 999999 999999 999999 999999 999999 999999 999999 999999 999999 999999 999999 999999 999999 999999 999999 999999 999999 19162 12934 12499 13729 10655 10969 12704 16117 16867 13866 15585 15540 12644 12341 15207 17178 19033 12104 13773 13093 10300 11249 10598 18789 11067 10471 18095 14560 10748 12146 12322 19148 17364 10633 10297 14529 12642 10052 13641 17391 13820 10247 19183 11184 12965 19824 19531 14545 19879 10456 19396 13988 14832 12857 14349 14706 11494 12070 13016 16950 15678 17108 13954 13178 16310 12876 18963 10967 15069 13035 17916 12610 17060 13620 19078 19508 19577 18824 13842 16511 17979 18491 12258 10306 15548 13593 13717 19434 10598 10935 17055 11399 11583 19827 11599 11879 10684 12323 17103 15855 999999
999999 999999 999999 999999 999999 999999 999999 999999 999999 999999 999999 999999 999999 999999 999999 999999 999999 999999 999999 999999 999999 999999 999999 999999 999999 999999 999999 999999 999999 999999 999999 999999 999999 999999 999999 999999 999999 999999 999999 999999 999999 999999 999999 999999 999999 999999 999999 999999 999999 999999 999999 999999 999999 999999 999999 999999 999999 999999 999999 999999 999999 999999 999999 999999 999999 999999 999999 999999 999999 999999 999999 999999 999999 999999 999999 999999 999999 999999 999999 999999 999999 999999 999999 999999 0 999999 999999 999999 999999 999999 999999 999999 999999 999999 999999 999999 999999 999999 999999 999999 999999 10583 11878 14269 10403 17307 19816 16924 11626 14871 18813 14177 10136 12195 11466 14942 18873 15055 10744 18900 13420 16952 14669 15102 18461 16845 16750 17630 10440 18468 18552 16922 19011 14323 10089 16019 14939 17287 10902 13556 18880 10401 14250 17616 17410 14576 14382 10476 15814 14845 11889 17780 18557 11230 18146 15580 10511 10477 14253 18126 18930 13936 11712 11091 11011 16258 18461 11698 11644 12797 17464 16799 18009 18687 15838 13871 18440 13382 14739 10052 11453 12716 11288 13874 12983 14900 17828 16184 17629 17701 14480 15728 11240 10973 12833 13927 10207 11620 12510 15054 19902 999999
999999 999999 999999 999999 999999 999999 999999 999999 999999 999999 999999 999999 999999 999999 999999 999999 999999 999999 999999 999999 999999 999999 999999 999999 999999 999999 999999 999999 999999 999999 999999 999999 999999 999999 999999 999999 999999 999999 999999 999999 999999 999999 999999 999999 999999 999999 999999 999999 999999 999999 999999 999999 999999 999999 999999 999999 999999 999999 999999 999999 999999 999999 999999 999999 999999 999999 999999 999999 999999 999999 999999 999999 999999 999999 999999 999999 999999 999999 999999 999999 999999 999999 999999 999999 999999 0 999999 999999 999999 999999 999999 999999 999999 999999 999999 999999 999999 999999 999999 999999 999999 17256 14561 16747 16505 19778 15211 19371 13102 16676 13920 12265 11726 18366 12152 15183 18453 17912 15487 19146 16408 16817 12087 19215 19106 16624 18679 16518 14133 15380 17166 18577 14170 19272 19035 15295 11292 16717 13609 18140 14643 14672 19703 18554 18557 14599 13414 10501 15384 18875 16084 11721 17410 19114 10636 12857 17659 13901 15713 19990 11111 15119 14568 13411 14803 19262 16801 13701 19351 11285 19396 19098 17413 14599 13828 18891 19316 11238 17555 11640 14058 17894 13367 14324 14719 17967 16013 10109 19276 10719 17376 18885 14824 12072 13859 14805 10591 15131 13443 13253 17675 999999
999999 999999 999999 999999 999999 999999 999999 999999 999999 999999 999999 999999 999999 999999 999999 999999 999999 999999 999999 999999 999999 999999 999999 999999 999999 999999 999999 999999 999999 999999 999999 999999 999999 999999 999999 999999 999999 999999 999999 999999 999999 999999 999999 999999 999999 999999 999999 999999 999999 999999 999999 999999 999999 999999 999999 999999 999999 999999 999999 999999 999999 999999 999999 999999 999999 999999 999999 999999 999999 999999 999999 999999 999999 999999 999999 999999 999999 999999 999999 999999 999999 999999 999999 999999 999999 999999 0 999999 999999 999999 999999 999999 999999 999999 999999 999999 999999 999999 999999 999999 999999 16252 10792 13085 13028 12025 17468 14766 19716 15425 19747 12607 11557 17799 14800 13087 16051 14280 11265 12636 13275 18622 14352 15965 17254 12494 10316 13553 14687 11675 13866 11202 18308 19176 10684 11387 17402 10308 14942 13839 15820 11227 11212 12913 15605 12262 10907 14527 12561 15086 19901 16138 19975 15735 10677 12397 15015 17521 18019 12763 15669 12731 14089 10230 15005 12338 18399 14246 16828 13559 18951 10377 16904 19529 18898 13032 19498 12067 13453 14769 16553 16404 17437 17835 19723 11977 12181 17643 10298 12921 15070 18567 17579 13647 14369 10919 14365 15372 10467 16326 19822 999999
999999 999999 999999 999999 999999 999999 999999 999999 999999 999999 999999 999999 999999 999999 999999 999999 999999 999999 999999 999999 999999 999999 999999 999999 999999 999999 999999 999999 999999 999999 999999 999999 999999 999999 999999 999999 999999 999999 999999 999999 999999 999999 999999 999999 999999 999999 999999 999999 999999 999999 999999 999999 999999 999999 999999 999999 999999 999999 999999 999999 999999 999999 999999 999999 999999 999999 999999 999999 999999 999999 999999 999999 999999 999999 999999 999999 999999 999999 999999 999999 999999 999999 999999 999999 999999 999999 999999 0 999999 999999 999999 999999 999999 999999 999999 999999 999999 999999 999999 999999 999999 10232 11217 18761 14831 18980 17995 13281 12198 18676 16739 17174 10855 14266 12402 19431 19819 18929 11428 11215 14193 11078 18755 10256 19622 10508 15796 12300 17083 13402 17161 19787 13627 11058 19860 16621 12480 11705 18042 15627 11120 13471 11020 10184 18788 15620 10288 13000 12634 15491 17161 12750 16410 14066 13889 10103 15026 17517 16407 13563 18587 19428 19118 17577 10630 16267 10915 11663 12285 14284 12679 12711 16578 16827 17211 18684 15518 11792 12321 16586 12319 17962 16588 16691 19037 14527 18261 14427 15057 19486 12298 14824 10251 11797 17507 13607 14209 11244 13794 12341 18739 999999
999999 999999 999999 999999 999999 999999 999999 999999 999999 999999 999999 999999 999999 999999 999999 999999 999999 999999 999999 999999 999999 999999 999999 999999 999999 999999 999999 999999 999999 999999 999999 999999 999999 999999 999999 999999 999999 999999 999999 999999 999999 999999 999999 999999 999999 999999 999999 999999 999999 999999 999999 999999 999999 999999 999999 999999 999999 999999 999999 999999 999999 999999 999999 999999 999999 999999 999999 999999 999999 999999 999999 999999 999999 999999 999999 999999 999999 999999 999999 999999 999999 999999 999999 999999 999999 999999 999999 999999 0 999999 999999 999999 999999 999999 999999 999999 999999 999999 999999 999999 999999 15191 17720 13865 14030 11412 14413 15808 13875 10954 10432 17861 14354 10087 18724 10298 12609 15838 12680 13175 13800 12931 17361 14672 12328 18440 13189 18415 15384 19569 15458 12478 10526 10420 18447 11772 17885 16335 19515 18838 13779 10375 16787 18400 10734 16261 15359 19109 12035 19755 14199 17752 11548 12482 14124 19643 11777 15264 13688 14971 11450 15872 18643 18871 18910 11662 11693 15765 12791 12295 10214 15422 14982 19093 18869 13619 14111 18591 11885 13868 12666 14856 12162 13779 12464 15735 16180 19695 10219 17416 15248 16373 12136 18889 19522 18871 13774 16170 13236 19768 13232 999999
999999 999999 999999 999999 999999 999999 999999 999999 999999 999999 999999 999999 999999 999999 999999 999999 999999 999999 999999 999999 999999 999999 999999 999999 999999 999999 999999 999999 999999 999999 999999 999999 999999 999999 999999 999999 999999 999999 999999 999999 999999 999999 999999 999999 999999 999999 999999 999999 999999 999999 999999 999999 999999 999999 999999 999999 999999 999999 999999 999999 999999 999999 999999 999999 999999 999999 999999 999999 999999 999999 999999 999999 999999 999999 999999 999999 999999 999999 999999 999999 999999 999999 999999 999999 999999 999999 999999 999999 999999 0 999999 999999 999999 999999 999999 999999 999999 999999 999999 999999 999999 11598 19076 19754 19955 12663 16977 19658 17908 16278 18061 11643 11530 19572 19668 14686 13873 13107 19744 12439 12921 14911 15159 16046 16436 15819 18495 17915 12507 14067 15731 17300 18848 18554 14989 18468 18195 15529 12517 19787 15136 13262 12129 11555 15261 13162 10356 16287 16899 11697 13686 14536 16032 10414 15652 13866 16319 10526 10597 13438 15866 17882 15998 18344 13616 14250 19804 14800 10083 12387 11915 13911 11111 19662 17115 18104 17082 12550 14791 14739 17792 14023 12029 14693 14349 17474 10702 13107 12436 12968 15734 12078 14126 17216 19465 15632 10568 19884 11568 16065 10278 999999
999999 999999 999999 999999 999999 999999 999999 999999 999999 999999 999999 999999 999999 999999 999999 999999 999999 999999 999999 999999 999999 999999 999999 999999 999999 999999 999999 999999 999999 999999 999999 999999 999999 999999 999999 999999 999999 999999 999999 999999 999999 999999 999999 999999 999999 999999 999999 999999 999999 999999 999999 999999 999999 999999 999999 999999 999999 999999 999999 999999 999999 999999 999999 999999 999999 999999 999999 999999 999999 999999 999999 999999 999999 999999 999999 999999 999999 999999 999999 999999 999999 999999 999999 999999 999999 999999 999999 999999 999999 999999 0 999999 999999 999999 999999 999999 999999 999999 999999 999999 999999 13142 18296 19951 13187 11116 10749 16857 18444 10665 15930 10873 18654 19017 16754 11969 10927 10604 12895 11712 18770 10796 15026 13083 16076 17680 17013 17765 17635 12129 12576 10685 12184 17518 12517 17961 18667 11313 15949 13350 16429 17853 12644 14890 15061 19039 15367 10560 17524 18931 13322 15065 16256 15497 15921 17671 12748 18577 11132 14564 18354 18235 14346 12188 12994 10253 19400 12864 19695 12210 13183 17989 15983 17113 14116 12829 11775 11874 14760 17835 10649 12846 19302 13798 16829 16883 19115 17000 19350 13345 17887 18462 17560 11536 12714 19809 18176 16001 18101 13634 15914 999999
999999 999999 999999 999999 999999 999999 999999 999999 999999 999999 999999 999999 999999 999999 999999 999999 999999 999999 999999 999999 999999 999999 999999 999999 999999 999999 999999 999999 999999 999999 999999 999999 999999 999999 999999 999999 999999 999999 999999 999999 999999 999999 999999 999999 999999 999999 999999 999999 999999 999999 999999 999999 999999 999999 999999 999999 999999 999999 999999 999999 999999 999999 999999 999999 999999 999999 999999 999999 999999 999999 999999 999999 999999 999999 999999 999999 999999 999999 999999 999999 999999 999999 999999 999999 999999 999999 999999 999999 999999 999999 999999 0 999999 999999 999999 999999 999999 999999 999999 999999 999999 12402 13416 12502 18093 17297 18283 10201 13210 10662 16180 13518 15605 15573 11889 12073 17468 17551 11379 10853 12794 13703 14434 16171 10070 19350 17008 17448 19337 18296 19305 15971 12649 17086 19315 13442 11532 16569 19111 13862 19650 11720 17462 14709 17942 14296 18129 18952 17297 15916 11726 17932 13027 10859 17541 13464 15624 18504 10151 11084 19248 13997 18013 14111 18034 16087 17167 15101 13328 13885 11463 14951 19679 11566 18428 15866 11925 16059 11356 16506 12260 17239 19576 10285 12117 15825 16015 16127 12799 14909 10631 14018 13047 10292 18673 12395 15245 15221 16137 13827 10786 999999
999999 999999 999999 999999 999999 999999 999999 999999 999999 999999 999999 999999 999999 999999 999999 999999 999999 999999 999999 999999 999999 999999 999999 999999 999999 999999 999999 999999 999999 999999 999999 999999 999999 999999 999999 999999 999999 999999 999999 999999 999999 999999 999999 999999 999999 999999 999999 999999 999999 999999 999999 999999 999999 999999 999999 999999 999999 999999 999999 999999 999999 999999 999999 999999 999999 999999 999999 999999 999999 999999 999999 999999 999999 999999 999999 999999 999999 999999 999999 999999 999999 999999 999999 999999 999999 999999 999999 999999 999999 999999 999999 999999 0 999999 999999 999999 999999 999999 999999 999999 999999 14974 13261 18662 19637 11429 14893 13795 13979 14325 15590 11371 13584 15208 13911 19522 13957 11246 15190 18572 13972 16571 18361 19082 11515 10010 17005 11629 16915 13494 11063 11272 19420 16801 16618 14337 12410 13592 14964 15582 13578 18989 18718 12685 10270 16191 14537 17035 17743 12913 17856 10880 17162 13804 15701 13281 11177 15578 15634 16804 10622 18457 10876 14990 19793 14034 13903 15863 11884 19193 18539 18024 15515 19821 13779 12331 17101 16354 11154 18162 13401 14121 15215 18583 16334 17265 15428 17113 15406 10416 13859 14801 13535 12975 18528 13534 18472 16870 17477 13376 15476 999999
999999 999999 999999 999999 999999 999999 999999 999999 999999 999999 999999 999999 999999 999999 999999 999999 999999 999999 999999 999999 999999 999999 999999 999999 999999 999999 999999 999999 999999 999999 999999 999999 999999 999999 999999 999999 999999 999999 999999 999999 999999 999999 999999 999999 999999 999999 999999 999999 999999 999999 999999 999999 999999 999999 999999 999999 999999 999999 999999 999999 999999 999999 999999 999999 999999 999999 999999 999999 999999 999999 999999 999999 999999 999999 999999 999999 999999 999999 999999 999999 999999 999999 999999 999999 999999 999999 999999 999999 999999 999999 999999 999999 999999 0 999999 999999 999999 999999 999999 999999 999999 13600 10862 16273 17956 15134 14728 10089 14798 15015 13566 17291 12112 19859 15137 13612 16698 10195 19121 15545 10718 10188 16285 13779 10666 12178 10639 18873 16126 15488 17251 11852 18470 11750 16747 11181 17801 19558 14910 17312 12431 18538 19500 12152 17509 15488 14775 17211 12945 14141 17292 14929 18078 19196 17698 18685 15035 17836 13152 19635 19794 18980 19933 11020 12298 11657 10360 16797 10853 14021 11593 16425 14589 19378 13232 15200 16712 15275 11757 14235 10999 10120 12692 17674 19585 17900 17105 15119 17573 19036 11822 14325 16394 16164 13882 16830 18071 10548 13288 10913 13388 999999
999999 999999 999999 999999 999999 999999 999999 999999 999999 999999 999999 999999 999999 999999 999999 999999 999999 999999 999999 999999 999999 999999 999999 999999 999999 999999 999999 999999 999999 999999 999999 999999 999999 999999 999999 999999 999999 999999 999999 999999 999999 999999 999999 999999 999999 999999 999999 999999 999999 999999 999999 999999 999999 999999 999999 999999 999999 999999 999999 999999 999999 999999 999999 999999 999999 999999 999999 999999 999999 999999 999999 999999 999999 999999 999999 999999 999999 999999 999999 999999 999999 999999 999999 999999 999999 999999 999999 999999 999999 999999 999999 999999 999999 999999 0 999999 999999 999999 999999 999999 999999 11380 11828 10969 12370 16669 13018 17929 12985 16878 19797 16891 16289 11927 19596 12822 13665 10629 15666 19024 17993 18558 14237 16944 16952 18862 12751 15763 18886 16776 14415 18857 15293 16903 10026 12401 16209 16159 18044 10154 12408 10106 17495 14755 12882 14070 12663 18432 16031 19914 10797 14476 19701 18626 14031 14599 18775 13420 10384 11733 13512 14941 10666 13417 17419 14580 11332 16643 15090 15357 18643 14376 19963 17030 13999 11082 16184 14377 15801 18485 18780 16033 13073 17333 19747 11542 14956 15447 10835 14369 17916 19119 18271 12575 17050 12018 18294 19857 19860 16720 17165 999999
999999 999999 999999 999999 999999 999999 999999 999999 999999 999999 999999 999999 999999 999999 999999 999999 999999 999999 999999 999999 999999 999999 999999 999999 999999 999999 999999 999999 999999 999999 999999 999999 999999 999999 999999 999999 999999 999999 999999 999999 999999 999999 999999 999999 999999 999999 999999 999999 999999 999999 999999 999999 999999 999999 999999 999999 999999 999999 999999 999999 999999 999999 999999 999999 999999 999999 999999 999999 999999 999999 999999 999999 999999 999999 999999 999999 999999 999999 999999 999999 999999 999999 999999 999999 999999 999999 999999 999999 999999 999999 999999 999999 999999 999999 999999 0 999999 999999 999999 999999 999999 18930 19566 19870 15000 10975 12783 15600 18390 17688 12250 10307 19972 14655 19038 18592 16673 10233 16387 19640 17778 13738 19601 17374 17650 16247 14404 18234 17093 11362 10894 12462 11709 15965 12153 18383 18785 10463 11393 18490 11192 10041 10035 15875 16353 10992 15039 13433 14708 15260 13565 12575 14019 15815 12490 15757 18585 12409 10604 17697 12423 11271 14744 19947 19480 18329 13050 14118 18785 17036 18930 12246 19833 12385 19416 15045 19901 11567 18250 17421 16654 12325 11662 16182 14838 11494 11302 15164 14106 18042 18036 14297 12314 11969 19834 18735 11126 11974 19237 10665 11121 999999
999999 999999 999999 999999 999999 999999 999999 999999 999999 999999 999999 999999 999999 999999 999999 999999 999999 999999 999999 999999 999999 999999 999999 999999 999999 999999 999999 999999 999999 999999 999999 999999 999999 999999 999999 999999 999999 999999 999999 999999 999999 999999 999999 999999 999999 999999 999999 999999 999999 999999 999999 999999 999999 999999 999999 999999 999999 999999 999999 999999 999999 999999 999999 999999 999999 999999 999999 999999 999999 999999 999999 999999 999999 999999 999999 999999 999999 999999 999999 999999 999999 999999 999999 999999 999999 999999 999999 999999 999999 999999 999999 999999 999999 999999 999999 999999 0 999999 999999 999999 999999 13670 11765 10377 11144 18765 13944 10060 18506 11906 17422 13450 15844 14865 14384 18249 14112 19375 10730 19633 16623 12991 14674 17349 17373 13812 12744 14545 15330 12318 19365 12136 18369 10386 13233 11751 19889 11726 16390 15356 13259 11589 13112 13148 17020 13410 18035 16609 10596 17787 10980 19563 14601 19077 18730 10356 17559 12590 15762 19889 19814 11488 13048 18108 19782 16389 11703 16647 19285 16895 16115 11093 12607 16280 17218 18678 11680 19193 13538 12543 13715 16161 14775 17179 10701 12232 13070 16577 19406 19752 10098 12846 18181 13423 17494 12412 18310 11563 14505 16143 15967 999999
999999 999999 999999 999999 999999 999999 999999 999999 999999 999999 999999 999999 999999 999999 999999 999999 999999 999999 999999 999999 999999 999999 999999 999999 999999 999999 999999 999999 999999 999999 999999 999999 999999 999999 999999 999999 999999 999999 999999 999999 999999 999999 999999 999999 999999 999999 999999 999999 999999 999999 999999 999999 999999 999999 999999 999999 999999 999999 999999 999999 999999 999999 999999 999999 999999 999999 999999 999999 999999 999999 999999 999999 999999 999999 999999 999999 999999 999999 999999 999999 999999 999999 999999 999999 999999 999999 999999 999999 999999 999999 999999 999999 999999 999999 999999 999999 999999 0 999999 999999 999999 15876 17996 16325 13725 19903 17587 17581 13712 15299 18921 17110 17228 16600 14307 13693 18379 18768 10142 15345 16192 12559 19517 15597 17144 15713 16715 11580 12502 19242 19925 11599 12336 17207 13415 14492 11778 15009 10999 13200 18688 14113 10397 16079 18025 12235 12834 18519 14451 14614 19965 15915 17692 18872 16245 10314 10095 13332 18620 18117 17592 18556 18234 16978 13764 18240 16099 19035 14589 11634 14179 14265 12596 18103 11627 12392 19247 13244 19089 10073 19825 16723 11005 12995 16233 13285 16928 16293 17153 10230 14581 10336 18530 14216 12630 10547 17222 17142 13857 11619 17871 999999
999999 999999 999999 999999 999999 999999 999999 999999 999999 999999 999999 999999 999999 999999 999999 999999 999999 999999 999999 999999 999999 999999 999999 999999 999999 999999 999999 999999 999999 999999 999999 999999 999999 999999 999999 999999 999999 999999 999999 999999 999999 999999 999999 999999 999999 999999 999999 999999 999999 999999 999999 999999 999999 999999 999999 999999 999999 999999 999999 999999 999999 999999 999999 999999 999999 999999 999999 999999 999999 999999 999999 999999 999999 999999 999999 999999 999999 999999 999999 999999 999999 999999 999999 999999 999999 999999 999999 999999 999999 999999 999999 999999 999999 999999 999999 999999 999999 999999 0 999999 999999 12282 18096 16266 12392 14540 19277 18883 10171 18528 10771 19759 13989 10958 15557 12160 19921 16498 10229 16501 14402 13915 18069 18892 12953 16830 14520 17148 15549 16336 19564 13885 19470 12756 15066 18877 19362 10030 18166 10471 11165 12869 14119 14139 12229 11141 19389 11862 19482 11293 16134 11593 13540 14636 14059 18552 10520 17131 18545 12681 17449 11817 17276 18361 13113 11825 15356 10003 10087 17913 14177 11517 14425 15826 18051 18456 16553 11241 18572 18607 10143 18734 15252 17714 10309 15484 18498 10243 14234 13606 16153 14057 13988 15357 16046 17552 15311 17962 15744 16734 19132 999999
999999 999999 999999 999999 999999 999999 999999 999999 999999 999999 999999 999999 999999 999999 999999 999999 999999 999999 999999 999999 999999 999999 999999 999999 999999 999999 999999 999999 999999 999999 999999 999999 999999 999999 999999 999999 999999 999999 999999 999999 999999 999999 999999 999999 999999 999999 999999 999999 999999 999999 999999 999999 999999 999999 999999 999999 999999 999999 999999 999999 999999 999999 999999 999999 999999 999999 999999 999999 999999 999999 999999 999999 999999 999999 999999 999999 999999 999999 999999 999999 999999 999999 999999 999999 999999 999999 999999 999999 999999 999999 999999 999999 999999 999999 999999 999999 999999 999999 999999 0 999999 17042 12486 14404 17984 13932 16042 12643 10676 17202 19554 17084 11250 19933 17968 14158 15983 13189 18333 18059 16378 12046 16845 15715 10432 11129 15581 16806 14657 15242 18951 12678 12039 19171 17195 16166 15989 17202 11796 13253 12668 14522 19390 10929 14651 12396 15537 13065 15137 13378 19249 19138 11867 19845 18822 17574 13449 19407 11288 18754 10893 10036 18402 19244 15597 11535 12533 15135 19918 19610 13165 19564 18576 14171 19645 16413 11671 14501 14917 11743 19199 17606 17186 17970 14443 15848 17785 12713 13635 16905 15494 19157 14684 16855 10750 15258 12470 16729 14237 14556 14336 999999
999999 999999 999999 999999 999999 999999 999999 999999 999999 999999 999999 999999 999999 999999 999999 999999 999999 999999 999999 999999 999999 999999 999999 999999 999999 999999 999999 999999 999999 999999 999999 999999 999999 999999 999999 999999 999999 999999 999999 999999 999999 999999 999999 999999 999999 999999 999999 999999 999999 999999 999999 999999 999999 999999 999999 999999 999999 999999 999999 999999 999999 999999 999999 999999 999999 999999 999999 999999 999999 999999 999999 999999 999999 999999 999999 999999 999999 999999 999999 999999 999999 999999 999999 999999 999999 999999 999999 999999 999999 999999 999999 999999 999999 999999 999999 999999 999999 999999 999999 999999 0 16691 13493 10048 14240 19688 12067 15308 17397 18637 14129 10708 13712 16152 12958 15627 15252 15677 16874 12264 13904 18603 10993 13048 16461 18888 13681 18415 12807 10150 16460 16770 18733 15676 15649 15476 17219 15015 17790 17694 10721 15701 18510 14092 18787 10217 17869 18227 11343 12413 11332 11726 11644 10238 19764 13401 18055 16027 11709 16693 15509 13951 17124 13060 12659 13553 13675 16928 12282 18093 19207 13711 10588 10026 13479 12150 14560 16530 14652 15477 17442 16495 15905 16540 18646 17240 13345 17707 18218 19308 18656 13271 19450 16795 18618 19947 17587 11979 17778 12845 12545 999999
999999 15119 13572 13163 15465 11453 14397 12041 13188 15667 19741 17279 16129 13452 11894 15730 12864 13266 15563 10353 11737 15960 19455 17904 12014 13685 16771 15427 19419 19605 18729 10896 14497 11676 11650 10420 16833 11791 18157 11145 18926 10223 14700 10784 13671 18858 19091 15059 13573 10667 16454 16722 13486 15549 17541 18583 18115 17047 16149 14061 14102 10172 10906 15877 10401 14112 18135 15774 19431 11970 14859 10517 11976 15463 10498 10295 17817 19685 17474 12062 19691 13623 10661 19162 10583 17256 16252 10232 15191 11598 13142 12402 14974 13600 11380 18930 13670 15876 12282 17042 16691 0 999999 999999 999999 999999 999999 999999 999999 999999 999999 999999 999999 999999 999999 999999 999999 999999 999999 999999 999999 999999 999999 999999 999999 999999 999999 999999 999999 999999 999999 999999 999999 999999 999999 999999 999999 999999 999999 999999 999999 999999 999999 999999 999999 999999 999999 999999 999999 999999 999999 999999 999999 999999 999999 999999 999999 999999 999999 999999 999999 999999 999999 999999 999999 999999 999999 999999 999999 999999 999999 999999 999999 999999 999999 999999 999999 999999 999999 999999 999999 999999 999999 999999 999999 999999 999999 999999 999999 999999 999999 999999 999999 999999 999999 999999 999999 999999 999999 999999 999999 12743
999999 19703 10180 12675 19195 11837 19903 10632 14013 11238 17699 12710 13154 17992 17036 13668 18873 11102 14705 18898 14744 10055 19103 13637 10392 11096 13986 14912 14046 17717 17025 17423 10917 17476 13257 14377 11804 13667 15118 16168 10667 17445 18422 12573 15231 13416 13678 16030 15497 19676 14468 18966 15531 11916 10510 14454 13704 13111 11496 13433 11914 19668 18725 13309 10239 13935 16815 15340 17648 18910 10439 17578 16122 16506 14143 10715 18542 12028 15689 12668 16904 15584 11835 12934 11878 14561 10792 11217 17720 19076 18296 13416 13261 10862 11828 19566 11765 17996 18096 12486 13493 999999 0 999999 999999 999999 999999 999999 999999 999999 999999 999999 999999 999999 999999 999999 999999 999999 999999 999999 999999 999999 999999 999999 999999 999999 999999 999999 999999 999999 999999 999999 999999 999999 999999 999999 999999 999999 999999 999999 999999 999999 999999 999999 999999 999999 999999 999999 999999 999999 999999 999999 999999 999999 999999 999999 999999 999999 999999 999999 999999 999999 999999 999999 999999 999999 999999 999999 999999 999999 999999 999999 999999 999999 999999 999999 999999 999999 999999 999999 999999 999999 999999 999999 999999 999999 999999 999999 999999 999999 999999 999999 999999 999999 999999 999999 999999 999999 999999 999999 999999 8063
999999 19484 11203 18584 10267 15158 18085 17561 19984 11322 19850 13861 10713 17338 11231 19626 16534 16043 15951 18543 15945 15712 13535 10349 14871 17788 12345 11646 11587 12275 19923 16777 10554 19238 16758 17986 11435 13086 10609 10071 16100 17465 12720 13349 19247 17117 13913 11940 11787 17241 14816 10810 13840 13103 12228 15456 12240 15997 17929 17973 16275 16499 13546 14658 13882 12057 19766 19478 19704 16816 11542 13185 12246 17355 15267 15141 13304 13527 16379 16448 15771 18170 15639 12499 14269 16747 13085 18761 13865 19754 19951 12502 18662 16273 10969 19870 10377 16325 16266 14404 10048 999999 999999 0 999999 999999 999999 999999 999999 999999 999999 999999 999999 999999 999999 999999 999999 999999 999999 999999 999999 999999 999999 999999 999999 999999 999999 999999 999999 999999 999999 999999 999999 999999 999999 999999 999999 999999 999999 999999 999999 999999 999999 999999 999999 999999 999999 999999 999999 999999 999999 999999 999999 999999 999999 999999 999999 999999 999999 999999 999999 999999 999999 999999 999999 999999 999999 999999 999999 999999 999999 999999 999999 999999 999999 999999 999999 999999 999999 999999 999999 999999 999999 999999 999999 999999 999999 999999 999999 999999 999999 999999 999999 999999 999999 999999 999999 999999 999999 999999 999999 10592
999999 16449 18962 18979 16318 15882 15821 12529 10651 11787 19879 12646 16358 16763 11324 17297 13252 14175 17798 17726 17697 18498 10482 15111 16124 16195 15736 13076 18765 19027 14874 16163 10798 17323 18084 19124 13780 14904 10360 15519 18669 18575 10130 14328 18547 18447 17676 13700 11686 10535 11091 11913 15047 13551 10249 10171 17498 19018 14919 14771 17253 12037 14815 16629 14908 17153 12982 14169 19396 12722 12472 11257 16569 13932 14329 16028 12322 10622 11736 11898 17005 18977 11652 13729 10403 16505 13028 14831 14030 19955 13187 18093 19637 17956 12370 15000 11144 13725 12392 17984 14240 999999 999999 999999 0 999999 999999 999999 999999 999999 999999 999999 999999 999999 999999 999999 999999 999999 999999 999999 999999 999999 999999 999999 999999 999999 999999 999999 999999 999999 999999 999999 999999 999999 999999 999999 999999 999999 999999 999999 999999 999999 999999 999999 999999 999999 999999 999999 999999 999999 999999 999999 999999 999999 999999 999999 999999 999999 999999 999999 999999 999999 999999 999999 999999 999999 999999 999999 999999 999999 999999 999999 999999 999999 999999 999999 999999 999999 999999 999999 999999 999999 999999 999999 999999 999999 999999 999999 999999 999999 999999 999999 999999 999999 999999 999999 999999 999999 999999 999999 999999 10395
999999 14315 13486 12272 10904 11902 16150 12408 12315 19688 13310 17121 17631 12024 13365 12861 17606 17342 19317 13821 11484 10236 17534 19133 14592 12035 13167 18600 14065 12390 12045 17771 17907 15068 18941 17942 10611 17222 11608 15469 15531 15119 10394 11669 19242 11112 18998 19433 10175 17644 13069 17673 11425 11905 18045 11897 12377 11068 17034 19338 12920 16130 18971 19162 14275 11598 11780 16041 19593 19387 17064 11367 16706 13245 19875 12265 12710 16525 14633 11701 16036 14116 11532 10655 17307 19778 12025 18980 11412 12663 11116 17297 11429 15134 16669 10975 18765 19903 14540 13932 19688 999999 999999 999999 999999 0 999999 999999 999999 999999 999999 999999 999999 999999 999999 999999 999999 999999 999999 999999 999999 999999 999999 999999 999999 999999 999999 999999 999999 999999 999999 999999 999999 999999 999999 999999 999999 999999 999999 999999 999999 999999 999999 999999 999999 999999 999999 999999 999999 999999 999999 999999 999999 999999 999999 999999 999999 999999 999999 999999 999999 999999 999999 999999 999999 999999 999999 999999 999999 999999 999999 999999 999999 999999 999999 999999 999999 999999 999999 999999 999999 999999 999999 999999 999999 999999 999999 999999 999999 999999 999999 999999 999999 999999 999999 999999 999999 999999 999999 999999 999999 9845
999999 14566 10854 16728 14275 12421 16058 13744 14460 15210 10647 13662 14862 10812 11318 12278 12480 13428 18298 13197 16428 17348 11269 12597 19389 15953 15928 13354 12157 10161 12771 18371 10987 12381 10982 17753 15750 19406 19282 15452 17496 12511 18613 12705 11423 11460 10020 10858 19822 11818 19037 12500 19422 18414 10570 19579 16226 18375 10203 13682 18467 12455 10728 12902 12012 13987 14217 19062 19572 16833 11150 17946 11537 12512 12095 17492 14881 14597 16305 13756 18066 17460 10953 10969 19816 15211 17468 17995 14413 16977 10749 18283 14893 14728 13018 12783 13944 17587 19277 16042 12067 999999 999999 999999 999999 999999 0 999999 999999 999999 999999 999999 999999 999999 999999 999999 999999 999999 999999 999999 999999 999999 999999 999999 999999 999999 999999 999999 999999 999999 999999 999999 999999 999999 999999 999999 999999 999999 999999 999999 999999 999999 999999 999999 999999 999999 999999 999999 999999 999999 999999 999999 999999 999999 999999 999999 999999 999999 999999 999999 999999 999999 999999 999999 999999 999999 999999 999999 999999 999999 999999 999999 999999 999999 999999 999999 999999 999999 999999 999999 999999 999999 999999 999999 999999 999999 999999 999999 999999 999999 999999 999999 999999 999999 999999 999999 999999 999999 999999 999999 999999 14072
999999 11462 10500 10461 14639 10694 14295 11075 14094 10705 13374 13215 14487 19499 13054 10274 15628 15954 10047 19044 12414 19994 14534 12678 10821 16791 11054 11006 10590 14840 12925 15057 15814 19665 19574 16395 14169 17834 14782 10036 11964 16916 18618 15526 13299 15393 12205 12076 17382 18303 11031 11699 16600 16275 16210 14944 19737 12511 19072 18951 15619 14111 19986 16888 19369 17032 13174 13552 11192 18822 17839 18646 12318 12055 12951 18609 12278 13258 17954 16955 11130 14302 12896 12704 16924 19371 14766 13281 15808 19658 16857 10201 13795 10089 17929 15600 10060 17581 18883 12643 15308 999999 999999 999999 999999 999999 999999 0 999999 999999 999999 999999 999999 999999 999999 999999 999999 999999 999999 999999 999999 999999 999999 999999 999999 999999 999999 999999 999999 999999 999999 999999 999999 999999 999999 999999 999999 999999 999999 999999 999999 999999 999999 999999 999999 999999 999999 999999 999999 999999 999999 999999 999999 999999 999999 999999 999999 999999 999999 999999 999999 999999 999999 999999 999999 999999 999999 999999 999999 999999 999999 999999 999999 999999 999999 999999 999999 999999 999999 999999 999999 999999 999999 999999 999999 999999 999999 999999 999999 999999 999999 999999 999999 999999 999999 999999 999999 999999 999999 999999 999999 5177
999999 15758 19451 12713 11796 10235 13582 15154 16800 10591 15485 13869 16026 15227 16940 10774 14330 18575 19459 10609 10813 17163 13847 18178 12636 10911 16489 11799 19764 15282 18743 10589 14788 19843 15136 17886 16495 10314 19410 19509 10925 11282 11458 16662 17172 18944 12509 18374 16355 19736 10271 18447 14334 19538 16346 18013 18556 15222 11163 13855 13718 18916 10781 15941 13196 15570 17629 18310 17174 11445 19929 16546 17271 10689 14182 17689 12263 16192 12105 19404 16190 12492 18561 16117 11626 13102 19716 12198 13875 17908 18444 13210 13979 14798 12985 18390 18506 13712 10171 10676 17397 999999 999999 999999 999999 999999 999999 999999 0 999999 999999 999999 999999 999999 999999 999999 999999 999999 999999 999999 999999 999999 999999 999999 999999 999999 999999 999999 999999 999999 999999 999999 999999 999999 999999 999999 999999 999999 999999 999999 999999 999999 999999 999999 999999 999999 999999 999999 999999 999999 999999 999999 999999 999999 999999 999999 999999 999999 999999 999999 999999 999999 999999 999999 999999 999999 999999 999999 999999 999999 999999 999999 999999 999999 999999 999999 999999 999999 999999 999999 999999 999999 999999 999999 999999 999999 999999 999999 999999 999999 999999 999999 999999 999999 999999 999999 999999 999999 999999 999999 999999 5208
999999 17552 15865 17453 17896 19298 19536 13735 11908 15637 16796 11429 18551 17182 13850 10796 12294 17002 15036 10940 16235 18118 18866 11145 12895 16898 19727 17616 14017 16693 10264 10476 18251 17518 14808 17097 11770 10298 14303 16390 13732 16175 15283 12898 13381 17810 12822 17785 12193 19955 17217 12973 14319 11595 15030 15814 18837 13898 18299 11148 10519 13883 12645 17659 15092 15974 12913 16196 12198 16922 19154 15708 10253 18692 13520 14193 19041 16316 18549 13803 11240 11240 17318 16867 14871 16676 15425 18676 10954 16278 10665 10662 14325 15015 16878 17688 11906 15299 18528 17202 18637 999999 999999 999999 999999 999999 999999 999999 999999 0 999999 999999 999999 999999 999999 999999 999999 999999 999999 999999 999999 999999 999999 999999 999999 999999 999999 999999 999999 999999 999999 999999 999999 999999 999999 999999 999999 999999 999999 999999 999999 999999 999999 999999 999999 999999 999999 999999 999999 999999 999999 999999 999999 999999 999999 999999 999999 999999 999999 999999 999999 999999 999999 999999 999999 999999 999999 999999 999999 999999 999999 999999 999999 999999 999999 999999 999999 999999 999999 999999 999999 999999 999999 999999 999999 999999 999999 999999 999999 999999 999999 999999 999999 999999 999999 999999 999999 999999 999999 999999 999999 12357
999999 15838 14368 13409 17188 15996 11909 18922 13738 10972 13827 19097 10230 10174 17384 10453 16058 13019 11848 15425 18688 19674 10936 17950 17913 10685 13174 10397 13919 18699 14767 15712 17527 16414 18904 14789 18603 17181 17595 15134 12327 14452 12518 12497 10553 12858 17832 12818 18257 17633 11016 16081 11620 11328 19541 11129 13422 11483 16634 16776 16034 11092 11499 11126 19418 10994 17237 18108 13589 11835 10574 10991 16347 19694 13119 15523 17392 19008 10001 16147 12923 12012 14121 13866 18813 13920 19747 16739 10432 18061 15930 16180 15590 13566 19797 12250 17422 18921 10771 19554 14129 999999 999999 999999 999999 999999 999999 999999 999999 999999 0 999999 999999 999999 999999 999999 999999 999999 999999 999999 999999 999999 999999 999999 999999 999999 999999 999999 999999 999999 999999 999999 999999 999999 999999 999999 999999 999999 999999 999999 999999 999999 999999 999999 999999 999999 999999 999999 999999 999999 999999 999999 999999 999999 999999 999999 999999 999999 999999 999999 999999 999999 999999 999999 999999 999999 999999 999999 999999 999999 999999 999999 999999 999999 999999 999999 999999 999999 999999 999999 999999 999999 999999 999999 999999 999999 999999 999999 999999 999999 999999 999999 999999 999999 999999 999999 999999 999999 999999 999999 999999 13670
999999 19926 13783 15757 14631 11168 11211 19934 10476 19214 19900 10048 13367 19657 19638 10476 15667 12785 16705 14901 15720 15132 10803 10644 17495 16105 18947 11500 14453 19915 13576 19492 15941 12029 14874 12684 10624 14052 13972 13384 11697 12214 16536 12643 10325 17072 18614 18342 10325 11561 12041 16957 19907 17812 18339 12126 18223 11692 12834 11238 17895 18767 17500 17176 10977 18384 18867 17023 13598 19859 14152 15267 17707 19657 18381 12442 14947 14981 18853 12397 11863 15037 13302 15585 14177 12265 12607 17174 17861 11643 10873 13518 11371 17291 16891 10307 13450 17110 19759 17084 10708 999999 999999 999999 999999 999999 999999 999999 999999 999999 999999 0 999999 999999 999999 999999 999999 999999 999999 999999 999999 999999 999999 999999 999999 999999 999999 999999 999999 999999 999999 999999 999999 999999 999999 999999 999999 999999 999999 999999 999999 999999 999999 999999 999999 999999 999999 999999 999999 999999 999999 999999 999999 999999 999999 999999 999999 999999 999999 999999 999999 999999 999999 999999 999999 999999 999999 999999 999999 999999 999999 999999 999999 999999 999999 999999 999999 999999 999999 999999 999999 999999 999999 999999 999999 999999 999999 999999 999999 999999 999999 999999 999999 999999 999999 999999 999999 999999 999999 999999 999999 5532
999999 10210 14240 11166 19712 13949 16205 10586 14048 10376 12500 12049 18008 16312 13428 11958 15937 11075 19302 11549 13153 14175 17955 11062 15729 18246 12575 19852 17562 12763 11274 14298 19808 11730 16516 15547 18068 11401 17412 17348 14592 15631 18076 12803 19675 17220 11435 12521 16025 13195 14408 12358 13421 16050 16010 15808 12291 12157 13781 17665 11533 10487 17652 15374 17439 17807 18582 10977 15373 16731 12240 19387 14064 19477 17030 14096 11198 13642 17255 17997 19741 18772 13989 15540 10136 11726 11557 10855 14354 11530 18654 15605 13584 12112 16289 19972 15844 17228 13989 11250 13712 999999 999999 999999 999999 999999 999999 999999 999999 999999 999999 999999 0 999999 999999 999999 999999 999999 999999 999999 999999 999999 999999 999999 999999 999999 999999 999999 999999 999999 999999 999999 999999 999999 999999 999999 999999 999999 999999 999999 999999 999999 999999 999999 999999 999999 999999 999999 999999 999999 999999 999999 999999 999999 999999 999999 999999 999999 999999 999999 999999 999999 999999 999999 999999 999999 999999 999999 999999 999999 999999 999999 999999 999999 999999 999999 999999 999999 999999 999999 999999 999999 999999 999999 999999 999999 999999 999999 999999 999999 999999 999999 999999 999999 999999 999999 999999 999999 999999 999999 999999 8943
999999 15003 16426 10072 12058 10445 15859 10746 14013 13751 13692 12436 19433 16791 19526 10737 12045 18655 10241 16825 16568 18893 13148 13874 15808 18237 14445 14008 18423 17504 13708 10536 11294 14748 10480 19035 12619 13656 11458 12721 15592 11529 17360 11956 18985 18448 16031 13259 13240 19210 14271 13680 10481 15607 19597 12143 11859 17433 17529 11568 17647 15444 13864 19941 15499 14292 11098 10678 18423 14583 14277 10240 15168 14190 11416 19495 16286 15720 17876 11882 10887 19812 12218 12644 12195 18366 17799 14266 10087 19572 19017 15573 15208 19859 11927 14655 14865 16600 10958 19933 16152 999999 999999 999999 999999 999999 999999 999999 999999 999999 999999 999999 999999 0 999999 999999 999999 999999 999999 999999 999999 999999 999999 999999 999999 999999 999999 999999 999999 999999 999999 999999 999999 999999 999999 999999 999999 999999 999999 999999 999999 999999 999999 999999 999999 999999 999999 999999 999999 999999 999999 999999 999999 999999 999999 999999 999999 999999 999999 999999 999999 999999 999999 999999 999999 999999 999999 999999 999999 999999 999999 999999 999999 999999 999999 999999 999999 999999 999999 999999 999999 999999 999999 999999 999999 999999 999999 999999 999999 999999 999999 999999 999999 999999 999999 999999 999999 999999 999999 999999 999999 10907
999999 10917 19585 10478 16592 10072 15431 16041 10363 18235 11039 15016 16842 19671 10499 11474 17877 17023 14471 15990 11218 18547 19373 15848 12845 11772 15333 12015 10458 12114 15597 13906 14369 17893 14614 13186 18333 18203 13716 17564 10364 19981 15900 18098 15041 13690 13314 19201 11012 12498 18366 17503 10274 18113 15952 11926 10619 16953 15866 16653 15435 12316 16397 18283 13487 10900 10136 13971 19347 15107 15753 18366 14912 16646 11704 17433 14593 16761 17918 19348 10916 15526 16826 12341 11466 12152 14800 12402 18724 19668 16754 11889 13911 15137 19596 19038 14384 14307 15557 17968 12958 999999 999999 999999 999999 999999 999999 999999 999999 999999 999999 999999 999999 999999 0 999999 999999 999999 999999 999999 999999 999999 999999 999999 999999 999999 999999 999999 999999 999999 999999 999999 999999 999999 999999 999999 999999 999999 999999 999999 999999 999999 999999 999999 999999 999999 999999 999999 999999 999999 999999 999999 999999 999999 999999 999999 999999 999999 999999 999999 999999 999999 999999 999999 999999 999999 999999 999999 999999 999999 999999 999999 999999 999999 999999 999999 999999 999999 999999 999999 999999 999999 999999 999999 999999 999999 999999 999999 999999 999999 999999 999999 999999 999999 999999 999999 999999 999999 999999 999999 999999 13108
999999 17464 15711 19785 14981 19401 11635 14439 12213 17421 12184 18836 18112 14283 17218 19163 18843 18121 13806 13319 12173 18419 11607 10574 11603 18687 13968 17351 10919 12512 15853 13731 15753 18080 13250 15987 12141 10938 16159 17272 13683 11848 14150 10775 14741 18471 11433 15050 17336 17344 18208 19123 18705 17121 11882 19994 10401 12809 16329 11865 19088 13567 15755 16535 15148 12855 16467 10179 10470 11419 17401 17503 16499 13942 17557 18144 12354 13371 12516 13904 19963 12178 14183 15207 14942 15183 13087 19431 10298 14686 11969 12073 19522 13612 12822 18592 18249 13693 12160 14158 15627 999999 999999 999999 999999 999999 999999 999999 999999 999999 999999 999999 999999 999999 999999 0 999999 999999 999999 999999 999999 999999 999999 999999 999999 999999 999999 999999 999999 999999 999999 999999 999999 999999 999999 999999 999999 999999 999999 999999 999999 999999 999999 999999 999999 999999 999999 999999 999999 999999 999999 999999 999999 999999 999999 999999 999999 999999 999999 999999 999999 999999 999999 999999 999999 999999 999999 999999 999999 999999 999999 999999 999999 999999 999999 999999 999999 999999 999999 999999 999999 999999 999999 999999 999999 999999 999999 999999 999999 999999 999999 999999 999999 999999 999999 999999 999999 999999 999999 999999 999999 14567
999999 12650 19309 10839 11037 19098 14747 16532 13103 18255 17171 10937 15061 11611 17389 15386 13326 18298 12013 17904 17923 14369 19532 13357 13774 18942 12649 11559 10980 19323 12427 13816 19338 10460 17676 19710 19886 14898 16675 13546 16539 17376 10628 11100 11835 19655 19753 10356 19437 18637 13534 15864 13562 16208 17693 17453 14069 16109 11969 14185 18503 16359 19182 10957 10779 15811 18996 19385 14922 11492 19632 19845 16211 17212 10435 18723 11107 18267 17985 15312 14669 11911 16303 17178 18873 18453 16051 19819 12609 13873 10927 17468 13957 16698 13665 16673 14112 18379 19921 15983 15252 999999 999999 999999 999999 999999 999999 999999 999999 999999 999999 999999 999999 999999 999999 999999 0 999999 999999 999999 999999 999999 999999 999999 999999 999999 999999 999999 999999 999999 999999 999999 999999 999999 999999 999999 999999 999999 999999 999999 999999 999999 999999 999999 999999 999999 999999 999999 999999 999999 999999 999999 999999 999999 999999 999999 999999 999999 999999 999999 999999 999999 999999 999999 999999 999999 999999 999999 999999 999999 999999 999999 999999 999999 999999 999999 999999 999999 999999 999999 999999 999999 999999 999999 999999 999999 999999 999999 999999 999999 999999 999999 999999 999999 999999 999999 999999 999999 999999 999999 999999 11200
999999 14021 18973 17996 18318 10878 12033 10061 14868 13906 11330 19869 10406 18863 10567 12322 14041 13848 10931 11953 12895 13994 15463 11974 16539 10148 17253 13194 16463 13701 10226 18859 17914 15892 10376 18465 12823 18538 14216 10229 12805 12634 15402 12766 12706 15381 19520 14120 19644 10843 10832 11136 14538 14123 16011 16479 11223 19019 16773 18212 15441 19806 12463 13311 15622 12025 14516 11603 18703 10785 11519 10583 13739 13920 14240 15820 17320 19119 18084 16121 14998 10720 10170 19033 15055 17912 14280 18929 15838 13107 10604 17551 11246 10195 10629 10233 19375 18768 16498 13189 15677 999999 999999 999999 999999 999999 999999 999999 999999 999999 999999 999999 999999 999999 999999 999999 999999 0 999999 999999 999999 999999 999999 999999 999999 999999 999999 999999 999999 999999 999999 999999 999999 999999 999999 999999 999999 999999 999999 999999 999999 999999 999999 999999 999999 999999 999999 999999 999999 999999 999999 999999 999999 999999 999999 999999 999999 999999 999999 999999 999999 999999 999999 999999 999999 999999 999999 999999 999999 999999 999999 999999 999999 999999 999999 999999 999999 999999 999999 999999 999999 999999 999999 999999 999999 999999 999999 999999 999999 999999 999999 999999 999999 999999 999999 999999 999999 999999 999999 999999 999999 5208
999999 10699 12550 13202 17495 10015 15421 19923 10987 12524 17394 17662 19055 12854 16732 14134 15768 13184 14441 15635 19626 13259 17255 13530 12686 10685 15703 14940 13955 13065 17778 12937 15416 15381 16070 14361 15527 11961 19694 12028 16182 11100 19048 11525 19806 16989 13025 15688 19324 10131 14520 18105 14398 10253 10844 18172 13402 17978 14523 10622 10689 12498 15591 15588 11885 17491 17828 18481 14726 19204 12173 13493 13440 18826 10869 16299 19799 17174 13771 11287 16714 15006 10800 12104 10744 15487 11265 11428 12680 19744 12895 11379 15190 19121 15666 16387 10730 10142 10229 18333 16874 999999 999999 999999 999999 999999 999999 999999 999999 999999 999999 999999 999999 999999 999999 999999 999999 999999 0 999999 999999 999999 999999 999999 999999 999999 999999 999999 999999 999999 999999 999999 999999 999999 999999 999999 999999 999999 999999 999999 999999 999999 999999 999999 999999 999999 999999 999999 999999 999999 999999 999999 999999 999999 999999 999999 999999 999999 999999 999999 999999 999999 999999 999999 999999 999999 999999 999999 999999 999999 999999 999999 999999 999999 999999 999999 999999 999999 999999 999999 999999 999999 999999 999999 999999 999999 999999 999999 999999 999999 999999 999999 999999 999999 999999 999999 999999 999999 999999 999999 999999 8726
999999 16552 16321 17110 17429 18223 14890 13962 19714 19757 12304 13072 18763 15977 16625 12955 15608 18987 19670 17824 13290 19978 18010 14668 15073 19468 11432 17967 12243 19695 15398 11506 12888 16807 10229 16749 16871 16712 10118 10668 11451 14020 11489 19456 19317 10163 10846 13184 19538 12147 16016 13979 12092 11468 14141 19314 11961 17942 12861 17484 11327 15555 13069 11573 10861 15526 12683 12722 19195 12214 17102 16090 11043 10498 16781 13939 17045 13939 15223 14523 16462 13616 12327 13773 18900 19146 12636 11215 13175 12439 11712 10853 18572 15545 19024 19640 19633 15345 16501 18059 12264 999999 999999 999999 999999 999999 999999 999999 999999 999999 999999 999999 999999 999999 999999 999999 999999 999999 999999 0 999999 999999 999999 999999 999999 999999 999999 999999 999999 999999 999999 999999 999999 999999 999999 999999 999999 999999 999999 999999 999999 999999 999999 999999 999999 999999 999999 999999 999999 999999 999999 999999 999999 999999 999999 999999 999999 999999 999999 999999 999999 999999 999999 999999 999999 999999 999999 999999 999999 999999 999999 999999 999999 999999 999999 999999 999999 999999 999999 999999 999999 999999 999999 999999 999999 999999 999999 999999 999999 999999 999999 999999 999999 999999 999999 999999 999999 999999 999999 999999 999999 9330
999999 14118 14090 14098 16445 18067 11673 15357 19848 13849 15222 13446 18815 13369 15319 15561 19172 12223 13280 16381 12113 14170 12560 16411 19363 15396 15077 10555 19994 11507 16990 16760 12542 10629 14658 16802 15243 16993 13718 16961 13954 18551 19150 13893 19751 16361 17370 14609 19325 17247 12875 10870 18939 14183 18255 14294 17248 18658 12498 14568 13379 12487 16435 18394 16465 16294 12461 16999 19046 18703 10793 12767 13476 13360 13661 11946 10325 14535 16254 14492 14949 14725 15815 13093 13420 16408 13275 14193 13800 12921 18770 12794 13972 10718 17993 17778 16623 16192 14402 16378 13904 999999 999999 999999 999999 999999 999999 999999 999999 999999 999999 999999 999999 999999 999999 999999 999999 999999 999999 999999 0 999999 999999 999999 999999 999999 999999 999999 999999 999999 999999 999999 999999 999999 999999 999999 999999 999999 999999 999999 999999 999999 999999 999999 999999 999999 999999 999999 999999 999999 999999 999999 999999 999999 999999 999999 999999 999999 999999 999999 999999 999999 999999 999999 999999 999999 999999 999999 999999 999999 999999 999999 999999 999999 999999 999999 999999 999999 999999 999999 999999 999999 999999 999999 999999 999999 999999 999999 999999 999999 999999 999999 999999 999999 999999 999999 999999 999999 999999 999999 999999 9069
999999 14997 14791 12826 19818 12933 19061 10505 19669 15749 13991 13261 19123 14757 18326 17733 13458 18572 18326 19217 16279 18998 12271 18993 13500 12647 17498 12399 17076 17746 18204 18898 11823 19955 15472 13417 19842 15358 14742 10596 14535 10611 16150 11958 11275 14201 10995 18639 11277 18646 12903 19532 14732 10374 14823 18425 18516 16488 14322 17336 15198 14570 18731 12346 19649 18494 17734 14220 11198 10383 19664 11868 11891 19868 15339 19312 13091 15417 10284 15435 13461 14997 14802 10300 16952 16817 18622 11078 12931 14911 10796 13703 16571 10188 18558 13738 12991 12559 13915 12046 18603 999999 999999 999999 999999 999999 999999 999999 999999 999999 999999 999999 999999 999999 999999 999999 999999 999999 999999 999999 999999 0 999999 999999 999999 999999 999999 999999 999999 999999 999999 999999 999999 999999 999999 999999 999999 999999 999999 999999 999999 999999 999999 999999 999999 999999 999999 999999 999999 999999 999999 999999 999999 999999 999999 999999 999999 999999 999999 999999 999999 999999 999999 999999 999999 999999 999999 999999 999999 999999 999999 999999 999999 999999 999999 999999 999999 999999 999999 999999 999999 999999 999999 999999 999999 999999 999999 999999 999999 999999 999999 999999 999999 999999 999999 999999 999999 999999 999999 999999 999999 10459
999999 19833 12553 10853 13352 18573 11886 10099 12738 18040 13018 15076 10894 17910 17790 18558 14630 10669 17120 13732 13368 17036 12463 10266 14726 13829 10176 16355 12674 13421 12504 11042 18142 11946 19363 12894 10739 15385 10613 15568 12751 11358 13499 13031 15675 18225 19716 17643 12064 17080 15717 18494 13509 10000 15674 17532 17373 16560 13153 18102 15814 10385 18798 17387 15311 19339 16502 14090 13476 19851 12616 19664 18108 19749 13449 11955 17233 16770 12231 17366 11932 16121 19411 11249 14669 12087 14352 18755 17361 15159 15026 14434 18361 16285 14237 19601 14674 19517 18069 16845 10993 999999 999999 999999 999999 999999 999999 999999 999999 999999 999999 999999 999999 999999 999999 999999 999999 999999 999999 999999 999999 999999 0 999999 999999 999999 999999 999999 999999 999999 999999 999999 999999 999999 999999 999999 999999 999999 999999 999999 999999 999999 999999 999999 999999 999999 999999 999999 999999 999999 999999 999999 999999 999999 999999 999999 999999 999999 999999 999999 999999 999999 999999 999999 999999 999999 999999 999999 999999 999999 999999 999999 999999 999999 999999 999999 999999 999999 999999 999999 999999 999999 999999 999999 999999 999999 999999 999999 999999 999999 999999 999999 999999 999999 999999 999999 999999 999999 999999 999999 999999 7532
999999 13069 18399 11345 19141 19025 15477 16295 16550 18130 16221 17430 17712 14434 11972 18019 19642 19527 13737 15426 18709 11542 13841 18286 14761 11494 11368 19588 14535 10510 11348 12766 19151 12778 18735 19474 15703 11684 12046 18901 19218 11228 15514 11938 14309 14643 11513 19354 13492 18890 17553 14404 12298 10446 13289 18512 17265 10269 19032 16150 17416 17116 17277 14535 14765 16554 15636 12921 16850 13542 18604 19586 10929 15011 13553 19199 17564 16252 10258 19942 12794 14334 19519 10598 15102 19215 15965 10256 14672 16046 13083 16171 19082 13779 16944 17374 17349 15597 18892 15715 13048 999999 999999 999999 999999 999999 999999 999999 999999 999999 999999 999999 999999 999999 999999 999999 999999 999999 999999 999999 999999 999999 999999 0 999999 999999 999999 999999 999999 999999 999999 999999 999999 999999 999999 999999 999999 999999 999999 999999 999999 999999 999999 999999 999999 999999 999999 999999 999999 999999 999999 999999 999999 999999 999999 999999 999999 999999 999999 999999 999999 999999 999999 999999 999999 999999 999999 999999 999999 999999 999999 999999 999999 999999 999999 999999 999999 999999 999999 999999 999999 999999 999999 999999 999999 999999 999999 999999 999999 999999 999999 999999 999999 999999 999999 999999 999999 999999 999999 999999 999999 5093
999999 19522 14569 11288 15250 12516 14287 18249 12522 14098 13951 18616 10476 13428 15102 19783 17870 13519 12581 12907 13747 16383 12018 12311 15194 13161 16782 16780 10393 14825 10097 11739 13487 18975 19093 18846 13782 16357 12906 10423 18907 18908 18063 12895 15720 12348 16938 19285 12479 12320 16808 13368 13613 18510 14092 14117 18923 19198 11923 18615 15174 14510 17414 17556 16690 17801 11856 12965 12088 11095 17026 11393 17367 11703 19590 11681 13866 19562 13759 18444 11390 13569 19817 18789 18461 19106 17254 19622 12328 16436 16076 10070 11515 10666 16952 17650 17373 17144 12953 10432 16461 999999 999999 999999 999999 999999 999999 999999 999999 999999 999999 999999 999999 999999 999999 999999 999999 999999 999999 999999 999999 999999 999999 999999 0 999999 999999 999999 999999 999999 999999 999999 999999 999999 999999 999999 999999 999999 999999 999999 999999 999999 999999 999999 999999 999999 999999 999999 999999 999999 999999 999999 999999 999999 999999 999999 999999 999999 999999 999999 999999 999999 999999 999999 999999 999999 999999 999999 999999 999999 999999 999999 999999 999999 999999 999999 999999 999999 999999 999999 999999 999999 999999 999999 999999 999999 999999 999999 999999 999999 999999 999999 999999 999999 999999 999999 999999 999999 999999 999999 999999 9324
999999 12849 17628 15448 19892 16092 16751 10570 19625 14327 17150 10514 17420 13442 17807 11986 11395 16111 11966 16100 12820 12622 17596 11836 14362 18117 11467 18293 18213 17592 12810 17269 14283 15889 19169 12944 19756 11932 10923 17041 18927 18671 12952 11500 14191 10918 16442 16482 17009 16606 18723 18294 15331 12681 13178 17145 11194 17781 11826 14257 12034 14544 12767 14125 16195 10330 16756 16443 17201 16437 10202 14453 14021 15239 13566 15862 12485 12903 16307 10958 19300 18490 18954 11067 16845 16624 12494 10508 18440 15819 17680 19350 10010 12178 18862 16247 13812 15713 16830 11129 18888 999999 999999 999999 999999 999999 999999 999999 999999 999999 999999 999999 999999 999999 999999 999999 999999 999999 999999 999999 999999 999999 999999 999999 999999 0 999999 999999 999999 999999 999999 999999 999999 999999 999999 999999 999999 999999 999999 999999 999999 999999 999999 999999 999999 999999 999999 999999 999999 999999 999999 999999 999999 999999 999999 999999 999999 999999 999999 999999 999999 999999 999999 999999 999999 999999 999999 999999 999999 999999 999999 999999 999999 999999 999999 999999 999999 999999 999999 999999 999999 999999 999999 999999 999999 999999 999999 999999 999999 999999 999999 999999 999999 999999 999999 999999 999999 999999 999999 999999 999999 11343
999999 11571 11396 11885 16751 13010 16477 19487 13015 19692 14911 14189 13823 16493 18296 12248 15018 12043 12248 19225 18022 17544 15475 16477 19728 17449 15001 16243 18794 16830 12476 16228 14230 14670 17253 19432 12702 15848 13523 11316 16421 16394 11622 13880 10606 14535 19547 18280 14637 10411 16609 19422 19305 10110 19220 15898 10254 18098 17947 14897 14737 18832 11805 17314 11924 12018 11133 14463 11997 16518 15123 11754 11972 12766 15983 14617 15589 14959 17087 12659 15369 15002 16053 10471 16750 18679 10316 15796 13189 18495 17013 17008 17005 10639 12751 14404 12744 16715 14520 15581 13681 999999 999999 999999 999999 999999 999999 999999 999999 999999 999999 999999 999999 999999 999999 999999 999999 999999 999999 999999 999999 999999 999999 999999 999999 999999 0 999999 999999 999999 999999 999999 999999 999999 999999 999999 999999 999999 999999 999999 999999 999999 999999 999999 999999 999999 999999 999999 999999 999999 999999 999999 999999 999999 999999 999999 999999 999999 999999 999999 999999 999999 999999 999999 999999 999999 999999 999999 999999 999999 999999 999999 999999 999999 999999 999999 999999 999999 999999 999999 999999 999999 999999 999999 999999 999999 999999 999999 999999 999999 999999 999999 999999 999999 999999 999999 999999 999999 999999 999999 999999 12290
999999 10956 10873 19635 17577 10484 18303 15398 18329 16647 13810 17560 10257 14207 18331 13278 13066 14900 14011 13380 13607 15116 11355 15388 11264 17795 15944 18067 17755 10091 17222 19896 20000 13139 13623 13597 13117 13993 10022 19142 15067 13693 13159 18437 14111 13569 14691 13455 11790 16317 11948 10096 12221 11679 13658 10186 14063 10254 11992 14561 16870 15066 14276 15953 14018 19397 17180 18694 15491 11381 17700 19612 11397 14344 16525 12962 12766 11916 13366 17382 13026 19647 18174 18095 17630 16518 13553 12300 18415 17915 17765 17448 11629 18873 15763 18234 14545 11580 17148 16806 18415 999999 999999 999999 999999 999999 999999 999999 999999 999999 999999 999999 999999 999999 999999 999999 999999 999999 999999 999999 999999 999999 999999 999999 999999 999999 999999 0 999999 999999 999999 999999 999999 999999 999999 999999 999999 999999 999999 999999 999999 999999 999999 999999 999999 999999 999999 999999 999999 999999 999999 999999 999999 999999 999999 999999 999999 999999 999999 999999 999999 999999 999999 999999 999999 999999 999999 999999 999999 999999 999999 999999 999999 999999 999999 999999 999999 999999 999999 999999 999999 999999 999999 999999 999999 999999 999999 999999 999999 999999 999999 999999 999999 999999 999999 999999 999999 999999 999999 999999 999999 8156
999999 17178 19170 16675 16428 19590 11417 12475 19766 19574 19694 19085 17132 19659 19293 17425 17448 11345 15162 19620 15768 17445 10638 12904 15041 14256 18444 16851 13654 12579 12434 10200 15037 16458 19926 15486 10928 13712 15734 18127 18370 12763 17407 18081 15369 10178 16813 18228 19400 10935 18435 10775 12631 15607 11351 16595 14890 15436 11969 17324 15581 17136 15435 18673 10203 17188 11941 10939 13182 14929 14056 12555 17632 15396 11701 17031 17472 12598 15017 12741 10079 16398 10615 14560 10440 14133 14687 17083 15384 12507 17635 19337 16915 16126 18886 17093 15330 12502 15549 14657 12807 999999 999999 999999 999999 999999 999999 999999 999999 999999 999999 999999 999999 999999 999999 999999 999999 999999 999999 999999 999999 999999 999999 999999 999999 999999 999999 999999 0 999999 999999 999999 999999 999999 999999 999999 999999 999999 999999 999999 999999 999999 999999 999999 999999 999999 999999 999999 999999 999999 999999 999999 999999 999999 999999 999999 999999 999999 999999 999999 999999 999999 999999 999999 999999 999999 999999 999999 999999 999999 999999 999999 999999 999999 999999 999999 999999 999999 999999 999999 999999 999999 999999 999999 999999 999999 999999 999999 999999 999999 999999 999999 999999 999999 999999 999999 999999 999999 999999 999999 999999 10210
999999 16479 14739 17817 18773 14769 15677 10346 19005 10297 16425 17764 17964 11866 10829 10653 11500 15504 13961 10082 16183 14387 17410 18834 17511 14781 19507 12420 15891 12056 18579 15764 16564 10383 13217 19802 14218 11734 11751 14054 15412 15082 11739 10529 12016 19009 14170 19078 14038 19528 17451 14037 10357 17187 15989 13314 14334 18775 11566 12671 15441 19799 16318 12200 15152 12470 11471 19089 14614 14133 14562 14930 16132 19100 18904 10982 12128 12519 14146 17600 17301 11541 15892 10748 18468 15380 11675 13402 19569 14067 12129 18296 13494 15488 16776 11362 12318 19242 16336 15242 10150 999999 999999 999999 999999 999999 999999 999999 999999 999999 999999 999999 999999 999999 999999 999999 999999 999999 999999 999999 999999 999999 999999 999999 999999 999999 999999 999999 999999 0 999999 999999 999999 999999 999999 999999 999999 999999 999999 999999 999999 999999 999999 999999 999999 999999 999999 999999 999999 999999 999999 999999 999999 999999 999999 999999 999999 999999 999999 999999 999999 999999 999999 999999 999999 999999 999999 999999 999999 999999 999999 999999 999999 999999 999999 999999 999999 999999 999999 999999 999999 999999 999999 999999 999999 999999 999999 999999 999999 999999 999999 999999 999999 999999 999999 999999 999999 999999 999999 999999 999999 7240
999999 19891 16028 11956 13777 18016 17782 18253 19103 12565 12111 10142 13120 14877 14479 18126 12731 19493 10980 15318 12325 17210 11608 17074 14370 16803 16746 19448 16612 10266 11861 15769 16317 15668 17159 11300 11565 14442 10704 11907 15700 17090 10270 16791 12854 19199 14598 16707 10169 11051 18382 16666 16040 16817 17553 12609 16942 10648 10886 12445 10329 19748 10854 19410 18456 16338 19286 18497 12033 13107 14856 17400 10669 17075 17538 14905 17786 15663 13159 18663 14432 14686 17668 12146 18552 17166 13866 17161 15458 15731 12576 19305 11063 17251 14415 10894 19365 19925 19564 18951 16460 999999 999999 999999 999999 999999 999999 999999 999999 999999 999999 999999 999999 999999 999999 999999 999999 999999 999999 999999 999999 999999 999999 999999 999999 999999 999999 999999 999999 999999 0 999999 999999 999999 999999 999999 999999 999999 999999 999999 999999 999999 999999 999999 999999 999999 999999 999999 999999 999999 999999 999999 999999 999999 999999 999999 999999 999999 999999 999999 999999 999999 999999 999999 999999 999999 999999 999999 999999 999999 999999 999999 999999 999999 999999 999999 999999 999999 999999 999999 999999 999999 999999 999999 999999 999999 999999 999999 999999 999999 999999 999999 999999 999999 999999 999999 999999 999999 999999 999999 999999 10629
999999 15001 12852 16259 11374 16892 13840 17238 19782 12284 17565 10975 16200 16417 16937 16330 10137 17264 16373 14574 10525 11524 19042 10318 18720 19065 11081 19839 19076 10089 10816 18068 18851 16579 11190 14440 10030 16172 11684 17539 14977 17353 19548 12152 13749 18440 15534 14139 12405 19228 19174 12136 17093 17119 15900 14515 14112 17945 10678 19866 18990 18914 14202 17233 13315 16582 16052 17888 13211 15923 16044 17968 17411 16633 11093 13205 12656 16269 15354 19517 12420 14501 13176 12322 16922 18577 11202 19787 12478 17300 10685 15971 11272 11852 18857 12462 12136 11599 13885 12678 16770 999999 999999 999999 999999 999999 999999 999999 999999 999999 999999 999999 999999 999999 999999 999999 999999 999999 999999 999999 999999 999999 999999 999999 999999 999999 999999 999999 999999 999999 999999 0 999999 999999 999999 999999 999999 999999 999999 999999 999999 999999 999999 999999 999999 999999 999999 999999 999999 999999 999999 999999 999999 999999 999999 999999 999999 999999 999999 999999 999999 999999 999999 999999 999999 999999 999999 999999 999999 999999 999999 999999 999999 999999 999999 999999 999999 999999 999999 999999 999999 999999 999999 999999 999999 999999 999999 999999 999999 999999 999999 999999 999999 999999 999999 999999 999999 999999 999999 999999 999999 13162
999999 18270 18414 12141 12028 19186 16700 13110 19918 19635 18459 12632 15281 19727 13830 13310 11573 10363 15483 15145 18994 17010 14008 16713 11662 18628 12569 13751 13956 10101 18269 14026 17868 14530 15026 14484 12152 18813 13738 11893 15519 12510 15090 17069 17101 11097 15794 18075 13340 12049 17301 11600 15641 12180 19870 11277 14757 11025 14754 13987 17679 10302 14607 17154 11554 19854 16514 15652 19492 17641 17600 19803 13109 11689 10402 16987 12598 12164 16836 12889 10475 17392 18892 19148 19011 14170 18308 13627 10526 18848 12184 12649 19420 18470 15293 11709 18369 12336 19470 12039 18733 999999 999999 999999 999999 999999 999999 999999 999999 999999 999999 999999 999999 999999 999999 999999 999999 999999 999999 999999 999999 999999 999999 999999 999999 999999 999999 999999 999999 999999 999999 999999 0 999999 999999 999999 999999 999999 999999 999999 999999 999999 999999 999999 999999 999999 999999 999999 999999 999999 999999 999999 999999 999999 999999 999999 999999 999999 999999 999999 999999 999999 999999 999999 999999 999999 999999 999999 999999 999999 999999 999999 999999 999999 999999 999999 999999 999999 999999 999999 999999 999999 999999 999999 999999 999999 999999 999999 999999 999999 999999 999999 999999 999999 999999 999999 999999 999999 999999 999999 999999 14885
999999 16581 11712 16300 10059 13882 10326 14197 19009 17547 11677 13406 15881 18771 16976 14229 15896 13707 14591 14496 14305 17828 17633 18378 19673 16577 14085 15477 11584 17596 12687 14003 15491 17864 18939 17114 18078 12650 16853 15838 18133 10534 19360 12029 14294 19048 14586 11950 15026 18599 15447 17029 14007 18315 11331 15954 12940 16926 11635 19399 17289 19442 18608 12670 13659 18256 11398 16134 19125 16225 12112 16049 19222 11495 12414 15154 12718 10184 12110 16014 15709 11760 13534 17364 14323 19272 19176 11058 10420 18554 17518 17086 16801 11750 16903 15965 10386 17207 12756 19171 15676 999999 999999 999999 999999 999999 999999 999999 999999 999999 999999 999999 999999 999999 999999 999999 999999 999999 999999 999999 999999 999999 999999 999999 999999 999999 999999 999999 999999 999999 999999 999999 999999 0 999999 999999 999999 999999 999999 999999 999999 999999 999999 999999 999999 999999 999999 999999 999999 999999 999999 999999 999999 999999 999999 999999 999999 999999 999999 999999 999999 999999 999999 999999 999999 999999 999999 999999 999999 999999 999999 999999 999999 999999 999999 999999 999999 999999 999999 999999 999999 999999 999999 999999 999999 999999 999999 999999 999999 999999 999999 999999 999999 999999 999999 999999 999999 999999 999999 999999 999999 10782
999999 10330 16886 18930 17329 16217 12377 18945 15514 17207 17264 19709 11426 13957 14894 15985 10475 14942 18253 17329 13603 11780 19792 15119 14307 19476 14981 13754 11701 13672 16228 10856 11808 17023 10030 10705 14474 15413 19184 16562 18723 10300 15445 18841 12337 15613 17361 12989 19038 14609 19880 12417 16516 12624 18069 12684 11474 17705 15487 15625 11798 13942 15262 19593 16894 16984 16091 18039 19799 15530 16646 12048 14180 16965 16042 10872 18634 19268 18998 10773 14065 16171 12196 10633 10089 19035 10684 19860 18447 14989 12517 19315 16618 16747 10026 12153 13233 13415 15066 17195 15649 999999 999999 999999 999999 999999 999999 999999 999999 999999 999999 999999 999999 999999 999999 999999 999999 999999 999999 999999 999999 999999 999999 999999 999999 999999 999999 999999 999999 999999 999999 999999 999999 999999 0 999999 999999 999999 999999 999999 999999 999999 999999 999999 999999 999999 999999 999999 999999 999999 999999 999999 999999 999999 999999 999999 999999 999999 999999 999999 999999 999999 999999 999999 999999 999999 999999 999999 999999 999999 999999 999999 999999 999999 999999 999999 999999 999999 999999 999999 999999 999999 999999 999999 999999 999999 999999 999999 999999 999999 999999 999999 999999 999999 999999 999999 999999 999999 999999 999999 999999 9898
999999 10933 11271 13771 18934 14839 16426 12763 14297 13646 10029 19925 10415 11452 12563 17167 10257 12117 14498 11684 14709 12434 11930 16504 15645 12873 16580 15800 17450 19838 13377 19181 14399 17826 10574 12576 10580 10068 15085 13808 16953 16513 13824 14438 16514 13748 10968 13068 12798 19339 19387 16805 11385 19862 10290 14158 10801 12915 13959 16868 15952 15973 12150 15034 14189 19289 17598 10909 14022 17183 16457 18471 12637 16025 16869 15925 16456 18493 16347 18942 18345 12504 12730 10297 16019 15295 11387 16621 11772 18468 17961 13442 14337 11181 12401 18383 11751 14492 18877 16166 15476 999999 999999 999999 999999 999999 999999 999999 999999 999999 999999 999999 999999 999999 999999 999999 999999 999999 999999 999999 999999 999999 999999 999999 999999 999999 999999 999999 999999 999999 999999 999999 999999 999999 999999 0 999999 999999 999999 999999 999999 999999 999999 999999 999999 999999 999999 999999 999999 999999 999999 999999 999999 999999 999999 999999 999999 999999 999999 999999 999999 999999 999999 999999 999999 999999 999999 999999 999999 999999 999999 999999 999999 999999 999999 999999 999999 999999 999999 999999 999999 999999 999999 999999 999999 999999 999999 999999 999999 999999 999999 999999 999999 999999 999999 999999 999999 999999 999999 999999 999999 12785
999999 16395 10928 12575 15059 19774 12985 10749 10273 10858 17487 17184 13115 17228 13155 19165 12969 10716 12428 10456 14868 12380 16618 11564 13431 13262 10583 15310 18353 13032 11511 19006 12833 14960 15684 11121 19022 16550 18988 19100 16439 18514 19419 10056 18745 16911 11530 11085 15155 13171 18268 17242 19133 14603 12689 19861 13194 14774 18864 17207 16873 12937 12478 11732 10819 15888 19012 10850 16732 18941 12630 16241 15877 15162 18898 18340 18491 19967 12790 15661 14749 11258 13260 14529 14939 11292 17402 12480 17885 18195 18667 11532 12410 17801 16209 18785 19889 11778 19362 15989 17219 999999 999999 999999 999999 999999 999999 999999 999999 999999 999999 999999 999999 999999 999999 999999 999999 999999 999999 999999 999999 999999 999999 999999 999999 999999 999999 999999 999999 999999 999999 999999 999999 999999 999999 999999 0 999999 999999 999999 999999 999999 999999 999999 999999 999999 999999 999999 999999 999999 999999 999999 999999 999999 999999 999999 999999 999999 999999 999999 999999 999999 999999 999999 999999 999999 999999 999999 999999 999999 999999 999999 999999 999999 999999 999999 999999 999999 999999 999999 999999 999999 999999 999999 999999 999999 999999 999999 999999 999999 999999 999999 999999 999999 999999 999999 999999 999999 999999 999999 999999 12403
999999 16655 11448 17731 12623 13357 12443 16389 12470 14009 10674 17306 15031 18099 19224 10871 16445 19493 14212 16630 18035 18210 10711 11423 19593 13397 17528 14092 16279 10508 18009 10928 19131 12194 18916 13260 12579 19082 16473 15130 18336 12615 10352 13144 18065 14475 18673 19175 15268 11736 12417 18611 13610 14474 16761 19961 17528 19445 18646 17167 11785 10174 10907 18276 16232 18394 14479 14897 18008 19108 13861 18613 17810 17388 11917 16268 13543 18013 11245 17533 14667 10866 19286 12642 17287 16717 10308 11705 16335 15529 11313 16569 13592 19558 16159 10463 11726 15009 10030 17202 15015 999999 999999 999999 999999 999999 999999 999999 999999 999999 999999 999999 999999 999999 999999 999999 999999 999999 999999 999999 999999 999999 999999 999999 999999 999999 999999 999999 999999 999999 999999 999999 999999 999999 999999 999999 999999 0 999999 999999 999999 999999 999999 999999 999999 999999 999999 999999 999999 999999 999999 999999 999999 999999 999999 999999 999999 999999 999999 999999 999999 999999 999999 999999 999999 999999 999999 999999 999999 999999 999999 999999 999999 999999 999999 999999 999999 999999 999999 999999 999999 999999 999999 999999 999999 999999 999999 999999 999999 999999 999999 999999 999999 999999 999999 999999 999999 999999 999999 999999 999999 10141
999999 11576 10537 11876 16467 15908 13281 13897 12295 18439 11814 12125 14867 13245 15388 10740 19372 16301 11298 16520 16041 13222 16179 10649 11159 10776 13543 10789 14165 13451 12609 15564 19165 14218 16466 16514 10709 13787 17571 16558 14607 16983 16127 13170 16955 18619 18777 15690 18482 13045 19025 10541 10594 14953 18684 15174 19956 15232 11790 12280 10698 14220 16985 17829 13628 19226 11984 15696 16708 13573 12490 13830 13083 17105 19521 17736 10780 10584 13839 19264 16107 12712 18432 10052 10902 13609 14942 18042 19515 12517 15949 19111 14964 14910 18044 11393 16390 10999 18166 11796 17790 999999 999999 999999 999999 999999 999999 999999 999999 999999 999999 999999 999999 999999 999999 999999 999999 999999 999999 999999 999999 999999 999999 999999 999999 999999 999999 999999 999999 999999 999999 999999 999999 999999 999999 999999 999999 999999 0 999999 999999 999999 999999 999999 999999 999999 999999 999999 999999 999999 999999 999999 999999 999999 999999 999999 999999 999999 999999 999999 999999 999999 999999 999999 999999 999999 999999 999999 999999 999999 999999 999999 999999 999999 999999 999999 999999 999999 999999 999999 999999 999999 999999 999999 999999 999999 999999 999999 999999 999999 999999 999999 999999 999999 999999 999999 999999 999999 999999 999999 999999 9489
999999 14431 14459 18989 19676 15489 10658 17486 19274 17019 12013 13336 16309 17964 12034 14981 13014 10674 10387 11052 11132 15203 11500 15066 19275 17668 15173 15281 14358 15726 14310 14933 11073 10148 16664 16397 16246 18161 12878 19223 16010 18831 13577 19871 15143 11864 19119 19569 18922 13691 12739 19233 12865 19169 14585 14445 10879 16571 11959 14208 14022 14777 13357 12260 19851 18085 13598 11495 15910 10083 11638 19800 11938 14307 10527 11489 14515 15587 16214 13191 13966 10729 14070 13641 13556 18140 13839 15627 18838 19787 13350 13862 15582 17312 10154 18490 15356 13200 10471 13253 17694 999999 999999 999999 999999 999999 999999 999999 999999 999999 999999 999999 999999 999999 999999 999999 999999 999999 999999 999999 999999 999999 999999 999999 999999 999999 999999 999999 999999 999999 999999 999999 999999 999999 999999 999999 999999 999999 999999 0 999999 999999 999999 999999 999999 999999 999999 999999 999999 999999 999999 999999 999999 999999 999999 999999 999999 999999 999999 999999 999999 999999 999999 999999 999999 999999 999999 999999 999999 999999 999999 999999 999999 999999 999999 999999 999999 999999 999999 999999 999999 999999 999999 999999 999999 999999 999999 999999 999999 999999 999999 999999 999999 999999 999999 999999 999999 999999 999999 999999 999999 5388
999999 16457 13474 18585 18836 10649 12387 18217 12584 10953 18734 16150 19636 13690 17221 15903 15293 16292 15658 15738 16392 12038 19300 19161 10705 19145 13270 17222 19974 15219 10307 12470 19379 12777 14441 10423 13914 17300 12789 19571 18755 18771 10444 17848 17059 11683 16004 16342 17586 10152 11549 18787 13372 18651 12896 17319 16346 11604 12421 17173 14167 18850 15365 10029 19863 10424 10631 12718 18800 19827 13484 11058 13639 10826 16453 12886 12669 11210 19818 13565 17969 13652 17109 17391 18880 14643 15820 11120 13779 15136 16429 19650 13578 12431 12408 11192 13259 18688 11165 12668 10721 999999 999999 999999 999999 999999 999999 999999 999999 999999 999999 999999 999999 999999 999999 999999 999999 999999 999999 999999 999999 999999 999999 999999 999999 999999 999999 999999 999999 999999 999999 999999 999999 999999 999999 999999 999999 999999 999999 999999 0 999999 999999 999999 999999 999999 999999 999999 999999 999999 999999 999999 999999 999999 999999 999999 999999 999999 999999 999999 999999 999999 999999 999999 999999 999999 999999 999999 999999 999999 999999 999999 999999 999999 999999 999999 999999 999999 999999 999999 999999 999999 999999 999999 999999 999999 999999 999999 999999 999999 999999 999999 999999 999999 999999 999999 999999 999999 999999 999999 999999 13204
999999 19846 18985 18974 19047 18840 17422 13780 18945 17668 16940 13793 12277 18373 10001 18700 15831 11723 12461 19758 11221 15084 10490 16737 15211 11082 16884 14138 14848 18176 12976 11128 19899 10115 10210 11321 11598 13666 17066 12013 13528 16372 16378 14811 19151 18608 16954 15637 14815 19782 18942 17762 12471 17183 10036 18057 19904 15342 17422 11963 10098 10699 15123 15221 12268 18736 10710 18268 14997 11620 11002 14986 16574 15869 17880 10468 14651 13414 11530 18984 14406 19757 17814 13820 10401 14672 11227 13471 10375 13262 17853 11720 18989 18538 10106 10041 11589 14113 12869 14522 15701 999999 999999 999999 999999 999999 999999 999999 999999 999999 999999 999999 999999 999999 999999 999999 999999 999999 999999 999999 999999 999999 999999 999999 999999 999999 999999 999999 999999 999999 999999 999999 999999 999999 999999 999999 999999 999999 999999 999999 999999 0 999999 999999 999999 999999 999999 999999 999999 999999 999999 999999 999999 999999 999999 999999 999999 999999 999999 999999 999999 999999 999999 999999 999999 999999 999999 999999 999999 999999 999999 999999 999999 999999 999999 999999 999999 999999 999999 999999 999999 999999 999999 999999 999999 999999 999999 999999 999999 999999 999999 999999 999999 999999 999999 999999 999999 999999 999999 999999 999999 7304
999999 17101 19589 18921 12343 19637 19218 15546 14186 16757 11115 17324 19297 13113 10743 19612 16048 15872 19509 14697 15310 19274 13062 13413 14913 17142 12092 12007 11634 12437 15522 11916 18627 16962 16390 13181 19564 15879 18988 18674 17260 17391 16442 14661 12991 12316 14920 18208 14486 13072 16296 18341 16829 12873 11920 12825 13984 13217 12377 13738 17893 15016 18001 10898 16789 13248 12440 17967 19859 14132 19981 14817 12935 19484 13554 11688 19236 19004 19320 12803 16734 11518 12480 10247 14250 19703 11212 11020 16787 12129 12644 17462 18718 19500 17495 10035 13112 10397 14119 19390 18510 999999 999999 999999 999999 999999 999999 999999 999999 999999 999999 999999 999999 999999 999999 999999 999999 999999 999999 999999 999999 999999 999999 999999 999999 999999 999999 999999 999999 999999 999999 999999 999999 999999 999999 999999 999999 999999 999999 999999 999999 999999 0 999999 999999 999999 999999 999999 999999 999999 999999 999999 999999 999999 999999 999999 999999 999999 999999 999999 999999 999999 999999 999999 999999 999999 999999 999999 999999 999999 999999 999999 999999 999999 999999 999999 999999 999999 999999 999999 999999 999999 999999 999999 999999 999999 999999 999999 999999 999999 999999 999999 999999 999999 999999 999999 999999 999999 999999 999999 999999 12510
999999 17896 14634 19906 10791 12499 12294 17631 15631 18899 18758 11407 17235 12489 18576 11690 16611 18253 13397 17630 19009 10216 12099 17886 10159 12245 13204 16645 19030 11571 14455 13310 10826 18893 17084 13428 15023 13190 17667 14739 15810 19424 17423 10219 13256 15310 17891 13937 11151 12999 18579 13877 13696 11722 14644 17803 15302 12359 15268 15355 16035 17607 10894 18409 12504 19695 10298 12847 16306 15646 11872 12756 12106 18405 10236 12854 10770 11651 19793 14770 14720 13204 18453 19183 17616 18554 12913 10184 18400 11555 14890 14709 12685 12152 14755 15875 13148 16079 14139 10929 14092 999999 999999 999999 999999 999999 999999 999999 999999 999999 999999 999999 999999 999999 999999 999999 999999 999999 999999 999999 999999 999999 999999 999999 999999 999999 999999 999999 999999 999999 999999 999999 999999 999999 999999 999999 999999 999999 999999 999999 999999 999999 999999 0 999999 999999 999999 999999 999999 999999 999999 999999 999999 999999 999999 999999 999999 999999 999999 999999 999999 999999 999999 999999 999999 999999 999999 999999 999999 999999 999999 999999 999999 999999 999999 999999 999999 999999 999999 999999 999999 999999 999999 999999 999999 999999 999999 999999 999999 999999 999999 999999 999999 999999 999999 999999 999999 999999 999999 999999 999999 9869
999999 18364 17941 13316 17020 11079 16415 14144 16711 16088 10313 18163 14296 18623 11761 13398 14201 11423 16091 10023 17314 16144 17268 10898 10546 16062 16566 14380 18810 18418 13481 19294 12040 12955 12480 18766 11007 13972 14761 11104 19109 11456 13348 16556 15671 13656 10551 11797 14333 17100 19548 18587 10173 14527 11341 15066 14894 18129 16160 19706 11924 11967 13895 14934 19846 18158 16892 14421 16426 11353 17269 19539 10417 19003 12107 19324 12111 19362 18002 14926 12019 17053 15652 11184 17410 18557 15605 18788 10734 15261 15061 17942 10270 17509 12882 16353 17020 18025 12229 14651 18787 999999 999999 999999 999999 999999 999999 999999 999999 999999 999999 999999 999999 999999 999999 999999 999999 999999 999999 999999 999999 999999 999999 999999 999999 999999 999999 999999 999999 999999 999999 999999 999999 999999 999999 999999 999999 999999 999999 999999 999999 999999 999999 999999 0 999999 999999 999999 999999 999999 999999 999999 999999 999999 999999 999999 999999 999999 999999 999999 999999 999999 999999 999999 999999 999999 999999 999999 999999 999999 999999 999999 999999 999999 999999 999999 999999 999999 999999 999999 999999 999999 999999 999999 999999 999999 999999 999999 999999 999999 999999 999999 999999 999999 999999 999999 999999 999999 999999 999999 999999 6047
999999 14946 10551 11675 11969 17891 19614 11507 14128 18081 19681 11278 15482 18276 17763 14422 19040 14948 15688 13440 14725 13850 14518 17251 13511 11298 10281 16180 19074 19230 17841 15625 18937 15630 14117 18587 15226 10986 12376 12532 17683 10169 11792 15359 17585 10374 15996 11636 14985 14514 19794 19462 15637 14306 19289 19667 12084 14418 15882 18058 10975 16335 11104 18053 16464 13164 10927 18533 19447 15396 17180 11230 12036 16724 18163 10325 15700 19305 18061 19246 18124 17357 17477 12965 14576 14599 12262 15620 16261 13162 19039 14296 16191 15488 14070 10992 13410 12235 11141 12396 10217 999999 999999 999999 999999 999999 999999 999999 999999 999999 999999 999999 999999 999999 999999 999999 999999 999999 999999 999999 999999 999999 999999 999999 999999 999999 999999 999999 999999 999999 999999 999999 999999 999999 999999 999999 999999 999999 999999 999999 999999 999999 999999 999999 999999 0 999999 999999 999999 999999 999999 999999 999999 999999 999999 999999 999999 999999 999999 999999 999999 999999 999999 999999 999999 999999 999999 999999 999999 999999 999999 999999 999999 999999 999999 999999 999999 999999 999999 999999 999999 999999 999999 999999 999999 999999 999999 999999 999999 999999 999999 999999 999999 999999 999999 999999 999999 999999 999999 999999 999999 9428
999999 18218 18848 13447 17187 17447 16772 13528 14143 17017 11491 12741 19905 17057 15879 17986 19132 13661 12643 11828 10010 16057 18946 19476 14198 14425 12960 17535 19536 11025 13403 19806 18055 11259 18290 17086 15931 10379 14613 10419 16330 12118 10746 11389 16363 18947 19216 15954 17969 13662 12866 13660 19273 11617 19044 11847 15883 10335 13543 18016 17750 12733 15364 16179 16730 18924 14567 18434 14556 11764 19749 16088 18288 15446 19899 19797 10162 15532 16777 13226 12513 19697 13458 19824 14382 13414 10907 10288 15359 10356 15367 18129 14537 14775 12663 15039 18035 12834 19389 15537 17869 999999 999999 999999 999999 999999 999999 999999 999999 999999 999999 999999 999999 999999 999999 999999 999999 999999 999999 999999 999999 999999 999999 999999 999999 999999 999999 999999 999999 999999 999999 999999 999999 999999 999999 999999 999999 999999 999999 999999 999999 999999 999999 999999 999999 999999 0 999999 999999 999999 999999 999999 999999 999999 999999 999999 999999 999999 999999 999999 999999 999999 999999 999999 999999 999999 999999 999999 999999 999999 999999 999999 999999 999999 999999 999999 999999 999999 999999 999999 999999 999999 999999 999999 999999 999999 999999 999999 999999 999999 999999 999999 999999 999999 999999 999999 999999 999999 999999 999999 999999 6322
999999 16610 16059 13572 16212 11610 14887 18907 19839 17556 13015 12542 17171 15686 12398 17090 15218 13190 10211 14898 10989 15200 17550 19214 12105 14382 19251 19663 18774 19797 19787 14097 15655 18258 10450 10347 10878 18034 18864 15663 15451 10011 11647 14220 18649 13176 14521 16519 15831 16876 13202 15770 19930 12500 11752 14255 13968 16065 18646 17048 12673 16961 17989 12855 16269 19530 15495 15842 18944 17163 12757 14702 18073 14821 12618 16970 15286 16228 12248 11293 10448 14449 13028 19531 10476 10501 14527 13000 19109 16287 10560 18952 17035 17211 18432 13433 16609 18519 11862 13065 18227 999999 999999 999999 999999 999999 999999 999999 999999 999999 999999 999999 999999 999999 999999 999999 999999 999999 999999 999999 999999 999999 999999 999999 999999 999999 999999 999999 999999 999999 999999 999999 999999 999999 999999 999999 999999 999999 999999 999999 999999 999999 999999 999999 999999 999999 999999 0 999999 999999 999999 999999 999999 999999 999999 999999 999999 999999 999999 999999 999999 999999 999999 999999 999999 999999 999999 999999 999999 999999 999999 999999 999999 999999 999999 999999 999999 999999 999999 999999 999999 999999 999999 999999 999999 999999 999999 999999 999999 999999 999999 999999 999999 999999 999999 999999 999999 999999 999999 999999 999999 5147
999999 15549 16375 19666 16822 14298 13060 17381 19637 15049 15615 12932 16084 13198 15895 11698 10971 10635 11124 14323 18757 10379 17667 18989 10641 19870 15678 16249 12756 12786 17054 10686 12753 14546 18165 14046 10547 19270 19956 15746 14064 18014 11991 17727 16163 13851 12629 11897 17361 11388 16893 12613 12033 13174 16350 19781 15985 12626 18879 15457 11090 16950 11226 19431 16735 14504 19097 12861 16171 17015 12058 12941 19908 14680 17085 12805 10856 11046 19490 13071 14179 13100 11388 14545 15814 15384 12561 12634 12035 16899 17524 17297 17743 12945 16031 14708 10596 14451 19482 15137 11343 999999 999999 999999 999999 999999 999999 999999 999999 999999 999999 999999 999999 999999 999999 999999 999999 999999 999999 999999 999999 999999 999999 999999 999999 999999 999999 999999 999999 999999 999999 999999 999999 999999 999999 999999 999999 999999 999999 999999 999999 999999 999999 999999 999999 999999 999999 999999 0 999999 999999 999999 999999 999999 999999 999999 999999 999999 999999 999999 999999 999999 999999 999999 999999 999999 999999 999999 999999 999999 999999 999999 999999 999999 999999 999999 999999 999999 999999 999999 999999 999999 999999 999999 999999 999999 999999 999999 999999 999999 999999 999999 999999 999999 999999 999999 999999 999999 999999 999999 999999 11040
999999 10492 12767 17231 18431 13349 10900 17048 19918 12707 12320 15901 13717 10437 12062 11340 16907 12848 14131 14021 12405 10780 17724 12034 14112 10518 10950 13522 10565 16642 16699 12351 18503 12606 18553 15637 13665 10387 13808 18545 11828 12628 10857 19265 10264 16751 18731 16913 15639 11158 18608 12643 19256 15306 15707 16536 11600 16459 12232 11600 13375 19636 16123 19845 11154 18262 18154 16473 18224 16253 11822 12106 17877 18853 16183 13649 15372 19900 17944 18434 14788 12062 14295 19879 14845 18875 15086 15491 19755 11697 18931 15916 12913 14141 19914 15260 17787 14614 11293 13378 12413 999999 999999 999999 999999 999999 999999 999999 999999 999999 999999 999999 999999 999999 999999 999999 999999 999999 999999 999999 999999 999999 999999 999999 999999 999999 999999 999999 999999 999999 999999 999999 999999 999999 999999 999999 999999 999999 999999 999999 999999 999999 999999 999999 999999 999999 999999 999999 999999 0 999999 999999 999999 999999 999999 999999 999999 999999 999999 999999 999999 999999 999999 999999 999999 999999 999999 999999 999999 999999 999999 999999 999999 999999 999999 999999 999999 999999 999999 999999 999999 999999 999999 999999 999999 999999 999999 999999 999999 999999 999999 999999 999999 999999 999999 999999 999999 999999 999999 999999 999999 11862
999999 10710 18379 17540 13032 16895 12433 17431 14130 10206 16520 11289 12167 11326 13823 10026 12516 16512 19094 12692 16092 13667 14461 13556 14993 19728 19731 12161 18289 10410 15145 18842 14598 19903 10525 18791 13275 12744 12655 10021 12380 15156 14910 14924 12571 12164 13486 13683 12375 12367 19303 10898 12684 14109 14972 16349 16853 16559 10052 12130 17053 19897 14136 16185 19084 16685 15060 18401 16214 11094 13310 14638 13937 13866 18641 16486 15361 13521 17149 14942 14718 10612 15394 10456 11889 16084 19901 17161 14199 13686 13322 11726 17856 17292 10797 13565 10980 19965 16134 19249 11332 999999 999999 999999 999999 999999 999999 999999 999999 999999 999999 999999 999999 999999 999999 999999 999999 999999 999999 999999 999999 999999 999999 999999 999999 999999 999999 999999 999999 999999 999999 999999 999999 999999 999999 999999 999999 999999 999999 999999 999999 999999 999999 999999 999999 999999 999999 999999 999999 999999 0 999999 999999 999999 999999 999999 999999 999999 999999 999999 999999 999999 999999 999999 999999 999999 999999 999999 999999 999999 999999 999999 999999 999999 999999 999999 999999 999999 999999 999999 999999 999999 999999 999999 999999 999999 999999 999999 999999 999999 999999 999999 999999 999999 999999 999999 999999 999999 999999 999999 999999 5719
999999 19450 11894 17810 14900 14066 15513 13371 16462 12881 14045 19017 16817 16294 12165 19982 16955 15919 13247 17178 16560 14531 10548 10204 18710 16756 19636 18021 15070 10662 14682 18986 18583 13023 17631 17492 19300 15160 13213 12304 18041 19421 10290 13484 19877 11416 12246 12504 11944 10835 15219 10728 18276 19171 17219 10777 11786 10258 19104 11850 16492 11494 16420 16866 14052 16674 19551 13512 15595 17190 17245 19006 17279 17164 10414 18550 16978 15005 12861 10886 14592 12180 11885 19396 17780 11721 16138 12750 17752 14536 15065 17932 10880 14929 14476 12575 19563 15915 11593 19138 11726 999999 999999 999999 999999 999999 999999 999999 999999 999999 999999 999999 999999 999999 999999 999999 999999 999999 999999 999999 999999 999999 999999 999999 999999 999999 999999 999999 999999 999999 999999 999999 999999 999999 999999 999999 999999 999999 999999 999999 999999 999999 999999 999999 999999 999999 999999 999999 999999 999999 999999 0 999999 999999 999999 999999 999999 999999 999999 999999 999999 999999 999999 999999 999999 999999 999999 999999 999999 999999 999999 999999 999999 999999 999999 999999 999999 999999 999999 999999 999999 999999 999999 999999 999999 999999 999999 999999 999999 999999 999999 999999 999999 999999 999999 999999 999999 999999 999999 999999 999999 11410
999999 11978 17377 11123 17005 19986 15143 16279 19027 19124 15230 13247 13173 10545 16779 12069 13680 19976 14237 11621 15794 10510 19053 18216 19343 13485 17983 13257 10299 19579 11367 17738 18149 13398 16132 12412 16116 18672 14531 17815 17574 14081 14357 17313 14241 19009 13637 11608 16010 17812 13361 11793 13396 11936 18202 18314 11660 18572 12435 19851 10191 13886 12370 19731 18635 11848 16488 13823 19695 17099 14412 12695 14822 18675 19944 15691 10695 19975 11965 12174 12354 14660 12120 13988 18557 17410 19975 16410 11548 16032 16256 13027 17162 18078 19701 14019 14601 17692 13540 11867 11644 999999 999999 999999 999999 999999 999999 999999 999999 999999 999999 999999 999999 999999 999999 999999 999999 999999 999999 999999 999999 999999 999999 999999 999999 999999 999999 999999 999999 999999 999999 999999 999999 999999 999999 999999 999999 999999 999999 999999 999999 999999 999999 999999 999999 999999 999999 999999 999999 999999 999999 999999 0 999999 999999 999999 999999 999999 999999 999999 999999 999999 999999 999999 999999 999999 999999 999999 999999 999999 999999 999999 999999 999999 999999 999999 999999 999999 999999 999999 999999 999999 999999 999999 999999 999999 999999 999999 999999 999999 999999 999999 999999 999999 999999 999999 999999 999999 999999 999999 999999 7037
999999 12218 13278 10581 15849 10296 13598 12076 14917 11813 10161 19047 15318 12769 11878 12084 19365 17208 11737 14897 15364 17668 10184 15814 11891 16169 10746 15239 18142 16520 11966 17274 14625 17477 13092 18539 14416 13738 11572 16871 10849 15555 18466 10545 18497 17947 16446 14647 18842 10243 12992 15508 14937 15115 12005 12394 16338 19946 14479 15441 16865 10510 19105 16993 17734 16019 11884 17224 14962 15366 16911 11150 11630 17629 10831 17042 10731 19343 11585 19902 13476 16752 11555 14832 11230 19114 15735 14066 12482 10414 15497 10859 13804 19196 18626 15815 19077 18872 14636 19845 10238 999999 999999 999999 999999 999999 999999 999999 999999 999999 999999 999999 999999 999999 999999 999999 999999 999999 999999 999999 999999 999999 999999 999999 999999 999999 999999 999999 999999 999999 999999 999999 999999 999999 999999 999999 999999 999999 999999 999999 999999 999999 999999 999999 999999 999999 999999 999999 999999 999999 999999 999999 999999 0 999999 999999 999999 999999 999999 999999 999999 999999 999999 999999 999999 999999 999999 999999 999999 999999 999999 999999 999999 999999 999999 999999 999999 999999 999999 999999 999999 999999 999999 999999 999999 999999 999999 999999 999999 999999 999999 999999 999999 999999 999999 999999 999999 999999 999999 999999 999999 12721
999999 18509 12429 18366 19576 13082 18297 15831 10867 15099 14757 18927 10388 10607 19979 19495 10054 11696 11121 12747 14445 11657 17752 15142 18095 14271 18320 16176 13544 12922 13550 10445 16689 19243 18183 12115 14414 16283 19548 15870 13462 14384 16025 19117 10489 13389 18508 10798 16824 11433 14171 19560 16325 13106 11913 15094 13309 16238 14989 17858 14012 19679 19148 10852 17702 11870 16394 10819 11801 15294 12155 11005 16590 13899 14514 18649 11445 13359 15482 18010 18541 16045 14604 12857 18146 10636 10677 13889 14124 15652 15921 17541 15701 17698 14031 12490 18730 16245 14059 18822 19764 999999 999999 999999 999999 999999 999999 999999 999999 999999 999999 999999 999999 999999 999999 999999 999999 999999 999999 999999 999999 999999 999999 999999 999999 999999 999999 999999 999999 999999 999999 999999 999999 999999 999999 999999 999999 999999 999999 999999 999999 999999 999999 999999 999999 999999 999999 999999 999999 999999 999999 999999 999999 999999 0 999999 999999 999999 999999 999999 999999 999999 999999 999999 999999 999999 999999 999999 999999 999999 999999 999999 999999 999999 999999 999999 999999 999999 999999 999999 999999 999999 999999 999999 999999 999999 999999 999999 999999 999999 999999 999999 999999 999999 999999 999999 999999 999999 999999 999999 999999 14278
999999 13144 19068 14674 14414 14819 14803 11968 18149 17174 16786 17385 19110 13832 17263 13271 10367 18684 14914 15456 12696 19835 13859 10630 19597 11066 11467 12047 14401 12943 10233 13496 16063 18446 15341 15892 11637 13129 10740 18280 12245 14923 12577 19417 18086 18874 18491 12554 16267 11898 10439 13934 15177 17065 17126 17415 14329 10527 10955 12149 19298 10559 14325 11291 18206 16337 17077 12471 15273 18231 12377 13705 11036 10439 13884 19718 15114 12342 18922 11194 11127 10311 11003 14349 15580 12857 12397 10103 19643 13866 17671 13464 13281 18685 14599 15757 10356 10314 18552 17574 13401 999999 999999 999999 999999 999999 999999 999999 999999 999999 999999 999999 999999 999999 999999 999999 999999 999999 999999 999999 999999 999999 999999 999999 999999 999999 999999 999999 999999 999999 999999 999999 999999 999999 999999 999999 999999 999999 999999 999999 999999 999999 999999 999999 999999 999999 999999 999999 999999 999999 999999 999999 999999 999999 999999 0 999999 999999 999999 999999 999999 999999 999999 999999 999999 999999 999999 999999 999999 999999 999999 999999 999999 999999 999999 999999 999999 999999 999999 999999 999999 999999 999999 999999 999999 999999 999999 999999 999999 999999 999999 999999 999999 999999 999999 999999 999999 999999 999999 999999 999999 11940
999999 16070 16272 10510 16749 12790 18943 12268 14571 15698 12503 12917 13904 10929 16611 13334 14303 17823 12226 12132 14555 12508 10252 18825 14852 11123 14226 13618 17895 15269 16783 15892 11957 16237 16233 19960 17454 13039 11808 18433 13413 17302 13337 10151 14112 16225 16362 11466 14962 15398 14990 11607 13042 10363 10680 14471 13455 13998 11176 13247 16769 12347 19327 11412 13451 10169 13142 17885 12978 12705 18593 18112 16237 10170 14159 13414 11826 15848 16567 18002 13892 17481 16864 14706 10511 17659 15015 15026 11777 16319 12748 15624 11177 15035 18775 18585 17559 10095 10520 13449 18055 999999 999999 999999 999999 999999 999999 999999 999999 999999 999999 999999 999999 999999 999999 999999 999999 999999 999999 999999 999999 999999 999999 999999 999999 999999 999999 999999 999999 999999 999999 999999 999999 999999 999999 999999 999999 999999 999999 999999 999999 999999 999999 999999 999999 999999 999999 999999 999999 999999 999999 999999 999999 999999 999999 999999 0 999999 999999 999999 999999 999999 999999 999999 999999 999999 999999 999999 999999 999999 999999 999999 999999 999999 999999 999999 999999 999999 999999 999999 999999 999999 999999 999999 999999 999999 999999 999999 999999 999999 999999 999999 999999 999999 999999 999999 999999 999999 999999 999999 999999 5329
999999 16227 12804 10049 18342 17308 18545 10556 16785 15042 17009 19295 13505 10667 16122 18203 16289 13501 15879 19731 12512 18545 10065 19732 18643 12663 13785 13382 12059 17689 12861 13011 10223 17331 18007 15563 18695 18872 14905 12075 17102 15972 18461 10260 13679 18643 13382 12630 11679 14601 15055 11298 12607 19635 12330 13625 18432 19456 12395 19080 15428 14885 19988 19836 19783 17690 16744 15841 19325 16315 19091 12549 14907 16560 14033 19395 15120 18111 19193 11343 12857 16756 16135 11494 10477 13901 17521 17517 15264 10526 18577 18504 15578 17836 13420 12409 12590 13332 17131 19407 16027 999999 999999 999999 999999 999999 999999 999999 999999 999999 999999 999999 999999 999999 999999 999999 999999 999999 999999 999999 999999 999999 999999 999999 999999 999999 999999 999999 999999 999999 999999 999999 999999 999999 999999 999999 999999 999999 999999 999999 999999 999999 999999 999999 999999 999999 999999 999999 999999 999999 999999 999999 999999 999999 999999 999999 999999 0 999999 999999 999999 999999 999999 999999 999999 999999 999999 999999 999999 999999 999999 999999 999999 999999 999999 999999 999999 999999 999999 999999 999999 999999 999999 999999 999999 999999 999999 999999 999999 999999 999999 999999 999999 999999 999999 999999 999999 999999 999999 999999 999999 12696
999999 18729 10930 10213 14915 13100 15264 19696 18424 14893 12033 15893 17176 10584 15225 11581 14495 10993 13333 14838 15500 18632 18766 14039 11113 19401 13854 17691 13368 12486 11355 11855 13626 13691 18224 18845 16420 13404 14191 19757 15888 16790 15965 12724 10929 15257 13892 17506 13142 19760 14318 11863 13464 14099 18130 19922 10463 13314 19447 12887 19022 19156 19808 12833 14152 16738 10828 12343 12437 10098 18151 16515 15378 15706 18560 17771 13848 19596 19405 10803 10516 16629 12121 12070 14253 15713 18019 16407 13688 10597 11132 10151 15634 13152 10384 10604 15762 18620 18545 11288 11709 999999 999999 999999 999999 999999 999999 999999 999999 999999 999999 999999 999999 999999 999999 999999 999999 999999 999999 999999 999999 999999 999999 999999 999999 999999 999999 999999 999999 999999 999999 999999 999999 999999 999999 999999 999999 999999 999999 999999 999999 999999 999999 999999 999999 999999 999999 999999 999999 999999 999999 999999 999999 999999 999999 999999 999999 999999 0 999999 999999 999999 999999 999999 999999 999999 999999 999999 999999 999999 999999 999999 999999 999999 999999 999999 999999 999999 999999 999999 999999 999999 999999 999999 999999 999999 999999 999999 999999 999999 999999 999999 999999 999999 999999 999999 999999 999999 999999 999999 999999 9235
999999 18187 10414 11975 14912 17544 18245 17970 12424 14093 12612 17493 13144 18718 11080 19995 12118 17901 15323 14128 18795 14257 11346 18209 17004 17802 18920 17477 15654 11516 13660 12306 19060 19596 11659 15207 10098 14912 12788 19248 18255 16245 10287 11112 19128 16693 11594 17416 19896 16297 13984 19851 18334 17188 14224 12660 14156 11691 14014 11756 12324 11534 14428 11220 12388 15235 15542 18727 12620 14144 12187 14960 15392 16134 16292 15277 19707 10861 18552 15515 13638 18375 16502 13016 18126 19990 12763 13563 14971 13438 14564 11084 16804 19635 11733 17697 19889 18117 12681 18754 16693 999999 999999 999999 999999 999999 999999 999999 999999 999999 999999 999999 999999 999999 999999 999999 999999 999999 999999 999999 999999 999999 999999 999999 999999 999999 999999 999999 999999 999999 999999 999999 999999 999999 999999 999999 999999 999999 999999 999999 999999 999999 999999 999999 999999 999999 999999 999999 999999 999999 999999 999999 999999 999999 999999 999999 999999 999999 999999 0 999999 999999 999999 999999 999999 999999 999999 999999 999999 999999 999999 999999 999999 999999 999999 999999 999999 999999 999999 999999 999999 999999 999999 999999 999999 999999 999999 999999 999999 999999 999999 999999 999999 999999 999999 999999 999999 999999 999999 999999 999999 7740
999999 19972 11800 16300 18705 11413 17617 15024 13966 13714 11415 12981 19494 11319 14829 19508 13654 16732 18600 11879 13055 12525 17792 10401 11221 13292 11717 12005 16239 16652 12627 18360 12161 12856 19049 12189 18062 13221 12144 18193 10410 14489 16547 16752 16779 15868 13609 10732 17376 18275 12259 11670 18321 14713 15381 15161 15685 12535 18045 14771 12356 17870 17134 16811 13201 18803 11835 10242 11207 10603 16932 18043 17742 16932 17349 17073 18445 14160 14019 13905 14328 13237 19822 16950 18930 11111 15669 18587 11450 15866 18354 19248 10622 19794 13512 12423 19814 17592 17449 10893 15509 999999 999999 999999 999999 999999 999999 999999 999999 999999 999999 999999 999999 999999 999999 999999 999999 999999 999999 999999 999999 999999 999999 999999 999999 999999 999999 999999 999999 999999 999999 999999 999999 999999 999999 999999 999999 999999 999999 999999 999999 999999 999999 999999 999999 999999 999999 999999 999999 999999 999999 999999 999999 999999 999999 999999 999999 999999 999999 999999 0 999999 999999 999999 999999 999999 999999 999999 999999 999999 999999 999999 999999 999999 999999 999999 999999 999999 999999 999999 999999 999999 999999 999999 999999 999999 999999 999999 999999 999999 999999 999999 999999 999999 999999 999999 999999 999999 999999 999999 999999 9398
999999 14055 19852 16301 11451 12304 13778 18739 14103 11826 16569 12852 17813 18579 19076 16920 12081 16182 10073 15932 13435 13731 13258 15944 14796 17389 18262 13890 12081 16514 13178 10915 18478 19245 18864 15377 11907 19454 18142 15081 19042 13478 16575 15818 11029 14568 10440 13875 18307 17481 17351 15282 16914 16164 14550 13454 16088 10342 17478 15079 10453 14618 15444 14056 12078 12567 15692 14622 13480 15392 14507 11216 12411 11717 15649 15471 17606 13699 14195 12699 17048 17494 11514 15678 13936 15119 12731 19428 15872 17882 18235 13997 18457 18980 14941 11271 11488 18556 11817 10036 13951 999999 999999 999999 999999 999999 999999 999999 999999 999999 999999 999999 999999 999999 999999 999999 999999 999999 999999 999999 999999 999999 999999 999999 999999 999999 999999 999999 999999 999999 999999 999999 999999 999999 999999 999999 999999 999999 999999 999999 999999 999999 999999 999999 999999 999999 999999 999999 999999 999999 999999 999999 999999 999999 999999 999999 999999 999999 999999 999999 999999 0 999999 999999 999999 999999 999999 999999 999999 999999 999999 999999 999999 999999 999999 999999 999999 999999 999999 999999 999999 999999 999999 999999 999999 999999 999999 999999 999999 999999 999999 999999 999999 999999 999999 999999 999999 999999 999999 999999 999999 14096
999999 11049 14341 11874 18910 15749 13859 12023 10300 16340 10175 15599 18440 13762 11690 15466 13104 18156 12052 13925 15572 12717 19137 14120 10223 19663 17611 12155 18090 11763 18390 16225 11536 18007 16906 16506 10359 15666 16043 17227 12381 15051 18842 19097 16831 15702 18657 15801 16981 10842 14088 12500 15720 13898 12016 16895 13164 14878 19940 14774 18405 16458 10894 15915 17279 18537 18826 16397 12436 16227 15012 15479 15493 11758 13400 10901 16666 14626 16284 13425 12445 15029 19410 17108 11712 14568 14089 19118 18643 15998 14346 18013 10876 19933 10666 14744 13048 18234 17276 18402 17124 999999 999999 999999 999999 999999 999999 999999 999999 999999 999999 999999 999999 999999 999999 999999 999999 999999 999999 999999 999999 999999 999999 999999 999999 999999 999999 999999 999999 999999 999999 999999 999999 999999 999999 999999 999999 999999 999999 999999 999999 999999 999999 999999 999999 999999 999999 999999 999999 999999 999999 999999 999999 999999 999999 999999 999999 999999 999999 999999 999999 999999 0 999999 999999 999999 999999 999999 999999 999999 999999 999999 999999 999999 999999 999999 999999 999999 999999 999999 999999 999999 999999 999999 999999 999999 999999 999999 999999 999999 999999 999999 999999 999999 999999 999999 999999 999999 999999 999999 999999 12961
999999 14985 11478 10055 12184 17529 14066 17480 13428 18099 18544 15842 18753 11930 18279 10506 18036 14180 14300 17378 14329 17263 14476 16873 18060 15255 17027 15323 17136 12026 15310 17016 11168 15337 12450 16471 13703 19342 16667 15791 14785 17073 19497 10678 18337 19964 13478 19750 10957 17219 15468 16843 15054 16688 16766 16809 11139 12587 19637 10794 10449 15695 15801 12659 13880 17623 13960 13065 13712 17709 16760 18393 15389 16421 19965 12036 13108 13590 10713 19294 18369 15503 12884 13954 11091 13411 10230 17577 18871 18344 12188 14111 14990 11020 13417 19947 18108 16978 18361 19244 13060 999999 999999 999999 999999 999999 999999 999999 999999 999999 999999 999999 999999 999999 999999 999999 999999 999999 999999 999999 999999 999999 999999 999999 999999 999999 999999 999999 999999 999999 999999 999999 999999 999999 999999 999999 999999 999999 999999 999999 999999 999999 999999 999999 999999 999999 999999 999999 999999 999999 999999 999999 999999 999999 999999 999999 999999 999999 999999 999999 999999 999999 999999 0 999999 999999 999999 999999 999999 999999 999999 999999 999999 999999 999999 999999 999999 999999 999999 999999 999999 999999 999999 999999 999999 999999 999999 999999 999999 999999 999999 999999 999999 999999 999999 999999 999999 999999 999999 999999 999999 9923
999999 18745 18630 12315 12218 17871 14638 15842 10720 19179 12882 13373 14112 18614 13200 19701 13551 14701 10314 10578 11887 15766 16532 19201 14256 12898 19530 11443 17783 18105 18812 11822 10105 19820 13345 14423 19553 12117 13754 15904 10589 16368 17625 14493 17435 19468 16226 17968 13179 15762 11183 14956 15682 11219 12118 10650 10784 13069 14892 13934 16353 15798 15207 13357 12111 14098 13684 18269 18441 17906 19827 13190 16767 17222 16096 14463 18954 17194 12586 15480 18711 19021 15073 13178 11011 14803 15005 10630 18910 13616 12994 18034 19793 12298 17419 19480 19782 13764 13113 15597 12659 999999 999999 999999 999999 999999 999999 999999 999999 999999 999999 999999 999999 999999 999999 999999 999999 999999 999999 999999 999999 999999 999999 999999 999999 999999 999999 999999 999999 999999 999999 999999 999999 999999 999999 999999 999999 999999 999999 999999 999999 999999 999999 999999 999999 999999 999999 999999 999999 999999 999999 999999 999999 999999 999999 999999 999999 999999 999999 999999 999999 999999 999999 999999 0 999999 999999 999999 999999 999999 999999 999999 999999 999999 999999 999999 999999 999999 999999 999999 999999 999999 999999 999999 999999 999999 999999 999999 999999 999999 999999 999999 999999 999999 999999 999999 999999 999999 999999 999999 999999 9919
999999 11318 13869 15145 18376 17655 11658 10330 12798 15879 10202 12723 13964 12223 19455 19216 19230 14228 18429 13009 18685 13477 19218 15122 11785 18272 13018 14959 19446 18800 13735 19898 14508 16383 17591 10023 17545 17798 12054 12826 18938 14564 14297 17745 11108 14393 19949 18068 16290 12977 15013 14029 17251 19302 11614 14696 19155 14037 19564 17916 13353 18234 10041 18853 13179 18012 13258 15873 13302 10645 11024 13737 14541 16435 18077 13753 12592 15786 10573 19556 19287 17552 17688 16310 16258 19262 12338 16267 11662 14250 10253 16087 14034 11657 14580 18329 16389 18240 11825 11535 13553 999999 999999 999999 999999 999999 999999 999999 999999 999999 999999 999999 999999 999999 999999 999999 999999 999999 999999 999999 999999 999999 999999 999999 999999 999999 999999 999999 999999 999999 999999 999999 999999 999999 999999 999999 999999 999999 999999 999999 999999 999999 999999 999999 999999 999999 999999 999999 999999 999999 999999 999999 999999 999999 999999 999999 999999 999999 999999 999999 999999 999999 999999 999999 999999 0 999999 999999 999999 999999 999999 999999 999999 999999 999999 999999 999999 999999 999999 999999 999999 999999 999999 999999 999999 999999 999999 999999 999999 999999 999999 999999 999999 999999 999999 999999 999999 999999 999999 999999 999999 8454
999999 14355 14762 17002 19175 19213 12670 15296 11985 12773 15101 10575 18164 10591 18471 10736 10700 13501 12128 18577 11630 13969 18283 13123 17483 19856 18656 17078 19309 11036 17058 12876 15115 13130 18172 19590 13970 19241 16120 18011 19236 14914 17029 17789 13303 16086 17373 14945 17729 17179 12369 14966 11516 10130 13086 18323 18613 12054 16885 13413 14595 15034 18619 10962 19055 15526 17591 14912 12652 18424 15327 17621 11465 11384 10947 17586 12100 14604 19693 12081 11949 19881 12544 12876 18461 16801 18399 10915 11693 19804 19400 17167 13903 10360 11332 13050 11703 16099 15356 12533 13675 999999 999999 999999 999999 999999 999999 999999 999999 999999 999999 999999 999999 999999 999999 999999 999999 999999 999999 999999 999999 999999 999999 999999 999999 999999 999999 999999 999999 999999 999999 999999 999999 999999 999999 999999 999999 999999 999999 999999 999999 999999 999999 999999 999999 999999 999999 999999 999999 999999 999999 999999 999999 999999 999999 999999 999999 999999 999999 999999 999999 999999 999999 999999 999999 999999 0 999999 999999 999999 999999 999999 999999 999999 999999 999999 999999 999999 999999 999999 999999 999999 999999 999999 999999 999999 999999 999999 999999 999999 999999 999999 999999 999999 999999 999999 999999 999999 999999 999999 999999 13980
999999 17868 15286 11667 11781 11467 18559 19626 19246 15797 10302 12387 16865 15832 18064 18178 12728 12857 12298 11800 15102 14869 16047 14737 12661 18067 14526 18539 18560 13866 10188 14425 17962 19408 11958 11682 19508 16377 17884 10826 14378 16619 13597 15200 18181 13928 12320 18924 12054 11918 17155 17510 14519 10557 15147 11109 19002 10987 14035 18541 11196 16127 14062 10796 12443 12966 18634 10214 10240 13395 13243 14369 17619 11710 10029 16619 10439 10574 18103 14413 19847 16790 13341 18963 11698 13701 14246 11663 15765 14800 12864 15101 15863 16797 16643 14118 16647 19035 10003 15135 16928 999999 999999 999999 999999 999999 999999 999999 999999 999999 999999 999999 999999 999999 999999 999999 999999 999999 999999 999999 999999 999999 999999 999999 999999 999999 999999 999999 999999 999999 999999 999999 999999 999999 999999 999999 999999 999999 999999 999999 999999 999999 999999 999999 999999 999999 999999 999999 999999 999999 999999 999999 999999 999999 999999 999999 999999 999999 999999 999999 999999 999999 999999 999999 999999 999999 999999 0 999999 999999 999999 999999 999999 999999 999999 999999 999999 999999 999999 999999 999999 999999 999999 999999 999999 999999 999999 999999 999999 999999 999999 999999 999999 999999 999999 999999 999999 999999 999999 999999 999999 8890
999999 15776 18870 13329 18200 12178 16654 10903 13471 10102 13047 19644 18378 11406 17251 14734 16117 11908 18232 13518 12573 17744 13262 14001 10060 12438 18906 10846 13801 17109 18309 16610 18683 13673 12200 15359 12569 19615 16716 10806 16415 18208 12360 18842 18936 18980 16542 10108 12324 12434 16108 16710 17818 11550 15084 18616 12119 19715 10224 18538 17305 11582 11795 15351 13316 17675 15511 15775 14233 11093 10983 10486 11268 15024 19661 11678 12497 14921 16702 14477 17484 11653 17369 10967 11644 19351 16828 12285 12791 10083 19695 13328 11884 10853 15090 18785 19285 14589 10087 19918 12282 999999 999999 999999 999999 999999 999999 999999 999999 999999 999999 999999 999999 999999 999999 999999 999999 999999 999999 999999 999999 999999 999999 999999 999999 999999 999999 999999 999999 999999 999999 999999 999999 999999 999999 999999 999999 999999 999999 999999 999999 999999 999999 999999 999999 999999 999999 999999 999999 999999 999999 999999 999999 999999 999999 999999 999999 999999 999999 999999 999999 999999 999999 999999 999999 999999 999999 999999 0 999999 999999 999999 999999 999999 999999 999999 999999 999999 999999 999999 999999 999999 999999 999999 999999 999999 999999 999999 999999 999999 999999 999999 999999 999999 999999 999999 999999 999999 999999 999999 999999 11392
999999 11193 11932 15747 13152 13283 12628 11841 11752 16901 13017 14873 17528 11702 10954 10365 18979 15530 11545 13117 13357 18961 12133 18138 14285 18319 17812 10716 18797 18746 16499 10610 11888 16654 12451 15853 10687 10934 15984 12357 10368 18949 12076 18071 16553 18371 18409 13568 18461 10072 17146 13796 12325 12829 13625 16598 12856 15768 19863 10435 11533 13614 12335 10227 14517 10285 16697 13246 17652 17388 18327 16022 12685 17739 15370 13464 15573 12276 14865 18280 16767 14824 13994 15069 12797 11285 13559 14284 12295 12387 12210 13885 19193 14021 15357 17036 16895 11634 17913 19610 18093 999999 999999 999999 999999 999999 999999 999999 999999 999999 999999 999999 999999 999999 999999 999999 999999 999999 999999 999999 999999 999999 999999 999999 999999 999999 999999 999999 999999 999999 999999 999999 999999 999999 999999 999999 999999 999999 999999 999999 999999 999999 999999 999999 999999 999999 999999 999999 999999 999999 999999 999999 999999 999999 999999 999999 999999 999999 999999 999999 999999 999999 999999 999999 999999 999999 999999 999999 999999 0 999999 999999 999999 999999 999999 999999 999999 999999 999999 999999 999999 999999 999999 999999 999999 999999 999999 999999 999999 999999 999999 999999 999999 999999 999999 999999 999999 999999 999999 999999 999999 8101
999999 12010 15089 13164 10996 17840 17328 17558 16945 14033 15762 13765 13774 19844 15828 13276 14903 13101 11098 13229 18807 16349 11332 14486 15050 12449 16747 10068 17980 11372 19812 18500 14383 14824 11850 14118 14356 17225 16563 16474 14964 13584 18166 18989 10147 13336 19285 13969 15763 16129 17637 10820 10486 19796 15558 11233 18833 15921 13416 14247 16215 11405 16010 11387 14321 12010 10077 15104 14740 10577 14302 12073 15798 15767 10360 12387 17341 10101 11586 11225 11775 16178 12144 13035 17464 19396 18951 12679 10214 11915 13183 11463 18539 11593 18643 18930 16115 14179 14177 13165 19207 999999 999999 999999 999999 999999 999999 999999 999999 999999 999999 999999 999999 999999 999999 999999 999999 999999 999999 999999 999999 999999 999999 999999 999999 999999 999999 999999 999999 999999 999999 999999 999999 999999 999999 999999 999999 999999 999999 999999 999999 999999 999999 999999 999999 999999 999999 999999 999999 999999 999999 999999 999999 999999 999999 999999 999999 999999 999999 999999 999999 999999 999999 999999 999999 999999 999999 999999 999999 999999 0 999999 999999 999999 999999 999999 999999 999999 999999 999999 999999 999999 999999 999999 999999 999999 999999 999999 999999 999999 999999 999999 999999 999999 999999 999999 999999 999999 999999 999999 999999 13001
999999 17357 11285 17253 12627 16435 14579 12010 11469 17817 10839 15539 11162 13671 19083 10750 16274 15297 13191 15859 17022 12565 15025 19830 13313 13594 15048 11065 15838 15416 10504 19608 14837 19182 10298 12592 17720 15964 15567 12671 14042 17380 13794 10869 10946 15447 11130 12973 12320 16245 11541 11539 15684 16781 15845 16628 12118 10178 11706 12714 18309 17137 12024 15060 14030 10751 19142 10081 18763 19010 13630 15136 17497 14016 18358 11441 18834 16012 10440 12603 14434 11130 16763 17916 16799 19098 10377 12711 15422 13911 17989 14951 18024 16425 14376 12246 11093 14265 11517 19564 13711 999999 999999 999999 999999 999999 999999 999999 999999 999999 999999 999999 999999 999999 999999 999999 999999 999999 999999 999999 999999 999999 999999 999999 999999 999999 999999 999999 999999 999999 999999 999999 999999 999999 999999 999999 999999 999999 999999 999999 999999 999999 999999 999999 999999 999999 999999 999999 999999 999999 999999 999999 999999 999999 999999 999999 999999 999999 999999 999999 999999 999999 999999 999999 999999 999999 999999 999999 999999 999999 999999 0 999999 999999 999999 999999 999999 999999 999999 999999 999999 999999 999999 999999 999999 999999 999999 999999 999999 999999 999999 999999 999999 999999 999999 999999 999999 999999 999999 999999 999999 10237
999999 16888 17887 18846 19517 11935 11936 14148 11794 17771 13396 11937 19944 18113 13271 19268 12080 16100 14867 19774 13248 11380 19992 16180 12607 16711 18389 16506 13541 14990 12524 16794 19745 15099 14635 12965 16752 17716 18853 16776 19931 10550 19904 15482 13152 15232 10186 11456 12585 13107 12393 18663 18140 11730 15574 13898 18684 16656 12766 14350 18022 15322 16353 18383 11538 19205 17885 18288 15009 12780 10629 17177 13213 15456 10566 12682 17256 18845 17661 17483 10676 17501 13963 12610 18009 17413 16904 16578 14982 11111 15983 19679 15515 14589 19963 19833 12607 12596 14425 18576 10588 999999 999999 999999 999999 999999 999999 999999 999999 999999 999999 999999 999999 999999 999999 999999 999999 999999 999999 999999 999999 999999 999999 999999 999999 999999 999999 999999 999999 999999 999999 999999 999999 999999 999999 999999 999999 999999 999999 999999 999999 999999 999999 999999 999999 999999 999999 999999 999999 999999 999999 999999 999999 999999 999999 999999 999999 999999 999999 999999 999999 999999 999999 999999 999999 999999 999999 999999 999999 999999 999999 999999 0 999999 999999 999999 999999 999999 999999 999999 999999 999999 999999 999999 999999 999999 999999 999999 999999 999999 999999 999999 999999 999999 999999 999999 999999 999999 999999 999999 999999 5928
999999 12413 14390 17503 18197 15229 16674 15998 11668 17127 18647 13334 18856 19567 18254 15885 12702 16053 12557 10628 18721 17442 11793 11729 16359 14521 15400 10464 14127 17695 14051 18942 14056 13774 17280 14139 12187 13025 15300 15026 14540 11682 18438 11673 16230 12497 13786 11207 13832 10431 11236 19700 18200 11155 13447 18233 19748 14823 16954 16287 14231 14123 18828 17130 13000 12619 16603 15069 13169 12831 11918 12097 12185 10201 16637 10475 16844 18940 18282 19657 14777 13702 17871 17060 18687 14599 19529 16827 19093 19662 17113 11566 19821 19378 17030 12385 16280 18103 15826 14171 10026 999999 999999 999999 999999 999999 999999 999999 999999 999999 999999 999999 999999 999999 999999 999999 999999 999999 999999 999999 999999 999999 999999 999999 999999 999999 999999 999999 999999 999999 999999 999999 999999 999999 999999 999999 999999 999999 999999 999999 999999 999999 999999 999999 999999 999999 999999 999999 999999 999999 999999 999999 999999 999999 999999 999999 999999 999999 999999 999999 999999 999999 999999 999999 999999 999999 999999 999999 999999 999999 999999 999999 999999 0 999999 999999 999999 999999 999999 999999 999999 999999 999999 999999 999999 999999 999999 999999 999999 999999 999999 999999 999999 999999 999999 999999 999999 999999 999999 999999 999999 8838
999999 13525 17438 19928 16989 18335 15309 19452 19937 13617 14774 18680 16310 10431 18902 19092 16243 14533 13727 14788 11571 19037 13806 19710 14195 11854 10353 18590 14841 19842 14791 15847 12496 13618 13913 15647 17231 17521 17736 15424 12272 19164 14122 15884 19268 16860 16906 18524 16776 12551 12898 19192 16844 11890 14322 19918 13137 16038 18266 18228 14521 18604 18978 10834 11131 14953 16854 19646 18725 18247 15398 17688 16298 15580 19437 10543 12025 16012 19984 14776 14762 19808 10249 13620 15838 13828 18898 17211 18869 17115 14116 18428 13779 13232 13999 19416 17218 11627 18051 19645 13479 999999 999999 999999 999999 999999 999999 999999 999999 999999 999999 999999 999999 999999 999999 999999 999999 999999 999999 999999 999999 999999 999999 999999 999999 999999 999999 999999 999999 999999 999999 999999 999999 999999 999999 999999 999999 999999 999999 999999 999999 999999 999999 999999 999999 999999 999999 999999 999999 999999 999999 999999 999999 999999 999999 999999 999999 999999 999999 999999 999999 999999 999999 999999 999999 999999 999999 999999 999999 999999 999999 999999 999999 999999 0 999999 999999 999999 999999 999999 999999 999999 999999 999999 999999 999999 999999 999999 999999 999999 999999 999999 999999 999999 999999 999999 999999 999999 999999 999999 999999 5922
999999 11901 17064 17946 18298 14932 17334 13896 10700 13035 18361 18007 19455 18873 18540 16375 17568 11811 15489 18977 17386 16193 12364 16391 12822 11755 14892 15299 18383 18586 11718 18963 11161 11219 11094 16596 14849 13634 12823 13411 16943 10345 10770 12787 19379 18733 19550 15803 15245 11381 13172 17553 10386 14835 12352 19801 13492 11731 15824 15707 17249 17552 19016 13430 11561 11490 19466 19160 14787 12466 17440 13700 16577 11887 10391 19211 18459 11493 12972 15962 13039 15284 15106 19078 13871 18891 13032 18684 13619 18104 12829 15866 12331 15200 11082 15045 18678 12392 18456 16413 12150 999999 999999 999999 999999 999999 999999 999999 999999 999999 999999 999999 999999 999999 999999 999999 999999 999999 999999 999999 999999 999999 999999 999999 999999 999999 999999 999999 999999 999999 999999 999999 999999 999999 999999 999999 999999 999999 999999 999999 999999 999999 999999 999999 999999 999999 999999 999999 999999 999999 999999 999999 999999 999999 999999 999999 999999 999999 999999 999999 999999 999999 999999 999999 999999 999999 999999 999999 999999 999999 999999 999999 999999 999999 999999 0 999999 999999 999999 999999 999999 999999 999999 999999 999999 999999 999999 999999 999999 999999 999999 999999 999999 999999 999999 999999 999999 999999 999999 999999 999999 8985
999999 12441 16920 13508 10839 13256 15466 14082 16176 10415 17298 15303 10893 14676 14506 13388 19433 19799 19540 11275 14234 17510 16508 18485 15874 14878 10009 11825 18245 15717 11493 17452 16833 13080 15031 16078 13793 16605 10997 15825 10365 19056 12841 18044 10121 17046 14703 14967 10802 19202 11560 15912 16148 13862 11477 17817 18990 19468 11376 13849 19717 13671 15612 12286 15966 15736 17534 18330 13288 13376 15486 12096 15197 14013 12941 17424 18210 14308 12367 19719 18170 11876 19658 19508 18440 19316 19498 15518 14111 17082 11775 11925 17101 16712 16184 19901 11680 19247 16553 11671 14560 999999 999999 999999 999999 999999 999999 999999 999999 999999 999999 999999 999999 999999 999999 999999 999999 999999 999999 999999 999999 999999 999999 999999 999999 999999 999999 999999 999999 999999 999999 999999 999999 999999 999999 999999 999999 999999 999999 999999 999999 999999 999999 999999 999999 999999 999999 999999 999999 999999 999999 999999 999999 999999 999999 999999 999999 999999 999999 999999 999999 999999 999999 999999 999999 999999 999999 999999 999999 999999 999999 999999 999999 999999 999999 999999 0 999999 999999 999999 999999 999999 999999 999999 999999 999999 999999 999999 999999 999999 999999 999999 999999 999999 999999 999999 999999 999999 999999 999999 999999 12050
999999 10386 16659 14268 12785 15142 17222 13060 19563 12917 16455 18547 19737 17114 17430 18265 17482 12978 15385 14026 17994 11073 17058 16894 15949 16612 11334 10959 15674 10751 19664 16582 13967 11080 14818 16030 13995 10593 15090 18319 18430 11360 12980 19032 18223 17653 15068 12973 16107 11575 19313 11123 12630 18673 19984 17463 14254 16507 18112 12459 18168 17088 14814 18746 18279 18855 16826 19534 14247 19660 11997 18504 16710 16558 16070 16379 10834 10137 18301 11052 12816 17265 14830 19577 13382 11238 12067 11792 18591 12550 11874 16059 16354 15275 14377 11567 19193 13244 11241 14501 16530 999999 999999 999999 999999 999999 999999 999999 999999 999999 999999 999999 999999 999999 999999 999999 999999 999999 999999 999999 999999 999999 999999 999999 999999 999999 999999 999999 999999 999999 999999 999999 999999 999999 999999 999999 999999 999999 999999 999999 999999 999999 999999 999999 999999 999999 999999 999999 999999 999999 999999 999999 999999 999999 999999 999999 999999 999999 999999 999999 999999 999999 999999 999999 999999 999999 999999 999999 999999 999999 999999 999999 999999 999999 999999 999999 999999 0 999999 999999 999999 999999 999999 999999 999999 999999 999999 999999 999999 999999 999999 999999 999999 999999 999999 999999 999999 999999 999999 999999 999999 6963
999999 11290 12038 14633 19183 11677 16914 12709 13818 17316 12956 10617 19444 19921 19578 15318 13425 11520 19638 13915 11803 12604 11020 13875 13882 18857 11105 18516 12055 16190 13563 18659 11471 16401 10715 12224 19534 11144 14659 15848 10113 14694 15133 11624 17179 17596 10391 18060 15974 14298 14864 10237 11293 13869 10763 12850 13731 19724 13576 19273 18571 13389 12034 17147 12304 11838 10860 11363 17119 12399 12797 17692 18639 10012 11296 18166 15144 18021 13741 16804 12808 14623 14641 18824 14739 17555 13453 12321 11885 14791 14760 11356 11154 11757 15801 18250 13538 19089 18572 14917 14652 999999 999999 999999 999999 999999 999999 999999 999999 999999 999999 999999 999999 999999 999999 999999 999999 999999 999999 999999 999999 999999 999999 999999 999999 999999 999999 999999 999999 999999 999999 999999 999999 999999 999999 999999 999999 999999 999999 999999 999999 999999 999999 999999 999999 999999 999999 999999 999999 999999 999999 999999 999999 999999 999999 999999 999999 999999 999999 999999 999999 999999 999999 999999 999999 999999 999999 999999 999999 999999 999999 999999 999999 999999 999999 999999 999999 999999 0 999999 999999 999999 999999 999999 999999 999999 999999 999999 999999 999999 999999 999999 999999 999999 999999 999999 999999 999999 999999 999999 999999 8935
999999 12328 12213 19742 10340 15850 18837 16368 10582 12151 19860 19622 13808 16131 11440 11034 12119 15175 15788 13951 12593 13295 11403 17490 13468 16009 10283 18069 16956 17212 15756 17118 18149 17832 10378 11819 18090 17886 17445 18297 15531 18945 15096 19352 13941 13089 12134 12642 16032 17558 18310 15079 15714 15424 15194 17612 18806 14256 14810 13452 17293 14888 13440 16834 16004 16230 11861 17830 13647 10575 14461 10587 14013 13458 13786 18779 14012 11477 19721 15506 11305 13876 10158 13842 10052 11640 14769 16586 13868 14739 17835 16506 18162 14235 18485 17421 12543 10073 18607 11743 15477 999999 999999 999999 999999 999999 999999 999999 999999 999999 999999 999999 999999 999999 999999 999999 999999 999999 999999 999999 999999 999999 999999 999999 999999 999999 999999 999999 999999 999999 999999 999999 999999 999999 999999 999999 999999 999999 999999 999999 999999 999999 999999 999999 999999 999999 999999 999999 999999 999999 999999 999999 999999 999999 999999 999999 999999 999999 999999 999999 999999 999999 999999 999999 999999 999999 999999 999999 999999 999999 999999 999999 999999 999999 999999 999999 999999 999999 999999 0 999999 999999 999999 999999 999999 999999 999999 999999 999999 999999 999999 999999 999999 999999 999999 999999 999999 999999 999999 999999 999999 11286
999999 19974 14523 19388 10833 14723 12109 10503 19348 10652 12474 19866 18351 13483 13502 18387 13558 10604 19000 18332 18528 11872 18839 14726 13731 16807 16823 10183 17504 15782 19738 19991 13834 12873 10412 11979 12907 10409 12364 16687 12016 13208 13382 17231 14455 19504 13814 19088 11693 10723 14491 14545 18781 13104 12149 15847 10562 12052 11758 14627 14056 16081 11807 13100 14074 16046 19897 18620 10120 11686 12810 16525 17818 14658 11928 14928 19213 10768 18842 15195 13771 14671 16230 16511 11453 14058 16553 12319 12666 17792 10649 12260 13401 10999 18780 16654 13715 19825 10143 19199 17442 999999 999999 999999 999999 999999 999999 999999 999999 999999 999999 999999 999999 999999 999999 999999 999999 999999 999999 999999 999999 999999 999999 999999 999999 999999 999999 999999 999999 999999 999999 999999 999999 999999 999999 999999 999999 999999 999999 999999 999999 999999 999999 999999 999999 999999 999999 999999 999999 999999 999999 999999 999999 999999 999999 999999 999999 999999 999999 999999 999999 999999 999999 999999 999999 999999 999999 999999 999999 999999 999999 999999 999999 999999 999999 999999 999999 999999 999999 999999 0 999999 999999 999999 999999 999999 999999 999999 999999 999999 999999 999999 999999 999999 999999 999999 999999 999999 999999 999999 999999 8022
999999 11467 12055 17268 15720 10624 11808 19198 18995 16521 16129 10060 13847 12790 15990 13125 16507 17302 10142 16484 17885 14065 19401 11593 14165 12643 14170 10725 17244 16847 11310 19721 13526 18412 13343 18784 15881 11907 10962 14355 15225 16740 12640 14637 17455 14887 11573 16656 11726 15402 11017 10386 12274 15678 11019 15117 17940 11192 13427 12819 13626 10366 16396 19190 16149 18479 15981 18164 18293 18062 18242 11631 13986 17253 17145 12825 10960 16981 11578 18780 10632 12899 14562 17979 12716 17894 16404 17962 14856 14023 12846 17239 14121 10120 16033 12325 16161 16723 18734 17606 16495 999999 999999 999999 999999 999999 999999 999999 999999 999999 999999 999999 999999 999999 999999 999999 999999 999999 999999 999999 999999 999999 999999 999999 999999 999999 999999 999999 999999 999999 999999 999999 999999 999999 999999 999999 999999 999999 999999 999999 999999 999999 999999 999999 999999 999999 999999 999999 999999 999999 999999 999999 999999 999999 999999 999999 999999 999999 999999 999999 999999 999999 999999 999999 999999 999999 999999 999999 999999 999999 999999 999999 999999 999999 999999 999999 999999 999999 999999 999999 999999 0 999999 999999 999999 999999 999999 999999 999999 999999 999999 999999 999999 999999 999999 999999 999999 999999 999999 999999 999999 5407
999999 18113 13920 17759 19214 18102 17800 17419 10933 11819 10509 15720 12798 18443 16562 12041 14994 11657 13296 13440 14438 17910 10725 15921 12614 11229 11978 16810 16655 12231 11569 12316 14158 13283 10110 11951 18475 17792 10507 14548 12722 11395 16411 13577 18191 15848 18222 19450 19909 13057 15793 17419 15258 11735 18626 10761 15863 14116 10762 16566 14982 16819 15768 14618 17077 15974 13298 14127 16876 17219 10152 18892 19469 18005 10500 13993 15039 16341 10476 14837 11411 13350 16301 18491 11288 13367 17437 16588 12162 12029 19302 19576 15215 12692 13073 11662 14775 11005 15252 17186 15905 999999 999999 999999 999999 999999 999999 999999 999999 999999 999999 999999 999999 999999 999999 999999 999999 999999 999999 999999 999999 999999 999999 999999 999999 999999 999999 999999 999999 999999 999999 999999 999999 999999 999999 999999 999999 999999 999999 999999 999999 999999 999999 999999 999999 999999 999999 999999 999999 999999 999999 999999 999999 999999 999999 999999 999999 999999 999999 999999 999999 999999 999999 999999 999999 999999 999999 999999 999999 999999 999999 999999 999999 999999 999999 999999 999999 999999 999999 999999 999999 999999 0 999999 999999 999999 999999 999999 999999 999999 999999 999999 999999 999999 999999 999999 999999 999999 999999 999999 999999 14388
999999 18012 14784 10575 18133 14407 19704 11719 19555 11324 14460 18424 19724 12377 18433 14582 17282 17579 17379 13856 18946 11192 16406 14395 12844 11261 14603 12637 19142 18773 14745 11113 13481 16718 13459 15650 14401 15654 14138 17120 18676 11113 11594 18590 16084 10218 15642 16955 19111 12576 11816 14374 10855 16651 14918 17549 13884 18772 12376 10979 10344 18959 11315 10110 15066 12150 10059 18098 14424 14872 10179 13953 12638 19862 17788 15333 19042 10494 19148 11263 12724 10157 13828 12258 13874 14324 17835 16691 13779 14693 13798 10285 18583 17674 17333 16182 17179 12995 17714 17970 16540 999999 999999 999999 999999 999999 999999 999999 999999 999999 999999 999999 999999 999999 999999 999999 999999 999999 999999 999999 999999 999999 999999 999999 999999 999999 999999 999999 999999 999999 999999 999999 999999 999999 999999 999999 999999 999999 999999 999999 999999 999999 999999 999999 999999 999999 999999 999999 999999 999999 999999 999999 999999 999999 999999 999999 999999 999999 999999 999999 999999 999999 999999 999999 999999 999999 999999 999999 999999 999999 999999 999999 999999 999999 999999 999999 999999 999999 999999 999999 999999 999999 999999 0 999999 999999 999999 999999 999999 999999 999999 999999 999999 999999 999999 999999 999999 999999 999999 999999 999999 6807
999999 17709 13230 18890 14479 12654 13143 16158 14775 17448 19210 19966 14136 16012 10673 17193 17100 17215 16485 12279 12909 19372 17289 17304 16070 11513 18675 12996 16815 11549 10547 16676 14165 10649 19795 18416 10965 11709 13412 19366 15916 11193 19737 13711 15514 13001 17915 19522 18755 16502 10595 17456 19248 11310 18471 10688 17689 13311 16983 18786 10557 12381 14881 16245 17461 15670 10423 13074 18854 18087 13231 17937 13607 19471 18334 18711 13097 13454 14924 12262 10736 10172 19484 10306 12983 14719 19723 19037 12464 14349 16829 12117 16334 19585 19747 14838 10701 16233 10309 14443 18646 999999 999999 999999 999999 999999 999999 999999 999999 999999 999999 999999 999999 999999 999999 999999 999999 999999 999999 999999 999999 999999 999999 999999 999999 999999 999999 999999 999999 999999 999999 999999 999999 999999 999999 999999 999999 999999 999999 999999 999999 999999 999999 999999 999999 999999 999999 999999 999999 999999 999999 999999 999999 999999 999999 999999 999999 999999 999999 999999 999999 999999 999999 999999 999999 999999 999999 999999 999999 999999 999999 999999 999999 999999 999999 999999 999999 999999 999999 999999 999999 999999 999999 999999 0 999999 999999 999999 999999 999999 999999 999999 999999 999999 999999 999999 999999 999999 999999 999999 999999 14439
999999 14316 18294 12601 15065 10261 13136 10538 17170 17185 19240 13775 17727 19076 13777 10570 10177 18213 15259 10210 12087 17638 18152 12313 13142 13866 13769 19772 18964 10367 15506 15718 13068 16056 19827 17551 19556 14533 10639 18493 12373 13991 19920 18351 19492 12859 14411 11256 10968 13199 11902 11978 17075 10102 18192 12002 14250 10411 14919 11840 10177 12672 18776 10429 13512 10284 14753 15917 13353 13464 12985 13927 17864 12600 17838 19927 11839 15109 13614 18663 14540 16011 16852 15548 14900 17967 11977 14527 15735 17474 16883 15825 17265 17900 11542 11494 12232 13285 15484 15848 17240 999999 999999 999999 999999 999999 999999 999999 999999 999999 999999 999999 999999 999999 999999 999999 999999 999999 999999 999999 999999 999999 999999 999999 999999 999999 999999 999999 999999 999999 999999 999999 999999 999999 999999 999999 999999 999999 999999 999999 999999 999999 999999 999999 999999 999999 999999 999999 999999 999999 999999 999999 999999 999999 999999 999999 999999 999999 999999 999999 999999 999999 999999 999999 999999 999999 999999 999999 999999 999999 999999 999999 999999 999999 999999 999999 999999 999999 999999 999999 999999 999999 999999 999999 999999 0 999999 999999 999999 999999 999999 999999 999999 999999 999999 999999 999999 999999 999999 999999 999999 14000
999999 15107 10296 15234 15425 14749 13404 13928 11993 14014 19981 15739 15552 13551 13976 16145 15177 14999 18925 17982 16777 14095 13550 19780 14246 14850 12854 13459 13783 18940 12564 10790 15890 10928 13866 17276 12145 11144 11410 19043 16192 19704 17607 11426 14100 17125 10416 15020 18030 17622 17839 16452 10633 19423 17159 17178 15392 14415 11790 10778 15567 18751 11654 15009 17026 16525 18491 16804 17585 13508 14209 12210 10226 17843 13429 19009 19494 14117 10533 13595 15249 14429 11558 13593 17828 16013 12181 18261 16180 10702 19115 16015 15428 17105 14956 11302 13070 16928 18498 17785 13345 999999 999999 999999 999999 999999 999999 999999 999999 999999 999999 999999 999999 999999 999999 999999 999999 999999 999999 999999 999999 999999 999999 999999 999999 999999 999999 999999 999999 999999 999999 999999 999999 999999 999999 999999 999999 999999 999999 999999 999999 999999 999999 999999 999999 999999 999999 999999 999999 999999 999999 999999 999999 999999 999999 999999 999999 999999 999999 999999 999999 999999 999999 999999 999999 999999 999999 999999 999999 999999 999999 999999 999999 999999 999999 999999 999999 999999 999999 999999 999999 999999 999999 999999 999999 999999 0 999999 999999 999999 999999 999999 999999 999999 999999 999999 999999 999999 999999 999999 999999 7957
999999 10475 11173 13996 15598 15322 18371 19292 11821 14847 18295 14892 17934 13032 13554 17321 18150 13633 14631 13367 19242 14712 10458 13915 18917 14061 19385 19254 17028 17009 14994 13107 14088 15366 13471 10161 14170 17600 16208 12278 10351 12758 17617 10974 14827 19456 13312 13842 13577 19885 14562 19966 13445 11220 13634 15960 15210 19362 14988 14114 18359 15497 19630 10646 14510 12769 19180 19250 11598 15812 13763 16008 14787 12688 19445 13604 14196 11063 11234 15130 17688 19923 16653 13717 16184 10109 17643 14427 19695 13107 17000 16127 17113 15119 15447 15164 16577 16293 10243 12713 17707 999999 999999 999999 999999 999999 999999 999999 999999 999999 999999 999999 999999 999999 999999 999999 999999 999999 999999 999999 999999 999999 999999 999999 999999 999999 999999 999999 999999 999999 999999 999999 999999 999999 999999 999999 999999 999999 999999 999999 999999 999999 999999 999999 999999 999999 999999 999999 999999 999999 999999 999999 999999 999999 999999 999999 999999 999999 999999 999999 999999 999999 999999 999999 999999 999999 999999 999999 999999 999999 999999 999999 999999 999999 999999 999999 999999 999999 999999 999999 999999 999999 999999 999999 999999 999999 999999 0 999999 999999 999999 999999 999999 999999 999999 999999 999999 999999 999999 999999 999999 10029
999999 14020 10520 11213 13849 18967 16168 14939 16490 15439 14809 11059 10191 14677 13215 17408 18351 11525 12885 14703 15120 13823 17352 16805 14912 15861 11299 12338 13975 12434 17937 19327 17012 15192 12796 19781 15257 19282 19265 11657 15459 14460 13092 14894 15854 16066 10972 11123 18677 12455 15998 14564 16024 18591 16306 18996 19215 18497 14768 11521 15163 16178 13177 13493 18255 14159 19965 14514 17499 16150 16506 15329 10990 15151 14456 10864 16880 17030 17388 19797 14456 19899 12206 19434 17629 19276 10298 15057 10219 12436 19350 12799 15406 17573 10835 14106 19406 17153 14234 13635 18218 999999 999999 999999 999999 999999 999999 999999 999999 999999 999999 999999 999999 999999 999999 999999 999999 999999 999999 999999 999999 999999 999999 999999 999999 999999 999999 999999 999999 999999 999999 999999 999999 999999 999999 999999 999999 999999 999999 999999 999999 999999 999999 999999 999999 999999 999999 999999 999999 999999 999999 999999 999999 999999 999999 999999 999999 999999 999999 999999 999999 999999 999999 999999 999999 999999 999999 999999 999999 999999 999999 999999 999999 999999 999999 999999 999999 999999 999999 999999 999999 999999 999999 999999 999999 999999 999999 999999 0 999999 999999 999999 999999 999999 999999 999999 999999 999999 999999 999999 999999 10623
999999 13996 10605 19509 12841 18790 12275 18033 10580 15749 15292 16672 10292 18168 15118 17292 19552 10905 14517 10516 11660 18844 19605 18990 12535 19802 18168 11906 18294 12506 19327 15085 17981 14181 19435 12552 13358 10900 14485 13976 14911 10658 16343 18811 14627 10727 11835 12700 12611 19585 10433 16657 10969 14173 14363 10454 17597 12440 17755 14535 15333 16048 18280 15576 17185 11934 13133 13793 14050 18813 10462 15102 15244 11568 12135 11139 10169 12845 12808 19761 19688 10698 19664 10598 17701 10719 12921 19486 17416 12968 13345 14909 10416 19036 14369 18042 19752 10230 13606 16905 19308 999999 999999 999999 999999 999999 999999 999999 999999 999999 999999 999999 999999 999999 999999 999999 999999 999999 999999 999999 999999 999999 999999 999999 999999 999999 999999 999999 999999 999999 999999 999999 999999 999999 999999 999999 999999 999999 999999 999999 999999 999999 999999 999999 999999 999999 999999 999999 999999 999999 999999 999999 999999 999999 999999 999999 999999 999999 999999 999999 999999 999999 999999 999999 999999 999999 999999 999999 999999 999999 999999 999999 999999 999999 999999 999999 999999 999999 999999 999999 999999 999999 999999 999999 999999 999999 999999 999999 999999 0 999999 999999 999999 999999 999999 999999 999999 999999 999999 999999 999999 8020
999999 19781 11127 14224 10657 15781 18920 17060 10185 17065 10984 13394 15082 16130 15990 16773 13712 18880 17314 10576 13514 10846 19886 13359 16341 19008 16304 16874 18415 13165 10329 14753 16890 19833 10458 14071 11734 13479 16722 18625 12673 15714 17947 13257 12268 12334 12961 11171 10937 18689 18337 16309 12927 19543 14305 13894 14165 14237 13404 15700 14117 16120 15243 17140 10313 12897 10996 15522 19993 16957 19244 14143 18094 12822 18443 14181 13964 12403 15385 19170 18942 15954 10713 10935 14480 17376 15070 12298 15248 15734 17887 10631 13859 11822 17916 18036 10098 14581 16153 15494 18656 999999 999999 999999 999999 999999 999999 999999 999999 999999 999999 999999 999999 999999 999999 999999 999999 999999 999999 999999 999999 999999 999999 999999 999999 999999 999999 999999 999999 999999 999999 999999 999999 999999 999999 999999 999999 999999 999999 999999 999999 999999 999999 999999 999999 999999 999999 999999 999999 999999 999999 999999 999999 999999 999999 999999 999999 999999 999999 999999 999999 999999 999999 999999 999999 999999 999999 999999 999999 999999 999999 999999 999999 999999 999999 999999 999999 999999 999999 999999 999999 999999 999999 999999 999999 999999 999999 999999 999999 999999 0 999999 999999 999999 999999 999999 999999 999999 999999 999999 999999 5631
999999 11615 15708 16355 17926 19619 10956 10537 18616 13586 18862 18644 18390 15663 17930 19091 17330 10144 15614 16729 12876 12176 10978 10813 10646 10834 11496 13562 11562 18402 19077 10378 17829 11612 11003 19868 11092 19814 16365 11848 16109 12923 12077 13870 17944 15760 11315 12275 16019 11962 11032 15408 12794 18306 16337 11055 14036 19234 14377 13420 13892 16376 16231 17654 15691 13296 15898 13419 19617 17234 13778 18369 19973 16209 17363 13699 12707 10677 19080 11922 15198 10646 12658 17055 15728 18885 18567 14824 16373 12078 18462 14018 14801 14325 19119 14297 12846 10336 14057 19157 13271 999999 999999 999999 999999 999999 999999 999999 999999 999999 999999 999999 999999 999999 999999 999999 999999 999999 999999 999999 999999 999999 999999 999999 999999 999999 999999 999999 999999 999999 999999 999999 999999 999999 999999 999999 999999 999999 999999 999999 999999 999999 999999 999999 999999 999999 999999 999999 999999 999999 999999 999999 999999 999999 999999 999999 999999 999999 999999 999999 999999 999999 999999 999999 999999 999999 999999 999999 999999 999999 999999 999999 999999 999999 999999 999999 999999 999999 999999 999999 999999 999999 999999 999999 999999 999999 999999 999999 999999 999999 999999 0 999999 999999 999999 999999 999999 999999 999999 999999 999999 6048
999999 12785 18460 12698 13419 14851 18229 19748 19705 14653 11017 18723 19891 12134 14840 13345 14876 11407 12358 14550 10357 18790 12311 14177 10326 16032 12348 19993 17070 15302 10665 12146 19582 11307 11579 13210 16373 17239 18400 11633 10287 13036 15633 17040 12644 16857 11002 12469 15025 12597 17156 14301 10714 17030 18913 14383 14147 10842 18200 18317 14530 15544 17694 10306 13113 14378 18709 13640 12013 16642 17729 11547 18282 10520 18069 19597 10800 17681 18133 14566 10219 18197 14764 11399 11240 14824 17579 10251 12136 14126 17560 13047 13535 16394 18271 12314 18181 18530 13988 14684 19450 999999 999999 999999 999999 999999 999999 999999 999999 999999 999999 999999 999999 999999 999999 999999 999999 999999 999999 999999 999999 999999 999999 999999 999999 999999 999999 999999 999999 999999 999999 999999 999999 999999 999999 999999 999999 999999 999999 999999 999999 999999 999999 999999 999999 999999 999999 999999 999999 999999 999999 999999 999999 999999 999999 999999 999999 999999 999999 999999 999999 999999 999999 999999 999999 999999 999999 999999 999999 999999 999999 999999 999999 999999 999999 999999 999999 999999 999999 999999 999999 999999 999999 999999 999999 999999 999999 999999 999999 999999 999999 999999 0 999999 999999 999999 999999 999999 999999 999999 999999 12305
999999 11943 19173 15079 15271 14890 13751 13698 14308 11151 18794 19692 15375 18584 14853 18426 17755 16114 16413 13558 18566 16712 17444 16927 18696 19113 11128 10333 17124 15639 12689 13604 10313 17192 11330 13349 15228 17188 10216 14672 17721 19223 11893 13840 19160 14260 19392 19828 17340 11705 10045 19861 16923 18156 16358 11312 18624 14527 13647 18033 12413 11482 15627 17740 18152 15311 11471 17092 17799 19676 18201 18317 15118 15418 13485 19575 15376 11357 12884 19007 10541 17665 17291 11583 10973 12072 13647 11797 18889 17216 11536 10292 12975 16164 12575 11969 13423 14216 15357 16855 16795 999999 999999 999999 999999 999999 999999 999999 999999 999999 999999 999999 999999 999999 999999 999999 999999 999999 999999 999999 999999 999999 999999 999999 999999 999999 999999 999999 999999 999999 999999 999999 999999 999999 999999 999999 999999 999999 999999 999999 999999 999999 999999 999999 999999 999999 999999 999999 999999 999999 999999 999999 999999 999999 999999 999999 999999 999999 999999 999999 999999 999999 999999 999999 999999 999999 999999 999999 999999 999999 999999 999999 999999 999999 999999 999999 999999 999999 999999 999999 999999 999999 999999 999999 999999 999999 999999 999999 999999 999999 999999 999999 999999 0 999999 999999 999999 999999 999999 999999 999999 14201
999999 16962 15542 10583 13878 10739 15907 10118 11998 16659 19760 16398 13032 15173 14827 18292 15920 15087 11947 15496 18264 16715 10615 19923 15374 12333 10679 14148 14344 12199 14353 13618 10088 10636 17623 11897 10712 13828 16434 19405 17262 12457 15104 16580 14571 13696 14203 11699 13541 19081 16450 17509 14115 15641 17991 15290 11336 15672 18071 17515 11701 16049 11995 14512 15041 15174 11073 10267 10252 17235 18799 14539 10019 15058 12979 15044 19828 13565 10294 10163 12558 19394 19156 19827 12833 13859 14369 17507 19522 19465 12714 18673 18528 13882 17050 19834 17494 12630 16046 10750 18618 999999 999999 999999 999999 999999 999999 999999 999999 999999 999999 999999 999999 999999 999999 999999 999999 999999 999999 999999 999999 999999 999999 999999 999999 999999 999999 999999 999999 999999 999999 999999 999999 999999 999999 999999 999999 999999 999999 999999 999999 999999 999999 999999 999999 999999 999999 999999 999999 999999 999999 999999 999999 999999 999999 999999 999999 999999 999999 999999 999999 999999 999999 999999 999999 999999 999999 999999 999999 999999 999999 999999 999999 999999 999999 999999 999999 999999 999999 999999 999999 999999 999999 999999 999999 999999 999999 999999 999999 999999 999999 999999 999999 999999 0 999999 999999 999999 999999 999999 999999 6757
999999 18215 17822 13228 14912 12125 11750 13041 17394 19757 19144 10222 17383 18109 12763 16831 10904 10476 13963 12856 17324 12387 10439 11551 19115 10605 18089 18006 12785 11455 10506 18228 11897 19446 14425 16860 11702 18525 14882 18557 19892 18381 18947 11870 14271 17765 10334 15983 17651 17172 13611 19982 19588 11077 13848 19893 10714 19978 12503 10021 12900 15932 16252 18202 19000 12086 16337 17802 17856 19700 13840 15278 16520 17267 14155 14836 10060 17054 14751 11587 11462 13308 19231 11599 13927 14805 10919 13607 18871 15632 19809 12395 13534 16830 12018 18735 12412 10547 17552 15258 19947 999999 999999 999999 999999 999999 999999 999999 999999 999999 999999 999999 999999 999999 999999 999999 999999 999999 999999 999999 999999 999999 999999 999999 999999 999999 999999 999999 999999 999999 999999 999999 999999 999999 999999 999999 999999 999999 999999 999999 999999 999999 999999 999999 999999 999999 999999 999999 999999 999999 999999 999999 999999 999999 999999 999999 999999 999999 999999 999999 999999 999999 999999 999999 999999 999999 999999 999999 999999 999999 999999 999999 999999 999999 999999 999999 999999 999999 999999 999999 999999 999999 999999 999999 999999 999999 999999 999999 999999 999999 999999 999999 999999 999999 999999 0 999999 999999 999999 999999 999999 5551
999999 18758 16954 10196 18658 15150 14236 12310 16086 12099 14857 11296 18281 18630 13282 17109 15213 12282 17633 12683 16880 16020 10521 16990 15270 17864 11236 15070 12101 14444 17597 12396 11523 16496 14433 11726 12208 17097 17338 10876 11015 13491 16275 12167 10731 10376 14801 12290 14012 18097 12225 18212 13165 15920 17080 12838 17281 12397 11492 15316 12595 14349 14741 19113 10965 10842 10266 11857 11239 13998 14666 19154 19240 12503 14335 14416 10505 11946 14283 10274 13344 10029 13697 11879 10207 10591 14365 14209 13774 10568 18176 15245 18472 18071 18294 11126 18310 17222 15311 12470 17587 999999 999999 999999 999999 999999 999999 999999 999999 999999 999999 999999 999999 999999 999999 999999 999999 999999 999999 999999 999999 999999 999999 999999 999999 999999 999999 999999 999999 999999 999999 999999 999999 999999 999999 999999 999999 999999 999999 999999 999999 999999 999999 999999 999999 999999 999999 999999 999999 999999 999999 999999 999999 999999 999999 999999 999999 999999 999999 999999 999999 999999 999999 999999 999999 999999 999999 999999 999999 999999 999999 999999 999999 999999 999999 999999 999999 999999 999999 999999 999999 999999 999999 999999 999999 999999 999999 999999 999999 999999 999999 999999 999999 999999 999999 999999 0 999999 999999 999999 999999 11173
999999 17568 12829 18682 18787 17745 19269 19400 16580 15302 15153 14865 15134 16968 17840 10275 11730 12548 10158 12315 12509 15205 12901 13923 12814 19644 13484 17671 17013 15489 15187 10574 12323 10786 15861 12888 19161 14294 16850 14285 13100 10280 15855 19535 10971 18338 11559 19231 12858 12029 18750 11924 13573 15894 16052 14771 16110 17024 19194 18349 10392 19537 12743 19274 14743 16136 10903 17577 14199 15849 18705 14296 17981 18480 14479 13099 17096 17048 16007 17081 13201 16167 17258 10684 11620 15131 15372 11244 16170 19884 16001 15221 16870 10548 19857 11974 11563 17142 17962 16729 11979 999999 999999 999999 999999 999999 999999 999999 999999 999999 999999 999999 999999 999999 999999 999999 999999 999999 999999 999999 999999 999999 999999 999999 999999 999999 999999 999999 999999 999999 999999 999999 999999 999999 999999 999999 999999 999999 999999 999999 999999 999999 999999 999999 999999 999999 999999 999999 999999 999999 999999 999999 999999 999999 999999 999999 999999 999999 999999 999999 999999 999999 999999 999999 999999 999999 999999 999999 999999 999999 999999 999999 999999 999999 999999 999999 999999 999999 999999 999999 999999 999999 999999 999999 999999 999999 999999 999999 999999 999999 999999 999999 999999 999999 999999 999999 999999 0 999999 999999 999999 11816
999999 18718 11141 17569 12388 19011 10302 16114 15845 18127 19403 12430 14848 16567 14236 18144 18628 11413 10102 19952 10155 10251 19991 13717 12294 11102 13815 15182 19569 11221 15009 18403 18461 19553 12960 17565 15114 17592 19994 17710 11325 15925 16139 15591 17731 16538 13628 10132 10138 10636 15616 15307 10963 14433 12260 16663 15369 11835 14612 16630 11862 14735 17567 13993 14046 10353 14910 18459 10965 13614 19048 19525 14804 10947 18729 16435 13276 13709 11611 15899 18756 12886 18356 12323 12510 13443 10467 13794 13236 11568 18101 16137 17477 13288 19860 19237 14505 13857 15744 14237 17778 999999 999999 999999 999999 999999 999999 999999 999999 999999 999999 999999 999999 999999 999999 999999 999999 999999 999999 999999 999999 999999 999999 999999 999999 999999 999999 999999 999999 999999 999999 999999 999999 999999 999999 999999 999999 999999 999999 999999 999999 999999 999999 999999 999999 999999 999999 999999 999999 999999 999999 999999 999999 999999 999999 999999 999999 999999 999999 999999 999999 999999 999999 999999 999999 999999 999999 999999 999999 999999 999999 999999 999999 999999 999999 999999 999999 999999 999999 999999 999999 999999 999999 999999 999999 999999 999999 999999 999999 999999 999999 999999 999999 999999 999999 999999 999999 999999 0 999999 999999 11117
999999 14057 19273 16187 16264 18897 15169 19945 17003 13664 10857 11645 13564 17243 18594 14231 13857 11862 15545 12532 18373 14374 17633 17467 14219 16218 13342 13082 14530 16202 13183 14630 18817 19212 10890 12191 17947 15005 10589 12177 19163 16223 13000 17021 13745 12053 12862 15796 16256 17638 15177 15241 13347 17576 17163 17908 13441 16660 10553 17371 18583 18171 18956 18738 12268 19805 16284 15598 11076 19160 18392 15564 15835 10437 18220 18877 19575 18754 19655 18997 19950 16131 16959 17103 15054 13253 16326 12341 19768 16065 13634 13827 13376 10913 16720 10665 16143 11619 16734 14556 12845 999999 999999 999999 999999 999999 999999 999999 999999 999999 999999 999999 999999 999999 999999 999999 999999 999999 999999 999999 999999 999999 999999 999999 999999 999999 999999 999999 999999 999999 999999 999999 999999 999999 999999 999999 999999 999999 999999 999999 999999 999999 999999 999999 999999 999999 999999 999999 999999 999999 999999 999999 999999 999999 999999 999999 999999 999999 999999 999999 999999 999999 999999 999999 999999 999999 999999 999999 999999 999999 999999 999999 999999 999999 999999 999999 999999 999999 999999 999999 999999 999999 999999 999999 999999 999999 999999 999999 999999 999999 999999 999999 999999 999999 999999 999999 999999 999999 999999 0 999999 6966
999999 19822 12744 16065 16037 12587 17996 19450 14051 12528 14165 19558 13096 12653 17512 16592 19483 12143 10067 10143 11983 18088 18593 14366 17432 12176 13001 17162 19436 15856 11574 17271 15246 17739 12269 16976 19136 11496 19757 12562 14437 18199 18040 13269 18286 14967 12185 10071 14349 18279 18369 19885 16115 15978 17567 14130 13750 16998 14804 13998 10060 19807 13431 16704 10612 11988 10870 16583 18995 15074 11441 15789 19136 11974 19506 16724 18749 10302 15825 10130 12649 11052 14573 15855 19902 17675 19822 18739 13232 10278 15914 10786 15476 13388 17165 11121 15967 17871 19132 14336 12545 999999 999999 999999 999999 999999 999999 999999 999999 999999 999999 999999 999999 999999 999999 999999 999999 999999 999999 999999 999999 999999 999999 999999 999999 999999 999999 999999 999999 999999 999999 999999 999999 999999 999999 999999 999999 999999 999999 999999 999999 999999 999999 999999 999999 999999 999999 999999 999999 999999 999999 999999 999999 999999 999999 999999 999999 999999 999999 999999 999999 999999 999999 999999 999999 999999 999999 999999 999999 999999 999999 999999 999999 999999 999999 999999 999999 999999 999999 999999 999999 999999 999999 999999 999999 999999 999999 999999 999999 999999 999999 999999 999999 999999 999999 999999 999999 999999 999999 999999 0 14190
1 999999 999999 999999 999999 999999 999999 999999 999999 999999 999999 999999 999999 999999 999999 999999 999999 999999 999999 999999 999999 999999 999999 999999 999999 999999 999999 999999 999999 999999 999999 999999 999999 999999 999999 999999 999999 999999 999999 999999 999999 999999 999999 999999 999999 999999 999999 999999 999999 999999 999999 999999 999999 999999 999999 999999 999999 999999 999999 999999 999999 999999 999999 999999 999999 999999 999999 999999 999999 999999 999999 999999 999999 999999 999999 999999 999999 999999 999999 999999 999999 999999 999999 999999 999999 999999 999999 999999 999999 999999 999999 999999 999999 999999 999999 999999 999999 999999 999999 999999 999999 999999 999999 999999 999999 999999 999999 999999 999999 999999 999999 999999 999999 999999 999999 999999 999999 999999 999999 999999 999999 999999 999999 999999 999999 999999 999999 999999 999999 999999 999999 999999 999999 999999 999999 999999 999999 999999 999999 999999 999999 999999 999999 999999 999999 999999 999999 999999 999999 999999 999999 999999 999999 999999 999999 999999 999999 999999 999999 999999 999999 999999 999999 999999 999999 999999 999999 999999 999999 999999 999999 999999 999999 999999 999999 999999 999999 999999 999999 999999 999999 999999 999999 999999 999999 999999 999999 999999 999999 999999 999999 999999 999999 999999 999999 999999 999999 999999 999999 999999 999999 0
EOF