NAME: GR_1x2x25_KH_5x10_Run_5
TYPE: TSP
COMMENT: BTSP instance |A|=50 GR nodes |B|=50 KH nodes depot=0.0 end=0.0.0
DIMENSION: 102
EDGE_WEIGHT_TYPE: EXPLICIT
EDGE_WEIGHT_FORMAT: FULL_MATRIX
NODE_COORD_TYPE: NO_COORDS
EDGE_WEIGHT_SECTION
0 13839 13341 11392 8239 12290 5680 10275 7031 10702 12728 10736 9776 14158 14006 8066 10613 13188 6558 11420 6570 5210 13552 10550 6444 9103 10422 7419 6566 9017 9566 11092 7543 8704 5763 13801 13702 8667 12656 14697 12365 8075 6492 8133 8942 11059 5695 8774 5585 12722 10445 999999 999999 999999 999999 999999 999999 999999 999999 999999 999999 999999 999999 999999 999999 999999 999999 999999 999999 999999 999999 999999 999999 999999 999999 999999 999999 999999 999999 999999 999999 999999 999999 999999 999999 999999 999999 999999 999999 999999 999999 999999 999999 999999 999999 999999 999999 999999 999999 999999 999999 999999
999999 0 999999 999999 999999 999999 999999 999999 999999 999999 999999 999999 999999 999999 999999 999999 999999 999999 999999 999999 999999 999999 999999 999999 999999 999999 999999 999999 999999 999999 999999 999999 999999 999999 999999 999999 999999 999999 999999 999999 999999 999999 999999 999999 999999 999999 999999 999999 999999 999999 999999 12611 17092 19337 12011 12889 10844 18681 10396 11309 12321 15874 10431 14630 16388 15052 17975 10618 13268 17483 15310 12066 13814 12717 17476 15132 16942 19529 15864 17739 10204 18333 14607 10800 12821 12172 17788 15142 19158 16871 11521 18735 11761 12799 14744 11870 18950 12771 11197 19238 12362 999999
999999 999999 0 999999 999999 999999 999999 999999 999999 999999 999999 999999 999999 999999 999999 999999 999999 999999 999999 999999 999999 999999 999999 999999 999999 999999 999999 999999 999999 999999 999999 999999 999999 999999 999999 999999 999999 999999 999999 999999 999999 999999 999999 999999 999999 999999 999999 999999 999999 999999 999999 11678 16746 13903 14019 17625 12561 17910 19539 15770 18799 17450 18367 10362 16558 13814 12416 16949 10944 12640 19214 16503 18931 17804 12597 12844 16827 15708 11887 11764 10365 10964 13135 12849 19403 12096 12289 15530 15685 13455 15226 18128 17528 10893 13537 18983 10404 16828 19561 14397 18830 999999
999999 999999 999999 0 999999 999999 999999 999999 999999 999999 999999 999999 999999 999999 999999 999999 999999 999999 999999 999999 999999 999999 999999 999999 999999 999999 999999 999999 999999 999999 999999 999999 999999 999999 999999 999999 999999 999999 999999 999999 999999 999999 999999 999999 999999 999999 999999 999999 999999 999999 999999 19858 10976 17902 18767 12055 10275 19733 12396 10653 11170 17646 14057 11636 11112 12638 11826 12430 19104 19561 18850 14287 10845 13854 11111 11942 11771 14586 11942 12982 16068 16038 10400 12073 12865 14220 16025 11201 17847 12036 12927 16457 16648 13753 13526 16426 19263 13829 11844 15472 19619 999999
999999 999999 999999 999999 0 999999 999999 999999 999999 999999 999999 999999 999999 999999 999999 999999 999999 999999 999999 999999 999999 999999 999999 999999 999999 999999 999999 999999 999999 999999 999999 999999 999999 999999 999999 999999 999999 999999 999999 999999 999999 999999 999999 999999 999999 999999 999999 999999 999999 999999 999999 17750 15942 10048 12368 18575 13954 18239 13225 19590 14844 18986 11510 13830 16023 10560 10850 10582 19703 18430 13709 18267 11519 16900 11703 19992 16012 12118 14345 19560 17929 10917 19185 19631 14122 19661 15730 18856 14913 19243 12150 15184 13405 10699 10908 12279 11684 12342 13431 18688 19010 999999
999999 999999 999999 999999 999999 0 999999 999999 999999 999999 999999 999999 999999 999999 999999 999999 999999 999999 999999 999999 999999 999999 999999 999999 999999 999999 999999 999999 999999 999999 999999 999999 999999 999999 999999 999999 999999 999999 999999 999999 999999 999999 999999 999999 999999 999999 999999 999999 999999 999999 999999 13766 16040 19215 13541 11578 16616 19772 12278 15460 17267 18098 17659 19153 19834 10591 17013 17021 10980 12961 13296 14959 16530 10291 18372 16069 15006 11206 18484 13093 12393 16443 10961 15827 16849 16641 17249 15399 19185 17516 11170 16270 13931 14334 18850 13304 11592 17806 18575 19527 15096 999999
999999 999999 999999 999999 999999 999999 0 999999 999999 999999 999999 999999 999999 999999 999999 999999 999999 999999 999999 999999 999999 999999 999999 999999 999999 999999 999999 999999 999999 999999 999999 999999 999999 999999 999999 999999 999999 999999 999999 999999 999999 999999 999999 999999 999999 999999 999999 999999 999999 999999 999999 11559 15388 14753 19696 17375 18973 19945 11812 14530 11113 13773 18753 14459 15238 18106 16678 18865 15278 17269 11580 10454 18141 13950 10881 15619 11357 13408 12737 14374 11249 19799 13819 11125 13336 16455 10647 14483 12050 17836 18859 15798 10925 16824 15082 14232 19139 17166 14333 11488 17516 999999
999999 999999 999999 999999 999999 999999 999999 0 999999 999999 999999 999999 999999 999999 999999 999999 999999 999999 999999 999999 999999 999999 999999 999999 999999 999999 999999 999999 999999 999999 999999 999999 999999 999999 999999 999999 999999 999999 999999 999999 999999 999999 999999 999999 999999 999999 999999 999999 999999 999999 999999 17634 10087 15708 13011 19450 18583 18086 18297 10013 14559 13170 16031 16533 13614 19109 16020 10700 18699 12909 11912 18353 18063 17908 14493 13909 13939 15695 11824 13271 13958 11640 17633 13896 17522 12737 15885 16358 11202 13054 19203 11842 17096 13847 19862 14224 16094 11947 19242 12390 12164 999999
999999 999999 999999 999999 999999 999999 999999 999999 0 999999 999999 999999 999999 999999 999999 999999 999999 999999 999999 999999 999999 999999 999999 999999 999999 999999 999999 999999 999999 999999 999999 999999 999999 999999 999999 999999 999999 999999 999999 999999 999999 999999 999999 999999 999999 999999 999999 999999 999999 999999 999999 14513 15351 12410 12532 17536 14729 16553 14232 16567 15754 18460 10522 14346 16898 17012 10584 10696 15089 11017 17234 16187 10707 14400 13101 11129 13733 18652 17007 13354 11859 11246 12003 13711 14610 19939 13478 17147 11177 15880 11103 16870 19474 11197 12391 16779 13843 18466 12732 12959 14279 999999
999999 999999 999999 999999 999999 999999 999999 999999 999999 0 999999 999999 999999 999999 999999 999999 999999 999999 999999 999999 999999 999999 999999 999999 999999 999999 999999 999999 999999 999999 999999 999999 999999 999999 999999 999999 999999 999999 999999 999999 999999 999999 999999 999999 999999 999999 999999 999999 999999 999999 999999 17593 13281 16840 11774 10625 15368 18228 13010 12362 13426 12497 15136 13923 15989 15736 14753 17209 13053 12049 12220 15645 16017 14609 13107 17153 12994 15162 11942 15600 11004 16634 12467 16725 15650 12414 12242 10608 13733 19557 13541 17565 11824 19474 17319 10506 18287 10066 11830 19570 16736 999999
999999 999999 999999 999999 999999 999999 999999 999999 999999 999999 0 999999 999999 999999 999999 999999 999999 999999 999999 999999 999999 999999 999999 999999 999999 999999 999999 999999 999999 999999 999999 999999 999999 999999 999999 999999 999999 999999 999999 999999 999999 999999 999999 999999 999999 999999 999999 999999 999999 999999 999999 18728 14046 15358 18256 10805 15813 13313 17689 12225 16057 17881 18622 13330 17039 12121 16570 12320 11704 14043 16962 12436 17415 11551 19099 19188 15048 16938 12758 12523 14175 13125 18215 19353 13661 18387 13731 16286 10830 16693 18748 11028 14044 17258 15164 19536 12398 13369 10039 16103 14203 999999
999999 999999 999999 999999 999999 999999 999999 999999 999999 999999 999999 0 999999 999999 999999 999999 999999 999999 999999 999999 999999 999999 999999 999999 999999 999999 999999 999999 999999 999999 999999 999999 999999 999999 999999 999999 999999 999999 999999 999999 999999 999999 999999 999999 999999 999999 999999 999999 999999 999999 999999 12734 12433 16582 12569 10291 13784 12592 14344 16368 18178 17144 16804 10224 16968 13489 12955 16427 11330 17529 19097 11624 14936 12114 18358 19661 12108 16155 14865 14060 11162 17849 19379 13846 13679 18337 17191 10279 11618 17829 10056 12527 14058 18655 15514 14312 10825 11846 18106 13072 15568 999999
999999 999999 999999 999999 999999 999999 999999 999999 999999 999999 999999 999999 0 999999 999999 999999 999999 999999 999999 999999 999999 999999 999999 999999 999999 999999 999999 999999 999999 999999 999999 999999 999999 999999 999999 999999 999999 999999 999999 999999 999999 999999 999999 999999 999999 999999 999999 999999 999999 999999 999999 15186 11612 11098 17612 17263 12831 19077 19519 11218 12695 18191 15175 16243 17714 18719 18725 10498 17566 19188 19635 16208 18887 12766 10540 14833 11864 12590 11541 15018 15667 13654 18741 12339 15535 13698 19861 18508 15895 12646 16804 19503 10073 14699 12779 14955 17401 19695 18057 12910 19172 999999
999999 999999 999999 999999 999999 999999 999999 999999 999999 999999 999999 999999 999999 0 999999 999999 999999 999999 999999 999999 999999 999999 999999 999999 999999 999999 999999 999999 999999 999999 999999 999999 999999 999999 999999 999999 999999 999999 999999 999999 999999 999999 999999 999999 999999 999999 999999 999999 999999 999999 999999 11993 19291 14872 13021 17415 19348 16873 11096 11349 13586 17802 16962 11573 12005 19048 16539 17733 16149 17466 19359 14111 13338 19343 13788 16580 19880 12410 13984 12825 18978 18256 10455 13530 13986 17540 16149 17384 18443 11815 16036 13232 17346 17617 11505 13953 19197 11929 14385 12250 10063 999999
999999 999999 999999 999999 999999 999999 999999 999999 999999 999999 999999 999999 999999 999999 0 999999 999999 999999 999999 999999 999999 999999 999999 999999 999999 999999 999999 999999 999999 999999 999999 999999 999999 999999 999999 999999 999999 999999 999999 999999 999999 999999 999999 999999 999999 999999 999999 999999 999999 999999 999999 14208 18991 16979 12353 14365 19120 11591 10637 12581 12558 10964 12138 17704 10465 15593 18898 17449 17426 15818 17697 19586 15244 10622 16649 19625 15075 13996 16908 10429 18633 10781 17547 10309 13415 19086 19866 15529 18757 18389 19338 15212 16877 10105 16833 17165 19927 17506 11299 16063 15303 999999
999999 999999 999999 999999 999999 999999 999999 999999 999999 999999 999999 999999 999999 999999 999999 0 999999 999999 999999 999999 999999 999999 999999 999999 999999 999999 999999 999999 999999 999999 999999 999999 999999 999999 999999 999999 999999 999999 999999 999999 999999 999999 999999 999999 999999 999999 999999 999999 999999 999999 999999 12647 14875 18544 10907 13999 19462 18750 19497 18658 14970 10860 16303 11514 18293 18863 18515 15379 15938 16082 19563 12465 12363 15505 16217 14297 13346 13810 15450 10692 14591 12160 16193 12692 10386 13932 17286 18437 12453 16158 17834 15898 16294 16483 10020 13607 10767 14534 11672 10995 11798 999999
999999 999999 999999 999999 999999 999999 999999 999999 999999 999999 999999 999999 999999 999999 999999 999999 0 999999 999999 999999 999999 999999 999999 999999 999999 999999 999999 999999 999999 999999 999999 999999 999999 999999 999999 999999 999999 999999 999999 999999 999999 999999 999999 999999 999999 999999 999999 999999 999999 999999 999999 13133 10068 11487 17746 15720 13606 12776 11548 11221 18020 17405 12268 15195 12054 15197 13142 10283 15745 16256 16661 19256 14047 10621 14870 19027 17813 12129 11953 16243 16987 11080 11497 19223 18788 13978 18400 17992 15965 19598 14937 10106 11668 15890 18512 19724 18305 11488 12495 18429 18225 999999
999999 999999 999999 999999 999999 999999 999999 999999 999999 999999 999999 999999 999999 999999 999999 999999 999999 0 999999 999999 999999 999999 999999 999999 999999 999999 999999 999999 999999 999999 999999 999999 999999 999999 999999 999999 999999 999999 999999 999999 999999 999999 999999 999999 999999 999999 999999 999999 999999 999999 999999 16392 19297 14988 19416 19900 16408 16875 15403 17209 19391 17245 14291 15110 12973 14889 13364 13515 18270 14836 11596 15268 17685 11870 13276 17670 10643 10549 13298 16353 14343 14065 13329 18667 19787 16390 11707 12343 19410 19807 17414 17075 14470 16413 19650 18059 18188 18617 18330 15815 12122 999999
999999 999999 999999 999999 999999 999999 999999 999999 999999 999999 999999 999999 999999 999999 999999 999999 999999 999999 0 999999 999999 999999 999999 999999 999999 999999 999999 999999 999999 999999 999999 999999 999999 999999 999999 999999 999999 999999 999999 999999 999999 999999 999999 999999 999999 999999 999999 999999 999999 999999 999999 16234 19982 13978 14174 11884 16968 17511 17843 16947 17241 17868 10198 17370 15259 17225 14777 16990 15286 16254 16195 18185 14404 19943 15374 10065 12659 18987 16018 15121 16582 11655 11892 19117 15355 17343 17833 12751 19771 18441 17827 18110 14213 11247 17289 17321 16021 11382 10062 12529 17638 999999
999999 999999 999999 999999 999999 999999 999999 999999 999999 999999 999999 999999 999999 999999 999999 999999 999999 999999 999999 0 999999 999999 999999 999999 999999 999999 999999 999999 999999 999999 999999 999999 999999 999999 999999 999999 999999 999999 999999 999999 999999 999999 999999 999999 999999 999999 999999 999999 999999 999999 999999 15480 14222 14624 17427 17075 11559 13940 11201 14397 13058 15310 11587 12111 15780 10645 10930 11989 13690 16917 17955 18568 11505 16451 14660 10953 11385 19381 19824 18967 19378 11519 12955 14887 19138 18060 14245 19984 15916 18960 19131 18854 19507 12797 17954 16626 11530 11565 14446 19287 12034 999999
999999 999999 999999 999999 999999 999999 999999 999999 999999 999999 999999 999999 999999 999999 999999 999999 999999 999999 999999 999999 0 999999 999999 999999 999999 999999 999999 999999 999999 999999 999999 999999 999999 999999 999999 999999 999999 999999 999999 999999 999999 999999 999999 999999 999999 999999 999999 999999 999999 999999 999999 10695 19466 10713 14059 12227 17801 13929 18765 11821 13872 12605 15217 19505 14279 12875 13016 16877 10820 15269 17627 12858 13979 17336 10185 17552 11223 10508 14710 11811 14212 18167 15683 19225 15486 12729 17845 15334 14573 19883 19151 11193 19131 15164 18365 19374 12575 13756 19869 16607 12595 999999
999999 999999 999999 999999 999999 999999 999999 999999 999999 999999 999999 999999 999999 999999 999999 999999 999999 999999 999999 999999 999999 0 999999 999999 999999 999999 999999 999999 999999 999999 999999 999999 999999 999999 999999 999999 999999 999999 999999 999999 999999 999999 999999 999999 999999 999999 999999 999999 999999 999999 999999 15244 16675 14395 19477 18167 12521 19477 13963 12400 15772 19110 15540 18549 18179 12494 19226 16144 12714 14499 12198 10547 13684 19807 18150 14311 12735 16155 10718 19828 15522 11265 12322 15311 13236 12621 13590 13898 11095 10707 19672 15969 16048 12740 18822 11183 19285 16144 17962 16633 18583 999999
999999 999999 999999 999999 999999 999999 999999 999999 999999 999999 999999 999999 999999 999999 999999 999999 999999 999999 999999 999999 999999 999999 0 999999 999999 999999 999999 999999 999999 999999 999999 999999 999999 999999 999999 999999 999999 999999 999999 999999 999999 999999 999999 999999 999999 999999 999999 999999 999999 999999 999999 12958 14882 14660 12864 16628 15848 11695 11738 18257 19763 18178 13643 12027 19940 15705 13322 18137 15578 18264 18375 16687 15116 13984 11825 11305 11837 18121 11577 10486 13686 11758 12076 10384 18082 15160 10941 18832 18511 19684 14913 10817 19123 16132 10146 19073 14877 14094 16578 12674 15343 999999
999999 999999 999999 999999 999999 999999 999999 999999 999999 999999 999999 999999 999999 999999 999999 999999 999999 999999 999999 999999 999999 999999 999999 0 999999 999999 999999 999999 999999 999999 999999 999999 999999 999999 999999 999999 999999 999999 999999 999999 999999 999999 999999 999999 999999 999999 999999 999999 999999 999999 999999 17474 10323 10466 19548 11686 15877 15827 13294 11073 19588 15202 13386 13950 17118 19327 17930 15051 11809 17996 11146 12990 18360 15305 15161 15081 19336 19956 18086 15836 14823 19290 15248 15922 10167 19420 12639 14418 16319 17244 17725 16880 17180 15266 16591 19906 11501 12806 11626 14419 15654 999999
999999 999999 999999 999999 999999 999999 999999 999999 999999 999999 999999 999999 999999 999999 999999 999999 999999 999999 999999 999999 999999 999999 999999 999999 0 999999 999999 999999 999999 999999 999999 999999 999999 999999 999999 999999 999999 999999 999999 999999 999999 999999 999999 999999 999999 999999 999999 999999 999999 999999 999999 13149 10621 19441 12776 10698 14922 18704 14530 16054 19089 12905 17883 18348 16275 10144 16106 13293 15092 16022 12231 14199 18323 14410 12259 11518 16747 13672 13422 11012 10623 19343 15296 13774 12202 10328 19921 10256 15893 12663 17385 16389 12093 17244 15685 10086 17489 19437 19862 14857 16543 999999
999999 999999 999999 999999 999999 999999 999999 999999 999999 999999 999999 999999 999999 999999 999999 999999 999999 999999 999999 999999 999999 999999 999999 999999 999999 0 999999 999999 999999 999999 999999 999999 999999 999999 999999 999999 999999 999999 999999 999999 999999 999999 999999 999999 999999 999999 999999 999999 999999 999999 999999 15615 15997 13113 12180 16925 10209 11841 10728 13038 14982 17309 10338 17812 11565 13022 18445 19498 16246 17213 17360 10068 14440 14270 10315 16621 14071 16503 18498 18705 12463 16738 17628 17074 19251 17137 17850 19263 14142 12367 19111 10363 13181 14829 19840 11486 17383 10353 18242 12335 17584 999999
999999 999999 999999 999999 999999 999999 999999 999999 999999 999999 999999 999999 999999 999999 999999 999999 999999 999999 999999 999999 999999 999999 999999 999999 999999 999999 0 999999 999999 999999 999999 999999 999999 999999 999999 999999 999999 999999 999999 999999 999999 999999 999999 999999 999999 999999 999999 999999 999999 999999 999999 14575 12429 18350 18513 18520 19241 16000 10143 10129 10102 18560 19865 13925 15806 13706 10002 13788 13765 14164 18314 14232 19806 15326 10423 16300 19990 19905 19713 17444 19266 19582 19118 15367 13374 13978 17326 17642 13847 11302 12781 13654 15680 18981 17142 14499 12903 16698 12939 14817 13179 999999
999999 999999 999999 999999 999999 999999 999999 999999 999999 999999 999999 999999 999999 999999 999999 999999 999999 999999 999999 999999 999999 999999 999999 999999 999999 999999 999999 0 999999 999999 999999 999999 999999 999999 999999 999999 999999 999999 999999 999999 999999 999999 999999 999999 999999 999999 999999 999999 999999 999999 999999 10443 19755 16077 14333 14237 14670 11077 13254 12350 17227 11362 18898 16571 19936 12592 10694 15388 13443 13483 13184 17042 11734 13390 18763 18599 19542 10377 16408 12020 15923 11139 12755 18563 16676 18109 13476 11126 12884 11999 10026 18556 10811 16500 12846 13299 16462 19449 15367 15378 18100 999999
999999 999999 999999 999999 999999 999999 999999 999999 999999 999999 999999 999999 999999 999999 999999 999999 999999 999999 999999 999999 999999 999999 999999 999999 999999 999999 999999 999999 0 999999 999999 999999 999999 999999 999999 999999 999999 999999 999999 999999 999999 999999 999999 999999 999999 999999 999999 999999 999999 999999 999999 15607 10978 19912 16177 14433 13151 16904 12799 15360 10485 12437 10950 13865 15143 17164 16829 10909 19352 17056 18428 19447 10925 15340 19488 11048 19041 14025 18665 16056 15346 16593 16947 13107 14570 19005 17139 13179 17057 17563 12944 17871 14658 18757 18848 19298 12527 14382 11648 19153 19427 999999
999999 999999 999999 999999 999999 999999 999999 999999 999999 999999 999999 999999 999999 999999 999999 999999 999999 999999 999999 999999 999999 999999 999999 999999 999999 999999 999999 999999 999999 0 999999 999999 999999 999999 999999 999999 999999 999999 999999 999999 999999 999999 999999 999999 999999 999999 999999 999999 999999 999999 999999 11103 17539 15617 14372 17425 12112 19749 14152 19222 19914 10619 13878 14307 16649 17037 18096 12283 16268 18582 11743 12850 19262 17191 19962 11112 18081 16840 17618 14495 15076 17805 13089 17225 12755 17491 15940 11883 11817 18131 13488 16673 10511 10579 17769 14186 15052 18359 12455 18258 17003 999999
999999 999999 999999 999999 999999 999999 999999 999999 999999 999999 999999 999999 999999 999999 999999 999999 999999 999999 999999 999999 999999 999999 999999 999999 999999 999999 999999 999999 999999 999999 0 999999 999999 999999 999999 999999 999999 999999 999999 999999 999999 999999 999999 999999 999999 999999 999999 999999 999999 999999 999999 11823 15220 15063 12488 17452 13775 16222 12902 14934 12608 12660 12486 18841 11719 10684 18513 18757 12677 14543 16811 18453 12558 16224 14253 17392 17356 16493 14556 12282 10749 15893 12451 11663 14827 18400 16118 16216 16433 16661 17711 16462 12751 16494 13665 11732 15933 19336 11264 16473 15886 999999
999999 999999 999999 999999 999999 999999 999999 999999 999999 999999 999999 999999 999999 999999 999999 999999 999999 999999 999999 999999 999999 999999 999999 999999 999999 999999 999999 999999 999999 999999 999999 0 999999 999999 999999 999999 999999 999999 999999 999999 999999 999999 999999 999999 999999 999999 999999 999999 999999 999999 999999 14360 19881 16162 13715 18284 10297 13900 12393 17970 14203 18370 17059 16834 17361 13276 17296 13824 11214 13726 14727 17090 10435 18684 12000 18969 15711 10359 15287 17409 14044 13256 12920 14540 15162 16795 15926 13740 18212 12504 17398 14964 14939 11592 19883 18647 11735 15712 17642 14690 10714 999999
999999 999999 999999 999999 999999 999999 999999 999999 999999 999999 999999 999999 999999 999999 999999 999999 999999 999999 999999 999999 999999 999999 999999 999999 999999 999999 999999 999999 999999 999999 999999 999999 0 999999 999999 999999 999999 999999 999999 999999 999999 999999 999999 999999 999999 999999 999999 999999 999999 999999 999999 17805 19998 12399 14826 16196 16967 11680 10210 12494 13322 15642 11354 15225 11665 15041 16908 12576 16648 19746 17913 12681 17908 13942 17986 13810 12538 13391 10856 10615 13722 14675 12263 12828 12926 16945 15643 18941 19756 16686 18951 10270 18751 17173 19549 17695 10655 15655 16049 17944 15229 999999
999999 999999 999999 999999 999999 999999 999999 999999 999999 999999 999999 999999 999999 999999 999999 999999 999999 999999 999999 999999 999999 999999 999999 999999 999999 999999 999999 999999 999999 999999 999999 999999 999999 0 999999 999999 999999 999999 999999 999999 999999 999999 999999 999999 999999 999999 999999 999999 999999 999999 999999 18460 19149 14745 10659 19513 15722 12335 19300 12593 10766 15440 11203 17406 10450 12785 17256 18457 17865 10177 17419 17466 16860 19076 15564 19071 19096 16709 11754 11148 19994 14766 19626 12694 13155 16829 18309 17778 14497 13070 10705 13321 18836 16389 11883 10712 17045 11369 15796 16096 13360 999999
999999 999999 999999 999999 999999 999999 999999 999999 999999 999999 999999 999999 999999 999999 999999 999999 999999 999999 999999 999999 999999 999999 999999 999999 999999 999999 999999 999999 999999 999999 999999 999999 999999 999999 0 999999 999999 999999 999999 999999 999999 999999 999999 999999 999999 999999 999999 999999 999999 999999 999999 16351 11796 17401 17545 10135 11139 13014 10123 11614 14572 11998 14835 10646 17756 17074 14051 19228 18339 17291 15283 16878 18531 19644 14695 13896 12843 10940 12340 10822 12278 13337 11841 12588 16456 16627 19001 16645 11662 10013 19212 10172 13807 19390 18389 17754 14738 18276 12204 13949 16420 999999
999999 999999 999999 999999 999999 999999 999999 999999 999999 999999 999999 999999 999999 999999 999999 999999 999999 999999 999999 999999 999999 999999 999999 999999 999999 999999 999999 999999 999999 999999 999999 999999 999999 999999 999999 0 999999 999999 999999 999999 999999 999999 999999 999999 999999 999999 999999 999999 999999 999999 999999 12888 18975 11243 13937 13692 19378 19584 13558 13794 13006 14901 10841 14876 18188 16969 10750 13195 18825 15004 16190 15107 14794 13541 15774 18847 18438 17785 14684 16534 18672 14421 16156 18994 10471 10682 18385 18993 14265 15238 18423 17674 15273 10165 15948 12587 18624 17317 17042 16865 17340 999999
999999 999999 999999 999999 999999 999999 999999 999999 999999 999999 999999 999999 999999 999999 999999 999999 999999 999999 999999 999999 999999 999999 999999 999999 999999 999999 999999 999999 999999 999999 999999 999999 999999 999999 999999 999999 0 999999 999999 999999 999999 999999 999999 999999 999999 999999 999999 999999 999999 999999 999999 16706 11931 13320 11835 11839 13862 12944 19893 14732 19491 18007 19584 12629 16596 12741 17805 17964 10465 18764 17812 12310 11380 14184 13356 14021 13299 17280 19937 13451 15292 11008 11155 14006 19300 11077 17482 17977 14502 17488 18928 13449 16492 13194 11852 11908 14080 13101 13090 12815 16064 999999
999999 999999 999999 999999 999999 999999 999999 999999 999999 999999 999999 999999 999999 999999 999999 999999 999999 999999 999999 999999 999999 999999 999999 999999 999999 999999 999999 999999 999999 999999 999999 999999 999999 999999 999999 999999 999999 0 999999 999999 999999 999999 999999 999999 999999 999999 999999 999999 999999 999999 999999 12236 15866 17703 17984 11031 19744 11120 15407 11687 15719 12514 15321 16328 11116 18049 17085 11145 19888 14584 14520 14407 19402 10564 15259 15676 18431 13025 19970 18988 18897 17035 19092 14551 14459 15839 19061 12267 14241 17526 19030 11769 13779 16076 11504 16530 14362 18407 13321 15703 16648 999999
999999 999999 999999 999999 999999 999999 999999 999999 999999 999999 999999 999999 999999 999999 999999 999999 999999 999999 999999 999999 999999 999999 999999 999999 999999 999999 999999 999999 999999 999999 999999 999999 999999 999999 999999 999999 999999 999999 0 999999 999999 999999 999999 999999 999999 999999 999999 999999 999999 999999 999999 18839 16292 10177 13636 10158 11743 10296 10039 10229 17668 18943 15269 10963 11051 16992 17949 12228 15692 13398 16174 17868 12993 13729 11138 13859 19409 15691 16302 17464 11105 10672 13222 17180 10724 13199 11478 11754 11555 14504 19977 13721 11150 15087 11055 13122 16374 17757 14784 12540 14256 999999
999999 999999 999999 999999 999999 999999 999999 999999 999999 999999 999999 999999 999999 999999 999999 999999 999999 999999 999999 999999 999999 999999 999999 999999 999999 999999 999999 999999 999999 999999 999999 999999 999999 999999 999999 999999 999999 999999 999999 0 999999 999999 999999 999999 999999 999999 999999 999999 999999 999999 999999 11000 15256 12277 10180 13299 19230 15506 18197 15560 11530 13485 15752 17780 10684 19234 15228 11968 12732 17739 17381 11190 16976 16409 15497 18386 15906 19577 18005 19585 12895 15231 14372 10079 10014 16015 12448 15195 15323 16312 10607 16838 14431 18756 15721 18577 18406 11860 17325 16167 10753 999999
999999 999999 999999 999999 999999 999999 999999 999999 999999 999999 999999 999999 999999 999999 999999 999999 999999 999999 999999 999999 999999 999999 999999 999999 999999 999999 999999 999999 999999 999999 999999 999999 999999 999999 999999 999999 999999 999999 999999 999999 0 999999 999999 999999 999999 999999 999999 999999 999999 999999 999999 14834 12221 16567 16176 16748 11669 13390 13812 10997 18863 19607 10871 15661 19406 17345 14282 11822 12871 17757 14551 19040 14108 12915 15479 17614 14256 17880 19479 10808 16623 15727 11120 13778 19596 16790 12481 16561 17809 16238 15963 14510 14914 14464 12176 12425 10561 13592 11282 16274 16062 999999
999999 999999 999999 999999 999999 999999 999999 999999 999999 999999 999999 999999 999999 999999 999999 999999 999999 999999 999999 999999 999999 999999 999999 999999 999999 999999 999999 999999 999999 999999 999999 999999 999999 999999 999999 999999 999999 999999 999999 999999 999999 0 999999 999999 999999 999999 999999 999999 999999 999999 999999 19293 12463 13299 16874 19581 18021 14002 17594 18907 14637 19466 13689 12688 17970 11052 13662 15352 18019 18777 18501 18355 17379 18892 18699 11606 15487 12561 15785 15564 18425 14870 17049 17291 10144 14795 15096 19248 17186 16228 19169 19977 12137 18050 19032 15404 12791 13356 13807 17464 12158 999999
999999 999999 999999 999999 999999 999999 999999 999999 999999 999999 999999 999999 999999 999999 999999 999999 999999 999999 999999 999999 999999 999999 999999 999999 999999 999999 999999 999999 999999 999999 999999 999999 999999 999999 999999 999999 999999 999999 999999 999999 999999 999999 0 999999 999999 999999 999999 999999 999999 999999 999999 10472 17019 12829 12740 18284 18596 16414 11816 12846 12196 15792 19163 14257 15434 13200 12853 10541 12364 18931 19412 18578 16885 16306 19894 10498 18854 11161 10230 17555 14516 19990 13426 12766 18558 15559 19887 14526 16552 18968 19279 15900 18821 13335 10429 10481 12655 11401 15921 18136 12644 999999
999999 999999 999999 999999 999999 999999 999999 999999 999999 999999 999999 999999 999999 999999 999999 999999 999999 999999 999999 999999 999999 999999 999999 999999 999999 999999 999999 999999 999999 999999 999999 999999 999999 999999 999999 999999 999999 999999 999999 999999 999999 999999 999999 0 999999 999999 999999 999999 999999 999999 999999 10922 14060 10846 15211 11095 17885 13791 17165 19899 13157 10971 15814 19302 10796 13576 19050 19717 10403 11736 17023 13803 15078 14991 11230 10567 14597 14961 12756 17973 11743 19978 18360 12784 11540 15519 13567 17940 19025 14791 19860 10051 11750 18201 14166 10955 14669 17965 18537 16404 16795 999999
999999 999999 999999 999999 999999 999999 999999 999999 999999 999999 999999 999999 999999 999999 999999 999999 999999 999999 999999 999999 999999 999999 999999 999999 999999 999999 999999 999999 999999 999999 999999 999999 999999 999999 999999 999999 999999 999999 999999 999999 999999 999999 999999 999999 0 999999 999999 999999 999999 999999 999999 18272 18325 12018 11912 12338 16166 17115 10441 10180 11718 12235 14679 13868 16222 12446 13859 14801 16691 18886 12498 15521 19597 12952 12463 18408 14921 13737 19165 13192 14945 19718 19369 13717 13698 10376 12778 13816 13407 12826 19773 18116 18771 12911 14930 17525 12117 17187 19101 11127 16345 999999
999999 999999 999999 999999 999999 999999 999999 999999 999999 999999 999999 999999 999999 999999 999999 999999 999999 999999 999999 999999 999999 999999 999999 999999 999999 999999 999999 999999 999999 999999 999999 999999 999999 999999 999999 999999 999999 999999 999999 999999 999999 999999 999999 999999 999999 0 999999 999999 999999 999999 999999 17400 10279 13092 19213 19936 11314 15111 14344 19868 16050 16424 12542 12437 13837 15444 18771 17725 12550 12182 17424 17839 10844 17602 12580 13762 13168 11021 13287 12355 11520 15473 12130 10654 13062 12896 16443 12897 11120 19563 19264 15871 18475 12258 17193 19367 14403 13523 12708 12105 13314 999999
999999 999999 999999 999999 999999 999999 999999 999999 999999 999999 999999 999999 999999 999999 999999 999999 999999 999999 999999 999999 999999 999999 999999 999999 999999 999999 999999 999999 999999 999999 999999 999999 999999 999999 999999 999999 999999 999999 999999 999999 999999 999999 999999 999999 999999 999999 0 999999 999999 999999 999999 19155 11324 18225 10481 18684 10922 16702 12874 18439 10097 18678 11718 11467 19056 14723 16570 13976 11851 12124 12484 15965 14718 14662 10093 19714 11892 11914 19952 15286 12028 19408 19589 12352 11546 15614 14605 15376 14742 19271 10037 11394 10675 18703 16470 13701 16692 12004 18241 12257 15357 999999
999999 999999 999999 999999 999999 999999 999999 999999 999999 999999 999999 999999 999999 999999 999999 999999 999999 999999 999999 999999 999999 999999 999999 999999 999999 999999 999999 999999 999999 999999 999999 999999 999999 999999 999999 999999 999999 999999 999999 999999 999999 999999 999999 999999 999999 999999 999999 0 999999 999999 999999 15963 13362 11350 11585 10607 11971 15159 11594 11478 16612 17331 13030 13135 12806 13944 10005 18213 12723 16547 15168 10110 19164 15588 19720 14644 16493 14348 15523 15129 14826 11284 16741 10726 13351 17886 12157 14907 14872 10333 19487 12118 14715 15730 15034 13884 18086 19215 15621 17534 14665 999999
999999 999999 999999 999999 999999 999999 999999 999999 999999 999999 999999 999999 999999 999999 999999 999999 999999 999999 999999 999999 999999 999999 999999 999999 999999 999999 999999 999999 999999 999999 999999 999999 999999 999999 999999 999999 999999 999999 999999 999999 999999 999999 999999 999999 999999 999999 999999 999999 0 999999 999999 12371 10202 14163 16246 19736 11968 13835 11802 18864 11173 15704 14528 14432 17852 13621 12163 11085 11764 18033 14955 16157 17984 18122 15365 16841 16952 12607 15089 10358 10768 10765 14561 10093 14736 10917 18077 14613 10904 14464 19043 12537 17317 10494 12131 18619 12419 12746 12860 10488 15542 999999
999999 999999 999999 999999 999999 999999 999999 999999 999999 999999 999999 999999 999999 999999 999999 999999 999999 999999 999999 999999 999999 999999 999999 999999 999999 999999 999999 999999 999999 999999 999999 999999 999999 999999 999999 999999 999999 999999 999999 999999 999999 999999 999999 999999 999999 999999 999999 999999 999999 0 999999 17000 10756 10485 10843 18703 12387 14461 10899 18670 16427 12592 16124 15805 13707 13999 10152 17884 15628 13801 12665 10834 19800 11373 18667 16771 12632 13215 13337 16449 10578 10649 15223 18073 15595 12303 10375 17239 14391 19159 11028 15065 11231 11740 13975 17406 18815 12736 16121 15342 11761 999999
999999 999999 999999 999999 999999 999999 999999 999999 999999 999999 999999 999999 999999 999999 999999 999999 999999 999999 999999 999999 999999 999999 999999 999999 999999 999999 999999 999999 999999 999999 999999 999999 999999 999999 999999 999999 999999 999999 999999 999999 999999 999999 999999 999999 999999 999999 999999 999999 999999 999999 0 16940 13363 19716 18570 11839 16159 17768 14326 16961 14486 16877 11341 16549 13278 16262 18781 12566 15995 12947 17683 12587 17962 12714 17653 11087 19498 12566 19795 12498 18911 15338 13545 19543 17664 13560 15081 13523 18792 17932 19874 13337 15788 15054 14994 15852 13727 13871 18126 16981 18230 999999
999999 12611 11678 19858 17750 13766 11559 17634 14513 17593 18728 12734 15186 11993 14208 12647 13133 16392 16234 15480 10695 15244 12958 17474 13149 15615 14575 10443 15607 11103 11823 14360 17805 18460 16351 12888 16706 12236 18839 11000 14834 19293 10472 10922 18272 17400 19155 15963 12371 17000 16940 0 999999 999999 999999 999999 999999 999999 999999 999999 999999 999999 999999 999999 999999 999999 999999 999999 999999 999999 999999 999999 999999 999999 999999 999999 999999 999999 999999 999999 999999 999999 999999 999999 999999 999999 999999 999999 999999 999999 999999 999999 999999 999999 999999 999999 999999 999999 999999 999999 999999 7106
999999 17092 16746 10976 15942 16040 15388 10087 15351 13281 14046 12433 11612 19291 18991 14875 10068 19297 19982 14222 19466 16675 14882 10323 10621 15997 12429 19755 10978 17539 15220 19881 19998 19149 11796 18975 11931 15866 16292 15256 12221 12463 17019 14060 18325 10279 11324 13362 10202 10756 13363 999999 0 999999 999999 999999 999999 999999 999999 999999 999999 999999 999999 999999 999999 999999 999999 999999 999999 999999 999999 999999 999999 999999 999999 999999 999999 999999 999999 999999 999999 999999 999999 999999 999999 999999 999999 999999 999999 999999 999999 999999 999999 999999 999999 999999 999999 999999 999999 999999 999999 5368
999999 19337 13903 17902 10048 19215 14753 15708 12410 16840 15358 16582 11098 14872 16979 18544 11487 14988 13978 14624 10713 14395 14660 10466 19441 13113 18350 16077 19912 15617 15063 16162 12399 14745 17401 11243 13320 17703 10177 12277 16567 13299 12829 10846 12018 13092 18225 11350 14163 10485 19716 999999 999999 0 999999 999999 999999 999999 999999 999999 999999 999999 999999 999999 999999 999999 999999 999999 999999 999999 999999 999999 999999 999999 999999 999999 999999 999999 999999 999999 999999 999999 999999 999999 999999 999999 999999 999999 999999 999999 999999 999999 999999 999999 999999 999999 999999 999999 999999 999999 999999 8136
999999 12011 14019 18767 12368 13541 19696 13011 12532 11774 18256 12569 17612 13021 12353 10907 17746 19416 14174 17427 14059 19477 12864 19548 12776 12180 18513 14333 16177 14372 12488 13715 14826 10659 17545 13937 11835 17984 13636 10180 16176 16874 12740 15211 11912 19213 10481 11585 16246 10843 18570 999999 999999 999999 0 999999 999999 999999 999999 999999 999999 999999 999999 999999 999999 999999 999999 999999 999999 999999 999999 999999 999999 999999 999999 999999 999999 999999 999999 999999 999999 999999 999999 999999 999999 999999 999999 999999 999999 999999 999999 999999 999999 999999 999999 999999 999999 999999 999999 999999 999999 5540
999999 12889 17625 12055 18575 11578 17375 19450 17536 10625 10805 10291 17263 17415 14365 13999 15720 19900 11884 17075 12227 18167 16628 11686 10698 16925 18520 14237 14433 17425 17452 18284 16196 19513 10135 13692 11839 11031 10158 13299 16748 19581 18284 11095 12338 19936 18684 10607 19736 18703 11839 999999 999999 999999 999999 0 999999 999999 999999 999999 999999 999999 999999 999999 999999 999999 999999 999999 999999 999999 999999 999999 999999 999999 999999 999999 999999 999999 999999 999999 999999 999999 999999 999999 999999 999999 999999 999999 999999 999999 999999 999999 999999 999999 999999 999999 999999 999999 999999 999999 999999 6426
999999 10844 12561 10275 13954 16616 18973 18583 14729 15368 15813 13784 12831 19348 19120 19462 13606 16408 16968 11559 17801 12521 15848 15877 14922 10209 19241 14670 13151 12112 13775 10297 16967 15722 11139 19378 13862 19744 11743 19230 11669 18021 18596 17885 16166 11314 10922 11971 11968 12387 16159 999999 999999 999999 999999 999999 0 999999 999999 999999 999999 999999 999999 999999 999999 999999 999999 999999 999999 999999 999999 999999 999999 999999 999999 999999 999999 999999 999999 999999 999999 999999 999999 999999 999999 999999 999999 999999 999999 999999 999999 999999 999999 999999 999999 999999 999999 999999 999999 999999 999999 5090
999999 18681 17910 19733 18239 19772 19945 18086 16553 18228 13313 12592 19077 16873 11591 18750 12776 16875 17511 13940 13929 19477 11695 15827 18704 11841 16000 11077 16904 19749 16222 13900 11680 12335 13014 19584 12944 11120 10296 15506 13390 14002 16414 13791 17115 15111 16702 15159 13835 14461 17768 999999 999999 999999 999999 999999 999999 0 999999 999999 999999 999999 999999 999999 999999 999999 999999 999999 999999 999999 999999 999999 999999 999999 999999 999999 999999 999999 999999 999999 999999 999999 999999 999999 999999 999999 999999 999999 999999 999999 999999 999999 999999 999999 999999 999999 999999 999999 999999 999999 999999 9120
999999 10396 19539 12396 13225 12278 11812 18297 14232 13010 17689 14344 19519 11096 10637 19497 11548 15403 17843 11201 18765 13963 11738 13294 14530 10728 10143 13254 12799 14152 12902 12393 10210 19300 10123 13558 19893 15407 10039 18197 13812 17594 11816 17165 10441 14344 12874 11594 11802 10899 14326 999999 999999 999999 999999 999999 999999 999999 0 999999 999999 999999 999999 999999 999999 999999 999999 999999 999999 999999 999999 999999 999999 999999 999999 999999 999999 999999 999999 999999 999999 999999 999999 999999 999999 999999 999999 999999 999999 999999 999999 999999 999999 999999 999999 999999 999999 999999 999999 999999 999999 9234
999999 11309 15770 10653 19590 15460 14530 10013 16567 12362 12225 16368 11218 11349 12581 18658 11221 17209 16947 14397 11821 12400 18257 11073 16054 13038 10129 12350 15360 19222 14934 17970 12494 12593 11614 13794 14732 11687 10229 15560 10997 18907 12846 19899 10180 19868 18439 11478 18864 18670 16961 999999 999999 999999 999999 999999 999999 999999 999999 0 999999 999999 999999 999999 999999 999999 999999 999999 999999 999999 999999 999999 999999 999999 999999 999999 999999 999999 999999 999999 999999 999999 999999 999999 999999 999999 999999 999999 999999 999999 999999 999999 999999 999999 999999 999999 999999 999999 999999 999999 999999 5125
999999 12321 18799 11170 14844 17267 11113 14559 15754 13426 16057 18178 12695 13586 12558 14970 18020 19391 17241 13058 13872 15772 19763 19588 19089 14982 10102 17227 10485 19914 12608 14203 13322 10766 14572 13006 19491 15719 17668 11530 18863 14637 12196 13157 11718 16050 10097 16612 11173 16427 14486 999999 999999 999999 999999 999999 999999 999999 999999 999999 0 999999 999999 999999 999999 999999 999999 999999 999999 999999 999999 999999 999999 999999 999999 999999 999999 999999 999999 999999 999999 999999 999999 999999 999999 999999 999999 999999 999999 999999 999999 999999 999999 999999 999999 999999 999999 999999 999999 999999 999999 9154
999999 15874 17450 17646 18986 18098 13773 13170 18460 12497 17881 17144 18191 17802 10964 10860 17405 17245 17868 15310 12605 19110 18178 15202 12905 17309 18560 11362 12437 10619 12660 18370 15642 15440 11998 14901 18007 12514 18943 13485 19607 19466 15792 10971 12235 16424 18678 17331 15704 12592 16877 999999 999999 999999 999999 999999 999999 999999 999999 999999 999999 0 999999 999999 999999 999999 999999 999999 999999 999999 999999 999999 999999 999999 999999 999999 999999 999999 999999 999999 999999 999999 999999 999999 999999 999999 999999 999999 999999 999999 999999 999999 999999 999999 999999 999999 999999 999999 999999 999999 999999 10191
999999 10431 18367 14057 11510 17659 18753 16031 10522 15136 18622 16804 15175 16962 12138 16303 12268 14291 10198 11587 15217 15540 13643 13386 17883 10338 19865 18898 10950 13878 12486 17059 11354 11203 14835 10841 19584 15321 15269 15752 10871 13689 19163 15814 14679 12542 11718 13030 14528 16124 11341 999999 999999 999999 999999 999999 999999 999999 999999 999999 999999 999999 0 999999 999999 999999 999999 999999 999999 999999 999999 999999 999999 999999 999999 999999 999999 999999 999999 999999 999999 999999 999999 999999 999999 999999 999999 999999 999999 999999 999999 999999 999999 999999 999999 999999 999999 999999 999999 999999 999999 8021
999999 14630 10362 11636 13830 19153 14459 16533 14346 13923 13330 10224 16243 11573 17704 11514 15195 15110 17370 12111 19505 18549 12027 13950 18348 17812 13925 16571 13865 14307 18841 16834 15225 17406 10646 14876 12629 16328 10963 17780 15661 12688 14257 19302 13868 12437 11467 13135 14432 15805 16549 999999 999999 999999 999999 999999 999999 999999 999999 999999 999999 999999 999999 0 999999 999999 999999 999999 999999 999999 999999 999999 999999 999999 999999 999999 999999 999999 999999 999999 999999 999999 999999 999999 999999 999999 999999 999999 999999 999999 999999 999999 999999 999999 999999 999999 999999 999999 999999 999999 999999 9469
999999 16388 16558 11112 16023 19834 15238 13614 16898 15989 17039 16968 17714 12005 10465 18293 12054 12973 15259 15780 14279 18179 19940 17118 16275 11565 15806 19936 15143 16649 11719 17361 11665 10450 17756 18188 16596 11116 11051 10684 19406 17970 15434 10796 16222 13837 19056 12806 17852 13707 13278 999999 999999 999999 999999 999999 999999 999999 999999 999999 999999 999999 999999 999999 0 999999 999999 999999 999999 999999 999999 999999 999999 999999 999999 999999 999999 999999 999999 999999 999999 999999 999999 999999 999999 999999 999999 999999 999999 999999 999999 999999 999999 999999 999999 999999 999999 999999 999999 999999 999999 6346
999999 15052 13814 12638 10560 10591 18106 19109 17012 15736 12121 13489 18719 19048 15593 18863 15197 14889 17225 10645 12875 12494 15705 19327 10144 13022 13706 12592 17164 17037 10684 13276 15041 12785 17074 16969 12741 18049 16992 19234 17345 11052 13200 13576 12446 15444 14723 13944 13621 13999 16262 999999 999999 999999 999999 999999 999999 999999 999999 999999 999999 999999 999999 999999 999999 0 999999 999999 999999 999999 999999 999999 999999 999999 999999 999999 999999 999999 999999 999999 999999 999999 999999 999999 999999 999999 999999 999999 999999 999999 999999 999999 999999 999999 999999 999999 999999 999999 999999 999999 999999 8476
999999 17975 12416 11826 10850 17013 16678 16020 10584 14753 16570 12955 18725 16539 18898 18515 13142 13364 14777 10930 13016 19226 13322 17930 16106 18445 10002 10694 16829 18096 18513 17296 16908 17256 14051 10750 17805 17085 17949 15228 14282 13662 12853 19050 13859 18771 16570 10005 12163 10152 18781 999999 999999 999999 999999 999999 999999 999999 999999 999999 999999 999999 999999 999999 999999 999999 0 999999 999999 999999 999999 999999 999999 999999 999999 999999 999999 999999 999999 999999 999999 999999 999999 999999 999999 999999 999999 999999 999999 999999 999999 999999 999999 999999 999999 999999 999999 999999 999999 999999 999999 10149
999999 10618 16949 12430 10582 17021 18865 10700 10696 17209 12320 16427 10498 17733 17449 15379 10283 13515 16990 11989 16877 16144 18137 15051 13293 19498 13788 15388 10909 12283 18757 13824 12576 18457 19228 13195 17964 11145 12228 11968 11822 15352 10541 19717 14801 17725 13976 18213 11085 17884 12566 999999 999999 999999 999999 999999 999999 999999 999999 999999 999999 999999 999999 999999 999999 999999 999999 0 999999 999999 999999 999999 999999 999999 999999 999999 999999 999999 999999 999999 999999 999999 999999 999999 999999 999999 999999 999999 999999 999999 999999 999999 999999 999999 999999 999999 999999 999999 999999 999999 999999 7058
999999 13268 10944 19104 19703 10980 15278 18699 15089 13053 11704 11330 17566 16149 17426 15938 15745 18270 15286 13690 10820 12714 15578 11809 15092 16246 13765 13443 19352 16268 12677 11214 16648 17865 18339 18825 10465 19888 15692 12732 12871 18019 12364 10403 16691 12550 11851 12723 11764 15628 15995 999999 999999 999999 999999 999999 999999 999999 999999 999999 999999 999999 999999 999999 999999 999999 999999 999999 0 999999 999999 999999 999999 999999 999999 999999 999999 999999 999999 999999 999999 999999 999999 999999 999999 999999 999999 999999 999999 999999 999999 999999 999999 999999 999999 999999 999999 999999 999999 999999 999999 5865
999999 17483 12640 19561 18430 12961 17269 12909 11017 12049 14043 17529 19188 17466 15818 16082 16256 14836 16254 16917 15269 14499 18264 17996 16022 17213 14164 13483 17056 18582 14543 13726 19746 10177 17291 15004 18764 14584 13398 17739 17757 18777 18931 11736 18886 12182 12124 16547 18033 13801 12947 999999 999999 999999 999999 999999 999999 999999 999999 999999 999999 999999 999999 999999 999999 999999 999999 999999 999999 0 999999 999999 999999 999999 999999 999999 999999 999999 999999 999999 999999 999999 999999 999999 999999 999999 999999 999999 999999 999999 999999 999999 999999 999999 999999 999999 999999 999999 999999 999999 999999 13497
999999 15310 19214 18850 13709 13296 11580 11912 17234 12220 16962 19097 19635 19359 17697 19563 16661 11596 16195 17955 17627 12198 18375 11146 12231 17360 18314 13184 18428 11743 16811 14727 17913 17419 15283 16190 17812 14520 16174 17381 14551 18501 19412 17023 12498 17424 12484 15168 14955 12665 17683 999999 999999 999999 999999 999999 999999 999999 999999 999999 999999 999999 999999 999999 999999 999999 999999 999999 999999 999999 0 999999 999999 999999 999999 999999 999999 999999 999999 999999 999999 999999 999999 999999 999999 999999 999999 999999 999999 999999 999999 999999 999999 999999 999999 999999 999999 999999 999999 999999 999999 5551
999999 12066 16503 14287 18267 14959 10454 18353 16187 15645 12436 11624 16208 14111 19586 12465 19256 15268 18185 18568 12858 10547 16687 12990 14199 10068 14232 17042 19447 12850 18453 17090 12681 17466 16878 15107 12310 14407 17868 11190 19040 18355 18578 13803 15521 17839 15965 10110 16157 10834 12587 999999 999999 999999 999999 999999 999999 999999 999999 999999 999999 999999 999999 999999 999999 999999 999999 999999 999999 999999 999999 0 999999 999999 999999 999999 999999 999999 999999 999999 999999 999999 999999 999999 999999 999999 999999 999999 999999 999999 999999 999999 999999 999999 999999 999999 999999 999999 999999 999999 999999 8443
999999 13814 18931 10845 11519 16530 18141 18063 10707 16017 17415 14936 18887 13338 15244 12363 14047 17685 14404 11505 13979 13684 15116 18360 18323 14440 19806 11734 10925 19262 12558 10435 17908 16860 18531 14794 11380 19402 12993 16976 14108 17379 16885 15078 19597 10844 14718 19164 17984 19800 17962 999999 999999 999999 999999 999999 999999 999999 999999 999999 999999 999999 999999 999999 999999 999999 999999 999999 999999 999999 999999 999999 0 999999 999999 999999 999999 999999 999999 999999 999999 999999 999999 999999 999999 999999 999999 999999 999999 999999 999999 999999 999999 999999 999999 999999 999999 999999 999999 999999 999999 12790
999999 12717 17804 13854 16900 10291 13950 17908 14400 14609 11551 12114 12766 19343 10622 15505 10621 11870 19943 16451 17336 19807 13984 15305 14410 14270 15326 13390 15340 17191 16224 18684 13942 19076 19644 13541 14184 10564 13729 16409 12915 18892 16306 14991 12952 17602 14662 15588 18122 11373 12714 999999 999999 999999 999999 999999 999999 999999 999999 999999 999999 999999 999999 999999 999999 999999 999999 999999 999999 999999 999999 999999 999999 0 999999 999999 999999 999999 999999 999999 999999 999999 999999 999999 999999 999999 999999 999999 999999 999999 999999 999999 999999 999999 999999 999999 999999 999999 999999 999999 999999 10377
999999 17476 12597 11111 11703 18372 10881 14493 13101 13107 19099 18358 10540 13788 16649 16217 14870 13276 15374 14660 10185 18150 11825 15161 12259 10315 10423 18763 19488 19962 14253 12000 17986 15564 14695 15774 13356 15259 11138 15497 15479 18699 19894 11230 12463 12580 10093 19720 15365 18667 17653 999999 999999 999999 999999 999999 999999 999999 999999 999999 999999 999999 999999 999999 999999 999999 999999 999999 999999 999999 999999 999999 999999 999999 0 999999 999999 999999 999999 999999 999999 999999 999999 999999 999999 999999 999999 999999 999999 999999 999999 999999 999999 999999 999999 999999 999999 999999 999999 999999 999999 13657
999999 15132 12844 11942 19992 16069 15619 13909 11129 17153 19188 19661 14833 16580 19625 14297 19027 17670 10065 10953 17552 14311 11305 15081 11518 16621 16300 18599 11048 11112 17392 18969 13810 19071 13896 18847 14021 15676 13859 18386 17614 11606 10498 10567 18408 13762 19714 14644 16841 16771 11087 999999 999999 999999 999999 999999 999999 999999 999999 999999 999999 999999 999999 999999 999999 999999 999999 999999 999999 999999 999999 999999 999999 999999 999999 0 999999 999999 999999 999999 999999 999999 999999 999999 999999 999999 999999 999999 999999 999999 999999 999999 999999 999999 999999 999999 999999 999999 999999 999999 999999 11417
999999 16942 16827 11771 16012 15006 11357 13939 13733 12994 15048 12108 11864 19880 15075 13346 17813 10643 12659 11385 11223 12735 11837 19336 16747 14071 19990 19542 19041 18081 17356 15711 12538 19096 12843 18438 13299 18431 19409 15906 14256 15487 18854 14597 14921 13168 11892 16493 16952 12632 19498 999999 999999 999999 999999 999999 999999 999999 999999 999999 999999 999999 999999 999999 999999 999999 999999 999999 999999 999999 999999 999999 999999 999999 999999 999999 0 999999 999999 999999 999999 999999 999999 999999 999999 999999 999999 999999 999999 999999 999999 999999 999999 999999 999999 999999 999999 999999 999999 999999 999999 13048
999999 19529 15708 14586 12118 11206 13408 15695 18652 15162 16938 16155 12590 12410 13996 13810 12129 10549 18987 19381 10508 16155 18121 19956 13672 16503 19905 10377 14025 16840 16493 10359 13391 16709 10940 17785 17280 13025 15691 19577 17880 12561 11161 14961 13737 11021 11914 14348 12607 13215 12566 999999 999999 999999 999999 999999 999999 999999 999999 999999 999999 999999 999999 999999 999999 999999 999999 999999 999999 999999 999999 999999 999999 999999 999999 999999 999999 0 999999 999999 999999 999999 999999 999999 999999 999999 999999 999999 999999 999999 999999 999999 999999 999999 999999 999999 999999 999999 999999 999999 999999 10900
999999 15864 11887 11942 14345 18484 12737 11824 17007 11942 12758 14865 11541 13984 16908 15450 11953 13298 16018 19824 14710 10718 11577 18086 13422 18498 19713 16408 18665 17618 14556 15287 10856 11754 12340 14684 19937 19970 16302 18005 19479 15785 10230 12756 19165 13287 19952 15523 15089 13337 19795 999999 999999 999999 999999 999999 999999 999999 999999 999999 999999 999999 999999 999999 999999 999999 999999 999999 999999 999999 999999 999999 999999 999999 999999 999999 999999 999999 0 999999 999999 999999 999999 999999 999999 999999 999999 999999 999999 999999 999999 999999 999999 999999 999999 999999 999999 999999 999999 999999 999999 10439
999999 17739 11764 12982 19560 13093 14374 13271 13354 15600 12523 14060 15018 12825 10429 10692 16243 16353 15121 18967 11811 19828 10486 15836 11012 18705 17444 12020 16056 14495 12282 17409 10615 11148 10822 16534 13451 18988 17464 19585 10808 15564 17555 17973 13192 12355 15286 15129 10358 16449 12498 999999 999999 999999 999999 999999 999999 999999 999999 999999 999999 999999 999999 999999 999999 999999 999999 999999 999999 999999 999999 999999 999999 999999 999999 999999 999999 999999 999999 0 999999 999999 999999 999999 999999 999999 999999 999999 999999 999999 999999 999999 999999 999999 999999 999999 999999 999999 999999 999999 999999 12259
999999 10204 10365 16068 17929 12393 11249 13958 11859 11004 14175 11162 15667 18978 18633 14591 16987 14343 16582 19378 14212 15522 13686 14823 10623 12463 19266 15923 15346 15076 10749 14044 13722 19994 12278 18672 15292 18897 11105 12895 16623 18425 14516 11743 14945 11520 12028 14826 10768 10578 18911 999999 999999 999999 999999 999999 999999 999999 999999 999999 999999 999999 999999 999999 999999 999999 999999 999999 999999 999999 999999 999999 999999 999999 999999 999999 999999 999999 999999 999999 0 999999 999999 999999 999999 999999 999999 999999 999999 999999 999999 999999 999999 999999 999999 999999 999999 999999 999999 999999 999999 12382
999999 18333 10964 16038 10917 16443 19799 11640 11246 16634 13125 17849 13654 18256 10781 12160 11080 14065 11655 11519 18167 11265 11758 19290 19343 16738 19582 11139 16593 17805 15893 13256 14675 14766 13337 14421 11008 17035 10672 15231 15727 14870 19990 19978 19718 15473 19408 11284 10765 10649 15338 999999 999999 999999 999999 999999 999999 999999 999999 999999 999999 999999 999999 999999 999999 999999 999999 999999 999999 999999 999999 999999 999999 999999 999999 999999 999999 999999 999999 999999 999999 0 999999 999999 999999 999999 999999 999999 999999 999999 999999 999999 999999 999999 999999 999999 999999 999999 999999 999999 999999 9680
999999 14607 13135 10400 19185 10961 13819 17633 12003 12467 18215 19379 18741 10455 17547 16193 11497 13329 11892 12955 15683 12322 12076 15248 15296 17628 19118 12755 16947 13089 12451 12920 12263 19626 11841 16156 11155 19092 13222 14372 11120 17049 13426 18360 19369 12130 19589 16741 14561 15223 13545 999999 999999 999999 999999 999999 999999 999999 999999 999999 999999 999999 999999 999999 999999 999999 999999 999999 999999 999999 999999 999999 999999 999999 999999 999999 999999 999999 999999 999999 999999 999999 0 999999 999999 999999 999999 999999 999999 999999 999999 999999 999999 999999 999999 999999 999999 999999 999999 999999 999999 9794
999999 10800 12849 12073 19631 15827 11125 13896 13711 16725 19353 13846 12339 13530 10309 12692 19223 18667 19117 14887 19225 15311 10384 15922 13774 17074 15367 18563 13107 17225 11663 14540 12828 12694 12588 18994 14006 14551 17180 10079 13778 17291 12766 12784 13717 10654 12352 10726 10093 18073 19543 999999 999999 999999 999999 999999 999999 999999 999999 999999 999999 999999 999999 999999 999999 999999 999999 999999 999999 999999 999999 999999 999999 999999 999999 999999 999999 999999 999999 999999 999999 999999 999999 0 999999 999999 999999 999999 999999 999999 999999 999999 999999 999999 999999 999999 999999 999999 999999 999999 999999 13802
999999 12821 19403 12865 14122 16849 13336 17522 14610 15650 13661 13679 15535 13986 13415 10386 18788 19787 15355 19138 15486 13236 18082 10167 12202 19251 13374 16676 14570 12755 14827 15162 12926 13155 16456 10471 19300 14459 10724 10014 19596 10144 18558 11540 13698 13062 11546 13351 14736 15595 17664 999999 999999 999999 999999 999999 999999 999999 999999 999999 999999 999999 999999 999999 999999 999999 999999 999999 999999 999999 999999 999999 999999 999999 999999 999999 999999 999999 999999 999999 999999 999999 999999 999999 0 999999 999999 999999 999999 999999 999999 999999 999999 999999 999999 999999 999999 999999 999999 999999 999999 13859
999999 12172 12096 14220 19661 16641 16455 12737 19939 12414 18387 18337 13698 17540 19086 13932 13978 16390 17343 18060 12729 12621 15160 19420 10328 17137 13978 18109 19005 17491 18400 16795 16945 16829 16627 10682 11077 15839 13199 16015 16790 14795 15559 15519 10376 12896 15614 17886 10917 12303 13560 999999 999999 999999 999999 999999 999999 999999 999999 999999 999999 999999 999999 999999 999999 999999 999999 999999 999999 999999 999999 999999 999999 999999 999999 999999 999999 999999 999999 999999 999999 999999 999999 999999 999999 0 999999 999999 999999 999999 999999 999999 999999 999999 999999 999999 999999 999999 999999 999999 999999 12849
999999 17788 12289 16025 15730 17249 10647 15885 13478 12242 13731 17191 19861 16149 19866 17286 18400 11707 17833 14245 17845 13590 10941 12639 19921 17850 17326 13476 17139 15940 16118 15926 15643 18309 19001 18385 17482 19061 11478 12448 12481 15096 19887 13567 12778 16443 14605 12157 18077 10375 15081 999999 999999 999999 999999 999999 999999 999999 999999 999999 999999 999999 999999 999999 999999 999999 999999 999999 999999 999999 999999 999999 999999 999999 999999 999999 999999 999999 999999 999999 999999 999999 999999 999999 999999 999999 0 999999 999999 999999 999999 999999 999999 999999 999999 999999 999999 999999 999999 999999 999999 9496
999999 15142 15530 11201 18856 15399 14483 16358 17147 10608 16286 10279 18508 17384 15529 18437 17992 12343 12751 19984 15334 13898 18832 14418 10256 19263 17642 11126 13179 11883 16216 13740 18941 17778 16645 18993 17977 12267 11754 15195 16561 19248 14526 17940 13816 12897 15376 14907 14613 17239 13523 999999 999999 999999 999999 999999 999999 999999 999999 999999 999999 999999 999999 999999 999999 999999 999999 999999 999999 999999 999999 999999 999999 999999 999999 999999 999999 999999 999999 999999 999999 999999 999999 999999 999999 999999 999999 0 999999 999999 999999 999999 999999 999999 999999 999999 999999 999999 999999 999999 999999 5173
999999 19158 15685 17847 14913 19185 12050 11202 11177 13733 10830 11618 15895 18443 18757 12453 15965 19410 19771 15916 14573 11095 18511 16319 15893 14142 13847 12884 17057 11817 16433 18212 19756 14497 11662 14265 14502 14241 11555 15323 17809 17186 16552 19025 13407 11120 14742 14872 10904 14391 18792 999999 999999 999999 999999 999999 999999 999999 999999 999999 999999 999999 999999 999999 999999 999999 999999 999999 999999 999999 999999 999999 999999 999999 999999 999999 999999 999999 999999 999999 999999 999999 999999 999999 999999 999999 999999 999999 0 999999 999999 999999 999999 999999 999999 999999 999999 999999 999999 999999 999999 10870
999999 16871 13455 12036 19243 17516 17836 13054 15880 19557 16693 17829 12646 11815 18389 16158 19598 19807 18441 18960 19883 10707 19684 17244 12663 12367 11302 11999 17563 18131 16661 12504 16686 13070 10013 15238 17488 17526 14504 16312 16238 16228 18968 14791 12826 19563 19271 10333 14464 19159 17932 999999 999999 999999 999999 999999 999999 999999 999999 999999 999999 999999 999999 999999 999999 999999 999999 999999 999999 999999 999999 999999 999999 999999 999999 999999 999999 999999 999999 999999 999999 999999 999999 999999 999999 999999 999999 999999 999999 0 999999 999999 999999 999999 999999 999999 999999 999999 999999 999999 999999 11485
999999 11521 15226 12927 12150 11170 18859 19203 11103 13541 18748 10056 16804 16036 19338 17834 14937 17414 17827 19131 19151 19672 14913 17725 17385 19111 12781 10026 12944 13488 17711 17398 18951 10705 19212 18423 18928 19030 19977 10607 15963 19169 19279 19860 19773 19264 10037 19487 19043 11028 19874 999999 999999 999999 999999 999999 999999 999999 999999 999999 999999 999999 999999 999999 999999 999999 999999 999999 999999 999999 999999 999999 999999 999999 999999 999999 999999 999999 999999 999999 999999 999999 999999 999999 999999 999999 999999 999999 999999 999999 0 999999 999999 999999 999999 999999 999999 999999 999999 999999 999999 10375
999999 18735 18128 16457 15184 16270 15798 11842 16870 17565 11028 12527 19503 13232 15212 15898 10106 17075 18110 18854 11193 15969 10817 16880 16389 10363 13654 18556 17871 16673 16462 14964 10270 13321 10172 17674 13449 11769 13721 16838 14510 19977 15900 10051 18116 15871 11394 12118 12537 15065 13337 999999 999999 999999 999999 999999 999999 999999 999999 999999 999999 999999 999999 999999 999999 999999 999999 999999 999999 999999 999999 999999 999999 999999 999999 999999 999999 999999 999999 999999 999999 999999 999999 999999 999999 999999 999999 999999 999999 999999 999999 0 999999 999999 999999 999999 999999 999999 999999 999999 999999 7100
999999 11761 17528 16648 13405 13931 10925 17096 19474 11824 14044 14058 10073 17346 16877 16294 11668 14470 14213 19507 19131 16048 19123 17180 12093 13181 15680 10811 14658 10511 12751 14939 18751 18836 13807 15273 16492 13779 11150 14431 14914 12137 18821 11750 18771 18475 10675 14715 17317 11231 15788 999999 999999 999999 999999 999999 999999 999999 999999 999999 999999 999999 999999 999999 999999 999999 999999 999999 999999 999999 999999 999999 999999 999999 999999 999999 999999 999999 999999 999999 999999 999999 999999 999999 999999 999999 999999 999999 999999 999999 999999 999999 0 999999 999999 999999 999999 999999 999999 999999 999999 11384
999999 12799 10893 13753 10699 14334 16824 13847 11197 19474 17258 18655 14699 17617 10105 16483 15890 16413 11247 12797 15164 12740 16132 15266 17244 14829 18981 16500 18757 10579 16494 11592 17173 16389 19390 10165 13194 16076 15087 18756 14464 18050 13335 18201 12911 12258 18703 15730 10494 11740 15054 999999 999999 999999 999999 999999 999999 999999 999999 999999 999999 999999 999999 999999 999999 999999 999999 999999 999999 999999 999999 999999 999999 999999 999999 999999 999999 999999 999999 999999 999999 999999 999999 999999 999999 999999 999999 999999 999999 999999 999999 999999 999999 0 999999 999999 999999 999999 999999 999999 999999 12499
999999 14744 13537 13526 10908 18850 15082 19862 12391 17319 15164 15514 12779 11505 16833 10020 18512 19650 17289 17954 18365 18822 10146 16591 15685 19840 17142 12846 18848 17769 13665 19883 19549 11883 18389 15948 11852 11504 11055 15721 12176 19032 10429 14166 14930 17193 16470 15034 12131 13975 14994 999999 999999 999999 999999 999999 999999 999999 999999 999999 999999 999999 999999 999999 999999 999999 999999 999999 999999 999999 999999 999999 999999 999999 999999 999999 999999 999999 999999 999999 999999 999999 999999 999999 999999 999999 999999 999999 999999 999999 999999 999999 999999 999999 0 999999 999999 999999 999999 999999 999999 10168
999999 11870 18983 16426 12279 13304 14232 14224 16779 10506 19536 14312 14955 13953 17165 13607 19724 18059 17321 16626 19374 11183 19073 19906 10086 11486 14499 13299 19298 14186 11732 18647 17695 10712 17754 12587 11908 16530 13122 18577 12425 15404 10481 10955 17525 19367 13701 13884 18619 17406 15852 999999 999999 999999 999999 999999 999999 999999 999999 999999 999999 999999 999999 999999 999999 999999 999999 999999 999999 999999 999999 999999 999999 999999 999999 999999 999999 999999 999999 999999 999999 999999 999999 999999 999999 999999 999999 999999 999999 999999 999999 999999 999999 999999 999999 0 999999 999999 999999 999999 999999 6661
999999 18950 10404 19263 11684 11592 19139 16094 13843 18287 12398 10825 17401 19197 19927 10767 18305 18188 16021 11530 12575 19285 14877 11501 17489 17383 12903 16462 12527 15052 15933 11735 10655 17045 14738 18624 14080 14362 16374 18406 10561 12791 12655 14669 12117 14403 16692 18086 12419 18815 13727 999999 999999 999999 999999 999999 999999 999999 999999 999999 999999 999999 999999 999999 999999 999999 999999 999999 999999 999999 999999 999999 999999 999999 999999 999999 999999 999999 999999 999999 999999 999999 999999 999999 999999 999999 999999 999999 999999 999999 999999 999999 999999 999999 999999 999999 0 999999 999999 999999 999999 7878
999999 12771 16828 13829 12342 17806 17166 11947 18466 10066 13369 11846 19695 11929 17506 14534 11488 18617 11382 11565 13756 16144 14094 12806 19437 10353 16698 19449 14382 18359 19336 15712 15655 11369 18276 17317 13101 18407 17757 11860 13592 13356 11401 17965 17187 13523 12004 19215 12746 12736 13871 999999 999999 999999 999999 999999 999999 999999 999999 999999 999999 999999 999999 999999 999999 999999 999999 999999 999999 999999 999999 999999 999999 999999 999999 999999 999999 999999 999999 999999 999999 999999 999999 999999 999999 999999 999999 999999 999999 999999 999999 999999 999999 999999 999999 999999 999999 0 999999 999999 999999 12601
999999 11197 19561 11844 13431 18575 14333 19242 12732 11830 10039 18106 18057 14385 11299 11672 12495 18330 10062 14446 19869 17962 16578 11626 19862 18242 12939 15367 11648 12455 11264 17642 16049 15796 12204 17042 13090 13321 14784 17325 11282 13807 15921 18537 19101 12708 18241 15621 12860 16121 18126 999999 999999 999999 999999 999999 999999 999999 999999 999999 999999 999999 999999 999999 999999 999999 999999 999999 999999 999999 999999 999999 999999 999999 999999 999999 999999 999999 999999 999999 999999 999999 999999 999999 999999 999999 999999 999999 999999 999999 999999 999999 999999 999999 999999 999999 999999 999999 0 999999 999999 6393
999999 19238 14397 15472 18688 19527 11488 12390 12959 19570 16103 13072 12910 12250 16063 10995 18429 15815 12529 19287 16607 16633 12674 14419 14857 12335 14817 15378 19153 18258 16473 14690 17944 16096 13949 16865 12815 15703 12540 16167 16274 17464 18136 16404 11127 12105 12257 17534 10488 15342 16981 999999 999999 999999 999999 999999 999999 999999 999999 999999 999999 999999 999999 999999 999999 999999 999999 999999 999999 999999 999999 999999 999999 999999 999999 999999 999999 999999 999999 999999 999999 999999 999999 999999 999999 999999 999999 999999 999999 999999 999999 999999 999999 999999 999999 999999 999999 999999 999999 0 999999 13855
999999 12362 18830 19619 19010 15096 17516 12164 14279 16736 14203 15568 19172 10063 15303 11798 18225 12122 17638 12034 12595 18583 15343 15654 16543 17584 13179 18100 19427 17003 15886 10714 15229 13360 16420 17340 16064 16648 14256 10753 16062 12158 12644 16795 16345 13314 15357 14665 15542 11761 18230 999999 999999 999999 999999 999999 999999 999999 999999 999999 999999 999999 999999 999999 999999 999999 999999 999999 999999 999999 999999 999999 999999 999999 999999 999999 999999 999999 999999 999999 999999 999999 999999 999999 999999 999999 999999 999999 999999 999999 999999 999999 999999 999999 999999 999999 999999 999999 999999 999999 0 9315
1 999999 999999 999999 999999 999999 999999 999999 999999 999999 999999 999999 999999 999999 999999 999999 999999 999999 999999 999999 999999 999999 999999 999999 999999 999999 999999 999999 999999 999999 999999 999999 999999 999999 999999 999999 999999 999999 999999 999999 999999 999999 999999 999999 999999 999999 999999 999999 999999 999999 999999 999999 999999 999999 999999 999999 999999 999999 999999 999999 999999 999999 999999 999999 999999 999999 999999 999999 999999 999999 999999 999999 999999 999999 999999 999999 999999 999999 999999 999999 999999 999999 999999 999999 999999 999999 999999 999999 999999 999999 999999 999999 999999 999999 999999 999999 999999 999999 999999 999999 999999 0
EOF