NAME: GR_1x2x25_KH_5x10_Run_7
TYPE: TSP
COMMENT: BTSP instance |A|=50 GR nodes |B|=50 KH nodes depot=0.0 end=0.0.0
DIMENSION: 102
EDGE_WEIGHT_TYPE: EXPLICIT
EDGE_WEIGHT_FORMAT: FULL_MATRIX
NODE_COORD_TYPE: NO_COORDS
EDGE_WEIGHT_SECTION
0 6872 13388 5234 6942 5036 11778 10343 5787 8826 10296 9065 6411 10032 7299 10443 10394 9186 13392 11513 9944 6724 10696 12676 9000 9946 13847 6873 8032 13894 7523 10147 8516 10617 11803 8333 10456 6264 12263 10653 12768 13947 7901 8387 8941 14082 11005 14617 14134 6853 11347 999999 999999 999999 999999 999999 999999 999999 999999 999999 999999 999999 999999 999999 999999 999999 999999 999999 999999 999999 999999 999999 999999 999999 999999 999999 999999 999999 999999 999999 999999 999999 999999 999999 999999 999999 999999 999999 999999 999999 999999 999999 999999 999999 999999 999999 999999 999999 999999 999999 999999 999999
999999 0 999999 999999 999999 999999 999999 999999 999999 999999 999999 999999 999999 999999 999999 999999 999999 999999 999999 999999 999999 999999 999999 999999 999999 999999 999999 999999 999999 999999 999999 999999 999999 999999 999999 999999 999999 999999 999999 999999 999999 999999 999999 999999 999999 999999 999999 999999 999999 999999 999999 11357 11981 17910 18993 12155 14335 15534 13893 11072 19496 13491 19827 19235 14176 13757 15043 14142 12704 12821 17869 10567 10901 10594 15623 15394 17203 12922 10481 15723 14925 19862 12486 19021 11903 13351 14539 19680 17380 19344 13201 12684 13859 14494 19177 18521 16550 11220 17419 19161 13604 999999
999999 999999 0 999999 999999 999999 999999 999999 999999 999999 999999 999999 999999 999999 999999 999999 999999 999999 999999 999999 999999 999999 999999 999999 999999 999999 999999 999999 999999 999999 999999 999999 999999 999999 999999 999999 999999 999999 999999 999999 999999 999999 999999 999999 999999 999999 999999 999999 999999 999999 999999 15512 15003 14699 17369 19809 19412 12172 16951 10325 11194 14001 10538 11505 11879 12851 11383 14792 10349 12327 13624 19234 14677 15852 18270 11531 12345 11800 13391 17981 15917 10553 18771 12961 17631 18692 17143 13038 16169 13172 19605 18168 12648 15866 18420 13805 18387 13807 12126 10720 14031 999999
999999 999999 999999 0 999999 999999 999999 999999 999999 999999 999999 999999 999999 999999 999999 999999 999999 999999 999999 999999 999999 999999 999999 999999 999999 999999 999999 999999 999999 999999 999999 999999 999999 999999 999999 999999 999999 999999 999999 999999 999999 999999 999999 999999 999999 999999 999999 999999 999999 999999 999999 17247 16602 13673 13567 16043 16333 14131 10288 15174 16142 12688 12056 17385 17481 16286 17590 11231 17185 17787 15297 13495 18244 12285 18006 10949 13818 19605 10144 15842 14924 15802 12478 14838 15969 17460 15869 19962 16819 18115 19079 19215 14748 10822 13651 11406 16462 14748 16871 14971 19394 999999
999999 999999 999999 999999 0 999999 999999 999999 999999 999999 999999 999999 999999 999999 999999 999999 999999 999999 999999 999999 999999 999999 999999 999999 999999 999999 999999 999999 999999 999999 999999 999999 999999 999999 999999 999999 999999 999999 999999 999999 999999 999999 999999 999999 999999 999999 999999 999999 999999 999999 999999 19090 12716 16484 12560 19788 13193 17932 15522 17065 14121 19719 11782 12653 18579 16625 12958 16156 11157 14642 19685 14498 13920 16230 13346 14601 13511 15682 10101 14661 12946 15477 19434 13661 11497 17057 14416 19041 14594 16218 12868 15171 15695 17862 13266 11313 15459 17828 19344 19848 17689 999999
999999 999999 999999 999999 999999 0 999999 999999 999999 999999 999999 999999 999999 999999 999999 999999 999999 999999 999999 999999 999999 999999 999999 999999 999999 999999 999999 999999 999999 999999 999999 999999 999999 999999 999999 999999 999999 999999 999999 999999 999999 999999 999999 999999 999999 999999 999999 999999 999999 999999 999999 16776 10464 18865 16139 15433 13508 15392 16003 19997 13453 15830 18346 17335 18972 15872 13324 18496 10947 15798 12297 12284 13446 18771 10284 15188 19167 14784 18794 15172 10065 12251 10835 11351 11697 10297 15691 15869 18923 11324 14682 19678 15645 11474 19525 19574 12179 16902 16754 19445 14533 999999
999999 999999 999999 999999 999999 999999 0 999999 999999 999999 999999 999999 999999 999999 999999 999999 999999 999999 999999 999999 999999 999999 999999 999999 999999 999999 999999 999999 999999 999999 999999 999999 999999 999999 999999 999999 999999 999999 999999 999999 999999 999999 999999 999999 999999 999999 999999 999999 999999 999999 999999 16788 12911 14691 18651 18975 17316 10637 12487 10638 16532 19220 13323 18113 18894 15603 16380 19868 15929 19002 12453 18243 19448 15786 15515 15589 12988 19640 11851 19138 17146 15144 12992 13780 12108 16238 10089 19619 10657 16841 14039 13321 11269 19590 17327 13227 16610 13473 17316 11876 11542 999999
999999 999999 999999 999999 999999 999999 999999 0 999999 999999 999999 999999 999999 999999 999999 999999 999999 999999 999999 999999 999999 999999 999999 999999 999999 999999 999999 999999 999999 999999 999999 999999 999999 999999 999999 999999 999999 999999 999999 999999 999999 999999 999999 999999 999999 999999 999999 999999 999999 999999 999999 13643 10183 12919 18882 19286 13739 14172 13193 10788 15308 17843 18376 12615 19547 15037 14699 10095 19890 13427 16469 19683 11631 13888 14721 12845 19837 16313 12759 19378 12662 18735 13933 15068 14268 15002 16198 15421 16907 17534 12616 13626 19418 13285 17321 16706 18316 18063 11015 18801 12836 999999
999999 999999 999999 999999 999999 999999 999999 999999 0 999999 999999 999999 999999 999999 999999 999999 999999 999999 999999 999999 999999 999999 999999 999999 999999 999999 999999 999999 999999 999999 999999 999999 999999 999999 999999 999999 999999 999999 999999 999999 999999 999999 999999 999999 999999 999999 999999 999999 999999 999999 999999 19201 10898 11691 15818 17238 19251 13772 10524 16098 10281 17725 14709 17287 14449 12419 19335 18688 13178 12714 16567 16347 13996 13728 16946 12024 11790 11846 19156 14794 14520 11630 14353 14051 18284 10835 16357 14632 18947 11527 19751 16791 17494 18379 12294 17201 17462 11008 11479 17540 17740 999999
999999 999999 999999 999999 999999 999999 999999 999999 999999 0 999999 999999 999999 999999 999999 999999 999999 999999 999999 999999 999999 999999 999999 999999 999999 999999 999999 999999 999999 999999 999999 999999 999999 999999 999999 999999 999999 999999 999999 999999 999999 999999 999999 999999 999999 999999 999999 999999 999999 999999 999999 15111 15103 19787 17095 11863 13331 10592 10682 12705 14533 14688 12120 14162 17528 11501 10441 18348 12162 14339 19987 16383 12395 12979 13499 18473 10965 18036 18374 12191 10774 16893 16574 17437 17575 17904 14485 10075 15874 10967 10965 19383 19108 19923 13292 14805 15316 14546 12449 15648 18820 999999
999999 999999 999999 999999 999999 999999 999999 999999 999999 999999 0 999999 999999 999999 999999 999999 999999 999999 999999 999999 999999 999999 999999 999999 999999 999999 999999 999999 999999 999999 999999 999999 999999 999999 999999 999999 999999 999999 999999 999999 999999 999999 999999 999999 999999 999999 999999 999999 999999 999999 999999 10408 17375 14516 10011 14501 19338 18031 17607 19355 19551 19903 11403 10848 15573 14771 10098 10230 18614 15345 10247 13637 10294 16621 14958 19325 13438 15146 19095 15602 16542 14111 16632 10612 14726 14756 11563 12449 16594 10439 11881 10656 17541 10183 11706 13548 18126 17268 15420 16649 10543 999999
999999 999999 999999 999999 999999 999999 999999 999999 999999 999999 999999 0 999999 999999 999999 999999 999999 999999 999999 999999 999999 999999 999999 999999 999999 999999 999999 999999 999999 999999 999999 999999 999999 999999 999999 999999 999999 999999 999999 999999 999999 999999 999999 999999 999999 999999 999999 999999 999999 999999 999999 15746 10963 10776 15262 18431 12498 17327 11666 15845 13077 14454 12789 11852 10838 18917 17645 13989 16543 19271 13055 11598 10792 11088 11715 15424 14506 14825 11368 13409 18787 14414 15705 16580 19850 18232 12184 19718 16427 10790 11863 17273 13438 12852 12967 19539 19231 15565 13449 15718 17426 999999
999999 999999 999999 999999 999999 999999 999999 999999 999999 999999 999999 999999 0 999999 999999 999999 999999 999999 999999 999999 999999 999999 999999 999999 999999 999999 999999 999999 999999 999999 999999 999999 999999 999999 999999 999999 999999 999999 999999 999999 999999 999999 999999 999999 999999 999999 999999 999999 999999 999999 999999 14665 11304 14773 17836 13238 11764 11829 18075 12602 12688 19155 11212 14548 13412 15287 18328 10760 10532 10001 14740 19181 17942 10600 18547 18977 19693 13099 17887 15273 19845 14293 16409 16487 12115 10588 11465 13321 17797 19703 18653 12506 12023 12680 10878 14990 11359 14861 18839 15285 11549 999999
999999 999999 999999 999999 999999 999999 999999 999999 999999 999999 999999 999999 999999 0 999999 999999 999999 999999 999999 999999 999999 999999 999999 999999 999999 999999 999999 999999 999999 999999 999999 999999 999999 999999 999999 999999 999999 999999 999999 999999 999999 999999 999999 999999 999999 999999 999999 999999 999999 999999 999999 14205 13352 14399 11581 13350 19391 13583 17588 17229 12309 15030 16375 17025 19974 17420 18841 13394 10444 17392 15459 13529 18688 16547 13184 17467 12042 17309 11498 12300 19187 19091 17348 18411 11462 16775 19194 11788 10564 10314 10911 14255 15922 10232 12052 17027 16061 12576 14799 14338 19686 999999
999999 999999 999999 999999 999999 999999 999999 999999 999999 999999 999999 999999 999999 999999 0 999999 999999 999999 999999 999999 999999 999999 999999 999999 999999 999999 999999 999999 999999 999999 999999 999999 999999 999999 999999 999999 999999 999999 999999 999999 999999 999999 999999 999999 999999 999999 999999 999999 999999 999999 999999 13717 18207 17702 13716 11689 15122 18075 19323 16632 14001 15888 19440 15174 16058 11601 14817 14293 10657 14119 12857 18629 17154 19564 12535 15869 12491 16996 12575 16309 12505 10176 12510 16224 17228 18984 17045 13842 19278 18268 14439 16531 11965 14226 19127 19152 15452 17176 10519 16952 10623 999999
999999 999999 999999 999999 999999 999999 999999 999999 999999 999999 999999 999999 999999 999999 999999 0 999999 999999 999999 999999 999999 999999 999999 999999 999999 999999 999999 999999 999999 999999 999999 999999 999999 999999 999999 999999 999999 999999 999999 999999 999999 999999 999999 999999 999999 999999 999999 999999 999999 999999 999999 16140 13152 13347 18201 10327 15827 11445 10494 11917 11589 16608 12146 12031 15152 11514 10786 11063 10051 15889 16106 11527 12415 11932 18709 11664 16270 13737 19112 11586 14927 18957 11867 14622 17010 14841 17704 19036 17315 17978 15003 18113 10994 15954 10191 16584 17852 15036 19221 13353 15613 999999
999999 999999 999999 999999 999999 999999 999999 999999 999999 999999 999999 999999 999999 999999 999999 999999 0 999999 999999 999999 999999 999999 999999 999999 999999 999999 999999 999999 999999 999999 999999 999999 999999 999999 999999 999999 999999 999999 999999 999999 999999 999999 999999 999999 999999 999999 999999 999999 999999 999999 999999 11551 12401 12667 16123 18960 12686 11315 18668 10107 16624 16126 11707 15721 14983 18343 17932 14311 10486 19074 12679 17428 12954 13949 18763 17411 15091 16867 16422 15844 17261 10618 16749 18578 14741 14435 18536 18848 12149 14810 11210 19228 15363 15438 10843 18844 15759 15868 14991 11433 16530 999999
999999 999999 999999 999999 999999 999999 999999 999999 999999 999999 999999 999999 999999 999999 999999 999999 999999 0 999999 999999 999999 999999 999999 999999 999999 999999 999999 999999 999999 999999 999999 999999 999999 999999 999999 999999 999999 999999 999999 999999 999999 999999 999999 999999 999999 999999 999999 999999 999999 999999 999999 13151 11904 14280 12353 11995 10097 10990 19896 17658 15166 12406 16488 10601 14959 16274 16906 16980 19796 19165 19811 13598 12617 12114 14072 13290 12770 12466 15106 17761 18588 12692 15696 10644 13614 19135 10876 10915 15575 16381 18153 11844 17224 12795 15816 17840 12377 15168 10987 15238 12513 999999
999999 999999 999999 999999 999999 999999 999999 999999 999999 999999 999999 999999 999999 999999 999999 999999 999999 999999 0 999999 999999 999999 999999 999999 999999 999999 999999 999999 999999 999999 999999 999999 999999 999999 999999 999999 999999 999999 999999 999999 999999 999999 999999 999999 999999 999999 999999 999999 999999 999999 999999 11770 17249 15801 17273 18030 13656 18680 15570 10509 11620 10409 12223 14996 18633 19070 10818 11402 14250 18216 18124 16883 18264 10268 15039 12758 17414 13573 14933 17135 12612 14158 12925 19105 13206 16950 10829 14570 13307 18061 16016 12332 13554 18927 17943 19810 19810 12682 12120 10986 12136 999999
999999 999999 999999 999999 999999 999999 999999 999999 999999 999999 999999 999999 999999 999999 999999 999999 999999 999999 999999 0 999999 999999 999999 999999 999999 999999 999999 999999 999999 999999 999999 999999 999999 999999 999999 999999 999999 999999 999999 999999 999999 999999 999999 999999 999999 999999 999999 999999 999999 999999 999999 13309 16802 17717 14897 17608 10834 19451 13990 11682 18403 19865 10828 10126 15442 14480 15291 10860 16680 12602 14328 15086 15753 17544 14510 10254 12855 17018 19968 17001 17322 10827 18374 15125 19775 19540 13845 18842 18714 12231 15386 17079 14612 11773 18401 13141 14230 10453 10188 14119 10101 999999
999999 999999 999999 999999 999999 999999 999999 999999 999999 999999 999999 999999 999999 999999 999999 999999 999999 999999 999999 999999 0 999999 999999 999999 999999 999999 999999 999999 999999 999999 999999 999999 999999 999999 999999 999999 999999 999999 999999 999999 999999 999999 999999 999999 999999 999999 999999 999999 999999 999999 999999 14315 12649 18285 10974 15298 14355 15011 15339 13056 16179 17846 17671 16946 18775 12708 10501 16491 17037 19972 17546 11532 18712 15011 15261 14972 13903 16294 16038 16672 19852 11145 15319 19418 13627 11706 16197 12941 14872 13326 12287 12280 15528 12659 10154 18022 17615 19816 14531 17946 16935 999999
999999 999999 999999 999999 999999 999999 999999 999999 999999 999999 999999 999999 999999 999999 999999 999999 999999 999999 999999 999999 999999 0 999999 999999 999999 999999 999999 999999 999999 999999 999999 999999 999999 999999 999999 999999 999999 999999 999999 999999 999999 999999 999999 999999 999999 999999 999999 999999 999999 999999 999999 12976 15847 12093 12821 10564 17181 15404 12439 17574 10479 10141 18683 16580 18951 18589 15546 15226 19502 11703 15442 14942 14021 17482 16952 12745 15670 15296 14859 10209 11721 14501 15052 13234 16474 19184 19437 12452 16852 17888 17056 19129 12610 18263 11891 14176 17001 11914 13115 13425 17909 999999
999999 999999 999999 999999 999999 999999 999999 999999 999999 999999 999999 999999 999999 999999 999999 999999 999999 999999 999999 999999 999999 999999 0 999999 999999 999999 999999 999999 999999 999999 999999 999999 999999 999999 999999 999999 999999 999999 999999 999999 999999 999999 999999 999999 999999 999999 999999 999999 999999 999999 999999 17305 14051 19552 12328 10019 17227 15026 15407 17903 17723 16142 10721 16267 11033 19539 13753 18992 13493 10779 14433 14432 16529 19177 12071 19639 13740 11975 11041 15926 10242 12220 16911 11607 10635 12829 13265 11007 15601 12417 15038 16000 17076 19715 17638 10257 16073 14639 16830 14157 18686 999999
999999 999999 999999 999999 999999 999999 999999 999999 999999 999999 999999 999999 999999 999999 999999 999999 999999 999999 999999 999999 999999 999999 999999 0 999999 999999 999999 999999 999999 999999 999999 999999 999999 999999 999999 999999 999999 999999 999999 999999 999999 999999 999999 999999 999999 999999 999999 999999 999999 999999 999999 12150 14066 12454 12898 15739 15537 12369 12983 18022 18127 11395 17463 12922 18765 19005 14775 13030 15800 17180 16214 19627 17111 13097 11975 10940 14699 13070 19171 10946 12922 13906 18566 18557 19141 10007 17375 17667 15497 11018 12881 13409 16165 18895 18233 14957 17000 17147 18701 15275 17407 999999
999999 999999 999999 999999 999999 999999 999999 999999 999999 999999 999999 999999 999999 999999 999999 999999 999999 999999 999999 999999 999999 999999 999999 999999 0 999999 999999 999999 999999 999999 999999 999999 999999 999999 999999 999999 999999 999999 999999 999999 999999 999999 999999 999999 999999 999999 999999 999999 999999 999999 999999 16818 11234 17302 12772 16035 19268 17832 18203 18689 18345 11438 12724 11320 19007 15927 12215 16854 16103 19925 16462 15011 15642 18534 12801 17141 10055 13330 13460 13936 14924 18915 18537 13389 12023 18298 13200 15333 19629 10216 19398 15916 10645 13608 13915 17927 12619 15829 15640 17106 17808 999999
999999 999999 999999 999999 999999 999999 999999 999999 999999 999999 999999 999999 999999 999999 999999 999999 999999 999999 999999 999999 999999 999999 999999 999999 999999 0 999999 999999 999999 999999 999999 999999 999999 999999 999999 999999 999999 999999 999999 999999 999999 999999 999999 999999 999999 999999 999999 999999 999999 999999 999999 10159 18812 17915 13419 16651 13789 14251 14646 16551 13519 15277 10192 14136 11834 16991 12906 15482 18865 10611 16677 19324 14167 19946 15337 12633 12326 17043 14074 12489 10644 17569 10171 16544 19524 11486 13341 15145 19374 16209 10158 18904 12320 13789 11261 14663 18136 18185 12338 13831 13892 999999
999999 999999 999999 999999 999999 999999 999999 999999 999999 999999 999999 999999 999999 999999 999999 999999 999999 999999 999999 999999 999999 999999 999999 999999 999999 999999 0 999999 999999 999999 999999 999999 999999 999999 999999 999999 999999 999999 999999 999999 999999 999999 999999 999999 999999 999999 999999 999999 999999 999999 999999 12454 16421 13587 13592 12786 18807 14324 12479 17270 19716 18982 18766 15840 11939 19093 17655 16053 13560 19126 13780 12354 13907 12899 14177 19839 14830 10871 14741 17745 15374 17073 10464 15134 12551 19795 15922 10597 10452 15565 15900 15654 19067 12595 10502 11036 13850 15746 10737 13809 19281 999999
999999 999999 999999 999999 999999 999999 999999 999999 999999 999999 999999 999999 999999 999999 999999 999999 999999 999999 999999 999999 999999 999999 999999 999999 999999 999999 999999 0 999999 999999 999999 999999 999999 999999 999999 999999 999999 999999 999999 999999 999999 999999 999999 999999 999999 999999 999999 999999 999999 999999 999999 16602 10845 11771 12840 16778 12922 19945 18209 19949 11528 17629 19308 12160 14971 10530 15013 14224 11796 15893 10359 13080 16691 18347 10551 14602 16384 10552 13706 19371 18644 15375 12785 13472 18466 16601 13419 14612 17350 12183 10100 16260 13142 10494 11314 17189 19617 10543 15168 15071 19545 999999
999999 999999 999999 999999 999999 999999 999999 999999 999999 999999 999999 999999 999999 999999 999999 999999 999999 999999 999999 999999 999999 999999 999999 999999 999999 999999 999999 999999 0 999999 999999 999999 999999 999999 999999 999999 999999 999999 999999 999999 999999 999999 999999 999999 999999 999999 999999 999999 999999 999999 999999 16298 16810 17691 18282 13367 14964 11104 13561 14750 14112 17359 14827 14782 13000 15738 17689 15892 18210 16556 16112 14955 13695 19491 17503 12035 17527 11767 11078 19494 15978 18861 15516 12061 12840 16514 15204 19342 15157 14081 15472 13680 17385 11883 15444 14476 13823 10459 14254 16247 13040 999999
999999 999999 999999 999999 999999 999999 999999 999999 999999 999999 999999 999999 999999 999999 999999 999999 999999 999999 999999 999999 999999 999999 999999 999999 999999 999999 999999 999999 999999 0 999999 999999 999999 999999 999999 999999 999999 999999 999999 999999 999999 999999 999999 999999 999999 999999 999999 999999 999999 999999 999999 14794 17000 11759 10594 14856 12709 19905 18940 16363 15804 10797 10275 18043 15859 19551 18986 16903 13265 15358 16695 10059 15615 11329 10900 18911 16382 13299 12885 14526 13762 13821 19339 14867 15287 17512 16819 12385 11461 14320 18260 10082 19219 18241 16094 10757 14500 19583 19715 17021 15420 999999
999999 999999 999999 999999 999999 999999 999999 999999 999999 999999 999999 999999 999999 999999 999999 999999 999999 999999 999999 999999 999999 999999 999999 999999 999999 999999 999999 999999 999999 999999 0 999999 999999 999999 999999 999999 999999 999999 999999 999999 999999 999999 999999 999999 999999 999999 999999 999999 999999 999999 999999 13906 12432 12083 13603 11720 14712 18109 17838 18357 14268 16012 12872 14989 10349 15748 14639 12759 11354 12458 10113 17625 19555 17074 11666 13871 15980 12521 19644 13609 14827 12326 16080 10913 11104 19134 14340 12428 17861 12583 12672 18797 17326 11031 15037 17851 13477 12947 11037 19015 17550 999999
999999 999999 999999 999999 999999 999999 999999 999999 999999 999999 999999 999999 999999 999999 999999 999999 999999 999999 999999 999999 999999 999999 999999 999999 999999 999999 999999 999999 999999 999999 999999 0 999999 999999 999999 999999 999999 999999 999999 999999 999999 999999 999999 999999 999999 999999 999999 999999 999999 999999 999999 16563 16836 11511 13586 12441 17239 12239 14570 10412 19579 10700 15811 10276 12654 19521 14529 12140 18921 19170 16471 18308 14601 16194 15459 17941 11759 17140 11663 17450 14897 16615 10530 19128 11829 18694 16764 13616 12579 11978 18500 18399 10635 18621 12572 18212 18053 10344 18794 12925 10884 999999
999999 999999 999999 999999 999999 999999 999999 999999 999999 999999 999999 999999 999999 999999 999999 999999 999999 999999 999999 999999 999999 999999 999999 999999 999999 999999 999999 999999 999999 999999 999999 999999 0 999999 999999 999999 999999 999999 999999 999999 999999 999999 999999 999999 999999 999999 999999 999999 999999 999999 999999 16291 18692 17202 16903 10585 11574 19096 13022 11887 18331 16720 19689 10041 18928 16707 13766 14022 14119 14898 16603 12395 16501 11277 12683 11138 15704 14611 13092 10768 18051 17084 10475 14915 13038 12702 12125 19235 15671 10220 12719 19752 16147 18777 13422 14068 10077 11862 13889 11502 14616 999999
999999 999999 999999 999999 999999 999999 999999 999999 999999 999999 999999 999999 999999 999999 999999 999999 999999 999999 999999 999999 999999 999999 999999 999999 999999 999999 999999 999999 999999 999999 999999 999999 999999 0 999999 999999 999999 999999 999999 999999 999999 999999 999999 999999 999999 999999 999999 999999 999999 999999 999999 16836 13987 19531 11024 14454 17461 18449 17308 11431 11055 17898 14268 13422 16020 10322 18343 19911 16122 17376 17419 17220 10629 14146 15714 17791 13328 19487 16722 13221 14890 13190 11800 12996 16817 17160 13405 19566 12716 14223 16814 12047 11207 14671 15894 11491 10639 19530 15441 16693 12525 999999
999999 999999 999999 999999 999999 999999 999999 999999 999999 999999 999999 999999 999999 999999 999999 999999 999999 999999 999999 999999 999999 999999 999999 999999 999999 999999 999999 999999 999999 999999 999999 999999 999999 999999 0 999999 999999 999999 999999 999999 999999 999999 999999 999999 999999 999999 999999 999999 999999 999999 999999 12264 19574 14699 18412 16189 18995 16221 11869 10836 13204 17193 16892 18338 15575 19126 11211 13157 17345 17720 14162 16962 14137 17078 11007 19870 12500 17447 18834 16805 14086 16080 16104 14093 12958 14142 13029 12861 10983 16521 16668 19006 14126 11340 13664 12002 13295 15130 19023 10954 14964 999999
999999 999999 999999 999999 999999 999999 999999 999999 999999 999999 999999 999999 999999 999999 999999 999999 999999 999999 999999 999999 999999 999999 999999 999999 999999 999999 999999 999999 999999 999999 999999 999999 999999 999999 999999 0 999999 999999 999999 999999 999999 999999 999999 999999 999999 999999 999999 999999 999999 999999 999999 19655 11780 13765 15300 15454 13012 14131 13455 15461 11235 10858 11868 11327 14817 14980 12894 14162 18034 13784 18923 19445 16632 18575 15671 17431 19732 16975 14639 17030 19926 16407 17562 13135 19243 17185 10689 10125 18471 13866 11244 19815 18618 11955 19134 16598 14360 19678 16248 14322 19522 999999
999999 999999 999999 999999 999999 999999 999999 999999 999999 999999 999999 999999 999999 999999 999999 999999 999999 999999 999999 999999 999999 999999 999999 999999 999999 999999 999999 999999 999999 999999 999999 999999 999999 999999 999999 999999 0 999999 999999 999999 999999 999999 999999 999999 999999 999999 999999 999999 999999 999999 999999 15478 11150 10137 13295 12698 10725 19295 13272 16938 18297 17750 16305 12634 10961 11122 18743 13583 15285 10033 12977 16909 12298 14592 12763 19392 10352 13305 19388 13131 11449 15177 15764 16935 19968 10204 15075 16130 14059 11960 15632 18911 19086 16353 16523 10603 10032 18829 19639 11439 18925 999999
999999 999999 999999 999999 999999 999999 999999 999999 999999 999999 999999 999999 999999 999999 999999 999999 999999 999999 999999 999999 999999 999999 999999 999999 999999 999999 999999 999999 999999 999999 999999 999999 999999 999999 999999 999999 999999 0 999999 999999 999999 999999 999999 999999 999999 999999 999999 999999 999999 999999 999999 16878 11984 13024 15728 16797 17544 13219 14351 11968 16307 15388 13558 16992 10929 19771 14871 10873 13772 13479 10585 12048 10710 15948 17741 16848 17630 10553 11174 14834 18768 16635 18569 11267 10902 12719 16893 11832 15799 17690 10971 15264 14691 11201 19113 19732 14654 12464 14004 16120 11376 999999
999999 999999 999999 999999 999999 999999 999999 999999 999999 999999 999999 999999 999999 999999 999999 999999 999999 999999 999999 999999 999999 999999 999999 999999 999999 999999 999999 999999 999999 999999 999999 999999 999999 999999 999999 999999 999999 999999 0 999999 999999 999999 999999 999999 999999 999999 999999 999999 999999 999999 999999 15864 10690 11472 13537 13274 14536 12117 14049 10706 12060 12349 14097 10598 14538 18624 12918 19728 15877 15846 17757 10252 10617 11280 19512 18376 14426 18693 16138 13089 19618 10385 19746 19428 17043 19009 11603 18267 12844 10155 15159 12039 16646 10319 12048 16618 14474 18783 17113 15921 10872 999999
999999 999999 999999 999999 999999 999999 999999 999999 999999 999999 999999 999999 999999 999999 999999 999999 999999 999999 999999 999999 999999 999999 999999 999999 999999 999999 999999 999999 999999 999999 999999 999999 999999 999999 999999 999999 999999 999999 999999 0 999999 999999 999999 999999 999999 999999 999999 999999 999999 999999 999999 11570 11076 15147 11660 11798 12451 16655 19333 10459 12897 17140 17701 14254 16916 15650 18686 11270 18844 17224 11048 14727 18987 10601 16691 12810 15457 14162 18181 19107 15322 10975 17082 13206 19347 16501 17412 18980 14343 11472 10284 14349 11717 19818 12470 16224 16458 14547 18631 12419 11838 999999
999999 999999 999999 999999 999999 999999 999999 999999 999999 999999 999999 999999 999999 999999 999999 999999 999999 999999 999999 999999 999999 999999 999999 999999 999999 999999 999999 999999 999999 999999 999999 999999 999999 999999 999999 999999 999999 999999 999999 999999 0 999999 999999 999999 999999 999999 999999 999999 999999 999999 999999 11900 11886 15227 18114 16733 15222 17864 17365 14398 15447 12132 11940 13632 14748 18101 17863 15782 14914 11293 16734 18317 10687 10086 17060 18933 12805 10786 15926 16427 12685 18307 11833 14361 18560 19546 10434 14824 18256 11612 10026 10134 11059 11032 12184 17506 11728 17522 13164 15511 14531 999999
999999 999999 999999 999999 999999 999999 999999 999999 999999 999999 999999 999999 999999 999999 999999 999999 999999 999999 999999 999999 999999 999999 999999 999999 999999 999999 999999 999999 999999 999999 999999 999999 999999 999999 999999 999999 999999 999999 999999 999999 999999 0 999999 999999 999999 999999 999999 999999 999999 999999 999999 11001 17901 17860 16888 15791 16958 17116 13603 16067 14188 13959 12653 12893 13638 19177 11696 18043 14304 10671 12251 18804 18559 11020 18993 19308 16492 11105 14348 17475 16255 15966 15395 14703 11225 15991 11073 16530 11709 10810 19015 16107 13633 17763 17632 14359 19959 18420 15661 15877 13750 999999
999999 999999 999999 999999 999999 999999 999999 999999 999999 999999 999999 999999 999999 999999 999999 999999 999999 999999 999999 999999 999999 999999 999999 999999 999999 999999 999999 999999 999999 999999 999999 999999 999999 999999 999999 999999 999999 999999 999999 999999 999999 999999 0 999999 999999 999999 999999 999999 999999 999999 999999 19412 18964 15712 13834 15987 15095 19221 10065 12416 14929 19821 13538 10621 17934 13025 11506 10523 12477 18903 10353 18153 15762 15444 15003 10143 15313 12657 12399 18450 15618 10589 12328 19701 19650 17265 15389 18181 17157 18030 15856 15863 18761 16465 17246 14977 10827 14302 17464 17880 17522 999999
999999 999999 999999 999999 999999 999999 999999 999999 999999 999999 999999 999999 999999 999999 999999 999999 999999 999999 999999 999999 999999 999999 999999 999999 999999 999999 999999 999999 999999 999999 999999 999999 999999 999999 999999 999999 999999 999999 999999 999999 999999 999999 999999 0 999999 999999 999999 999999 999999 999999 999999 17960 16606 15546 18661 14669 16856 14376 17307 15247 19521 15592 18848 13083 13892 18779 13616 16093 18695 18999 19932 14526 12786 17975 14388 11944 16475 12574 14825 13657 10461 10023 18534 10238 16828 11625 14142 11857 16261 18340 15188 13979 11183 14585 18220 10854 19079 16647 10859 19970 15449 999999
999999 999999 999999 999999 999999 999999 999999 999999 999999 999999 999999 999999 999999 999999 999999 999999 999999 999999 999999 999999 999999 999999 999999 999999 999999 999999 999999 999999 999999 999999 999999 999999 999999 999999 999999 999999 999999 999999 999999 999999 999999 999999 999999 999999 0 999999 999999 999999 999999 999999 999999 11543 18683 12280 17666 17350 13421 16027 14004 19688 15379 13654 14368 14954 16288 13561 13341 15991 14223 17611 11936 13167 19634 15011 15079 10135 15585 15176 19334 13878 17251 11711 15001 12715 19178 13420 18361 13154 12387 12232 16012 11336 11914 13986 14848 17301 11433 12884 10042 17676 13522 999999
999999 999999 999999 999999 999999 999999 999999 999999 999999 999999 999999 999999 999999 999999 999999 999999 999999 999999 999999 999999 999999 999999 999999 999999 999999 999999 999999 999999 999999 999999 999999 999999 999999 999999 999999 999999 999999 999999 999999 999999 999999 999999 999999 999999 999999 0 999999 999999 999999 999999 999999 17629 10950 10319 13273 16294 17562 11346 17353 16129 17237 17517 11341 16621 14741 11949 19713 15953 13341 15609 13789 16348 16208 18954 15213 11899 14946 19353 15201 16490 19271 11793 17317 11215 18201 16003 19063 13382 12440 11866 13204 17099 16521 18776 11705 13766 13413 15041 19884 10793 15882 999999
999999 999999 999999 999999 999999 999999 999999 999999 999999 999999 999999 999999 999999 999999 999999 999999 999999 999999 999999 999999 999999 999999 999999 999999 999999 999999 999999 999999 999999 999999 999999 999999 999999 999999 999999 999999 999999 999999 999999 999999 999999 999999 999999 999999 999999 999999 0 999999 999999 999999 999999 18953 16503 11665 19266 10214 16253 11579 11468 12256 11505 17020 18104 11138 16007 16538 16627 14260 18451 12400 14221 13354 13749 13899 15883 11892 18878 17192 10137 19231 12658 11719 14350 17733 14238 11284 12905 11479 18502 19056 16001 17509 16041 10275 16931 17489 10434 10812 12881 12284 15820 999999
999999 999999 999999 999999 999999 999999 999999 999999 999999 999999 999999 999999 999999 999999 999999 999999 999999 999999 999999 999999 999999 999999 999999 999999 999999 999999 999999 999999 999999 999999 999999 999999 999999 999999 999999 999999 999999 999999 999999 999999 999999 999999 999999 999999 999999 999999 999999 0 999999 999999 999999 14584 19590 17082 13755 15789 15428 19572 12769 16343 14498 10510 10193 18814 11340 13116 14597 19807 17985 17124 11415 13804 18350 14475 14739 14984 19516 12465 17183 13558 15485 10444 19590 12599 18904 11841 15688 13593 19602 13759 14013 12384 14412 14641 19972 12107 18256 12882 17872 16570 13042 999999
999999 999999 999999 999999 999999 999999 999999 999999 999999 999999 999999 999999 999999 999999 999999 999999 999999 999999 999999 999999 999999 999999 999999 999999 999999 999999 999999 999999 999999 999999 999999 999999 999999 999999 999999 999999 999999 999999 999999 999999 999999 999999 999999 999999 999999 999999 999999 999999 0 999999 999999 17231 12704 19955 13582 17966 10141 14431 15001 14734 10790 18935 17897 10791 11012 15979 16843 15328 11450 19602 12884 17387 16931 10907 11613 14376 17834 15269 12228 11550 14305 12099 18904 15410 13192 10781 16635 17681 19353 14598 15197 19839 19063 16925 17141 16787 17585 14364 11278 12949 14814 999999
999999 999999 999999 999999 999999 999999 999999 999999 999999 999999 999999 999999 999999 999999 999999 999999 999999 999999 999999 999999 999999 999999 999999 999999 999999 999999 999999 999999 999999 999999 999999 999999 999999 999999 999999 999999 999999 999999 999999 999999 999999 999999 999999 999999 999999 999999 999999 999999 999999 0 999999 14072 11599 10051 14573 18832 15181 19245 18895 18094 18610 12271 13797 12714 16201 14858 11890 16240 17271 15845 19277 17819 10991 19724 12378 13860 19533 13829 14310 10936 15824 18512 13193 13846 19266 10070 19143 16418 15335 12746 19733 10348 11817 10753 17848 19397 17030 16963 19144 17752 18728 999999
999999 999999 999999 999999 999999 999999 999999 999999 999999 999999 999999 999999 999999 999999 999999 999999 999999 999999 999999 999999 999999 999999 999999 999999 999999 999999 999999 999999 999999 999999 999999 999999 999999 999999 999999 999999 999999 999999 999999 999999 999999 999999 999999 999999 999999 999999 999999 999999 999999 999999 0 17413 16743 16066 19427 10377 18409 10261 12448 12479 12833 12544 19002 18038 14153 13890 12774 16602 11510 14892 19267 10300 16291 16048 14553 12265 11415 13616 18945 17915 17242 14635 17833 11272 15621 15128 17798 17472 18597 15197 15960 11061 17119 18652 17837 12426 14022 14162 18448 13793 18710 999999
999999 11357 15512 17247 19090 16776 16788 13643 19201 15111 10408 15746 14665 14205 13717 16140 11551 13151 11770 13309 14315 12976 17305 12150 16818 10159 12454 16602 16298 14794 13906 16563 16291 16836 12264 19655 15478 16878 15864 11570 11900 11001 19412 17960 11543 17629 18953 14584 17231 14072 17413 0 999999 999999 999999 999999 999999 999999 999999 999999 999999 999999 999999 999999 999999 999999 999999 999999 999999 999999 999999 999999 999999 999999 999999 999999 999999 999999 999999 999999 999999 999999 999999 999999 999999 999999 999999 999999 999999 999999 999999 999999 999999 999999 999999 999999 999999 999999 999999 999999 999999 7227
999999 11981 15003 16602 12716 10464 12911 10183 10898 15103 17375 10963 11304 13352 18207 13152 12401 11904 17249 16802 12649 15847 14051 14066 11234 18812 16421 10845 16810 17000 12432 16836 18692 13987 19574 11780 11150 11984 10690 11076 11886 17901 18964 16606 18683 10950 16503 19590 12704 11599 16743 999999 0 999999 999999 999999 999999 999999 999999 999999 999999 999999 999999 999999 999999 999999 999999 999999 999999 999999 999999 999999 999999 999999 999999 999999 999999 999999 999999 999999 999999 999999 999999 999999 999999 999999 999999 999999 999999 999999 999999 999999 999999 999999 999999 999999 999999 999999 999999 999999 999999 9075
999999 17910 14699 13673 16484 18865 14691 12919 11691 19787 14516 10776 14773 14399 17702 13347 12667 14280 15801 17717 18285 12093 19552 12454 17302 17915 13587 11771 17691 11759 12083 11511 17202 19531 14699 13765 10137 13024 11472 15147 15227 17860 15712 15546 12280 10319 11665 17082 19955 10051 16066 999999 999999 0 999999 999999 999999 999999 999999 999999 999999 999999 999999 999999 999999 999999 999999 999999 999999 999999 999999 999999 999999 999999 999999 999999 999999 999999 999999 999999 999999 999999 999999 999999 999999 999999 999999 999999 999999 999999 999999 999999 999999 999999 999999 999999 999999 999999 999999 999999 999999 12550
999999 18993 17369 13567 12560 16139 18651 18882 15818 17095 10011 15262 17836 11581 13716 18201 16123 12353 17273 14897 10974 12821 12328 12898 12772 13419 13592 12840 18282 10594 13603 13586 16903 11024 18412 15300 13295 15728 13537 11660 18114 16888 13834 18661 17666 13273 19266 13755 13582 14573 19427 999999 999999 999999 0 999999 999999 999999 999999 999999 999999 999999 999999 999999 999999 999999 999999 999999 999999 999999 999999 999999 999999 999999 999999 999999 999999 999999 999999 999999 999999 999999 999999 999999 999999 999999 999999 999999 999999 999999 999999 999999 999999 999999 999999 999999 999999 999999 999999 999999 999999 6015
999999 12155 19809 16043 19788 15433 18975 19286 17238 11863 14501 18431 13238 13350 11689 10327 18960 11995 18030 17608 15298 10564 10019 15739 16035 16651 12786 16778 13367 14856 11720 12441 10585 14454 16189 15454 12698 16797 13274 11798 16733 15791 15987 14669 17350 16294 10214 15789 17966 18832 10377 999999 999999 999999 999999 0 999999 999999 999999 999999 999999 999999 999999 999999 999999 999999 999999 999999 999999 999999 999999 999999 999999 999999 999999 999999 999999 999999 999999 999999 999999 999999 999999 999999 999999 999999 999999 999999 999999 999999 999999 999999 999999 999999 999999 999999 999999 999999 999999 999999 999999 6618
999999 14335 19412 16333 13193 13508 17316 13739 19251 13331 19338 12498 11764 19391 15122 15827 12686 10097 13656 10834 14355 17181 17227 15537 19268 13789 18807 12922 14964 12709 14712 17239 11574 17461 18995 13012 10725 17544 14536 12451 15222 16958 15095 16856 13421 17562 16253 15428 10141 15181 18409 999999 999999 999999 999999 999999 0 999999 999999 999999 999999 999999 999999 999999 999999 999999 999999 999999 999999 999999 999999 999999 999999 999999 999999 999999 999999 999999 999999 999999 999999 999999 999999 999999 999999 999999 999999 999999 999999 999999 999999 999999 999999 999999 999999 999999 999999 999999 999999 999999 999999 5036
999999 15534 12172 14131 17932 15392 10637 14172 13772 10592 18031 17327 11829 13583 18075 11445 11315 10990 18680 19451 15011 15404 15026 12369 17832 14251 14324 19945 11104 19905 18109 12239 19096 18449 16221 14131 19295 13219 12117 16655 17864 17116 19221 14376 16027 11346 11579 19572 14431 19245 10261 999999 999999 999999 999999 999999 999999 0 999999 999999 999999 999999 999999 999999 999999 999999 999999 999999 999999 999999 999999 999999 999999 999999 999999 999999 999999 999999 999999 999999 999999 999999 999999 999999 999999 999999 999999 999999 999999 999999 999999 999999 999999 999999 999999 999999 999999 999999 999999 999999 999999 6136
999999 13893 16951 10288 15522 16003 12487 13193 10524 10682 17607 11666 18075 17588 19323 10494 18668 19896 15570 13990 15339 12439 15407 12983 18203 14646 12479 18209 13561 18940 17838 14570 13022 17308 11869 13455 13272 14351 14049 19333 17365 13603 10065 17307 14004 17353 11468 12769 15001 18895 12448 999999 999999 999999 999999 999999 999999 999999 0 999999 999999 999999 999999 999999 999999 999999 999999 999999 999999 999999 999999 999999 999999 999999 999999 999999 999999 999999 999999 999999 999999 999999 999999 999999 999999 999999 999999 999999 999999 999999 999999 999999 999999 999999 999999 999999 999999 999999 999999 999999 999999 6731
999999 11072 10325 15174 17065 19997 10638 10788 16098 12705 19355 15845 12602 17229 16632 11917 10107 17658 10509 11682 13056 17574 17903 18022 18689 16551 17270 19949 14750 16363 18357 10412 11887 11431 10836 15461 16938 11968 10706 10459 14398 16067 12416 15247 19688 16129 12256 16343 14734 18094 12479 999999 999999 999999 999999 999999 999999 999999 999999 0 999999 999999 999999 999999 999999 999999 999999 999999 999999 999999 999999 999999 999999 999999 999999 999999 999999 999999 999999 999999 999999 999999 999999 999999 999999 999999 999999 999999 999999 999999 999999 999999 999999 999999 999999 999999 999999 999999 999999 999999 999999 7733
999999 19496 11194 16142 14121 13453 16532 15308 10281 14533 19551 13077 12688 12309 14001 11589 16624 15166 11620 18403 16179 10479 17723 18127 18345 13519 19716 11528 14112 15804 14268 19579 18331 11055 13204 11235 18297 16307 12060 12897 15447 14188 14929 19521 15379 17237 11505 14498 10790 18610 12833 999999 999999 999999 999999 999999 999999 999999 999999 999999 0 999999 999999 999999 999999 999999 999999 999999 999999 999999 999999 999999 999999 999999 999999 999999 999999 999999 999999 999999 999999 999999 999999 999999 999999 999999 999999 999999 999999 999999 999999 999999 999999 999999 999999 999999 999999 999999 999999 999999 999999 6075
999999 13491 14001 12688 19719 15830 19220 17843 17725 14688 19903 14454 19155 15030 15888 16608 16126 12406 10409 19865 17846 10141 16142 11395 11438 15277 18982 17629 17359 10797 16012 10700 16720 17898 17193 10858 17750 15388 12349 17140 12132 13959 19821 15592 13654 17517 17020 10510 18935 12271 12544 999999 999999 999999 999999 999999 999999 999999 999999 999999 999999 0 999999 999999 999999 999999 999999 999999 999999 999999 999999 999999 999999 999999 999999 999999 999999 999999 999999 999999 999999 999999 999999 999999 999999 999999 999999 999999 999999 999999 999999 999999 999999 999999 999999 999999 999999 999999 999999 999999 999999 13287
999999 19827 10538 12056 11782 18346 13323 18376 14709 12120 11403 12789 11212 16375 19440 12146 11707 16488 12223 10828 17671 18683 10721 17463 12724 10192 18766 19308 14827 10275 12872 15811 19689 14268 16892 11868 16305 13558 14097 17701 11940 12653 13538 18848 14368 11341 18104 10193 17897 13797 19002 999999 999999 999999 999999 999999 999999 999999 999999 999999 999999 999999 0 999999 999999 999999 999999 999999 999999 999999 999999 999999 999999 999999 999999 999999 999999 999999 999999 999999 999999 999999 999999 999999 999999 999999 999999 999999 999999 999999 999999 999999 999999 999999 999999 999999 999999 999999 999999 999999 999999 10018
999999 19235 11505 17385 12653 17335 18113 12615 17287 14162 10848 11852 14548 17025 15174 12031 15721 10601 14996 10126 16946 16580 16267 12922 11320 14136 15840 12160 14782 18043 14989 10276 10041 13422 18338 11327 12634 16992 10598 14254 13632 12893 10621 13083 14954 16621 11138 18814 10791 12714 18038 999999 999999 999999 999999 999999 999999 999999 999999 999999 999999 999999 999999 0 999999 999999 999999 999999 999999 999999 999999 999999 999999 999999 999999 999999 999999 999999 999999 999999 999999 999999 999999 999999 999999 999999 999999 999999 999999 999999 999999 999999 999999 999999 999999 999999 999999 999999 999999 999999 999999 8410
999999 14176 11879 17481 18579 18972 18894 19547 14449 17528 15573 10838 13412 19974 16058 15152 14983 14959 18633 15442 18775 18951 11033 18765 19007 11834 11939 14971 13000 15859 10349 12654 18928 16020 15575 14817 10961 10929 14538 16916 14748 13638 17934 13892 16288 14741 16007 11340 11012 16201 14153 999999 999999 999999 999999 999999 999999 999999 999999 999999 999999 999999 999999 999999 0 999999 999999 999999 999999 999999 999999 999999 999999 999999 999999 999999 999999 999999 999999 999999 999999 999999 999999 999999 999999 999999 999999 999999 999999 999999 999999 999999 999999 999999 999999 999999 999999 999999 999999 999999 999999 10496
999999 13757 12851 16286 16625 15872 15603 15037 12419 11501 14771 18917 15287 17420 11601 11514 18343 16274 19070 14480 12708 18589 19539 19005 15927 16991 19093 10530 15738 19551 15748 19521 16707 10322 19126 14980 11122 19771 18624 15650 18101 19177 13025 18779 13561 11949 16538 13116 15979 14858 13890 999999 999999 999999 999999 999999 999999 999999 999999 999999 999999 999999 999999 999999 999999 0 999999 999999 999999 999999 999999 999999 999999 999999 999999 999999 999999 999999 999999 999999 999999 999999 999999 999999 999999 999999 999999 999999 999999 999999 999999 999999 999999 999999 999999 999999 999999 999999 999999 999999 999999 10746
999999 15043 11383 17590 12958 13324 16380 14699 19335 10441 10098 17645 18328 18841 14817 10786 17932 16906 10818 15291 10501 15546 13753 14775 12215 12906 17655 15013 17689 18986 14639 14529 13766 18343 11211 12894 18743 14871 12918 18686 17863 11696 11506 13616 13341 19713 16627 14597 16843 11890 12774 999999 999999 999999 999999 999999 999999 999999 999999 999999 999999 999999 999999 999999 999999 999999 0 999999 999999 999999 999999 999999 999999 999999 999999 999999 999999 999999 999999 999999 999999 999999 999999 999999 999999 999999 999999 999999 999999 999999 999999 999999 999999 999999 999999 999999 999999 999999 999999 999999 999999 6650
999999 14142 14792 11231 16156 18496 19868 10095 18688 18348 10230 13989 10760 13394 14293 11063 14311 16980 11402 10860 16491 15226 18992 13030 16854 15482 16053 14224 15892 16903 12759 12140 14022 19911 13157 14162 13583 10873 19728 11270 15782 18043 10523 16093 15991 15953 14260 19807 15328 16240 16602 999999 999999 999999 999999 999999 999999 999999 999999 999999 999999 999999 999999 999999 999999 999999 999999 0 999999 999999 999999 999999 999999 999999 999999 999999 999999 999999 999999 999999 999999 999999 999999 999999 999999 999999 999999 999999 999999 999999 999999 999999 999999 999999 999999 999999 999999 999999 999999 999999 999999 11894
999999 12704 10349 17185 11157 10947 15929 19890 13178 12162 18614 16543 10532 10444 10657 10051 10486 19796 14250 16680 17037 19502 13493 15800 16103 18865 13560 11796 18210 13265 11354 18921 14119 16122 17345 18034 15285 13772 15877 18844 14914 14304 12477 18695 14223 13341 18451 17985 11450 17271 11510 999999 999999 999999 999999 999999 999999 999999 999999 999999 999999 999999 999999 999999 999999 999999 999999 999999 0 999999 999999 999999 999999 999999 999999 999999 999999 999999 999999 999999 999999 999999 999999 999999 999999 999999 999999 999999 999999 999999 999999 999999 999999 999999 999999 999999 999999 999999 999999 999999 999999 8119
999999 12821 12327 17787 14642 15798 19002 13427 12714 14339 15345 19271 10001 17392 14119 15889 19074 19165 18216 12602 19972 11703 10779 17180 19925 10611 19126 15893 16556 15358 12458 19170 14898 17376 17720 13784 10033 13479 15846 17224 11293 10671 18903 18999 17611 15609 12400 17124 19602 15845 14892 999999 999999 999999 999999 999999 999999 999999 999999 999999 999999 999999 999999 999999 999999 999999 999999 999999 999999 0 999999 999999 999999 999999 999999 999999 999999 999999 999999 999999 999999 999999 999999 999999 999999 999999 999999 999999 999999 999999 999999 999999 999999 999999 999999 999999 999999 999999 999999 999999 999999 14929
999999 17869 13624 15297 19685 12297 12453 16469 16567 19987 10247 13055 14740 15459 12857 16106 12679 19811 18124 14328 17546 15442 14433 16214 16462 16677 13780 10359 16112 16695 10113 16471 16603 17419 14162 18923 12977 10585 17757 11048 16734 12251 10353 19932 11936 13789 14221 11415 12884 19277 19267 999999 999999 999999 999999 999999 999999 999999 999999 999999 999999 999999 999999 999999 999999 999999 999999 999999 999999 999999 0 999999 999999 999999 999999 999999 999999 999999 999999 999999 999999 999999 999999 999999 999999 999999 999999 999999 999999 999999 999999 999999 999999 999999 999999 999999 999999 999999 999999 999999 999999 14098
999999 10567 19234 13495 14498 12284 18243 19683 16347 16383 13637 11598 19181 13529 18629 11527 17428 13598 16883 15086 11532 14942 14432 19627 15011 19324 12354 13080 14955 10059 17625 18308 12395 17220 16962 19445 16909 12048 10252 14727 18317 18804 18153 14526 13167 16348 13354 13804 17387 17819 10300 999999 999999 999999 999999 999999 999999 999999 999999 999999 999999 999999 999999 999999 999999 999999 999999 999999 999999 999999 999999 0 999999 999999 999999 999999 999999 999999 999999 999999 999999 999999 999999 999999 999999 999999 999999 999999 999999 999999 999999 999999 999999 999999 999999 999999 999999 999999 999999 999999 999999 13388
999999 10901 14677 18244 13920 13446 19448 11631 13996 12395 10294 10792 17942 18688 17154 12415 12954 12617 18264 15753 18712 14021 16529 17111 15642 14167 13907 16691 13695 15615 19555 14601 16501 10629 14137 16632 12298 10710 10617 18987 10687 18559 15762 12786 19634 16208 13749 18350 16931 10991 16291 999999 999999 999999 999999 999999 999999 999999 999999 999999 999999 999999 999999 999999 999999 999999 999999 999999 999999 999999 999999 999999 0 999999 999999 999999 999999 999999 999999 999999 999999 999999 999999 999999 999999 999999 999999 999999 999999 999999 999999 999999 999999 999999 999999 999999 999999 999999 999999 999999 999999 14912
999999 10594 15852 12285 16230 18771 15786 13888 13728 12979 16621 11088 10600 16547 19564 11932 13949 12114 10268 17544 15011 17482 19177 13097 18534 19946 12899 18347 19491 11329 17074 16194 11277 14146 17078 18575 14592 15948 11280 10601 10086 11020 15444 17975 15011 18954 13899 14475 10907 19724 16048 999999 999999 999999 999999 999999 999999 999999 999999 999999 999999 999999 999999 999999 999999 999999 999999 999999 999999 999999 999999 999999 999999 0 999999 999999 999999 999999 999999 999999 999999 999999 999999 999999 999999 999999 999999 999999 999999 999999 999999 999999 999999 999999 999999 999999 999999 999999 999999 999999 999999 8561
999999 15623 18270 18006 13346 10284 15515 14721 16946 13499 14958 11715 18547 13184 12535 18709 18763 14072 15039 14510 15261 16952 12071 11975 12801 15337 14177 10551 17503 10900 11666 15459 12683 15714 11007 15671 12763 17741 19512 16691 17060 18993 15003 14388 15079 15213 15883 14739 11613 12378 14553 999999 999999 999999 999999 999999 999999 999999 999999 999999 999999 999999 999999 999999 999999 999999 999999 999999 999999 999999 999999 999999 999999 999999 0 999999 999999 999999 999999 999999 999999 999999 999999 999999 999999 999999 999999 999999 999999 999999 999999 999999 999999 999999 999999 999999 999999 999999 999999 999999 999999 5728
999999 15394 11531 10949 14601 15188 15589 12845 12024 18473 19325 15424 18977 17467 15869 11664 17411 13290 12758 10254 14972 12745 19639 10940 17141 12633 19839 14602 12035 18911 13871 17941 11138 17791 19870 17431 19392 16848 18376 12810 18933 19308 10143 11944 10135 11899 11892 14984 14376 13860 12265 999999 999999 999999 999999 999999 999999 999999 999999 999999 999999 999999 999999 999999 999999 999999 999999 999999 999999 999999 999999 999999 999999 999999 999999 0 999999 999999 999999 999999 999999 999999 999999 999999 999999 999999 999999 999999 999999 999999 999999 999999 999999 999999 999999 999999 999999 999999 999999 999999 999999 12732
999999 17203 12345 13818 13511 19167 12988 19837 11790 10965 13438 14506 19693 12042 12491 16270 15091 12770 17414 12855 13903 15670 13740 14699 10055 12326 14830 16384 17527 16382 15980 11759 15704 13328 12500 19732 10352 17630 14426 15457 12805 16492 15313 16475 15585 14946 18878 19516 17834 19533 11415 999999 999999 999999 999999 999999 999999 999999 999999 999999 999999 999999 999999 999999 999999 999999 999999 999999 999999 999999 999999 999999 999999 999999 999999 999999 0 999999 999999 999999 999999 999999 999999 999999 999999 999999 999999 999999 999999 999999 999999 999999 999999 999999 999999 999999 999999 999999 999999 999999 999999 11237
999999 12922 11800 19605 15682 14784 19640 16313 11846 18036 15146 14825 13099 17309 16996 13737 16867 12466 13573 17018 16294 15296 11975 13070 13330 17043 10871 10552 11767 13299 12521 17140 14611 19487 17447 16975 13305 10553 18693 14162 10786 11105 12657 12574 15176 19353 17192 12465 15269 13829 13616 999999 999999 999999 999999 999999 999999 999999 999999 999999 999999 999999 999999 999999 999999 999999 999999 999999 999999 999999 999999 999999 999999 999999 999999 999999 999999 0 999999 999999 999999 999999 999999 999999 999999 999999 999999 999999 999999 999999 999999 999999 999999 999999 999999 999999 999999 999999 999999 999999 999999 13813
999999 10481 13391 10144 10101 18794 11851 12759 19156 18374 19095 11368 17887 11498 12575 19112 16422 15106 14933 19968 16038 14859 11041 19171 13460 14074 14741 13706 11078 12885 19644 11663 13092 16722 18834 14639 19388 11174 16138 18181 15926 14348 12399 14825 19334 15201 10137 17183 12228 14310 18945 999999 999999 999999 999999 999999 999999 999999 999999 999999 999999 999999 999999 999999 999999 999999 999999 999999 999999 999999 999999 999999 999999 999999 999999 999999 999999 999999 0 999999 999999 999999 999999 999999 999999 999999 999999 999999 999999 999999 999999 999999 999999 999999 999999 999999 999999 999999 999999 999999 999999 12735
999999 15723 17981 15842 14661 15172 19138 19378 14794 12191 15602 13409 15273 12300 16309 11586 15844 17761 17135 17001 16672 10209 15926 10946 13936 12489 17745 19371 19494 14526 13609 17450 10768 13221 16805 17030 13131 14834 13089 19107 16427 17475 18450 13657 13878 16490 19231 13558 11550 10936 17915 999999 999999 999999 999999 999999 999999 999999 999999 999999 999999 999999 999999 999999 999999 999999 999999 999999 999999 999999 999999 999999 999999 999999 999999 999999 999999 999999 999999 0 999999 999999 999999 999999 999999 999999 999999 999999 999999 999999 999999 999999 999999 999999 999999 999999 999999 999999 999999 999999 999999 7386
999999 14925 15917 14924 12946 10065 17146 12662 14520 10774 16542 18787 19845 19187 12505 14927 17261 18588 12612 17322 19852 11721 10242 12922 14924 10644 15374 18644 15978 13762 14827 14897 18051 14890 14086 19926 11449 18768 19618 15322 12685 16255 15618 10461 17251 19271 12658 15485 14305 15824 17242 999999 999999 999999 999999 999999 999999 999999 999999 999999 999999 999999 999999 999999 999999 999999 999999 999999 999999 999999 999999 999999 999999 999999 999999 999999 999999 999999 999999 999999 0 999999 999999 999999 999999 999999 999999 999999 999999 999999 999999 999999 999999 999999 999999 999999 999999 999999 999999 999999 999999 10652
999999 19862 10553 15802 15477 12251 15144 18735 11630 16893 14111 14414 14293 19091 10176 18957 10618 12692 14158 10827 11145 14501 12220 13906 18915 17569 17073 15375 18861 13821 12326 16615 17084 13190 16080 16407 15177 16635 10385 10975 18307 15966 10589 10023 11711 11793 11719 10444 12099 18512 14635 999999 999999 999999 999999 999999 999999 999999 999999 999999 999999 999999 999999 999999 999999 999999 999999 999999 999999 999999 999999 999999 999999 999999 999999 999999 999999 999999 999999 999999 999999 0 999999 999999 999999 999999 999999 999999 999999 999999 999999 999999 999999 999999 999999 999999 999999 999999 999999 999999 999999 8538
999999 12486 18771 12478 19434 10835 12992 13933 14353 16574 16632 15705 16409 17348 12510 11867 16749 15696 12925 18374 15319 15052 16911 18566 18537 10171 10464 12785 15516 19339 16080 10530 10475 11800 16104 17562 15764 18569 19746 17082 11833 15395 12328 18534 15001 17317 14350 19590 18904 13193 17833 999999 999999 999999 999999 999999 999999 999999 999999 999999 999999 999999 999999 999999 999999 999999 999999 999999 999999 999999 999999 999999 999999 999999 999999 999999 999999 999999 999999 999999 999999 999999 0 999999 999999 999999 999999 999999 999999 999999 999999 999999 999999 999999 999999 999999 999999 999999 999999 999999 999999 14794
999999 19021 12961 14838 13661 11351 13780 15068 14051 17437 10612 16580 16487 18411 16224 14622 18578 10644 19105 15125 19418 13234 11607 18557 13389 16544 15134 13472 12061 14867 10913 19128 14915 12996 14093 13135 16935 11267 19428 13206 14361 14703 19701 10238 12715 11215 17733 12599 15410 13846 11272 999999 999999 999999 999999 999999 999999 999999 999999 999999 999999 999999 999999 999999 999999 999999 999999 999999 999999 999999 999999 999999 999999 999999 999999 999999 999999 999999 999999 999999 999999 999999 999999 0 999999 999999 999999 999999 999999 999999 999999 999999 999999 999999 999999 999999 999999 999999 999999 999999 999999 10382
999999 11903 17631 15969 11497 11697 12108 14268 18284 17575 14726 19850 12115 11462 17228 17010 14741 13614 13206 19775 13627 16474 10635 19141 12023 19524 12551 18466 12840 15287 11104 11829 13038 16817 12958 19243 19968 10902 17043 19347 18560 11225 19650 16828 19178 18201 14238 18904 13192 19266 15621 999999 999999 999999 999999 999999 999999 999999 999999 999999 999999 999999 999999 999999 999999 999999 999999 999999 999999 999999 999999 999999 999999 999999 999999 999999 999999 999999 999999 999999 999999 999999 999999 999999 0 999999 999999 999999 999999 999999 999999 999999 999999 999999 999999 999999 999999 999999 999999 999999 999999 5628
999999 13351 18692 17460 17057 10297 16238 15002 10835 17904 14756 18232 10588 16775 18984 14841 14435 19135 16950 19540 11706 19184 12829 10007 18298 11486 19795 16601 16514 17512 19134 18694 12702 17160 14142 17185 10204 12719 19009 16501 19546 15991 17265 11625 13420 16003 11284 11841 10781 10070 15128 999999 999999 999999 999999 999999 999999 999999 999999 999999 999999 999999 999999 999999 999999 999999 999999 999999 999999 999999 999999 999999 999999 999999 999999 999999 999999 999999 999999 999999 999999 999999 999999 999999 999999 0 999999 999999 999999 999999 999999 999999 999999 999999 999999 999999 999999 999999 999999 999999 999999 7867
999999 14539 17143 15869 14416 15691 10089 16198 16357 14485 11563 12184 11465 19194 17045 17704 18536 10876 10829 13845 16197 19437 13265 17375 13200 13341 15922 13419 15204 16819 14340 16764 12125 13405 13029 10689 15075 16893 11603 17412 10434 11073 15389 14142 18361 19063 12905 15688 16635 19143 17798 999999 999999 999999 999999 999999 999999 999999 999999 999999 999999 999999 999999 999999 999999 999999 999999 999999 999999 999999 999999 999999 999999 999999 999999 999999 999999 999999 999999 999999 999999 999999 999999 999999 999999 999999 0 999999 999999 999999 999999 999999 999999 999999 999999 999999 999999 999999 999999 999999 999999 8596
999999 19680 13038 19962 19041 15869 19619 15421 14632 10075 12449 19718 13321 11788 13842 19036 18848 10915 14570 18842 12941 12452 11007 17667 15333 15145 10597 14612 19342 12385 12428 13616 19235 19566 12861 10125 16130 11832 18267 18980 14824 16530 18181 11857 13154 13382 11479 13593 17681 16418 17472 999999 999999 999999 999999 999999 999999 999999 999999 999999 999999 999999 999999 999999 999999 999999 999999 999999 999999 999999 999999 999999 999999 999999 999999 999999 999999 999999 999999 999999 999999 999999 999999 999999 999999 999999 999999 0 999999 999999 999999 999999 999999 999999 999999 999999 999999 999999 999999 999999 999999 9862
999999 17380 16169 16819 14594 18923 10657 16907 18947 15874 16594 16427 17797 10564 19278 17315 12149 15575 13307 18714 14872 16852 15601 15497 19629 19374 10452 17350 15157 11461 17861 12579 15671 12716 10983 18471 14059 15799 12844 14343 18256 11709 17157 16261 12387 12440 18502 19602 19353 15335 18597 999999 999999 999999 999999 999999 999999 999999 999999 999999 999999 999999 999999 999999 999999 999999 999999 999999 999999 999999 999999 999999 999999 999999 999999 999999 999999 999999 999999 999999 999999 999999 999999 999999 999999 999999 999999 999999 0 999999 999999 999999 999999 999999 999999 999999 999999 999999 999999 999999 999999 14117
999999 19344 13172 18115 16218 11324 16841 17534 11527 10967 10439 10790 19703 10314 18268 17978 14810 16381 18061 12231 13326 17888 12417 11018 10216 16209 15565 12183 14081 14320 12583 11978 10220 14223 16521 13866 11960 17690 10155 11472 11612 10810 18030 18340 12232 11866 19056 13759 14598 12746 15197 999999 999999 999999 999999 999999 999999 999999 999999 999999 999999 999999 999999 999999 999999 999999 999999 999999 999999 999999 999999 999999 999999 999999 999999 999999 999999 999999 999999 999999 999999 999999 999999 999999 999999 999999 999999 999999 999999 0 999999 999999 999999 999999 999999 999999 999999 999999 999999 999999 999999 12145
999999 13201 19605 19079 12868 14682 14039 12616 19751 10965 11881 11863 18653 10911 14439 15003 11210 18153 16016 15386 12287 17056 15038 12881 19398 10158 15900 10100 15472 18260 12672 18500 12719 16814 16668 11244 15632 10971 15159 10284 10026 19015 15856 15188 16012 13204 16001 14013 15197 19733 15960 999999 999999 999999 999999 999999 999999 999999 999999 999999 999999 999999 999999 999999 999999 999999 999999 999999 999999 999999 999999 999999 999999 999999 999999 999999 999999 999999 999999 999999 999999 999999 999999 999999 999999 999999 999999 999999 999999 999999 0 999999 999999 999999 999999 999999 999999 999999 999999 999999 999999 8119
999999 12684 18168 19215 15171 19678 13321 13626 16791 19383 10656 17273 12506 14255 16531 18113 19228 11844 12332 17079 12280 19129 16000 13409 15916 18904 15654 16260 13680 10082 18797 18399 19752 12047 19006 19815 18911 15264 12039 14349 10134 16107 15863 13979 11336 17099 17509 12384 19839 10348 11061 999999 999999 999999 999999 999999 999999 999999 999999 999999 999999 999999 999999 999999 999999 999999 999999 999999 999999 999999 999999 999999 999999 999999 999999 999999 999999 999999 999999 999999 999999 999999 999999 999999 999999 999999 999999 999999 999999 999999 999999 0 999999 999999 999999 999999 999999 999999 999999 999999 999999 9257
999999 13859 12648 14748 15695 15645 11269 19418 17494 19108 17541 13438 12023 15922 11965 10994 15363 17224 13554 14612 15528 12610 17076 16165 10645 12320 19067 13142 17385 19219 17326 10635 16147 11207 14126 18618 19086 14691 16646 11717 11059 13633 18761 11183 11914 16521 16041 14412 19063 11817 17119 999999 999999 999999 999999 999999 999999 999999 999999 999999 999999 999999 999999 999999 999999 999999 999999 999999 999999 999999 999999 999999 999999 999999 999999 999999 999999 999999 999999 999999 999999 999999 999999 999999 999999 999999 999999 999999 999999 999999 999999 999999 0 999999 999999 999999 999999 999999 999999 999999 999999 7038
999999 14494 15866 10822 17862 11474 19590 13285 18379 19923 10183 12852 12680 10232 14226 15954 15438 12795 18927 11773 12659 18263 19715 18895 13608 13789 12595 10494 11883 18241 11031 18621 18777 14671 11340 11955 16353 11201 10319 19818 11032 17763 16465 14585 13986 18776 10275 14641 16925 10753 18652 999999 999999 999999 999999 999999 999999 999999 999999 999999 999999 999999 999999 999999 999999 999999 999999 999999 999999 999999 999999 999999 999999 999999 999999 999999 999999 999999 999999 999999 999999 999999 999999 999999 999999 999999 999999 999999 999999 999999 999999 999999 999999 0 999999 999999 999999 999999 999999 999999 999999 6077
999999 19177 18420 13651 13266 19525 17327 17321 12294 13292 11706 12967 10878 12052 19127 10191 10843 15816 17943 18401 10154 11891 17638 18233 13915 11261 10502 11314 15444 16094 15037 12572 13422 15894 13664 19134 16523 19113 12048 12470 12184 17632 17246 18220 14848 11705 16931 19972 17141 17848 17837 999999 999999 999999 999999 999999 999999 999999 999999 999999 999999 999999 999999 999999 999999 999999 999999 999999 999999 999999 999999 999999 999999 999999 999999 999999 999999 999999 999999 999999 999999 999999 999999 999999 999999 999999 999999 999999 999999 999999 999999 999999 999999 999999 0 999999 999999 999999 999999 999999 999999 11590
999999 18521 13805 11406 11313 19574 13227 16706 17201 14805 13548 19539 14990 17027 19152 16584 18844 17840 19810 13141 18022 14176 10257 14957 17927 14663 11036 17189 14476 10757 17851 18212 14068 11491 12002 16598 10603 19732 16618 16224 17506 14359 14977 10854 17301 13766 17489 12107 16787 19397 12426 999999 999999 999999 999999 999999 999999 999999 999999 999999 999999 999999 999999 999999 999999 999999 999999 999999 999999 999999 999999 999999 999999 999999 999999 999999 999999 999999 999999 999999 999999 999999 999999 999999 999999 999999 999999 999999 999999 999999 999999 999999 999999 999999 999999 0 999999 999999 999999 999999 999999 12646
999999 16550 18387 16462 15459 12179 16610 18316 17462 15316 18126 19231 11359 16061 15452 17852 15759 12377 19810 14230 17615 17001 16073 17000 12619 18136 13850 19617 13823 14500 13477 18053 10077 10639 13295 14360 10032 14654 14474 16458 11728 19959 10827 19079 11433 13413 10434 18256 17585 17030 14022 999999 999999 999999 999999 999999 999999 999999 999999 999999 999999 999999 999999 999999 999999 999999 999999 999999 999999 999999 999999 999999 999999 999999 999999 999999 999999 999999 999999 999999 999999 999999 999999 999999 999999 999999 999999 999999 999999 999999 999999 999999 999999 999999 999999 999999 0 999999 999999 999999 999999 7537
999999 11220 13807 14748 17828 16902 13473 18063 11008 14546 17268 15565 14861 12576 17176 15036 15868 15168 12682 10453 19816 11914 14639 17147 15829 18185 15746 10543 10459 19583 12947 10344 11862 19530 15130 19678 18829 12464 18783 14547 17522 18420 14302 16647 12884 15041 10812 12882 14364 16963 14162 999999 999999 999999 999999 999999 999999 999999 999999 999999 999999 999999 999999 999999 999999 999999 999999 999999 999999 999999 999999 999999 999999 999999 999999 999999 999999 999999 999999 999999 999999 999999 999999 999999 999999 999999 999999 999999 999999 999999 999999 999999 999999 999999 999999 999999 999999 0 999999 999999 999999 5157
999999 17419 12126 16871 19344 16754 17316 11015 11479 12449 15420 13449 18839 14799 10519 19221 14991 10987 12120 10188 14531 13115 16830 18701 15640 12338 10737 15168 14254 19715 11037 18794 13889 15441 19023 16248 19639 14004 17113 18631 13164 15661 17464 10859 10042 19884 12881 17872 11278 19144 18448 999999 999999 999999 999999 999999 999999 999999 999999 999999 999999 999999 999999 999999 999999 999999 999999 999999 999999 999999 999999 999999 999999 999999 999999 999999 999999 999999 999999 999999 999999 999999 999999 999999 999999 999999 999999 999999 999999 999999 999999 999999 999999 999999 999999 999999 999999 999999 0 999999 999999 11764
999999 19161 10720 14971 19848 19445 11876 18801 17540 15648 16649 15718 15285 14338 16952 13353 11433 15238 10986 14119 17946 13425 14157 15275 17106 13831 13809 15071 16247 17021 19015 12925 11502 16693 10954 14322 11439 16120 15921 12419 15511 15877 17880 19970 17676 10793 12284 16570 12949 17752 13793 999999 999999 999999 999999 999999 999999 999999 999999 999999 999999 999999 999999 999999 999999 999999 999999 999999 999999 999999 999999 999999 999999 999999 999999 999999 999999 999999 999999 999999 999999 999999 999999 999999 999999 999999 999999 999999 999999 999999 999999 999999 999999 999999 999999 999999 999999 999999 999999 0 999999 10414
999999 13604 14031 19394 17689 14533 11542 12836 17740 18820 10543 17426 11549 19686 10623 15613 16530 12513 12136 10101 16935 17909 18686 17407 17808 13892 19281 19545 13040 15420 17550 10884 14616 12525 14964 19522 18925 11376 10872 11838 14531 13750 17522 15449 13522 15882 15820 13042 14814 18728 18710 999999 999999 999999 999999 999999 999999 999999 999999 999999 999999 999999 999999 999999 999999 999999 999999 999999 999999 999999 999999 999999 999999 999999 999999 999999 999999 999999 999999 999999 999999 999999 999999 999999 999999 999999 999999 999999 999999 999999 999999 999999 999999 999999 999999 999999 999999 999999 999999 999999 0 10615
1 999999 999999 999999 999999 999999 999999 999999 999999 999999 999999 999999 999999 999999 999999 999999 999999 999999 999999 999999 999999 999999 999999 999999 999999 999999 999999 999999 999999 999999 999999 999999 999999 999999 999999 999999 999999 999999 999999 999999 999999 999999 999999 999999 999999 999999 999999 999999 999999 999999 999999 999999 999999 999999 999999 999999 999999 999999 999999 999999 999999 999999 999999 999999 999999 999999 999999 999999 999999 999999 999999 999999 999999 999999 999999 999999 999999 999999 999999 999999 999999 999999 999999 999999 999999 999999 999999 999999 999999 999999 999999 999999 999999 999999 999999 999999 999999 999999 999999 999999 999999 0
EOF