NAME: GR_1x2x35_KH_5x10_Run_9
TYPE: TSP
COMMENT: BTSP instance |A|=70 GR nodes |B|=50 KH nodes depot=0.0 end=0.0.0
DIMENSION: 122
EDGE_WEIGHT_TYPE: EXPLICIT
EDGE_WEIGHT_FORMAT: FULL_MATRIX
NODE_COORD_TYPE: NO_COORDS
EDGE_WEIGHT_SECTION
0 6770 13416 9436 13087 6804 7342 5663 14149 6113 12406 8299 9650 13741 11142 14372 13776 14751 5514 13277 13168 12207 12621 14339 5287 10188 8343 7734 8469 12117 10858 13125 12346 7701 13592 11173 10260 13569 11917 13400 14524 14946 6760 5767 14551 8208 6006 9723 5343 13994 10559 10469 14792 14353 14653 9108 12362 7491 10110 7371 8185 6647 6922 5400 6783 12888 7215 6363 11001 8076 5488 999999 999999 999999 999999 999999 999999 999999 999999 999999 999999 999999 999999 999999 999999 999999 999999 999999 999999 999999 999999 999999 999999 999999 999999 999999 999999 999999 999999 999999 999999 999999 999999 999999 999999 999999 999999 999999 999999 999999 999999 999999 999999 999999 999999 999999 999999 999999 999999 999999 999999 999999
999999 0 999999 999999 999999 999999 999999 999999 999999 999999 999999 999999 999999 999999 999999 999999 999999 999999 999999 999999 999999 999999 999999 999999 999999 999999 999999 999999 999999 999999 999999 999999 999999 999999 999999 999999 999999 999999 999999 999999 999999 999999 999999 999999 999999 999999 999999 999999 999999 999999 999999 999999 999999 999999 999999 999999 999999 999999 999999 999999 999999 999999 999999 999999 999999 999999 999999 999999 999999 999999 999999 12440 15854 19198 14899 18555 14273 13580 13595 14170 16420 10342 18766 17355 14476 13579 17213 12930 13307 12145 19249 10362 17811 10734 14509 12605 18936 18294 12542 17601 16835 19177 18650 15793 14028 11845 14136 16998 10901 13631 13232 13445 10568 15513 16760 14554 11969 14310 12109 16071 13933 999999
999999 999999 0 999999 999999 999999 999999 999999 999999 999999 999999 999999 999999 999999 999999 999999 999999 999999 999999 999999 999999 999999 999999 999999 999999 999999 999999 999999 999999 999999 999999 999999 999999 999999 999999 999999 999999 999999 999999 999999 999999 999999 999999 999999 999999 999999 999999 999999 999999 999999 999999 999999 999999 999999 999999 999999 999999 999999 999999 999999 999999 999999 999999 999999 999999 999999 999999 999999 999999 999999 999999 18645 13947 17910 18691 13164 12944 17004 12619 15209 12241 11585 11325 18837 15660 11342 12676 18904 10173 18451 17379 18955 14112 18982 18539 11934 16392 17154 16479 13898 13617 17278 18929 19278 15417 17890 12041 11242 15629 14788 14777 19250 18978 14681 17394 11387 15777 15746 14532 19852 10951 999999
999999 999999 999999 0 999999 999999 999999 999999 999999 999999 999999 999999 999999 999999 999999 999999 999999 999999 999999 999999 999999 999999 999999 999999 999999 999999 999999 999999 999999 999999 999999 999999 999999 999999 999999 999999 999999 999999 999999 999999 999999 999999 999999 999999 999999 999999 999999 999999 999999 999999 999999 999999 999999 999999 999999 999999 999999 999999 999999 999999 999999 999999 999999 999999 999999 999999 999999 999999 999999 999999 999999 16712 11704 15708 17539 18226 19004 14199 18710 10849 11211 13092 11652 19061 17806 10744 12566 11786 19175 12474 11395 17510 17331 13444 19662 16998 15138 16115 15006 10522 16477 10061 10507 15142 11664 12347 19998 18857 19541 18515 16417 16889 16234 18720 18315 19845 12614 18759 19646 19733 11699 999999
999999 999999 999999 999999 0 999999 999999 999999 999999 999999 999999 999999 999999 999999 999999 999999 999999 999999 999999 999999 999999 999999 999999 999999 999999 999999 999999 999999 999999 999999 999999 999999 999999 999999 999999 999999 999999 999999 999999 999999 999999 999999 999999 999999 999999 999999 999999 999999 999999 999999 999999 999999 999999 999999 999999 999999 999999 999999 999999 999999 999999 999999 999999 999999 999999 999999 999999 999999 999999 999999 999999 11558 16939 19232 11794 19868 13424 19687 19729 18284 17070 14251 12969 14868 16522 12837 11816 17890 14221 16681 17329 12553 10498 17183 17749 18559 16599 17945 14998 14348 11956 18942 16244 15205 15365 16805 17612 19023 10955 11299 18843 13773 14579 15554 16618 16496 16801 19117 15453 11449 18642 999999
999999 999999 999999 999999 999999 0 999999 999999 999999 999999 999999 999999 999999 999999 999999 999999 999999 999999 999999 999999 999999 999999 999999 999999 999999 999999 999999 999999 999999 999999 999999 999999 999999 999999 999999 999999 999999 999999 999999 999999 999999 999999 999999 999999 999999 999999 999999 999999 999999 999999 999999 999999 999999 999999 999999 999999 999999 999999 999999 999999 999999 999999 999999 999999 999999 999999 999999 999999 999999 999999 999999 19687 14179 14582 12228 13717 11600 10181 11809 18880 19795 16899 18761 18065 13970 19273 17318 18695 10450 18780 17144 17330 12829 13327 18955 19005 10320 19096 17510 16205 19143 17259 10040 18111 16317 18906 14679 19669 17223 10877 10683 18848 10812 16545 15677 15517 19321 17899 11834 10441 13907 999999
999999 999999 999999 999999 999999 999999 0 999999 999999 999999 999999 999999 999999 999999 999999 999999 999999 999999 999999 999999 999999 999999 999999 999999 999999 999999 999999 999999 999999 999999 999999 999999 999999 999999 999999 999999 999999 999999 999999 999999 999999 999999 999999 999999 999999 999999 999999 999999 999999 999999 999999 999999 999999 999999 999999 999999 999999 999999 999999 999999 999999 999999 999999 999999 999999 999999 999999 999999 999999 999999 999999 15974 19520 12305 16175 10761 14377 15306 14172 12040 15041 17274 16747 12212 16406 12924 11805 15940 14014 18071 10839 11668 12189 15307 11731 11738 13474 18078 10963 15562 10122 18702 18526 10831 14346 19442 12269 17955 19581 11835 15238 10694 12994 11628 14097 17816 15651 11270 17877 17490 12999 999999
999999 999999 999999 999999 999999 999999 999999 0 999999 999999 999999 999999 999999 999999 999999 999999 999999 999999 999999 999999 999999 999999 999999 999999 999999 999999 999999 999999 999999 999999 999999 999999 999999 999999 999999 999999 999999 999999 999999 999999 999999 999999 999999 999999 999999 999999 999999 999999 999999 999999 999999 999999 999999 999999 999999 999999 999999 999999 999999 999999 999999 999999 999999 999999 999999 999999 999999 999999 999999 999999 999999 11751 11032 11442 13777 15266 14172 15356 16196 15791 11604 17533 19821 19937 11219 11613 14652 14351 12049 17977 17313 10870 18767 17594 11200 12694 10730 14252 14517 17458 15330 18485 13636 14824 15048 12953 10994 12522 10291 11044 12704 16435 19052 12572 11698 15873 18562 18365 11738 19322 14989 999999
999999 999999 999999 999999 999999 999999 999999 999999 0 999999 999999 999999 999999 999999 999999 999999 999999 999999 999999 999999 999999 999999 999999 999999 999999 999999 999999 999999 999999 999999 999999 999999 999999 999999 999999 999999 999999 999999 999999 999999 999999 999999 999999 999999 999999 999999 999999 999999 999999 999999 999999 999999 999999 999999 999999 999999 999999 999999 999999 999999 999999 999999 999999 999999 999999 999999 999999 999999 999999 999999 999999 12975 14305 15118 19177 14788 15915 11208 16474 14004 19808 10690 15703 14445 12693 15816 13673 11069 16868 13389 11078 17968 19336 15380 18636 17548 14869 11861 11319 11687 11432 12903 17573 16565 13834 10405 18345 13836 17033 16625 18386 13552 15559 10748 17585 18580 12549 11082 10669 12675 12643 999999
999999 999999 999999 999999 999999 999999 999999 999999 999999 0 999999 999999 999999 999999 999999 999999 999999 999999 999999 999999 999999 999999 999999 999999 999999 999999 999999 999999 999999 999999 999999 999999 999999 999999 999999 999999 999999 999999 999999 999999 999999 999999 999999 999999 999999 999999 999999 999999 999999 999999 999999 999999 999999 999999 999999 999999 999999 999999 999999 999999 999999 999999 999999 999999 999999 999999 999999 999999 999999 999999 999999 10462 11546 18184 16204 11323 18960 18961 14806 17900 15580 10662 17053 16102 11516 16943 18065 11462 10877 17666 12074 11907 11401 11323 12173 18391 17137 10373 19003 12591 10391 15579 11618 17933 14376 17673 16177 15084 14058 15120 15028 18420 13694 18752 18273 13017 11795 10021 14995 19693 13640 999999
999999 999999 999999 999999 999999 999999 999999 999999 999999 999999 0 999999 999999 999999 999999 999999 999999 999999 999999 999999 999999 999999 999999 999999 999999 999999 999999 999999 999999 999999 999999 999999 999999 999999 999999 999999 999999 999999 999999 999999 999999 999999 999999 999999 999999 999999 999999 999999 999999 999999 999999 999999 999999 999999 999999 999999 999999 999999 999999 999999 999999 999999 999999 999999 999999 999999 999999 999999 999999 999999 999999 10285 16906 14588 14814 10069 13218 14204 19008 15774 11317 14515 14743 13491 17605 18258 14597 11777 11704 17800 11925 16631 17078 14522 13406 14014 13644 18615 18337 19830 11163 16238 11046 14202 14524 17705 12830 10404 10200 14163 17361 16126 16298 19700 16148 14417 11750 17585 18939 17906 12698 999999
999999 999999 999999 999999 999999 999999 999999 999999 999999 999999 999999 0 999999 999999 999999 999999 999999 999999 999999 999999 999999 999999 999999 999999 999999 999999 999999 999999 999999 999999 999999 999999 999999 999999 999999 999999 999999 999999 999999 999999 999999 999999 999999 999999 999999 999999 999999 999999 999999 999999 999999 999999 999999 999999 999999 999999 999999 999999 999999 999999 999999 999999 999999 999999 999999 999999 999999 999999 999999 999999 999999 16781 10519 10776 12886 15251 10680 16296 10763 13323 12454 11189 18314 16366 16466 17915 11644 10259 15215 19315 15753 16033 14108 14828 17145 19506 16897 14330 15012 15869 11571 16367 19493 18517 14318 14216 14356 12619 17964 19323 18697 17236 15764 10055 16611 19151 12018 13499 17173 10088 13191 999999
999999 999999 999999 999999 999999 999999 999999 999999 999999 999999 999999 999999 0 999999 999999 999999 999999 999999 999999 999999 999999 999999 999999 999999 999999 999999 999999 999999 999999 999999 999999 999999 999999 999999 999999 999999 999999 999999 999999 999999 999999 999999 999999 999999 999999 999999 999999 999999 999999 999999 999999 999999 999999 999999 999999 999999 999999 999999 999999 999999 999999 999999 999999 999999 999999 999999 999999 999999 999999 999999 999999 12394 10889 15620 19807 15953 18499 19583 11547 11593 18571 19496 11069 19070 16279 15385 17658 17182 15012 16807 19496 14400 15433 11424 13719 16708 14425 16164 17750 18033 17731 13352 18412 17762 18423 14507 12772 14060 13319 12540 19592 17257 18477 15678 12091 15845 11254 18116 19718 13123 14666 999999
999999 999999 999999 999999 999999 999999 999999 999999 999999 999999 999999 999999 999999 0 999999 999999 999999 999999 999999 999999 999999 999999 999999 999999 999999 999999 999999 999999 999999 999999 999999 999999 999999 999999 999999 999999 999999 999999 999999 999999 999999 999999 999999 999999 999999 999999 999999 999999 999999 999999 999999 999999 999999 999999 999999 999999 999999 999999 999999 999999 999999 999999 999999 999999 999999 999999 999999 999999 999999 999999 999999 14698 17407 16027 15306 17077 18544 19463 15131 13584 16154 17438 10741 19239 17938 19431 10289 15559 18370 13896 15207 17328 11349 19271 16478 12302 13119 13163 14709 19904 10337 19604 10066 11735 15764 11185 16672 14894 10739 11422 19481 10694 14910 18033 18703 13029 13570 16554 16955 13546 16004 999999
999999 999999 999999 999999 999999 999999 999999 999999 999999 999999 999999 999999 999999 999999 0 999999 999999 999999 999999 999999 999999 999999 999999 999999 999999 999999 999999 999999 999999 999999 999999 999999 999999 999999 999999 999999 999999 999999 999999 999999 999999 999999 999999 999999 999999 999999 999999 999999 999999 999999 999999 999999 999999 999999 999999 999999 999999 999999 999999 999999 999999 999999 999999 999999 999999 999999 999999 999999 999999 999999 999999 15955 10343 11383 17635 11096 19927 13214 11663 15407 10483 19245 16386 12081 19652 16702 16415 10656 15662 17470 15743 10215 13017 17243 18713 10163 10925 18452 12770 15550 15958 13580 17152 17525 12175 12250 12485 13508 11823 11831 10154 14374 18452 13346 13708 13644 15144 17382 15703 14221 18678 999999
999999 999999 999999 999999 999999 999999 999999 999999 999999 999999 999999 999999 999999 999999 999999 0 999999 999999 999999 999999 999999 999999 999999 999999 999999 999999 999999 999999 999999 999999 999999 999999 999999 999999 999999 999999 999999 999999 999999 999999 999999 999999 999999 999999 999999 999999 999999 999999 999999 999999 999999 999999 999999 999999 999999 999999 999999 999999 999999 999999 999999 999999 999999 999999 999999 999999 999999 999999 999999 999999 999999 15962 14246 13810 14764 17945 17119 19494 13033 15491 12190 18095 14048 19876 11628 14320 15490 14666 12431 14352 19449 11402 19737 17568 10895 18476 17706 16161 14101 12937 12247 13919 16229 19823 12180 10823 14753 11935 12435 15246 12719 14494 10741 12355 18247 10622 13534 14918 17406 10608 18609 999999
999999 999999 999999 999999 999999 999999 999999 999999 999999 999999 999999 999999 999999 999999 999999 999999 0 999999 999999 999999 999999 999999 999999 999999 999999 999999 999999 999999 999999 999999 999999 999999 999999 999999 999999 999999 999999 999999 999999 999999 999999 999999 999999 999999 999999 999999 999999 999999 999999 999999 999999 999999 999999 999999 999999 999999 999999 999999 999999 999999 999999 999999 999999 999999 999999 999999 999999 999999 999999 999999 999999 12496 18888 16753 17748 15485 19321 11241 15906 14224 12198 13266 17820 19069 19341 17983 18970 18753 16569 10132 17561 18930 18793 10445 11831 12067 10213 15978 11270 13163 14056 10984 12424 14459 12831 10542 18324 12460 10973 12511 17188 13208 11170 18610 14388 11027 15068 11438 14344 16540 19573 999999
999999 999999 999999 999999 999999 999999 999999 999999 999999 999999 999999 999999 999999 999999 999999 999999 999999 0 999999 999999 999999 999999 999999 999999 999999 999999 999999 999999 999999 999999 999999 999999 999999 999999 999999 999999 999999 999999 999999 999999 999999 999999 999999 999999 999999 999999 999999 999999 999999 999999 999999 999999 999999 999999 999999 999999 999999 999999 999999 999999 999999 999999 999999 999999 999999 999999 999999 999999 999999 999999 999999 16425 14492 14175 16640 11686 17635 13755 19731 11730 12971 11499 19112 10369 14700 15525 16156 17072 11587 14809 18152 10526 19553 14337 17042 11396 10115 16578 10726 10160 11264 11360 12998 10169 12330 10656 10270 15890 15844 19424 14380 13206 12623 17195 18285 12553 16755 14527 17227 14033 13786 999999
999999 999999 999999 999999 999999 999999 999999 999999 999999 999999 999999 999999 999999 999999 999999 999999 999999 999999 0 999999 999999 999999 999999 999999 999999 999999 999999 999999 999999 999999 999999 999999 999999 999999 999999 999999 999999 999999 999999 999999 999999 999999 999999 999999 999999 999999 999999 999999 999999 999999 999999 999999 999999 999999 999999 999999 999999 999999 999999 999999 999999 999999 999999 999999 999999 999999 999999 999999 999999 999999 999999 15033 16259 18097 10438 11901 10416 19403 10319 10996 10649 16698 14811 19551 19257 16189 16602 17864 19900 10069 17001 19535 16577 11128 13268 19421 18194 14657 16805 18338 11926 15877 14942 11338 15189 15335 16233 14162 11914 18488 13275 10442 11403 12706 10309 18782 15255 11147 11626 18030 10093 999999
999999 999999 999999 999999 999999 999999 999999 999999 999999 999999 999999 999999 999999 999999 999999 999999 999999 999999 999999 0 999999 999999 999999 999999 999999 999999 999999 999999 999999 999999 999999 999999 999999 999999 999999 999999 999999 999999 999999 999999 999999 999999 999999 999999 999999 999999 999999 999999 999999 999999 999999 999999 999999 999999 999999 999999 999999 999999 999999 999999 999999 999999 999999 999999 999999 999999 999999 999999 999999 999999 999999 13403 10633 10456 12279 18728 17852 17631 14754 10124 17698 12007 12118 14304 15480 18157 13635 11866 12742 18021 12598 18918 11646 10262 17211 10956 11248 17670 12482 18504 19993 14065 18256 18435 14492 16370 10904 18715 18101 16265 16313 16096 14893 13221 17462 18069 14604 10009 19972 19591 12402 999999
999999 999999 999999 999999 999999 999999 999999 999999 999999 999999 999999 999999 999999 999999 999999 999999 999999 999999 999999 999999 0 999999 999999 999999 999999 999999 999999 999999 999999 999999 999999 999999 999999 999999 999999 999999 999999 999999 999999 999999 999999 999999 999999 999999 999999 999999 999999 999999 999999 999999 999999 999999 999999 999999 999999 999999 999999 999999 999999 999999 999999 999999 999999 999999 999999 999999 999999 999999 999999 999999 999999 19833 12659 19288 19877 13874 13328 10272 19855 16686 10602 17604 19515 17668 11670 10885 15130 17087 18360 10033 17263 11406 16604 10330 15752 18936 16528 13721 18899 10860 13196 17404 11666 19014 17784 19108 13358 11310 17900 19897 19186 16559 16212 12447 10593 13761 19496 18940 12599 11885 16018 999999
999999 999999 999999 999999 999999 999999 999999 999999 999999 999999 999999 999999 999999 999999 999999 999999 999999 999999 999999 999999 999999 0 999999 999999 999999 999999 999999 999999 999999 999999 999999 999999 999999 999999 999999 999999 999999 999999 999999 999999 999999 999999 999999 999999 999999 999999 999999 999999 999999 999999 999999 999999 999999 999999 999999 999999 999999 999999 999999 999999 999999 999999 999999 999999 999999 999999 999999 999999 999999 999999 999999 17586 12943 19840 18544 15132 16606 14188 17172 13018 18456 12734 10852 10132 11596 18277 13694 15572 18687 13448 11771 19996 19419 14815 13995 10104 11791 11958 18670 12322 17529 14368 14029 16190 16494 12699 14361 19074 16646 10665 14972 19251 16340 11274 18703 16896 14554 18774 17160 12445 14221 999999
999999 999999 999999 999999 999999 999999 999999 999999 999999 999999 999999 999999 999999 999999 999999 999999 999999 999999 999999 999999 999999 999999 0 999999 999999 999999 999999 999999 999999 999999 999999 999999 999999 999999 999999 999999 999999 999999 999999 999999 999999 999999 999999 999999 999999 999999 999999 999999 999999 999999 999999 999999 999999 999999 999999 999999 999999 999999 999999 999999 999999 999999 999999 999999 999999 999999 999999 999999 999999 999999 999999 19334 15865 15597 15935 15492 14657 17533 10959 14904 18658 19166 18118 10043 15873 11017 14035 10776 16192 17007 13689 17827 14939 14513 16429 16689 10891 11655 13691 17083 17524 18669 19087 16491 14554 10197 12454 19349 13437 15503 15699 13061 12431 17849 13022 17459 11099 16258 16082 16423 17022 999999
999999 999999 999999 999999 999999 999999 999999 999999 999999 999999 999999 999999 999999 999999 999999 999999 999999 999999 999999 999999 999999 999999 999999 0 999999 999999 999999 999999 999999 999999 999999 999999 999999 999999 999999 999999 999999 999999 999999 999999 999999 999999 999999 999999 999999 999999 999999 999999 999999 999999 999999 999999 999999 999999 999999 999999 999999 999999 999999 999999 999999 999999 999999 999999 999999 999999 999999 999999 999999 999999 999999 11843 10956 13396 18203 18530 18517 15429 11375 12773 15525 13970 16991 11297 15450 19544 11371 12982 11043 14105 10093 13635 10916 10476 19807 12133 11426 19537 17254 15633 17663 19339 13234 17627 13769 16670 12759 12970 16656 13245 19012 18109 12042 18172 10272 11508 12159 15105 16898 19687 16134 999999
999999 999999 999999 999999 999999 999999 999999 999999 999999 999999 999999 999999 999999 999999 999999 999999 999999 999999 999999 999999 999999 999999 999999 999999 0 999999 999999 999999 999999 999999 999999 999999 999999 999999 999999 999999 999999 999999 999999 999999 999999 999999 999999 999999 999999 999999 999999 999999 999999 999999 999999 999999 999999 999999 999999 999999 999999 999999 999999 999999 999999 999999 999999 999999 999999 999999 999999 999999 999999 999999 999999 13808 15367 11154 16970 16931 17865 16630 16129 13290 12842 11700 19514 18660 13134 10641 11380 12766 12309 15113 17781 16495 17281 16943 16562 17305 13011 16032 12592 17028 15586 10518 17554 16738 17635 15037 17349 17674 16352 17274 14135 10678 11927 13736 14481 19255 18707 13069 14915 14019 13233 999999
999999 999999 999999 999999 999999 999999 999999 999999 999999 999999 999999 999999 999999 999999 999999 999999 999999 999999 999999 999999 999999 999999 999999 999999 999999 0 999999 999999 999999 999999 999999 999999 999999 999999 999999 999999 999999 999999 999999 999999 999999 999999 999999 999999 999999 999999 999999 999999 999999 999999 999999 999999 999999 999999 999999 999999 999999 999999 999999 999999 999999 999999 999999 999999 999999 999999 999999 999999 999999 999999 999999 14938 17117 10123 11596 15808 15971 19054 19735 14524 18625 14679 17181 11834 12666 19589 12367 19510 18037 19422 11026 18308 18299 19591 14894 11233 11997 14102 19593 19656 10347 13111 18085 15130 15498 10529 13491 11584 14243 16623 15231 13788 18586 15563 19810 11489 17770 17356 14712 11947 12890 999999
999999 999999 999999 999999 999999 999999 999999 999999 999999 999999 999999 999999 999999 999999 999999 999999 999999 999999 999999 999999 999999 999999 999999 999999 999999 999999 0 999999 999999 999999 999999 999999 999999 999999 999999 999999 999999 999999 999999 999999 999999 999999 999999 999999 999999 999999 999999 999999 999999 999999 999999 999999 999999 999999 999999 999999 999999 999999 999999 999999 999999 999999 999999 999999 999999 999999 999999 999999 999999 999999 999999 10495 11856 15684 17709 17772 18409 15235 12927 19791 17988 18205 15418 16961 16513 17107 14635 15062 15512 16840 12448 11990 15457 16435 12640 17517 19404 10104 19044 13888 12127 15285 14810 16071 16718 15462 13092 13127 16225 18917 19070 17700 10110 15355 16159 18718 19603 15849 10248 10184 15049 999999
999999 999999 999999 999999 999999 999999 999999 999999 999999 999999 999999 999999 999999 999999 999999 999999 999999 999999 999999 999999 999999 999999 999999 999999 999999 999999 999999 0 999999 999999 999999 999999 999999 999999 999999 999999 999999 999999 999999 999999 999999 999999 999999 999999 999999 999999 999999 999999 999999 999999 999999 999999 999999 999999 999999 999999 999999 999999 999999 999999 999999 999999 999999 999999 999999 999999 999999 999999 999999 999999 999999 10239 10757 18689 14690 18003 12164 16590 11294 17677 14612 11089 12359 14367 13962 18474 14567 13391 10918 12015 14939 13055 15163 12333 12266 19027 15388 16820 18001 18352 16395 19737 17303 15260 17649 11147 16733 15435 18705 19860 11746 15914 14833 12300 16771 13843 10541 19340 19285 15218 13030 999999
999999 999999 999999 999999 999999 999999 999999 999999 999999 999999 999999 999999 999999 999999 999999 999999 999999 999999 999999 999999 999999 999999 999999 999999 999999 999999 999999 999999 0 999999 999999 999999 999999 999999 999999 999999 999999 999999 999999 999999 999999 999999 999999 999999 999999 999999 999999 999999 999999 999999 999999 999999 999999 999999 999999 999999 999999 999999 999999 999999 999999 999999 999999 999999 999999 999999 999999 999999 999999 999999 999999 14303 15073 18505 12502 12364 13539 17469 11937 19361 14078 16168 12011 11478 15448 19636 11538 16993 13266 17142 16121 10501 18024 17511 10606 16274 16592 12799 14957 15835 13249 13523 14530 17043 14356 12270 16278 13904 16196 11445 10395 10283 17385 13317 16500 15054 10723 14971 15334 13020 19933 999999
999999 999999 999999 999999 999999 999999 999999 999999 999999 999999 999999 999999 999999 999999 999999 999999 999999 999999 999999 999999 999999 999999 999999 999999 999999 999999 999999 999999 999999 0 999999 999999 999999 999999 999999 999999 999999 999999 999999 999999 999999 999999 999999 999999 999999 999999 999999 999999 999999 999999 999999 999999 999999 999999 999999 999999 999999 999999 999999 999999 999999 999999 999999 999999 999999 999999 999999 999999 999999 999999 999999 18501 15286 10717 19915 17342 14767 11182 15351 19915 18433 18427 16881 17956 19357 17285 11047 13330 19922 12210 16063 14987 12317 16430 15725 12421 14001 14644 18730 19834 15631 13818 16075 19647 12670 16090 11215 14917 15559 14837 18953 15950 13169 12276 14990 14776 15123 18957 13130 14911 12532 999999
999999 999999 999999 999999 999999 999999 999999 999999 999999 999999 999999 999999 999999 999999 999999 999999 999999 999999 999999 999999 999999 999999 999999 999999 999999 999999 999999 999999 999999 999999 0 999999 999999 999999 999999 999999 999999 999999 999999 999999 999999 999999 999999 999999 999999 999999 999999 999999 999999 999999 999999 999999 999999 999999 999999 999999 999999 999999 999999 999999 999999 999999 999999 999999 999999 999999 999999 999999 999999 999999 999999 18074 17687 19649 16541 10767 12217 10461 10193 14357 12835 16366 14309 12281 13003 17189 11960 16647 15157 14193 15871 19284 14739 17448 17931 13500 17491 18125 15557 11056 19378 13958 19975 17031 11904 16056 16433 15831 10050 10389 12051 15880 16016 10202 11541 10800 15398 16211 19324 13780 19044 999999
999999 999999 999999 999999 999999 999999 999999 999999 999999 999999 999999 999999 999999 999999 999999 999999 999999 999999 999999 999999 999999 999999 999999 999999 999999 999999 999999 999999 999999 999999 999999 0 999999 999999 999999 999999 999999 999999 999999 999999 999999 999999 999999 999999 999999 999999 999999 999999 999999 999999 999999 999999 999999 999999 999999 999999 999999 999999 999999 999999 999999 999999 999999 999999 999999 999999 999999 999999 999999 999999 999999 18720 19030 17480 17406 11810 10339 16427 11583 12225 17341 18051 16724 16381 12011 10045 19284 13566 19821 16390 16746 14576 15652 16075 10391 19140 14730 14478 15390 16310 19008 17880 14758 10891 16117 12134 19002 15649 10741 14659 19615 13709 13801 10048 13546 18803 16998 16067 18718 16095 16090 999999
999999 999999 999999 999999 999999 999999 999999 999999 999999 999999 999999 999999 999999 999999 999999 999999 999999 999999 999999 999999 999999 999999 999999 999999 999999 999999 999999 999999 999999 999999 999999 999999 0 999999 999999 999999 999999 999999 999999 999999 999999 999999 999999 999999 999999 999999 999999 999999 999999 999999 999999 999999 999999 999999 999999 999999 999999 999999 999999 999999 999999 999999 999999 999999 999999 999999 999999 999999 999999 999999 999999 16293 14675 17645 19847 16976 14697 10493 10476 10838 18329 10454 18487 19518 11372 11670 14497 18954 12489 18524 18058 16946 10413 16026 16557 11644 14006 18889 18148 17218 13063 12001 18165 10075 17458 16626 11068 15623 15531 18449 14600 11729 15405 19563 19035 15913 10318 11662 15417 14251 13074 999999
999999 999999 999999 999999 999999 999999 999999 999999 999999 999999 999999 999999 999999 999999 999999 999999 999999 999999 999999 999999 999999 999999 999999 999999 999999 999999 999999 999999 999999 999999 999999 999999 999999 0 999999 999999 999999 999999 999999 999999 999999 999999 999999 999999 999999 999999 999999 999999 999999 999999 999999 999999 999999 999999 999999 999999 999999 999999 999999 999999 999999 999999 999999 999999 999999 999999 999999 999999 999999 999999 999999 17671 10316 15689 19592 11915 19714 17018 19564 15327 18827 10666 13937 15488 19199 16201 15406 12359 14977 16330 11003 14257 10797 18638 17312 16162 13097 15949 10942 10166 14285 13490 17066 19418 11837 12946 14704 11064 15352 11703 10450 16648 11934 11084 12283 12028 16223 11419 16397 19496 15764 999999
999999 999999 999999 999999 999999 999999 999999 999999 999999 999999 999999 999999 999999 999999 999999 999999 999999 999999 999999 999999 999999 999999 999999 999999 999999 999999 999999 999999 999999 999999 999999 999999 999999 999999 0 999999 999999 999999 999999 999999 999999 999999 999999 999999 999999 999999 999999 999999 999999 999999 999999 999999 999999 999999 999999 999999 999999 999999 999999 999999 999999 999999 999999 999999 999999 999999 999999 999999 999999 999999 999999 19131 12681 16278 15039 11622 10333 14428 19397 18884 14174 16237 19076 14815 10645 16717 10256 18275 19063 18770 15264 19951 15839 13708 11914 17182 11170 17971 19720 12716 14000 18281 13093 18896 19609 12169 12820 19386 17099 16549 18906 14512 13607 18892 12271 16786 13229 12184 11879 15179 14531 999999
999999 999999 999999 999999 999999 999999 999999 999999 999999 999999 999999 999999 999999 999999 999999 999999 999999 999999 999999 999999 999999 999999 999999 999999 999999 999999 999999 999999 999999 999999 999999 999999 999999 999999 999999 0 999999 999999 999999 999999 999999 999999 999999 999999 999999 999999 999999 999999 999999 999999 999999 999999 999999 999999 999999 999999 999999 999999 999999 999999 999999 999999 999999 999999 999999 999999 999999 999999 999999 999999 999999 16655 16653 18842 16411 11337 15745 17098 12954 11251 14638 11703 11590 12209 19948 19829 13386 19528 14846 14421 12787 14151 15814 19536 17104 10074 15711 14184 11161 18657 10779 15301 12543 11250 12008 13509 15429 13235 19449 11083 10937 16186 16937 19249 13851 11515 11406 13752 18200 17167 19042 999999
999999 999999 999999 999999 999999 999999 999999 999999 999999 999999 999999 999999 999999 999999 999999 999999 999999 999999 999999 999999 999999 999999 999999 999999 999999 999999 999999 999999 999999 999999 999999 999999 999999 999999 999999 999999 0 999999 999999 999999 999999 999999 999999 999999 999999 999999 999999 999999 999999 999999 999999 999999 999999 999999 999999 999999 999999 999999 999999 999999 999999 999999 999999 999999 999999 999999 999999 999999 999999 999999 999999 14756 19866 18962 18074 19821 19349 13494 10113 16551 10692 18429 19282 12534 16888 18512 17957 15994 10467 13497 15954 18841 16912 18976 10080 18119 15884 18870 15157 13964 17781 10765 12819 12884 16930 18566 12886 14452 18918 14501 16841 13184 10384 11683 17833 12136 12433 10373 15242 18302 16921 999999
999999 999999 999999 999999 999999 999999 999999 999999 999999 999999 999999 999999 999999 999999 999999 999999 999999 999999 999999 999999 999999 999999 999999 999999 999999 999999 999999 999999 999999 999999 999999 999999 999999 999999 999999 999999 999999 0 999999 999999 999999 999999 999999 999999 999999 999999 999999 999999 999999 999999 999999 999999 999999 999999 999999 999999 999999 999999 999999 999999 999999 999999 999999 999999 999999 999999 999999 999999 999999 999999 999999 12796 16250 19712 19011 17301 12340 18216 15395 19085 10339 15213 19620 19589 15363 19268 13826 11713 19199 18259 12314 14317 12616 19347 17339 17775 18546 14513 16580 12680 10970 17393 19146 14264 16026 16348 10383 10940 10014 17723 12355 10636 14382 11391 18450 16908 19784 17113 10508 19230 17083 999999
999999 999999 999999 999999 999999 999999 999999 999999 999999 999999 999999 999999 999999 999999 999999 999999 999999 999999 999999 999999 999999 999999 999999 999999 999999 999999 999999 999999 999999 999999 999999 999999 999999 999999 999999 999999 999999 999999 0 999999 999999 999999 999999 999999 999999 999999 999999 999999 999999 999999 999999 999999 999999 999999 999999 999999 999999 999999 999999 999999 999999 999999 999999 999999 999999 999999 999999 999999 999999 999999 999999 14094 14134 19642 16976 18979 18377 17083 15403 17334 10498 15952 14090 13389 18065 10486 16123 16804 11911 12403 16975 18340 15078 10391 11560 14814 18336 11981 16397 13195 17769 14992 13458 11446 16537 15112 19021 10102 17774 15088 12372 18372 10304 12030 12792 12730 12977 19549 14747 17653 19869 999999
999999 999999 999999 999999 999999 999999 999999 999999 999999 999999 999999 999999 999999 999999 999999 999999 999999 999999 999999 999999 999999 999999 999999 999999 999999 999999 999999 999999 999999 999999 999999 999999 999999 999999 999999 999999 999999 999999 999999 0 999999 999999 999999 999999 999999 999999 999999 999999 999999 999999 999999 999999 999999 999999 999999 999999 999999 999999 999999 999999 999999 999999 999999 999999 999999 999999 999999 999999 999999 999999 999999 18228 13835 11768 13039 15158 11552 10948 14867 16813 16326 16616 19888 16498 19977 17860 17127 11020 16185 12050 14454 18344 12106 19290 18965 19503 14214 18094 14193 16123 13042 18192 19712 14189 15913 10406 15635 15130 14897 12632 14574 12668 17341 13700 18314 16503 10198 14677 19715 11335 17616 999999
999999 999999 999999 999999 999999 999999 999999 999999 999999 999999 999999 999999 999999 999999 999999 999999 999999 999999 999999 999999 999999 999999 999999 999999 999999 999999 999999 999999 999999 999999 999999 999999 999999 999999 999999 999999 999999 999999 999999 999999 0 999999 999999 999999 999999 999999 999999 999999 999999 999999 999999 999999 999999 999999 999999 999999 999999 999999 999999 999999 999999 999999 999999 999999 999999 999999 999999 999999 999999 999999 999999 18687 10105 16379 11553 11595 16549 12631 14974 17324 11178 12997 15497 10063 14760 19959 15273 14040 18558 18211 16546 16848 18963 17147 14512 19468 17692 12171 16192 14976 11771 16056 17257 18344 15188 11222 11581 17993 13498 10578 16642 13792 17429 13919 15759 17907 13340 13870 10784 16261 18679 999999
999999 999999 999999 999999 999999 999999 999999 999999 999999 999999 999999 999999 999999 999999 999999 999999 999999 999999 999999 999999 999999 999999 999999 999999 999999 999999 999999 999999 999999 999999 999999 999999 999999 999999 999999 999999 999999 999999 999999 999999 999999 0 999999 999999 999999 999999 999999 999999 999999 999999 999999 999999 999999 999999 999999 999999 999999 999999 999999 999999 999999 999999 999999 999999 999999 999999 999999 999999 999999 999999 999999 19024 19701 13127 14809 19657 13843 12817 16179 18317 12335 18473 15528 11682 11533 19924 14416 13234 15287 18544 12337 18566 15272 15058 19701 13712 17874 14855 18079 19026 19764 10790 11608 19600 10671 11988 12054 17202 11200 18554 11454 16245 18312 10352 13614 12312 14969 18744 14961 15576 12317 999999
999999 999999 999999 999999 999999 999999 999999 999999 999999 999999 999999 999999 999999 999999 999999 999999 999999 999999 999999 999999 999999 999999 999999 999999 999999 999999 999999 999999 999999 999999 999999 999999 999999 999999 999999 999999 999999 999999 999999 999999 999999 999999 0 999999 999999 999999 999999 999999 999999 999999 999999 999999 999999 999999 999999 999999 999999 999999 999999 999999 999999 999999 999999 999999 999999 999999 999999 999999 999999 999999 999999 13824 13857 17743 10186 11954 14415 16947 18392 12175 19767 12682 18177 12339 19460 18602 13546 18826 16318 11032 18999 14038 12996 16481 19858 17040 13676 16073 10677 18724 12681 11973 16635 11706 13836 19607 10177 10906 16540 10424 13912 13598 12245 15580 15636 16396 13834 14700 14770 18577 17550 999999
999999 999999 999999 999999 999999 999999 999999 999999 999999 999999 999999 999999 999999 999999 999999 999999 999999 999999 999999 999999 999999 999999 999999 999999 999999 999999 999999 999999 999999 999999 999999 999999 999999 999999 999999 999999 999999 999999 999999 999999 999999 999999 999999 0 999999 999999 999999 999999 999999 999999 999999 999999 999999 999999 999999 999999 999999 999999 999999 999999 999999 999999 999999 999999 999999 999999 999999 999999 999999 999999 999999 15546 13143 15792 18973 19677 16195 15970 13506 15374 12876 10840 15945 14161 18065 10639 15824 12149 18431 11204 18298 18020 13970 19937 17444 13372 12158 17850 10095 19933 16007 13624 11051 12224 17487 12314 19766 17352 16452 17399 16919 14377 15784 19023 10058 12455 18405 19250 19945 12596 16500 999999
999999 999999 999999 999999 999999 999999 999999 999999 999999 999999 999999 999999 999999 999999 999999 999999 999999 999999 999999 999999 999999 999999 999999 999999 999999 999999 999999 999999 999999 999999 999999 999999 999999 999999 999999 999999 999999 999999 999999 999999 999999 999999 999999 999999 0 999999 999999 999999 999999 999999 999999 999999 999999 999999 999999 999999 999999 999999 999999 999999 999999 999999 999999 999999 999999 999999 999999 999999 999999 999999 999999 14808 13597 13170 14727 15927 14639 12210 18418 12096 18078 11157 17188 13649 15072 19222 15071 16625 11563 15414 19462 15020 18462 19791 11892 19301 18072 17454 16755 10384 16224 12215 14422 13111 10356 12449 19051 13309 16348 17500 16872 11965 10550 15339 19079 11232 17256 13448 12890 19280 18044 999999
999999 999999 999999 999999 999999 999999 999999 999999 999999 999999 999999 999999 999999 999999 999999 999999 999999 999999 999999 999999 999999 999999 999999 999999 999999 999999 999999 999999 999999 999999 999999 999999 999999 999999 999999 999999 999999 999999 999999 999999 999999 999999 999999 999999 999999 0 999999 999999 999999 999999 999999 999999 999999 999999 999999 999999 999999 999999 999999 999999 999999 999999 999999 999999 999999 999999 999999 999999 999999 999999 999999 16633 10555 15939 11458 11443 13331 14321 10543 13626 12158 17841 15681 10499 17039 16135 15896 12016 14698 10925 13247 17669 15245 10398 16308 15387 18598 13737 15729 18449 15421 18495 17157 19001 15491 16510 14984 16801 16585 17360 17170 10011 14770 18043 19175 18965 10974 10448 14100 14518 16255 999999
999999 999999 999999 999999 999999 999999 999999 999999 999999 999999 999999 999999 999999 999999 999999 999999 999999 999999 999999 999999 999999 999999 999999 999999 999999 999999 999999 999999 999999 999999 999999 999999 999999 999999 999999 999999 999999 999999 999999 999999 999999 999999 999999 999999 999999 999999 0 999999 999999 999999 999999 999999 999999 999999 999999 999999 999999 999999 999999 999999 999999 999999 999999 999999 999999 999999 999999 999999 999999 999999 999999 15469 17126 17259 19371 13788 10883 18042 18785 19135 15487 10797 17094 11078 19929 19310 12387 14511 15254 15717 16359 15329 19023 18093 10865 19972 10616 14718 14464 12856 10133 19223 11760 12115 15939 12806 11795 11780 19989 15568 15328 16455 11495 14660 15528 12400 10255 17222 14278 15915 13395 999999
999999 999999 999999 999999 999999 999999 999999 999999 999999 999999 999999 999999 999999 999999 999999 999999 999999 999999 999999 999999 999999 999999 999999 999999 999999 999999 999999 999999 999999 999999 999999 999999 999999 999999 999999 999999 999999 999999 999999 999999 999999 999999 999999 999999 999999 999999 999999 0 999999 999999 999999 999999 999999 999999 999999 999999 999999 999999 999999 999999 999999 999999 999999 999999 999999 999999 999999 999999 999999 999999 999999 13353 15749 12190 17842 18850 17621 11941 15125 18793 10619 14878 18054 10771 17358 11176 19963 10831 15155 19974 12459 18072 15947 18359 13267 10127 13847 18457 15032 16138 13014 17987 17240 11968 13321 17611 16040 13127 19959 18545 14246 11996 13211 16713 16737 15098 11539 13391 12459 17190 13391 999999
999999 999999 999999 999999 999999 999999 999999 999999 999999 999999 999999 999999 999999 999999 999999 999999 999999 999999 999999 999999 999999 999999 999999 999999 999999 999999 999999 999999 999999 999999 999999 999999 999999 999999 999999 999999 999999 999999 999999 999999 999999 999999 999999 999999 999999 999999 999999 999999 0 999999 999999 999999 999999 999999 999999 999999 999999 999999 999999 999999 999999 999999 999999 999999 999999 999999 999999 999999 999999 999999 999999 19308 15899 15496 16201 19608 15782 12592 17444 18097 17605 12425 11364 16583 15187 10916 16845 11948 12587 17424 10968 13298 12674 10591 11597 16285 11926 10454 17308 15081 14295 12101 17256 15769 15492 13538 13462 13406 16671 18800 18462 14986 13270 13163 10616 15599 17541 14335 15945 15672 17738 999999
999999 999999 999999 999999 999999 999999 999999 999999 999999 999999 999999 999999 999999 999999 999999 999999 999999 999999 999999 999999 999999 999999 999999 999999 999999 999999 999999 999999 999999 999999 999999 999999 999999 999999 999999 999999 999999 999999 999999 999999 999999 999999 999999 999999 999999 999999 999999 999999 999999 0 999999 999999 999999 999999 999999 999999 999999 999999 999999 999999 999999 999999 999999 999999 999999 999999 999999 999999 999999 999999 999999 13926 16275 17847 16162 18605 19990 18722 10324 17255 11137 14448 17733 10498 10108 11507 10430 13355 13099 19626 18636 14829 13260 12915 12595 18227 14826 13524 19283 13654 17264 11688 10248 14716 17621 11883 15759 16780 18493 19790 16043 12147 15854 15888 16507 15597 10220 15401 11045 14606 14492 999999
999999 999999 999999 999999 999999 999999 999999 999999 999999 999999 999999 999999 999999 999999 999999 999999 999999 999999 999999 999999 999999 999999 999999 999999 999999 999999 999999 999999 999999 999999 999999 999999 999999 999999 999999 999999 999999 999999 999999 999999 999999 999999 999999 999999 999999 999999 999999 999999 999999 999999 0 999999 999999 999999 999999 999999 999999 999999 999999 999999 999999 999999 999999 999999 999999 999999 999999 999999 999999 999999 999999 19221 14554 11505 11271 12338 17659 10526 12798 14999 10888 12828 17001 19688 15327 11701 15600 13939 19624 15796 11405 19159 18138 11949 13758 16414 14142 13304 14659 10298 14759 18197 17060 12988 14361 12204 10588 14648 16273 11237 11021 14739 15995 15435 14763 16578 15355 17046 11581 18260 16791 999999
999999 999999 999999 999999 999999 999999 999999 999999 999999 999999 999999 999999 999999 999999 999999 999999 999999 999999 999999 999999 999999 999999 999999 999999 999999 999999 999999 999999 999999 999999 999999 999999 999999 999999 999999 999999 999999 999999 999999 999999 999999 999999 999999 999999 999999 999999 999999 999999 999999 999999 999999 0 999999 999999 999999 999999 999999 999999 999999 999999 999999 999999 999999 999999 999999 999999 999999 999999 999999 999999 999999 17352 14406 14490 14614 19398 18607 15648 16477 10797 15040 18038 18089 10592 12938 12554 11923 14705 12390 17094 16320 16492 15922 17992 13527 12578 13231 19729 15911 16751 18978 16651 16562 13798 17744 18448 18919 12987 12739 10515 17807 16704 13212 19007 10270 15257 17016 19236 10479 17935 14701 999999
999999 999999 999999 999999 999999 999999 999999 999999 999999 999999 999999 999999 999999 999999 999999 999999 999999 999999 999999 999999 999999 999999 999999 999999 999999 999999 999999 999999 999999 999999 999999 999999 999999 999999 999999 999999 999999 999999 999999 999999 999999 999999 999999 999999 999999 999999 999999 999999 999999 999999 999999 999999 0 999999 999999 999999 999999 999999 999999 999999 999999 999999 999999 999999 999999 999999 999999 999999 999999 999999 999999 18070 10782 10044 12055 18191 11434 10646 16164 17593 12193 16866 19050 14578 10234 19649 16571 12109 10397 19318 10737 10684 16776 10695 17800 15205 14403 15246 19809 18942 14757 12634 10021 12905 15792 12078 12128 13080 18344 14832 19487 14150 16744 13402 18494 15295 12917 19908 18501 13729 12967 999999
999999 999999 999999 999999 999999 999999 999999 999999 999999 999999 999999 999999 999999 999999 999999 999999 999999 999999 999999 999999 999999 999999 999999 999999 999999 999999 999999 999999 999999 999999 999999 999999 999999 999999 999999 999999 999999 999999 999999 999999 999999 999999 999999 999999 999999 999999 999999 999999 999999 999999 999999 999999 999999 0 999999 999999 999999 999999 999999 999999 999999 999999 999999 999999 999999 999999 999999 999999 999999 999999 999999 16034 19874 15401 15909 18807 19631 10736 18087 10504 15753 13564 18506 16848 14442 13173 15271 18981 15900 12914 14740 15589 17258 14746 12116 13205 11081 17078 13842 19457 11383 15467 17655 14008 16171 17186 16523 13558 13323 18839 19466 14331 15253 10055 11419 18108 13567 18969 11196 10057 16588 999999
999999 999999 999999 999999 999999 999999 999999 999999 999999 999999 999999 999999 999999 999999 999999 999999 999999 999999 999999 999999 999999 999999 999999 999999 999999 999999 999999 999999 999999 999999 999999 999999 999999 999999 999999 999999 999999 999999 999999 999999 999999 999999 999999 999999 999999 999999 999999 999999 999999 999999 999999 999999 999999 999999 0 999999 999999 999999 999999 999999 999999 999999 999999 999999 999999 999999 999999 999999 999999 999999 999999 19765 14403 18628 18006 17286 18126 19511 10706 15635 12820 10677 18925 19804 18686 11200 17492 12148 10861 14331 15336 19088 17253 11690 16864 10122 17369 14464 17457 11331 10864 18967 13655 16970 10168 11770 17851 11368 11958 14930 11576 18173 15696 17436 15620 19210 17418 12410 11984 12225 17241 999999
999999 999999 999999 999999 999999 999999 999999 999999 999999 999999 999999 999999 999999 999999 999999 999999 999999 999999 999999 999999 999999 999999 999999 999999 999999 999999 999999 999999 999999 999999 999999 999999 999999 999999 999999 999999 999999 999999 999999 999999 999999 999999 999999 999999 999999 999999 999999 999999 999999 999999 999999 999999 999999 999999 999999 0 999999 999999 999999 999999 999999 999999 999999 999999 999999 999999 999999 999999 999999 999999 999999 10481 17205 19921 19925 18636 14525 18773 18294 11256 19606 12278 11751 14758 10081 19146 16588 17211 14617 16880 13217 16327 17949 15796 12472 13660 16611 19189 11852 19780 15805 13481 13167 12273 15442 17810 14320 16349 16683 18368 12326 17261 17552 14365 13292 17173 17110 15066 15704 13133 14678 999999
999999 999999 999999 999999 999999 999999 999999 999999 999999 999999 999999 999999 999999 999999 999999 999999 999999 999999 999999 999999 999999 999999 999999 999999 999999 999999 999999 999999 999999 999999 999999 999999 999999 999999 999999 999999 999999 999999 999999 999999 999999 999999 999999 999999 999999 999999 999999 999999 999999 999999 999999 999999 999999 999999 999999 999999 0 999999 999999 999999 999999 999999 999999 999999 999999 999999 999999 999999 999999 999999 999999 18520 11923 19097 14588 17540 11835 12587 18975 19552 12024 14273 11072 17429 13024 13027 17405 17622 18700 11445 17604 11255 19927 12923 12942 13145 17729 11727 11841 10934 15718 11032 10833 17945 13645 19871 17014 17977 18765 11623 12584 15423 15512 13113 19315 18504 19657 19808 19525 17389 18161 999999
999999 999999 999999 999999 999999 999999 999999 999999 999999 999999 999999 999999 999999 999999 999999 999999 999999 999999 999999 999999 999999 999999 999999 999999 999999 999999 999999 999999 999999 999999 999999 999999 999999 999999 999999 999999 999999 999999 999999 999999 999999 999999 999999 999999 999999 999999 999999 999999 999999 999999 999999 999999 999999 999999 999999 999999 999999 0 999999 999999 999999 999999 999999 999999 999999 999999 999999 999999 999999 999999 999999 13332 12770 14046 13106 19542 10654 13780 17024 10878 16526 16826 10663 14300 11951 12356 17540 16996 16162 15194 11968 11053 15132 15212 14364 17577 10650 16619 10252 14681 15211 18454 19264 13453 17679 12718 13981 11653 11674 10268 12941 17715 17885 14197 11429 13499 16712 15774 19534 15996 13532 999999
999999 999999 999999 999999 999999 999999 999999 999999 999999 999999 999999 999999 999999 999999 999999 999999 999999 999999 999999 999999 999999 999999 999999 999999 999999 999999 999999 999999 999999 999999 999999 999999 999999 999999 999999 999999 999999 999999 999999 999999 999999 999999 999999 999999 999999 999999 999999 999999 999999 999999 999999 999999 999999 999999 999999 999999 999999 999999 0 999999 999999 999999 999999 999999 999999 999999 999999 999999 999999 999999 999999 11020 19695 18014 17397 19651 17415 14282 15755 11262 10192 10104 18931 14027 14750 10561 19833 16513 15881 13592 17880 10916 18243 14742 18934 18147 13822 14387 14899 10935 12397 18165 18979 11914 12482 11058 13930 19570 13896 17270 11663 10535 14641 16197 12208 16731 13781 18535 15701 18147 19860 999999
999999 999999 999999 999999 999999 999999 999999 999999 999999 999999 999999 999999 999999 999999 999999 999999 999999 999999 999999 999999 999999 999999 999999 999999 999999 999999 999999 999999 999999 999999 999999 999999 999999 999999 999999 999999 999999 999999 999999 999999 999999 999999 999999 999999 999999 999999 999999 999999 999999 999999 999999 999999 999999 999999 999999 999999 999999 999999 999999 0 999999 999999 999999 999999 999999 999999 999999 999999 999999 999999 999999 18759 19726 14379 14985 16746 14970 12159 19483 16971 12952 16771 14817 16822 14735 17786 16561 12251 18039 16594 11760 17693 10012 19638 10875 16436 11262 16402 17498 18275 15532 19231 14699 12115 16832 17159 18126 14281 17045 11738 15333 13014 19153 10163 10995 18823 17095 18171 11354 14249 10065 999999
999999 999999 999999 999999 999999 999999 999999 999999 999999 999999 999999 999999 999999 999999 999999 999999 999999 999999 999999 999999 999999 999999 999999 999999 999999 999999 999999 999999 999999 999999 999999 999999 999999 999999 999999 999999 999999 999999 999999 999999 999999 999999 999999 999999 999999 999999 999999 999999 999999 999999 999999 999999 999999 999999 999999 999999 999999 999999 999999 999999 0 999999 999999 999999 999999 999999 999999 999999 999999 999999 999999 14642 14574 12201 10750 12347 11313 11815 12603 12184 17946 17128 14132 11398 14278 19488 15051 15031 18876 15650 15660 19845 12952 16308 11271 11845 19274 18713 14072 13680 17052 17753 16189 13071 14887 10094 10290 15879 13209 15546 19040 15163 16201 17247 10223 16525 15526 12074 18094 15673 13432 999999
999999 999999 999999 999999 999999 999999 999999 999999 999999 999999 999999 999999 999999 999999 999999 999999 999999 999999 999999 999999 999999 999999 999999 999999 999999 999999 999999 999999 999999 999999 999999 999999 999999 999999 999999 999999 999999 999999 999999 999999 999999 999999 999999 999999 999999 999999 999999 999999 999999 999999 999999 999999 999999 999999 999999 999999 999999 999999 999999 999999 999999 0 999999 999999 999999 999999 999999 999999 999999 999999 999999 14937 19410 19447 14041 18199 13349 19704 11465 13077 17492 11182 15375 19014 14905 14027 15407 12500 16626 15823 16852 14772 13924 16984 13126 17808 19652 19845 16164 16139 19899 15038 14727 15823 18446 15584 11375 19193 13174 15957 11999 16081 17062 18722 15128 19294 11334 14401 19289 13943 18711 999999
999999 999999 999999 999999 999999 999999 999999 999999 999999 999999 999999 999999 999999 999999 999999 999999 999999 999999 999999 999999 999999 999999 999999 999999 999999 999999 999999 999999 999999 999999 999999 999999 999999 999999 999999 999999 999999 999999 999999 999999 999999 999999 999999 999999 999999 999999 999999 999999 999999 999999 999999 999999 999999 999999 999999 999999 999999 999999 999999 999999 999999 999999 0 999999 999999 999999 999999 999999 999999 999999 999999 16262 16928 10081 13782 18652 11196 19088 17006 16914 13856 17010 12629 10881 18648 19550 14923 19317 17502 11466 13709 11611 19039 12675 10524 11630 15785 10771 15038 16881 15264 10736 17259 15495 13163 19143 18976 13753 12576 17919 19010 18783 18151 13605 11893 11987 10693 15863 14651 17523 12986 999999
999999 999999 999999 999999 999999 999999 999999 999999 999999 999999 999999 999999 999999 999999 999999 999999 999999 999999 999999 999999 999999 999999 999999 999999 999999 999999 999999 999999 999999 999999 999999 999999 999999 999999 999999 999999 999999 999999 999999 999999 999999 999999 999999 999999 999999 999999 999999 999999 999999 999999 999999 999999 999999 999999 999999 999999 999999 999999 999999 999999 999999 999999 999999 0 999999 999999 999999 999999 999999 999999 999999 19889 12131 19879 19738 16797 19925 11165 18903 14983 17053 14559 15245 14318 16529 13487 18624 16028 19902 12633 18186 14243 14160 16479 11606 17850 14838 17152 16967 17341 11550 18488 14169 18248 10581 10736 11923 19105 10799 17182 12757 19960 11472 11723 18208 14755 12425 14424 10396 18099 11719 999999
999999 999999 999999 999999 999999 999999 999999 999999 999999 999999 999999 999999 999999 999999 999999 999999 999999 999999 999999 999999 999999 999999 999999 999999 999999 999999 999999 999999 999999 999999 999999 999999 999999 999999 999999 999999 999999 999999 999999 999999 999999 999999 999999 999999 999999 999999 999999 999999 999999 999999 999999 999999 999999 999999 999999 999999 999999 999999 999999 999999 999999 999999 999999 999999 0 999999 999999 999999 999999 999999 999999 11166 18692 11598 17615 18692 13928 12649 13750 14537 14583 16633 13407 16326 10477 12100 19110 14414 16756 18932 17817 14636 19561 15835 17625 17267 13551 15677 16570 12104 12495 13116 19026 18405 16857 13249 17005 16477 14135 15565 10660 15091 18809 19987 12585 17797 11659 18398 14931 12911 17827 999999
999999 999999 999999 999999 999999 999999 999999 999999 999999 999999 999999 999999 999999 999999 999999 999999 999999 999999 999999 999999 999999 999999 999999 999999 999999 999999 999999 999999 999999 999999 999999 999999 999999 999999 999999 999999 999999 999999 999999 999999 999999 999999 999999 999999 999999 999999 999999 999999 999999 999999 999999 999999 999999 999999 999999 999999 999999 999999 999999 999999 999999 999999 999999 999999 999999 0 999999 999999 999999 999999 999999 17394 14967 19142 18486 18016 11451 14629 19407 14112 18076 16611 13315 11791 12005 17522 18434 14551 15579 11587 14673 17544 10687 11840 15102 17729 14775 18199 13415 17313 15774 17301 13108 18230 15619 19247 15440 10070 12770 17481 14918 15153 16939 12066 18402 14984 13023 10464 12188 19376 19651 999999
999999 999999 999999 999999 999999 999999 999999 999999 999999 999999 999999 999999 999999 999999 999999 999999 999999 999999 999999 999999 999999 999999 999999 999999 999999 999999 999999 999999 999999 999999 999999 999999 999999 999999 999999 999999 999999 999999 999999 999999 999999 999999 999999 999999 999999 999999 999999 999999 999999 999999 999999 999999 999999 999999 999999 999999 999999 999999 999999 999999 999999 999999 999999 999999 999999 999999 0 999999 999999 999999 999999 19625 14784 15315 16486 16865 18294 15081 11083 10477 15595 16482 10133 10570 18644 14984 11835 17102 17174 16459 17431 19345 17080 11240 13811 13999 19679 19852 19108 18091 10459 16135 13510 15516 19056 13734 11146 17366 17587 12969 13620 19171 10233 15036 18925 11653 18362 18226 12647 18510 13589 999999
999999 999999 999999 999999 999999 999999 999999 999999 999999 999999 999999 999999 999999 999999 999999 999999 999999 999999 999999 999999 999999 999999 999999 999999 999999 999999 999999 999999 999999 999999 999999 999999 999999 999999 999999 999999 999999 999999 999999 999999 999999 999999 999999 999999 999999 999999 999999 999999 999999 999999 999999 999999 999999 999999 999999 999999 999999 999999 999999 999999 999999 999999 999999 999999 999999 999999 999999 0 999999 999999 999999 16499 18493 19637 10916 16220 12393 13958 19121 10492 13466 17497 17119 14152 19814 16717 13429 17911 12591 13355 10739 16375 11689 18381 18182 16879 19636 16784 17403 19389 10516 15238 12560 13869 13084 19660 14652 12218 13016 19462 18768 18425 12013 16153 10670 13430 18115 12084 14802 16684 15512 999999
999999 999999 999999 999999 999999 999999 999999 999999 999999 999999 999999 999999 999999 999999 999999 999999 999999 999999 999999 999999 999999 999999 999999 999999 999999 999999 999999 999999 999999 999999 999999 999999 999999 999999 999999 999999 999999 999999 999999 999999 999999 999999 999999 999999 999999 999999 999999 999999 999999 999999 999999 999999 999999 999999 999999 999999 999999 999999 999999 999999 999999 999999 999999 999999 999999 999999 999999 999999 0 999999 999999 10879 13989 18606 16151 14366 10229 13321 11473 12471 19152 15915 15509 16078 18537 10893 10558 10878 11761 13788 11278 14769 17210 12101 17053 17834 16926 17670 17744 14348 15355 16950 10163 19125 15138 13170 13807 16376 12032 13070 11007 14054 17301 18024 12247 10941 14466 15860 10486 19133 12085 999999
999999 999999 999999 999999 999999 999999 999999 999999 999999 999999 999999 999999 999999 999999 999999 999999 999999 999999 999999 999999 999999 999999 999999 999999 999999 999999 999999 999999 999999 999999 999999 999999 999999 999999 999999 999999 999999 999999 999999 999999 999999 999999 999999 999999 999999 999999 999999 999999 999999 999999 999999 999999 999999 999999 999999 999999 999999 999999 999999 999999 999999 999999 999999 999999 999999 999999 999999 999999 999999 0 999999 16804 18965 14193 14069 15955 10017 17831 17963 12430 13386 15647 19869 14759 11331 12621 11882 15641 19075 16526 16111 10106 16685 13138 10730 12713 12533 10012 13180 11392 17199 19235 17515 18639 16905 19614 13574 16290 18846 12311 15083 18197 14299 11263 14056 12336 15612 11403 12107 17513 11428 999999
999999 999999 999999 999999 999999 999999 999999 999999 999999 999999 999999 999999 999999 999999 999999 999999 999999 999999 999999 999999 999999 999999 999999 999999 999999 999999 999999 999999 999999 999999 999999 999999 999999 999999 999999 999999 999999 999999 999999 999999 999999 999999 999999 999999 999999 999999 999999 999999 999999 999999 999999 999999 999999 999999 999999 999999 999999 999999 999999 999999 999999 999999 999999 999999 999999 999999 999999 999999 999999 999999 0 11859 10227 10993 17555 13991 12552 19687 16983 13025 18914 10206 10835 10153 16652 14554 17556 14999 17320 14540 15458 17179 17091 16151 17355 16489 11725 10097 17287 17542 11823 12057 10267 18714 14376 18097 17886 10438 13908 10495 14709 13126 10417 12844 10512 13294 14296 17635 13123 16136 16562 999999
999999 12440 18645 16712 11558 19687 15974 11751 12975 10462 10285 16781 12394 14698 15955 15962 12496 16425 15033 13403 19833 17586 19334 11843 13808 14938 10495 10239 14303 18501 18074 18720 16293 17671 19131 16655 14756 12796 14094 18228 18687 19024 13824 15546 14808 16633 15469 13353 19308 13926 19221 17352 18070 16034 19765 10481 18520 13332 11020 18759 14642 14937 16262 19889 11166 17394 19625 16499 10879 16804 11859 0 999999 999999 999999 999999 999999 999999 999999 999999 999999 999999 999999 999999 999999 999999 999999 999999 999999 999999 999999 999999 999999 999999 999999 999999 999999 999999 999999 999999 999999 999999 999999 999999 999999 999999 999999 999999 999999 999999 999999 999999 999999 999999 999999 999999 999999 999999 999999 999999 999999 13955
999999 15854 13947 11704 16939 14179 19520 11032 14305 11546 16906 10519 10889 17407 10343 14246 18888 14492 16259 10633 12659 12943 15865 10956 15367 17117 11856 10757 15073 15286 17687 19030 14675 10316 12681 16653 19866 16250 14134 13835 10105 19701 13857 13143 13597 10555 17126 15749 15899 16275 14554 14406 10782 19874 14403 17205 11923 12770 19695 19726 14574 19410 16928 12131 18692 14967 14784 18493 13989 18965 10227 999999 0 999999 999999 999999 999999 999999 999999 999999 999999 999999 999999 999999 999999 999999 999999 999999 999999 999999 999999 999999 999999 999999 999999 999999 999999 999999 999999 999999 999999 999999 999999 999999 999999 999999 999999 999999 999999 999999 999999 999999 999999 999999 999999 999999 999999 999999 999999 999999 999999 7439
999999 19198 17910 15708 19232 14582 12305 11442 15118 18184 14588 10776 15620 16027 11383 13810 16753 14175 18097 10456 19288 19840 15597 13396 11154 10123 15684 18689 18505 10717 19649 17480 17645 15689 16278 18842 18962 19712 19642 11768 16379 13127 17743 15792 13170 15939 17259 12190 15496 17847 11505 14490 10044 15401 18628 19921 19097 14046 18014 14379 12201 19447 10081 19879 11598 19142 15315 19637 18606 14193 10993 999999 999999 0 999999 999999 999999 999999 999999 999999 999999 999999 999999 999999 999999 999999 999999 999999 999999 999999 999999 999999 999999 999999 999999 999999 999999 999999 999999 999999 999999 999999 999999 999999 999999 999999 999999 999999 999999 999999 999999 999999 999999 999999 999999 999999 999999 999999 999999 999999 999999 10933
999999 14899 18691 17539 11794 12228 16175 13777 19177 16204 14814 12886 19807 15306 17635 14764 17748 16640 10438 12279 19877 18544 15935 18203 16970 11596 17709 14690 12502 19915 16541 17406 19847 19592 15039 16411 18074 19011 16976 13039 11553 14809 10186 18973 14727 11458 19371 17842 16201 16162 11271 14614 12055 15909 18006 19925 14588 13106 17397 14985 10750 14041 13782 19738 17615 18486 16486 10916 16151 14069 17555 999999 999999 999999 0 999999 999999 999999 999999 999999 999999 999999 999999 999999 999999 999999 999999 999999 999999 999999 999999 999999 999999 999999 999999 999999 999999 999999 999999 999999 999999 999999 999999 999999 999999 999999 999999 999999 999999 999999 999999 999999 999999 999999 999999 999999 999999 999999 999999 999999 999999 6780
999999 18555 13164 18226 19868 13717 10761 15266 14788 11323 10069 15251 15953 17077 11096 17945 15485 11686 11901 18728 13874 15132 15492 18530 16931 15808 17772 18003 12364 17342 10767 11810 16976 11915 11622 11337 19821 17301 18979 15158 11595 19657 11954 19677 15927 11443 13788 18850 19608 18605 12338 19398 18191 18807 17286 18636 17540 19542 19651 16746 12347 18199 18652 16797 18692 18016 16865 16220 14366 15955 13991 999999 999999 999999 999999 0 999999 999999 999999 999999 999999 999999 999999 999999 999999 999999 999999 999999 999999 999999 999999 999999 999999 999999 999999 999999 999999 999999 999999 999999 999999 999999 999999 999999 999999 999999 999999 999999 999999 999999 999999 999999 999999 999999 999999 999999 999999 999999 999999 999999 999999 6836
999999 14273 12944 19004 13424 11600 14377 14172 15915 18960 13218 10680 18499 18544 19927 17119 19321 17635 10416 17852 13328 16606 14657 18517 17865 15971 18409 12164 13539 14767 12217 10339 14697 19714 10333 15745 19349 12340 18377 11552 16549 13843 14415 16195 14639 13331 10883 17621 15782 19990 17659 18607 11434 19631 18126 14525 11835 10654 17415 14970 11313 13349 11196 19925 13928 11451 18294 12393 10229 10017 12552 999999 999999 999999 999999 999999 0 999999 999999 999999 999999 999999 999999 999999 999999 999999 999999 999999 999999 999999 999999 999999 999999 999999 999999 999999 999999 999999 999999 999999 999999 999999 999999 999999 999999 999999 999999 999999 999999 999999 999999 999999 999999 999999 999999 999999 999999 999999 999999 999999 999999 5889
999999 13580 17004 14199 19687 10181 15306 15356 11208 18961 14204 16296 19583 19463 13214 19494 11241 13755 19403 17631 10272 14188 17533 15429 16630 19054 15235 16590 17469 11182 10461 16427 10493 17018 14428 17098 13494 18216 17083 10948 12631 12817 16947 15970 12210 14321 18042 11941 12592 18722 10526 15648 10646 10736 19511 18773 12587 13780 14282 12159 11815 19704 19088 11165 12649 14629 15081 13958 13321 17831 19687 999999 999999 999999 999999 999999 999999 0 999999 999999 999999 999999 999999 999999 999999 999999 999999 999999 999999 999999 999999 999999 999999 999999 999999 999999 999999 999999 999999 999999 999999 999999 999999 999999 999999 999999 999999 999999 999999 999999 999999 999999 999999 999999 999999 999999 999999 999999 999999 999999 999999 12485
999999 13595 12619 18710 19729 11809 14172 16196 16474 14806 19008 10763 11547 15131 11663 13033 15906 19731 10319 14754 19855 17172 10959 11375 16129 19735 12927 11294 11937 15351 10193 11583 10476 19564 19397 12954 10113 15395 15403 14867 14974 16179 18392 13506 18418 10543 18785 15125 17444 10324 12798 16477 16164 18087 10706 18294 18975 17024 15755 19483 12603 11465 17006 18903 13750 19407 11083 19121 11473 17963 16983 999999 999999 999999 999999 999999 999999 999999 0 999999 999999 999999 999999 999999 999999 999999 999999 999999 999999 999999 999999 999999 999999 999999 999999 999999 999999 999999 999999 999999 999999 999999 999999 999999 999999 999999 999999 999999 999999 999999 999999 999999 999999 999999 999999 999999 999999 999999 999999 999999 999999 6314
999999 14170 15209 10849 18284 18880 12040 15791 14004 17900 15774 13323 11593 13584 15407 15491 14224 11730 10996 10124 16686 13018 14904 12773 13290 14524 19791 17677 19361 19915 14357 12225 10838 15327 18884 11251 16551 19085 17334 16813 17324 18317 12175 15374 12096 13626 19135 18793 18097 17255 14999 10797 17593 10504 15635 11256 19552 10878 11262 16971 12184 13077 16914 14983 14537 14112 10477 10492 12471 12430 13025 999999 999999 999999 999999 999999 999999 999999 999999 0 999999 999999 999999 999999 999999 999999 999999 999999 999999 999999 999999 999999 999999 999999 999999 999999 999999 999999 999999 999999 999999 999999 999999 999999 999999 999999 999999 999999 999999 999999 999999 999999 999999 999999 999999 999999 999999 999999 999999 999999 999999 14290
999999 16420 12241 11211 17070 19795 15041 11604 19808 15580 11317 12454 18571 16154 10483 12190 12198 12971 10649 17698 10602 18456 18658 15525 12842 18625 17988 14612 14078 18433 12835 17341 18329 18827 14174 14638 10692 10339 10498 16326 11178 12335 19767 12876 18078 12158 15487 10619 17605 11137 10888 15040 12193 15753 12820 19606 12024 16526 10192 12952 17946 17492 13856 17053 14583 18076 15595 13466 19152 13386 18914 999999 999999 999999 999999 999999 999999 999999 999999 999999 0 999999 999999 999999 999999 999999 999999 999999 999999 999999 999999 999999 999999 999999 999999 999999 999999 999999 999999 999999 999999 999999 999999 999999 999999 999999 999999 999999 999999 999999 999999 999999 999999 999999 999999 999999 999999 999999 999999 999999 999999 11638
999999 10342 11585 13092 14251 16899 17274 17533 10690 10662 14515 11189 19496 17438 19245 18095 13266 11499 16698 12007 17604 12734 19166 13970 11700 14679 18205 11089 16168 18427 16366 18051 10454 10666 16237 11703 18429 15213 15952 16616 12997 18473 12682 10840 11157 17841 10797 14878 12425 14448 12828 18038 16866 13564 10677 12278 14273 16826 10104 16771 17128 11182 17010 14559 16633 16611 16482 17497 15915 15647 10206 999999 999999 999999 999999 999999 999999 999999 999999 999999 999999 0 999999 999999 999999 999999 999999 999999 999999 999999 999999 999999 999999 999999 999999 999999 999999 999999 999999 999999 999999 999999 999999 999999 999999 999999 999999 999999 999999 999999 999999 999999 999999 999999 999999 999999 999999 999999 999999 999999 999999 7824
999999 18766 11325 11652 12969 18761 16747 19821 15703 17053 14743 18314 11069 10741 16386 14048 17820 19112 14811 12118 19515 10852 18118 16991 19514 17181 15418 12359 12011 16881 14309 16724 18487 13937 19076 11590 19282 19620 14090 19888 15497 15528 18177 15945 17188 15681 17094 18054 11364 17733 17001 18089 19050 18506 18925 11751 11072 10663 18931 14817 14132 15375 12629 15245 13407 13315 10133 17119 15509 19869 10835 999999 999999 999999 999999 999999 999999 999999 999999 999999 999999 999999 0 999999 999999 999999 999999 999999 999999 999999 999999 999999 999999 999999 999999 999999 999999 999999 999999 999999 999999 999999 999999 999999 999999 999999 999999 999999 999999 999999 999999 999999 999999 999999 999999 999999 999999 999999 999999 999999 999999 10928
999999 17355 18837 19061 14868 18065 12212 19937 14445 16102 13491 16366 19070 19239 12081 19876 19069 10369 19551 14304 17668 10132 10043 11297 18660 11834 16961 14367 11478 17956 12281 16381 19518 15488 14815 12209 12534 19589 13389 16498 10063 11682 12339 14161 13649 10499 11078 10771 16583 10498 19688 10592 14578 16848 19804 14758 17429 14300 14027 16822 11398 19014 10881 14318 16326 11791 10570 14152 16078 14759 10153 999999 999999 999999 999999 999999 999999 999999 999999 999999 999999 999999 999999 0 999999 999999 999999 999999 999999 999999 999999 999999 999999 999999 999999 999999 999999 999999 999999 999999 999999 999999 999999 999999 999999 999999 999999 999999 999999 999999 999999 999999 999999 999999 999999 999999 999999 999999 999999 999999 999999 9183
999999 14476 15660 17806 16522 13970 16406 11219 12693 11516 17605 16466 16279 17938 19652 11628 19341 14700 19257 15480 11670 11596 15873 15450 13134 12666 16513 13962 15448 19357 13003 12011 11372 19199 10645 19948 16888 15363 18065 19977 14760 11533 19460 18065 15072 17039 19929 17358 15187 10108 15327 12938 10234 14442 18686 10081 13024 11951 14750 14735 14278 14905 18648 16529 10477 12005 18644 19814 18537 11331 16652 999999 999999 999999 999999 999999 999999 999999 999999 999999 999999 999999 999999 999999 0 999999 999999 999999 999999 999999 999999 999999 999999 999999 999999 999999 999999 999999 999999 999999 999999 999999 999999 999999 999999 999999 999999 999999 999999 999999 999999 999999 999999 999999 999999 999999 999999 999999 999999 999999 999999 12514
999999 13579 11342 10744 12837 19273 12924 11613 15816 16943 18258 17915 15385 19431 16702 14320 17983 15525 16189 18157 10885 18277 11017 19544 10641 19589 17107 18474 19636 17285 17189 10045 11670 16201 16717 19829 18512 19268 10486 17860 19959 19924 18602 10639 19222 16135 19310 11176 10916 11507 11701 12554 19649 13173 11200 19146 13027 12356 10561 17786 19488 14027 19550 13487 12100 17522 14984 16717 10893 12621 14554 999999 999999 999999 999999 999999 999999 999999 999999 999999 999999 999999 999999 999999 999999 0 999999 999999 999999 999999 999999 999999 999999 999999 999999 999999 999999 999999 999999 999999 999999 999999 999999 999999 999999 999999 999999 999999 999999 999999 999999 999999 999999 999999 999999 999999 999999 999999 999999 999999 999999 14128
999999 17213 12676 12566 11816 17318 11805 14652 13673 18065 14597 11644 17658 10289 16415 15490 18970 16156 16602 13635 15130 13694 14035 11371 11380 12367 14635 14567 11538 11047 11960 19284 14497 15406 10256 13386 17957 13826 16123 17127 15273 14416 13546 15824 15071 15896 12387 19963 16845 10430 15600 11923 16571 15271 17492 16588 17405 17540 19833 16561 15051 15407 14923 18624 19110 18434 11835 13429 10558 11882 17556 999999 999999 999999 999999 999999 999999 999999 999999 999999 999999 999999 999999 999999 999999 999999 0 999999 999999 999999 999999 999999 999999 999999 999999 999999 999999 999999 999999 999999 999999 999999 999999 999999 999999 999999 999999 999999 999999 999999 999999 999999 999999 999999 999999 999999 999999 999999 999999 999999 999999 7435
999999 12930 18904 11786 17890 18695 15940 14351 11069 11462 11777 10259 17182 15559 10656 14666 18753 17072 17864 11866 17087 15572 10776 12982 12766 19510 15062 13391 16993 13330 16647 13566 18954 12359 18275 19528 15994 11713 16804 11020 14040 13234 18826 12149 16625 12016 14511 10831 11948 13355 13939 14705 12109 18981 12148 17211 17622 16996 16513 12251 15031 12500 19317 16028 14414 14551 17102 17911 10878 15641 14999 999999 999999 999999 999999 999999 999999 999999 999999 999999 999999 999999 999999 999999 999999 999999 999999 0 999999 999999 999999 999999 999999 999999 999999 999999 999999 999999 999999 999999 999999 999999 999999 999999 999999 999999 999999 999999 999999 999999 999999 999999 999999 999999 999999 999999 999999 999999 999999 999999 999999 14050
999999 13307 10173 19175 14221 10450 14014 12049 16868 10877 11704 15215 15012 18370 15662 12431 16569 11587 19900 12742 18360 18687 16192 11043 12309 18037 15512 10918 13266 19922 15157 19821 12489 14977 19063 14846 10467 19199 11911 16185 18558 15287 16318 18431 11563 14698 15254 15155 12587 13099 19624 12390 10397 15900 10861 14617 18700 16162 15881 18039 18876 16626 17502 19902 16756 15579 17174 12591 11761 19075 17320 999999 999999 999999 999999 999999 999999 999999 999999 999999 999999 999999 999999 999999 999999 999999 999999 999999 0 999999 999999 999999 999999 999999 999999 999999 999999 999999 999999 999999 999999 999999 999999 999999 999999 999999 999999 999999 999999 999999 999999 999999 999999 999999 999999 999999 999999 999999 999999 999999 999999 5931
999999 12145 18451 12474 16681 18780 18071 17977 13389 17666 17800 19315 16807 13896 17470 14352 10132 14809 10069 18021 10033 13448 17007 14105 15113 19422 16840 12015 17142 12210 14193 16390 18524 16330 18770 14421 13497 18259 12403 12050 18211 18544 11032 11204 15414 10925 15717 19974 17424 19626 15796 17094 19318 12914 14331 16880 11445 15194 13592 16594 15650 15823 11466 12633 18932 11587 16459 13355 13788 16526 14540 999999 999999 999999 999999 999999 999999 999999 999999 999999 999999 999999 999999 999999 999999 999999 999999 999999 999999 0 999999 999999 999999 999999 999999 999999 999999 999999 999999 999999 999999 999999 999999 999999 999999 999999 999999 999999 999999 999999 999999 999999 999999 999999 999999 999999 999999 999999 999999 999999 999999 11140
999999 19249 17379 11395 17329 17144 10839 17313 11078 12074 11925 15753 19496 15207 15743 19449 17561 18152 17001 12598 17263 11771 13689 10093 17781 11026 12448 14939 16121 16063 15871 16746 18058 11003 15264 12787 15954 12314 16975 14454 16546 12337 18999 18298 19462 13247 16359 12459 10968 18636 11405 16320 10737 14740 15336 13217 17604 11968 17880 11760 15660 16852 13709 18186 17817 14673 17431 10739 11278 16111 15458 999999 999999 999999 999999 999999 999999 999999 999999 999999 999999 999999 999999 999999 999999 999999 999999 999999 999999 999999 0 999999 999999 999999 999999 999999 999999 999999 999999 999999 999999 999999 999999 999999 999999 999999 999999 999999 999999 999999 999999 999999 999999 999999 999999 999999 999999 999999 999999 999999 999999 12055
999999 10362 18955 17510 12553 17330 11668 10870 17968 11907 16631 16033 14400 17328 10215 11402 18930 10526 19535 18918 11406 19996 17827 13635 16495 18308 11990 13055 10501 14987 19284 14576 16946 14257 19951 14151 18841 14317 18340 18344 16848 18566 14038 18020 15020 17669 15329 18072 13298 14829 19159 16492 10684 15589 19088 16327 11255 11053 10916 17693 19845 14772 11611 14243 14636 17544 19345 16375 14769 10106 17179 999999 999999 999999 999999 999999 999999 999999 999999 999999 999999 999999 999999 999999 999999 999999 999999 999999 999999 999999 999999 0 999999 999999 999999 999999 999999 999999 999999 999999 999999 999999 999999 999999 999999 999999 999999 999999 999999 999999 999999 999999 999999 999999 999999 999999 999999 999999 999999 999999 999999 12890
999999 17811 14112 17331 10498 12829 12189 18767 19336 11401 17078 14108 15433 11349 13017 19737 18793 19553 16577 11646 16604 19419 14939 10916 17281 18299 15457 15163 18024 12317 14739 15652 10413 10797 15839 15814 16912 12616 15078 12106 18963 15272 12996 13970 18462 15245 19023 15947 12674 13260 18138 15922 16776 17258 17253 17949 19927 15132 18243 10012 12952 13924 19039 14160 19561 10687 17080 11689 17210 16685 17091 999999 999999 999999 999999 999999 999999 999999 999999 999999 999999 999999 999999 999999 999999 999999 999999 999999 999999 999999 999999 999999 0 999999 999999 999999 999999 999999 999999 999999 999999 999999 999999 999999 999999 999999 999999 999999 999999 999999 999999 999999 999999 999999 999999 999999 999999 999999 999999 999999 999999 6730
999999 10734 18982 13444 17183 13327 15307 17594 15380 11323 14522 14828 11424 19271 17243 17568 10445 14337 11128 10262 10330 14815 14513 10476 16943 19591 16435 12333 17511 16430 17448 16075 16026 18638 13708 19536 18976 19347 10391 19290 17147 15058 16481 19937 19791 10398 18093 18359 10591 12915 11949 17992 10695 14746 11690 15796 12923 15212 14742 19638 16308 16984 12675 16479 15835 11840 11240 18381 12101 13138 16151 999999 999999 999999 999999 999999 999999 999999 999999 999999 999999 999999 999999 999999 999999 999999 999999 999999 999999 999999 999999 999999 999999 0 999999 999999 999999 999999 999999 999999 999999 999999 999999 999999 999999 999999 999999 999999 999999 999999 999999 999999 999999 999999 999999 999999 999999 999999 999999 999999 999999 13276
999999 14509 18539 19662 17749 18955 11731 11200 18636 12173 13406 17145 13719 16478 18713 10895 11831 17042 13268 17211 15752 13995 16429 19807 16562 14894 12640 12266 10606 15725 17931 10391 16557 17312 11914 17104 10080 17339 11560 18965 14512 19701 19858 17444 11892 16308 10865 13267 11597 12595 13758 13527 17800 12116 16864 12472 12942 14364 18934 10875 11271 13126 10524 11606 17625 15102 13811 18182 17053 10730 17355 999999 999999 999999 999999 999999 999999 999999 999999 999999 999999 999999 999999 999999 999999 999999 999999 999999 999999 999999 999999 999999 999999 999999 0 999999 999999 999999 999999 999999 999999 999999 999999 999999 999999 999999 999999 999999 999999 999999 999999 999999 999999 999999 999999 999999 999999 999999 999999 999999 999999 5547
999999 12605 11934 16998 18559 19005 11738 12694 17548 18391 14014 19506 16708 12302 10163 18476 12067 11396 19421 10956 18936 10104 16689 12133 17305 11233 17517 19027 16274 12421 13500 19140 11644 16162 17182 10074 18119 17775 14814 19503 19468 13712 17040 13372 19301 15387 19972 10127 16285 18227 16414 12578 15205 13205 10122 13660 13145 17577 18147 16436 11845 17808 11630 17850 17267 17729 13999 16879 17834 12713 16489 999999 999999 999999 999999 999999 999999 999999 999999 999999 999999 999999 999999 999999 999999 999999 999999 999999 999999 999999 999999 999999 999999 999999 999999 0 999999 999999 999999 999999 999999 999999 999999 999999 999999 999999 999999 999999 999999 999999 999999 999999 999999 999999 999999 999999 999999 999999 999999 999999 999999 12773
999999 18936 16392 15138 16599 10320 13474 10730 14869 17137 13644 16897 14425 13119 10925 17706 10213 10115 18194 11248 16528 11791 10891 11426 13011 11997 19404 15388 16592 14001 17491 14730 14006 13097 11170 15711 15884 18546 18336 14214 17692 17874 13676 12158 18072 18598 10616 13847 11926 14826 14142 13231 14403 11081 17369 16611 17729 10650 13822 11262 19274 19652 15785 14838 13551 14775 19679 19636 16926 12533 11725 999999 999999 999999 999999 999999 999999 999999 999999 999999 999999 999999 999999 999999 999999 999999 999999 999999 999999 999999 999999 999999 999999 999999 999999 999999 0 999999 999999 999999 999999 999999 999999 999999 999999 999999 999999 999999 999999 999999 999999 999999 999999 999999 999999 999999 999999 999999 999999 999999 999999 12949
999999 18294 17154 16115 17945 19096 18078 14252 11861 10373 18615 14330 16164 13163 18452 16161 15978 16578 14657 17670 13721 11958 11655 19537 16032 14102 10104 16820 12799 14644 18125 14478 18889 15949 17971 14184 18870 14513 11981 18094 12171 14855 16073 17850 17454 13737 14718 18457 10454 13524 13304 19729 15246 17078 14464 19189 11727 16619 14387 16402 18713 19845 10771 17152 15677 18199 19852 16784 17670 10012 10097 999999 999999 999999 999999 999999 999999 999999 999999 999999 999999 999999 999999 999999 999999 999999 999999 999999 999999 999999 999999 999999 999999 999999 999999 999999 999999 0 999999 999999 999999 999999 999999 999999 999999 999999 999999 999999 999999 999999 999999 999999 999999 999999 999999 999999 999999 999999 999999 999999 999999 6083
999999 12542 16479 15006 14998 17510 10963 14517 11319 19003 18337 15012 17750 14709 12770 14101 11270 10726 16805 12482 18899 18670 13691 17254 12592 19593 19044 18001 14957 18730 15557 15390 18148 10942 19720 11161 15157 16580 16397 14193 16192 18079 10677 10095 16755 15729 14464 15032 17308 19283 14659 15911 19809 13842 17457 11852 11841 10252 14899 17498 14072 16164 15038 16967 16570 13415 19108 17403 17744 13180 17287 999999 999999 999999 999999 999999 999999 999999 999999 999999 999999 999999 999999 999999 999999 999999 999999 999999 999999 999999 999999 999999 999999 999999 999999 999999 999999 999999 0 999999 999999 999999 999999 999999 999999 999999 999999 999999 999999 999999 999999 999999 999999 999999 999999 999999 999999 999999 999999 999999 999999 10966
999999 17601 13898 10522 14348 16205 15562 17458 11687 12591 19830 15869 18033 19904 15550 12937 13163 10160 18338 18504 10860 12322 17083 15633 17028 19656 13888 18352 15835 19834 11056 16310 17218 10166 12716 18657 13964 12680 13195 16123 14976 19026 18724 19933 10384 18449 12856 16138 15081 13654 10298 16751 18942 19457 11331 19780 10934 14681 10935 18275 13680 16139 16881 17341 12104 17313 18091 19389 14348 11392 17542 999999 999999 999999 999999 999999 999999 999999 999999 999999 999999 999999 999999 999999 999999 999999 999999 999999 999999 999999 999999 999999 999999 999999 999999 999999 999999 999999 999999 0 999999 999999 999999 999999 999999 999999 999999 999999 999999 999999 999999 999999 999999 999999 999999 999999 999999 999999 999999 999999 999999 13260
999999 16835 13617 16477 11956 19143 10122 15330 11432 10391 11163 11571 17731 10337 15958 12247 14056 11264 11926 19993 13196 17529 17524 17663 15586 10347 12127 16395 13249 15631 19378 19008 13063 14285 14000 10779 17781 10970 17769 13042 11771 19764 12681 16007 16224 15421 10133 13014 14295 17264 14759 18978 14757 11383 10864 15805 15718 15211 12397 15532 17052 19899 15264 11550 12495 15774 10459 10516 15355 17199 11823 999999 999999 999999 999999 999999 999999 999999 999999 999999 999999 999999 999999 999999 999999 999999 999999 999999 999999 999999 999999 999999 999999 999999 999999 999999 999999 999999 999999 999999 0 999999 999999 999999 999999 999999 999999 999999 999999 999999 999999 999999 999999 999999 999999 999999 999999 999999 999999 999999 999999 5543
999999 19177 17278 10061 18942 17259 18702 18485 12903 15579 16238 16367 13352 19604 13580 13919 10984 11360 15877 14065 17404 14368 18669 19339 10518 13111 15285 19737 13523 13818 13958 17880 12001 13490 18281 15301 10765 17393 14992 18192 16056 10790 11973 13624 12215 18495 19223 17987 12101 11688 18197 16651 12634 15467 18967 13481 11032 18454 18165 19231 17753 15038 10736 18488 13116 17301 16135 15238 16950 19235 12057 999999 999999 999999 999999 999999 999999 999999 999999 999999 999999 999999 999999 999999 999999 999999 999999 999999 999999 999999 999999 999999 999999 999999 999999 999999 999999 999999 999999 999999 999999 0 999999 999999 999999 999999 999999 999999 999999 999999 999999 999999 999999 999999 999999 999999 999999 999999 999999 999999 999999 8005
999999 18650 18929 10507 16244 10040 18526 13636 17573 11618 11046 19493 18412 10066 17152 16229 12424 12998 14942 18256 11666 14029 19087 13234 17554 18085 14810 17303 14530 16075 19975 14758 18165 17066 13093 12543 12819 19146 13458 19712 17257 11608 16635 11051 14422 17157 11760 17240 17256 10248 17060 16562 10021 17655 13655 13167 10833 19264 18979 14699 16189 14727 17259 14169 19026 13108 13510 12560 10163 17515 10267 999999 999999 999999 999999 999999 999999 999999 999999 999999 999999 999999 999999 999999 999999 999999 999999 999999 999999 999999 999999 999999 999999 999999 999999 999999 999999 999999 999999 999999 999999 999999 0 999999 999999 999999 999999 999999 999999 999999 999999 999999 999999 999999 999999 999999 999999 999999 999999 999999 999999 10683
999999 15793 19278 15142 15205 18111 10831 14824 16565 17933 14202 18517 17762 11735 17525 19823 14459 10169 11338 18435 19014 16190 16491 17627 16738 15130 16071 15260 17043 19647 17031 10891 10075 19418 18896 11250 12884 14264 11446 14189 18344 19600 11706 12224 13111 19001 12115 11968 15769 14716 12988 13798 12905 14008 16970 12273 17945 13453 11914 12115 13071 15823 15495 18248 18405 18230 15516 13869 19125 18639 18714 999999 999999 999999 999999 999999 999999 999999 999999 999999 999999 999999 999999 999999 999999 999999 999999 999999 999999 999999 999999 999999 999999 999999 999999 999999 999999 999999 999999 999999 999999 999999 999999 0 999999 999999 999999 999999 999999 999999 999999 999999 999999 999999 999999 999999 999999 999999 999999 999999 999999 5754
999999 14028 15417 11664 15365 16317 14346 15048 13834 14376 14524 14318 18423 15764 12175 12180 12831 12330 15189 14492 17784 16494 14554 13769 17635 15498 16718 17649 14356 12670 11904 16117 17458 11837 19609 12008 16930 16026 16537 15913 15188 10671 13836 17487 10356 15491 15939 13321 15492 17621 14361 17744 15792 16171 10168 15442 13645 17679 12482 16832 14887 18446 13163 10581 16857 15619 19056 13084 15138 16905 14376 999999 999999 999999 999999 999999 999999 999999 999999 999999 999999 999999 999999 999999 999999 999999 999999 999999 999999 999999 999999 999999 999999 999999 999999 999999 999999 999999 999999 999999 999999 999999 999999 999999 0 999999 999999 999999 999999 999999 999999 999999 999999 999999 999999 999999 999999 999999 999999 999999 999999 5921
999999 11845 17890 12347 16805 18906 19442 12953 10405 17673 17705 14216 14507 11185 12250 10823 10542 10656 15335 16370 19108 12699 10197 16670 15037 10529 15462 11147 12270 16090 16056 12134 16626 12946 12169 13509 18566 16348 15112 10406 11222 11988 19607 12314 12449 16510 12806 17611 13538 11883 12204 18448 12078 17186 11770 17810 19871 12718 11058 17159 10094 15584 19143 10736 13249 19247 13734 19660 13170 19614 18097 999999 999999 999999 999999 999999 999999 999999 999999 999999 999999 999999 999999 999999 999999 999999 999999 999999 999999 999999 999999 999999 999999 999999 999999 999999 999999 999999 999999 999999 999999 999999 999999 999999 999999 0 999999 999999 999999 999999 999999 999999 999999 999999 999999 999999 999999 999999 999999 999999 999999 7305
999999 14136 12041 19998 17612 14679 12269 10994 18345 16177 12830 14356 12772 16672 12485 14753 18324 10270 16233 10904 13358 14361 12454 12759 17349 13491 13092 16733 16278 11215 16433 19002 11068 14704 12820 15429 12886 10383 19021 15635 11581 12054 10177 19766 19051 14984 11795 16040 13462 15759 10588 18919 12128 16523 17851 14320 17014 13981 13930 18126 10290 11375 18976 11923 17005 15440 11146 14652 13807 13574 17886 999999 999999 999999 999999 999999 999999 999999 999999 999999 999999 999999 999999 999999 999999 999999 999999 999999 999999 999999 999999 999999 999999 999999 999999 999999 999999 999999 999999 999999 999999 999999 999999 999999 999999 999999 0 999999 999999 999999 999999 999999 999999 999999 999999 999999 999999 999999 999999 999999 999999 6695
999999 16998 11242 18857 19023 19669 17955 12522 13836 15084 10404 12619 14060 14894 13508 11935 12460 15890 14162 18715 11310 19074 19349 12970 17674 11584 13127 15435 13904 14917 15831 15649 15623 11064 19386 13235 14452 10940 10102 15130 17993 17202 10906 17352 13309 16801 11780 13127 13406 16780 14648 12987 13080 13558 11368 16349 17977 11653 19570 14281 15879 19193 13753 19105 16477 10070 17366 12218 16376 16290 10438 999999 999999 999999 999999 999999 999999 999999 999999 999999 999999 999999 999999 999999 999999 999999 999999 999999 999999 999999 999999 999999 999999 999999 999999 999999 999999 999999 999999 999999 999999 999999 999999 999999 999999 999999 999999 0 999999 999999 999999 999999 999999 999999 999999 999999 999999 999999 999999 999999 999999 9569
999999 10901 15629 19541 10955 17223 19581 10291 17033 14058 10200 17964 13319 10739 11823 12435 10973 15844 11914 18101 17900 16646 13437 16656 16352 14243 16225 18705 16196 15559 10050 10741 15531 15352 17099 19449 18918 10014 17774 14897 13498 11200 16540 16452 16348 16585 19989 19959 16671 18493 16273 12739 18344 13323 11958 16683 18765 11674 13896 17045 13209 13174 12576 10799 14135 12770 17587 13016 12032 18846 13908 999999 999999 999999 999999 999999 999999 999999 999999 999999 999999 999999 999999 999999 999999 999999 999999 999999 999999 999999 999999 999999 999999 999999 999999 999999 999999 999999 999999 999999 999999 999999 999999 999999 999999 999999 999999 999999 0 999999 999999 999999 999999 999999 999999 999999 999999 999999 999999 999999 999999 12083
999999 13631 14788 18515 11299 10877 11835 11044 16625 15120 14163 19323 12540 11422 11831 15246 12511 19424 18488 16265 19897 10665 15503 13245 17274 16623 18917 19860 11445 14837 10389 14659 18449 11703 16549 11083 14501 17723 15088 12632 10578 18554 10424 17399 17500 17360 15568 18545 18800 19790 11237 10515 14832 18839 14930 18368 11623 10268 17270 11738 15546 15957 17919 17182 15565 17481 12969 19462 13070 12311 10495 999999 999999 999999 999999 999999 999999 999999 999999 999999 999999 999999 999999 999999 999999 999999 999999 999999 999999 999999 999999 999999 999999 999999 999999 999999 999999 999999 999999 999999 999999 999999 999999 999999 999999 999999 999999 999999 999999 0 999999 999999 999999 999999 999999 999999 999999 999999 999999 999999 999999 7416
999999 13232 14777 16417 18843 10683 15238 12704 18386 15028 17361 18697 19592 19481 10154 12719 17188 14380 13275 16313 19186 14972 15699 19012 14135 15231 19070 11746 10395 18953 12051 19615 14600 10450 18906 10937 16841 12355 12372 14574 16642 11454 13912 16919 16872 17170 15328 14246 18462 16043 11021 17807 19487 19466 11576 12326 12584 12941 11663 15333 19040 11999 19010 12757 10660 14918 13620 18768 11007 15083 14709 999999 999999 999999 999999 999999 999999 999999 999999 999999 999999 999999 999999 999999 999999 999999 999999 999999 999999 999999 999999 999999 999999 999999 999999 999999 999999 999999 999999 999999 999999 999999 999999 999999 999999 999999 999999 999999 999999 999999 0 999999 999999 999999 999999 999999 999999 999999 999999 999999 999999 12517
999999 13445 19250 16889 13773 18848 10694 16435 13552 18420 16126 17236 17257 10694 14374 14494 13208 13206 10442 16096 16559 19251 13061 18109 10678 13788 17700 15914 10283 15950 15880 13709 11729 16648 14512 16186 13184 10636 18372 12668 13792 16245 13598 14377 11965 10011 16455 11996 14986 12147 14739 16704 14150 14331 18173 17261 15423 17715 10535 13014 15163 16081 18783 19960 15091 15153 19171 18425 14054 18197 13126 999999 999999 999999 999999 999999 999999 999999 999999 999999 999999 999999 999999 999999 999999 999999 999999 999999 999999 999999 999999 999999 999999 999999 999999 999999 999999 999999 999999 999999 999999 999999 999999 999999 999999 999999 999999 999999 999999 999999 999999 0 999999 999999 999999 999999 999999 999999 999999 999999 999999 10853
999999 10568 18978 16234 14579 10812 12994 19052 15559 13694 16298 15764 18477 14910 18452 10741 11170 12623 11403 14893 16212 16340 12431 12042 11927 18586 10110 14833 17385 13169 16016 13801 15405 11934 13607 16937 10384 14382 10304 17341 17429 18312 12245 15784 10550 14770 11495 13211 13270 15854 15995 13212 16744 15253 15696 17552 15512 17885 14641 19153 16201 17062 18151 11472 18809 16939 10233 12013 17301 14299 10417 999999 999999 999999 999999 999999 999999 999999 999999 999999 999999 999999 999999 999999 999999 999999 999999 999999 999999 999999 999999 999999 999999 999999 999999 999999 999999 999999 999999 999999 999999 999999 999999 999999 999999 999999 999999 999999 999999 999999 999999 999999 0 999999 999999 999999 999999 999999 999999 999999 999999 11799
999999 15513 14681 18720 15554 16545 11628 12572 10748 18752 19700 10055 15678 18033 13346 12355 18610 17195 12706 13221 12447 11274 17849 18172 13736 15563 15355 12300 13317 12276 10202 10048 19563 11084 18892 19249 11683 11391 12030 13700 13919 10352 15580 19023 15339 18043 14660 16713 13163 15888 15435 19007 13402 10055 17436 14365 13113 14197 16197 10163 17247 18722 13605 11723 19987 12066 15036 16153 18024 11263 12844 999999 999999 999999 999999 999999 999999 999999 999999 999999 999999 999999 999999 999999 999999 999999 999999 999999 999999 999999 999999 999999 999999 999999 999999 999999 999999 999999 999999 999999 999999 999999 999999 999999 999999 999999 999999 999999 999999 999999 999999 999999 999999 0 999999 999999 999999 999999 999999 999999 999999 6554
999999 16760 17394 18315 16618 15677 14097 11698 17585 18273 16148 16611 12091 18703 13708 18247 14388 18285 10309 17462 10593 18703 13022 10272 14481 19810 16159 16771 16500 14990 11541 13546 19035 12283 12271 13851 17833 18450 12792 18314 15759 13614 15636 10058 19079 19175 15528 16737 10616 16507 14763 10270 18494 11419 15620 13292 19315 11429 12208 10995 10223 15128 11893 18208 12585 18402 18925 10670 12247 14056 10512 999999 999999 999999 999999 999999 999999 999999 999999 999999 999999 999999 999999 999999 999999 999999 999999 999999 999999 999999 999999 999999 999999 999999 999999 999999 999999 999999 999999 999999 999999 999999 999999 999999 999999 999999 999999 999999 999999 999999 999999 999999 999999 999999 0 999999 999999 999999 999999 999999 999999 5871
999999 14554 11387 19845 16496 15517 17816 15873 18580 13017 14417 19151 15845 13029 13644 10622 11027 12553 18782 18069 13761 16896 17459 11508 19255 11489 18718 13843 15054 14776 10800 18803 15913 12028 16786 11515 12136 16908 12730 16503 17907 12312 16396 12455 11232 18965 12400 15098 15599 15597 16578 15257 15295 18108 19210 17173 18504 13499 16731 18823 16525 19294 11987 14755 17797 14984 11653 13430 10941 12336 13294 999999 999999 999999 999999 999999 999999 999999 999999 999999 999999 999999 999999 999999 999999 999999 999999 999999 999999 999999 999999 999999 999999 999999 999999 999999 999999 999999 999999 999999 999999 999999 999999 999999 999999 999999 999999 999999 999999 999999 999999 999999 999999 999999 999999 0 999999 999999 999999 999999 999999 11574
999999 11969 15777 12614 16801 19321 15651 18562 12549 11795 11750 12018 11254 13570 15144 13534 15068 16755 15255 14604 19496 14554 11099 12159 18707 17770 19603 10541 10723 15123 15398 16998 10318 16223 13229 11406 12433 19784 12977 10198 13340 14969 13834 18405 17256 10974 10255 11539 17541 10220 15355 17016 12917 13567 17418 17110 19657 16712 13781 17095 15526 11334 10693 12425 11659 13023 18362 18115 14466 15612 14296 999999 999999 999999 999999 999999 999999 999999 999999 999999 999999 999999 999999 999999 999999 999999 999999 999999 999999 999999 999999 999999 999999 999999 999999 999999 999999 999999 999999 999999 999999 999999 999999 999999 999999 999999 999999 999999 999999 999999 999999 999999 999999 999999 999999 999999 0 999999 999999 999999 999999 6438
999999 14310 15746 18759 19117 17899 11270 18365 11082 10021 17585 13499 18116 16554 17382 14918 11438 14527 11147 10009 18940 18774 16258 15105 13069 17356 15849 19340 14971 18957 16211 16067 11662 11419 12184 13752 10373 17113 19549 14677 13870 18744 14700 19250 13448 10448 17222 13391 14335 15401 17046 19236 19908 18969 12410 15066 19808 15774 18535 18171 12074 14401 15863 14424 18398 10464 18226 12084 15860 11403 17635 999999 999999 999999 999999 999999 999999 999999 999999 999999 999999 999999 999999 999999 999999 999999 999999 999999 999999 999999 999999 999999 999999 999999 999999 999999 999999 999999 999999 999999 999999 999999 999999 999999 999999 999999 999999 999999 999999 999999 999999 999999 999999 999999 999999 999999 999999 0 999999 999999 999999 6830
999999 12109 14532 19646 15453 11834 17877 11738 10669 14995 18939 17173 19718 16955 15703 17406 14344 17227 11626 19972 12599 17160 16082 16898 14915 14712 10248 19285 15334 13130 19324 18718 15417 16397 11879 18200 15242 10508 14747 19715 10784 14961 14770 19945 12890 14100 14278 12459 15945 11045 11581 10479 18501 11196 11984 15704 19525 19534 15701 11354 18094 19289 14651 10396 14931 12188 12647 14802 10486 12107 13123 999999 999999 999999 999999 999999 999999 999999 999999 999999 999999 999999 999999 999999 999999 999999 999999 999999 999999 999999 999999 999999 999999 999999 999999 999999 999999 999999 999999 999999 999999 999999 999999 999999 999999 999999 999999 999999 999999 999999 999999 999999 999999 999999 999999 999999 999999 999999 0 999999 999999 8459
999999 16071 19852 19733 11449 10441 17490 19322 12675 19693 17906 10088 13123 13546 14221 10608 16540 14033 18030 19591 11885 12445 16423 19687 14019 11947 10184 15218 13020 14911 13780 16095 14251 19496 15179 17167 18302 19230 17653 11335 16261 15576 18577 12596 19280 14518 15915 17190 15672 14606 18260 17935 13729 10057 12225 13133 17389 15996 18147 14249 15673 13943 17523 18099 12911 19376 18510 16684 19133 17513 16136 999999 999999 999999 999999 999999 999999 999999 999999 999999 999999 999999 999999 999999 999999 999999 999999 999999 999999 999999 999999 999999 999999 999999 999999 999999 999999 999999 999999 999999 999999 999999 999999 999999 999999 999999 999999 999999 999999 999999 999999 999999 999999 999999 999999 999999 999999 999999 999999 0 999999 11379
999999 13933 10951 11699 18642 13907 12999 14989 12643 13640 12698 13191 14666 16004 18678 18609 19573 13786 10093 12402 16018 14221 17022 16134 13233 12890 15049 13030 19933 12532 19044 16090 13074 15764 14531 19042 16921 17083 19869 17616 18679 12317 17550 16500 18044 16255 13395 13391 17738 14492 16791 14701 12967 16588 17241 14678 18161 13532 19860 10065 13432 18711 12986 11719 17827 19651 13589 15512 12085 11428 16562 999999 999999 999999 999999 999999 999999 999999 999999 999999 999999 999999 999999 999999 999999 999999 999999 999999 999999 999999 999999 999999 999999 999999 999999 999999 999999 999999 999999 999999 999999 999999 999999 999999 999999 999999 999999 999999 999999 999999 999999 999999 999999 999999 999999 999999 999999 999999 999999 999999 0 7220
1 999999 999999 999999 999999 999999 999999 999999 999999 999999 999999 999999 999999 999999 999999 999999 999999 999999 999999 999999 999999 999999 999999 999999 999999 999999 999999 999999 999999 999999 999999 999999 999999 999999 999999 999999 999999 999999 999999 999999 999999 999999 999999 999999 999999 999999 999999 999999 999999 999999 999999 999999 999999 999999 999999 999999 999999 999999 999999 999999 999999 999999 999999 999999 999999 999999 999999 999999 999999 999999 999999 999999 999999 999999 999999 999999 999999 999999 999999 999999 999999 999999 999999 999999 999999 999999 999999 999999 999999 999999 999999 999999 999999 999999 999999 999999 999999 999999 999999 999999 999999 999999 999999 999999 999999 999999 999999 999999 999999 999999 999999 999999 999999 999999 999999 999999 999999 999999 999999 999999 999999 0
EOF