NAME: GR_2x5x10_KH_5x10_Run_8
TYPE: TSP
COMMENT: BTSP instance |A|=100 GR nodes |B|=50 KH nodes depot=0.0 end=0.0.0
DIMENSION: 152
EDGE_WEIGHT_TYPE: EXPLICIT
EDGE_WEIGHT_FORMAT: FULL_MATRIX
NODE_COORD_TYPE: NO_COORDS
EDGE_WEIGHT_SECTION
0 8255 12604 14253 13401 7082 8764 12944 7125 7094 6829 6719 11761 8654 10765 9827 5325 10846 9234 7102 14327 9441 12205 13578 10258 5218 8835 11557 8219 13168 13471 10647 14774 7205 8349 9308 9147 10779 7974 11895 6048 13144 10933 5688 8985 8600 11977 14295 10510 8233 10112 9247 14096 5542 5250 14622 13002 8273 7608 12611 13490 8781 8333 13286 13222 10165 5530 10627 7006 8477 7523 7845 8378 12300 8471 14660 13855 11733 12877 14064 13246 6703 14882 6414 5297 8780 12121 13933 13884 14669 10406 13205 10575 7324 12588 12278 6137 14743 11186 8933 11535 999999 999999 999999 999999 999999 999999 999999 999999 999999 999999 999999 999999 999999 999999 999999 999999 999999 999999 999999 999999 999999 999999 999999 999999 999999 999999 999999 999999 999999 999999 999999 999999 999999 999999 999999 999999 999999 999999 999999 999999 999999 999999 999999 999999 999999 999999 999999 999999 999999 999999 999999
999999 0 999999 999999 999999 999999 999999 999999 999999 999999 999999 999999 999999 999999 999999 999999 999999 999999 999999 999999 999999 999999 999999 999999 999999 999999 999999 999999 999999 999999 999999 999999 999999 999999 999999 999999 999999 999999 999999 999999 999999 999999 999999 999999 999999 999999 999999 999999 999999 999999 999999 999999 999999 999999 999999 999999 999999 999999 999999 999999 999999 999999 999999 999999 999999 999999 999999 999999 999999 999999 999999 999999 999999 999999 999999 999999 999999 999999 999999 999999 999999 999999 999999 999999 999999 999999 999999 999999 999999 999999 999999 999999 999999 999999 999999 999999 999999 999999 999999 999999 999999 18727 16439 11029 18979 11740 12515 14502 14171 11623 16299 10629 11299 12096 16375 12286 17516 18967 14461 10131 13443 19443 12873 13878 16891 18067 10157 11096 19944 13615 16163 12735 12619 15525 17714 11840 14301 18454 19676 17906 11114 11183 12591 10220 15595 19343 16684 12732 11442 11906 19974 999999
999999 999999 0 999999 999999 999999 999999 999999 999999 999999 999999 999999 999999 999999 999999 999999 999999 999999 999999 999999 999999 999999 999999 999999 999999 999999 999999 999999 999999 999999 999999 999999 999999 999999 999999 999999 999999 999999 999999 999999 999999 999999 999999 999999 999999 999999 999999 999999 999999 999999 999999 999999 999999 999999 999999 999999 999999 999999 999999 999999 999999 999999 999999 999999 999999 999999 999999 999999 999999 999999 999999 999999 999999 999999 999999 999999 999999 999999 999999 999999 999999 999999 999999 999999 999999 999999 999999 999999 999999 999999 999999 999999 999999 999999 999999 999999 999999 999999 999999 999999 999999 12970 15228 14601 12041 12248 14829 15189 17670 11424 15781 15652 12609 13881 13216 14557 11426 11406 16606 11120 19962 12591 16678 11077 10308 13443 17756 17455 15659 17381 17017 13345 13427 14488 14040 16439 13586 13213 15256 12574 17150 18814 18811 19573 13504 10735 12963 12050 10272 14988 15830 999999
999999 999999 999999 0 999999 999999 999999 999999 999999 999999 999999 999999 999999 999999 999999 999999 999999 999999 999999 999999 999999 999999 999999 999999 999999 999999 999999 999999 999999 999999 999999 999999 999999 999999 999999 999999 999999 999999 999999 999999 999999 999999 999999 999999 999999 999999 999999 999999 999999 999999 999999 999999 999999 999999 999999 999999 999999 999999 999999 999999 999999 999999 999999 999999 999999 999999 999999 999999 999999 999999 999999 999999 999999 999999 999999 999999 999999 999999 999999 999999 999999 999999 999999 999999 999999 999999 999999 999999 999999 999999 999999 999999 999999 999999 999999 999999 999999 999999 999999 999999 999999 19617 14206 16177 17764 12761 11550 14263 18600 10853 16481 11642 15452 11554 15357 11137 19778 16680 17027 17636 14320 11770 12995 12712 10691 14701 18180 10371 15110 18902 19394 10438 17034 14489 12656 12291 13773 16040 12173 17532 13703 13971 13682 10855 17810 12487 10844 19475 16162 15958 10008 999999
999999 999999 999999 999999 0 999999 999999 999999 999999 999999 999999 999999 999999 999999 999999 999999 999999 999999 999999 999999 999999 999999 999999 999999 999999 999999 999999 999999 999999 999999 999999 999999 999999 999999 999999 999999 999999 999999 999999 999999 999999 999999 999999 999999 999999 999999 999999 999999 999999 999999 999999 999999 999999 999999 999999 999999 999999 999999 999999 999999 999999 999999 999999 999999 999999 999999 999999 999999 999999 999999 999999 999999 999999 999999 999999 999999 999999 999999 999999 999999 999999 999999 999999 999999 999999 999999 999999 999999 999999 999999 999999 999999 999999 999999 999999 999999 999999 999999 999999 999999 999999 18684 18947 14209 10899 19982 14075 10038 11616 10059 16625 12552 14369 11449 15195 11931 18558 13736 11366 16368 14518 15955 10270 14055 19773 12062 19308 14962 14034 13984 14162 16947 14398 19690 14013 18306 14175 12768 15624 16090 10084 13403 11541 14272 16645 15058 10571 10096 19981 17497 17133 999999
999999 999999 999999 999999 999999 0 999999 999999 999999 999999 999999 999999 999999 999999 999999 999999 999999 999999 999999 999999 999999 999999 999999 999999 999999 999999 999999 999999 999999 999999 999999 999999 999999 999999 999999 999999 999999 999999 999999 999999 999999 999999 999999 999999 999999 999999 999999 999999 999999 999999 999999 999999 999999 999999 999999 999999 999999 999999 999999 999999 999999 999999 999999 999999 999999 999999 999999 999999 999999 999999 999999 999999 999999 999999 999999 999999 999999 999999 999999 999999 999999 999999 999999 999999 999999 999999 999999 999999 999999 999999 999999 999999 999999 999999 999999 999999 999999 999999 999999 999999 999999 16915 17464 19412 19135 18172 16763 13968 11491 19570 16023 16980 12093 14430 12672 16851 12596 15468 19321 19613 11152 10208 18242 18128 16565 11580 12912 11132 18521 15017 15038 10643 17354 13204 11066 14481 16448 14700 14668 16731 14951 11531 14821 18181 15326 17652 19306 15876 16904 18114 11395 999999
999999 999999 999999 999999 999999 999999 0 999999 999999 999999 999999 999999 999999 999999 999999 999999 999999 999999 999999 999999 999999 999999 999999 999999 999999 999999 999999 999999 999999 999999 999999 999999 999999 999999 999999 999999 999999 999999 999999 999999 999999 999999 999999 999999 999999 999999 999999 999999 999999 999999 999999 999999 999999 999999 999999 999999 999999 999999 999999 999999 999999 999999 999999 999999 999999 999999 999999 999999 999999 999999 999999 999999 999999 999999 999999 999999 999999 999999 999999 999999 999999 999999 999999 999999 999999 999999 999999 999999 999999 999999 999999 999999 999999 999999 999999 999999 999999 999999 999999 999999 999999 19404 14624 11330 19936 17469 18874 11409 18021 15381 15425 13146 12366 14457 13491 18025 15742 14161 18889 11180 18251 11949 11911 16578 13190 17797 16462 17811 17211 19764 19119 13461 17880 12118 10756 15995 13463 13832 10545 11047 17018 16189 10194 17710 17710 18831 14083 10581 15539 13255 10587 999999
999999 999999 999999 999999 999999 999999 999999 0 999999 999999 999999 999999 999999 999999 999999 999999 999999 999999 999999 999999 999999 999999 999999 999999 999999 999999 999999 999999 999999 999999 999999 999999 999999 999999 999999 999999 999999 999999 999999 999999 999999 999999 999999 999999 999999 999999 999999 999999 999999 999999 999999 999999 999999 999999 999999 999999 999999 999999 999999 999999 999999 999999 999999 999999 999999 999999 999999 999999 999999 999999 999999 999999 999999 999999 999999 999999 999999 999999 999999 999999 999999 999999 999999 999999 999999 999999 999999 999999 999999 999999 999999 999999 999999 999999 999999 999999 999999 999999 999999 999999 999999 18394 18617 13473 14548 14728 17289 19627 15636 13169 10075 16896 19225 19515 16018 10130 13678 16449 17460 13059 19793 15233 10973 15769 14068 11875 15974 11235 17134 13683 18531 15304 19025 14053 12869 11024 10242 16925 17809 11197 10690 17274 14440 19152 12824 11160 18529 15638 10410 12389 10652 999999
999999 999999 999999 999999 999999 999999 999999 999999 0 999999 999999 999999 999999 999999 999999 999999 999999 999999 999999 999999 999999 999999 999999 999999 999999 999999 999999 999999 999999 999999 999999 999999 999999 999999 999999 999999 999999 999999 999999 999999 999999 999999 999999 999999 999999 999999 999999 999999 999999 999999 999999 999999 999999 999999 999999 999999 999999 999999 999999 999999 999999 999999 999999 999999 999999 999999 999999 999999 999999 999999 999999 999999 999999 999999 999999 999999 999999 999999 999999 999999 999999 999999 999999 999999 999999 999999 999999 999999 999999 999999 999999 999999 999999 999999 999999 999999 999999 999999 999999 999999 999999 13456 13273 16396 15755 18044 13549 12343 15126 19295 16641 15940 17174 18773 16658 11176 10909 18227 15720 13739 11975 19787 17544 15797 15369 17538 19893 13473 11469 10068 17915 17511 15976 12082 13037 10058 16763 18340 10895 17099 16924 19399 11919 13817 15827 15713 13560 12371 14501 16018 11288 999999
999999 999999 999999 999999 999999 999999 999999 999999 999999 0 999999 999999 999999 999999 999999 999999 999999 999999 999999 999999 999999 999999 999999 999999 999999 999999 999999 999999 999999 999999 999999 999999 999999 999999 999999 999999 999999 999999 999999 999999 999999 999999 999999 999999 999999 999999 999999 999999 999999 999999 999999 999999 999999 999999 999999 999999 999999 999999 999999 999999 999999 999999 999999 999999 999999 999999 999999 999999 999999 999999 999999 999999 999999 999999 999999 999999 999999 999999 999999 999999 999999 999999 999999 999999 999999 999999 999999 999999 999999 999999 999999 999999 999999 999999 999999 999999 999999 999999 999999 999999 999999 10204 14304 15975 12755 13486 12123 10057 19527 16332 13106 16259 14151 15664 18714 10131 14456 15069 12466 12330 17719 12634 11166 19099 12526 14349 17140 18367 12611 11949 10512 10924 18626 11111 16751 15978 17064 19260 15583 14227 16956 16233 17280 11609 10096 14764 16295 18938 19331 11527 19453 999999
999999 999999 999999 999999 999999 999999 999999 999999 999999 999999 0 999999 999999 999999 999999 999999 999999 999999 999999 999999 999999 999999 999999 999999 999999 999999 999999 999999 999999 999999 999999 999999 999999 999999 999999 999999 999999 999999 999999 999999 999999 999999 999999 999999 999999 999999 999999 999999 999999 999999 999999 999999 999999 999999 999999 999999 999999 999999 999999 999999 999999 999999 999999 999999 999999 999999 999999 999999 999999 999999 999999 999999 999999 999999 999999 999999 999999 999999 999999 999999 999999 999999 999999 999999 999999 999999 999999 999999 999999 999999 999999 999999 999999 999999 999999 999999 999999 999999 999999 999999 999999 11721 17152 10844 10137 10767 15977 17686 19536 14734 19545 17704 17308 15306 15131 11439 10164 11867 10384 11853 12294 16747 12535 15825 17669 19656 12711 12896 17662 15034 15702 17021 17958 17918 16700 11572 17948 11649 11743 12323 18434 12070 11151 11249 15899 11618 17805 19328 17748 17525 15848 999999
999999 999999 999999 999999 999999 999999 999999 999999 999999 999999 999999 0 999999 999999 999999 999999 999999 999999 999999 999999 999999 999999 999999 999999 999999 999999 999999 999999 999999 999999 999999 999999 999999 999999 999999 999999 999999 999999 999999 999999 999999 999999 999999 999999 999999 999999 999999 999999 999999 999999 999999 999999 999999 999999 999999 999999 999999 999999 999999 999999 999999 999999 999999 999999 999999 999999 999999 999999 999999 999999 999999 999999 999999 999999 999999 999999 999999 999999 999999 999999 999999 999999 999999 999999 999999 999999 999999 999999 999999 999999 999999 999999 999999 999999 999999 999999 999999 999999 999999 999999 999999 13811 17516 18143 16006 13122 12503 15195 12277 12029 17895 16685 13797 18034 14621 12237 12761 17148 16493 19277 17520 16570 15449 13122 17845 17188 15538 12058 19620 10526 12958 18555 12685 17362 11341 10958 16864 10823 10358 11937 13341 15004 12535 17554 19902 14578 15163 17589 17628 15897 14643 999999
999999 999999 999999 999999 999999 999999 999999 999999 999999 999999 999999 999999 0 999999 999999 999999 999999 999999 999999 999999 999999 999999 999999 999999 999999 999999 999999 999999 999999 999999 999999 999999 999999 999999 999999 999999 999999 999999 999999 999999 999999 999999 999999 999999 999999 999999 999999 999999 999999 999999 999999 999999 999999 999999 999999 999999 999999 999999 999999 999999 999999 999999 999999 999999 999999 999999 999999 999999 999999 999999 999999 999999 999999 999999 999999 999999 999999 999999 999999 999999 999999 999999 999999 999999 999999 999999 999999 999999 999999 999999 999999 999999 999999 999999 999999 999999 999999 999999 999999 999999 999999 11593 18391 18973 13388 11752 11442 11074 12368 11997 16335 14197 11886 13764 12596 11688 19809 17498 13584 14714 19672 15470 14404 11658 13604 17382 12985 12995 11934 13146 13194 14476 11713 10905 14349 16656 19468 12150 13639 19482 17546 19363 14906 14813 19846 17088 12244 15995 12943 10856 16893 999999
999999 999999 999999 999999 999999 999999 999999 999999 999999 999999 999999 999999 999999 0 999999 999999 999999 999999 999999 999999 999999 999999 999999 999999 999999 999999 999999 999999 999999 999999 999999 999999 999999 999999 999999 999999 999999 999999 999999 999999 999999 999999 999999 999999 999999 999999 999999 999999 999999 999999 999999 999999 999999 999999 999999 999999 999999 999999 999999 999999 999999 999999 999999 999999 999999 999999 999999 999999 999999 999999 999999 999999 999999 999999 999999 999999 999999 999999 999999 999999 999999 999999 999999 999999 999999 999999 999999 999999 999999 999999 999999 999999 999999 999999 999999 999999 999999 999999 999999 999999 999999 16754 16911 18776 13816 15820 13520 16642 19600 13757 17391 15365 19581 14726 11429 16937 14381 10558 18353 19715 18461 15669 12683 15392 18333 16559 13411 10343 16572 15491 16291 18501 16167 12814 12660 19016 17202 15980 10289 10622 14138 14032 19488 13321 11690 18320 15426 16845 10764 14812 14470 999999
999999 999999 999999 999999 999999 999999 999999 999999 999999 999999 999999 999999 999999 999999 0 999999 999999 999999 999999 999999 999999 999999 999999 999999 999999 999999 999999 999999 999999 999999 999999 999999 999999 999999 999999 999999 999999 999999 999999 999999 999999 999999 999999 999999 999999 999999 999999 999999 999999 999999 999999 999999 999999 999999 999999 999999 999999 999999 999999 999999 999999 999999 999999 999999 999999 999999 999999 999999 999999 999999 999999 999999 999999 999999 999999 999999 999999 999999 999999 999999 999999 999999 999999 999999 999999 999999 999999 999999 999999 999999 999999 999999 999999 999999 999999 999999 999999 999999 999999 999999 999999 10838 14593 11764 13015 19899 17939 15424 18332 16088 14692 11351 12168 12775 10741 11650 16721 15798 18111 15910 18469 17135 15909 18015 13011 13242 16178 18640 13836 11426 11093 15622 15787 13900 14620 17765 13621 14418 19912 10995 16597 16448 15383 17092 18039 15827 14705 12592 10685 17220 11497 999999
999999 999999 999999 999999 999999 999999 999999 999999 999999 999999 999999 999999 999999 999999 999999 0 999999 999999 999999 999999 999999 999999 999999 999999 999999 999999 999999 999999 999999 999999 999999 999999 999999 999999 999999 999999 999999 999999 999999 999999 999999 999999 999999 999999 999999 999999 999999 999999 999999 999999 999999 999999 999999 999999 999999 999999 999999 999999 999999 999999 999999 999999 999999 999999 999999 999999 999999 999999 999999 999999 999999 999999 999999 999999 999999 999999 999999 999999 999999 999999 999999 999999 999999 999999 999999 999999 999999 999999 999999 999999 999999 999999 999999 999999 999999 999999 999999 999999 999999 999999 999999 19594 11290 19465 10523 11943 19404 18163 19693 14027 15044 14222 13687 11207 10201 14507 19062 15842 18350 16113 18834 16291 19870 12351 14858 17323 14959 11448 11910 15561 12054 18407 11656 18549 12255 17007 12217 18483 17320 13273 14923 19441 14246 17925 19648 13545 14548 15406 11056 12533 12047 999999
999999 999999 999999 999999 999999 999999 999999 999999 999999 999999 999999 999999 999999 999999 999999 999999 0 999999 999999 999999 999999 999999 999999 999999 999999 999999 999999 999999 999999 999999 999999 999999 999999 999999 999999 999999 999999 999999 999999 999999 999999 999999 999999 999999 999999 999999 999999 999999 999999 999999 999999 999999 999999 999999 999999 999999 999999 999999 999999 999999 999999 999999 999999 999999 999999 999999 999999 999999 999999 999999 999999 999999 999999 999999 999999 999999 999999 999999 999999 999999 999999 999999 999999 999999 999999 999999 999999 999999 999999 999999 999999 999999 999999 999999 999999 999999 999999 999999 999999 999999 999999 19715 18654 18066 16480 17391 13370 17674 19163 17995 13193 12318 15419 11592 19590 13358 10189 19908 11645 10376 13537 19952 19899 11667 13792 10148 12802 16480 12443 11864 18949 17042 15613 14280 19783 15390 17445 11240 17339 17066 12560 14778 12489 11671 17260 19976 14968 19096 18045 12113 15427 999999
999999 999999 999999 999999 999999 999999 999999 999999 999999 999999 999999 999999 999999 999999 999999 999999 999999 0 999999 999999 999999 999999 999999 999999 999999 999999 999999 999999 999999 999999 999999 999999 999999 999999 999999 999999 999999 999999 999999 999999 999999 999999 999999 999999 999999 999999 999999 999999 999999 999999 999999 999999 999999 999999 999999 999999 999999 999999 999999 999999 999999 999999 999999 999999 999999 999999 999999 999999 999999 999999 999999 999999 999999 999999 999999 999999 999999 999999 999999 999999 999999 999999 999999 999999 999999 999999 999999 999999 999999 999999 999999 999999 999999 999999 999999 999999 999999 999999 999999 999999 999999 11776 15438 19829 16927 13284 12724 16390 17339 13225 18496 12029 17932 18893 11637 12019 14945 12380 15712 16780 15788 12331 11482 14036 13766 13831 12063 19489 11260 18251 11612 12393 19540 19406 10715 18725 17026 19070 13402 13674 14964 16858 11547 10567 19524 15861 15139 14062 15110 17216 13077 999999
999999 999999 999999 999999 999999 999999 999999 999999 999999 999999 999999 999999 999999 999999 999999 999999 999999 999999 0 999999 999999 999999 999999 999999 999999 999999 999999 999999 999999 999999 999999 999999 999999 999999 999999 999999 999999 999999 999999 999999 999999 999999 999999 999999 999999 999999 999999 999999 999999 999999 999999 999999 999999 999999 999999 999999 999999 999999 999999 999999 999999 999999 999999 999999 999999 999999 999999 999999 999999 999999 999999 999999 999999 999999 999999 999999 999999 999999 999999 999999 999999 999999 999999 999999 999999 999999 999999 999999 999999 999999 999999 999999 999999 999999 999999 999999 999999 999999 999999 999999 999999 10547 14329 15370 19878 16839 18281 11744 11575 18321 13672 11620 15495 19063 18253 13886 13919 19537 10380 16025 10616 11616 10067 17270 12690 14708 18799 14229 14857 15176 11160 10115 15513 19972 16103 11845 14554 12042 17695 10165 13003 18319 14458 13866 15281 16468 18955 15560 16396 18590 18602 999999
999999 999999 999999 999999 999999 999999 999999 999999 999999 999999 999999 999999 999999 999999 999999 999999 999999 999999 999999 0 999999 999999 999999 999999 999999 999999 999999 999999 999999 999999 999999 999999 999999 999999 999999 999999 999999 999999 999999 999999 999999 999999 999999 999999 999999 999999 999999 999999 999999 999999 999999 999999 999999 999999 999999 999999 999999 999999 999999 999999 999999 999999 999999 999999 999999 999999 999999 999999 999999 999999 999999 999999 999999 999999 999999 999999 999999 999999 999999 999999 999999 999999 999999 999999 999999 999999 999999 999999 999999 999999 999999 999999 999999 999999 999999 999999 999999 999999 999999 999999 999999 16360 15098 17489 16516 19538 15948 19803 14081 17444 11926 18212 15189 12550 11063 17446 17305 17777 14058 13945 10480 17810 10975 19177 13351 18689 13203 15559 12954 15491 14693 15558 16886 14889 16337 10988 13545 15541 15663 15956 11938 18982 12277 19520 16049 10643 18658 15104 10969 19650 13101 999999
999999 999999 999999 999999 999999 999999 999999 999999 999999 999999 999999 999999 999999 999999 999999 999999 999999 999999 999999 999999 0 999999 999999 999999 999999 999999 999999 999999 999999 999999 999999 999999 999999 999999 999999 999999 999999 999999 999999 999999 999999 999999 999999 999999 999999 999999 999999 999999 999999 999999 999999 999999 999999 999999 999999 999999 999999 999999 999999 999999 999999 999999 999999 999999 999999 999999 999999 999999 999999 999999 999999 999999 999999 999999 999999 999999 999999 999999 999999 999999 999999 999999 999999 999999 999999 999999 999999 999999 999999 999999 999999 999999 999999 999999 999999 999999 999999 999999 999999 999999 999999 10302 10888 10520 11269 16531 12064 18632 10101 15015 10307 15338 12760 18128 12778 17313 19021 19968 13254 11955 15483 15720 10053 13362 13117 14495 18194 19488 10422 10421 18784 11918 10911 13092 12969 17440 16177 15031 16734 13345 12371 19568 16612 19202 16035 15946 11900 10917 11321 13229 13948 999999
999999 999999 999999 999999 999999 999999 999999 999999 999999 999999 999999 999999 999999 999999 999999 999999 999999 999999 999999 999999 999999 0 999999 999999 999999 999999 999999 999999 999999 999999 999999 999999 999999 999999 999999 999999 999999 999999 999999 999999 999999 999999 999999 999999 999999 999999 999999 999999 999999 999999 999999 999999 999999 999999 999999 999999 999999 999999 999999 999999 999999 999999 999999 999999 999999 999999 999999 999999 999999 999999 999999 999999 999999 999999 999999 999999 999999 999999 999999 999999 999999 999999 999999 999999 999999 999999 999999 999999 999999 999999 999999 999999 999999 999999 999999 999999 999999 999999 999999 999999 999999 13648 18573 14289 12171 13898 15055 11487 10102 14254 15183 12212 15457 15081 15511 11343 12213 17531 13916 17958 15765 13072 16949 11211 15018 17389 11045 19590 18425 19436 12888 19717 16217 12423 19494 12652 15083 11950 16774 12711 14799 17392 18915 13520 10406 14430 18147 18963 15544 18273 17688 999999
999999 999999 999999 999999 999999 999999 999999 999999 999999 999999 999999 999999 999999 999999 999999 999999 999999 999999 999999 999999 999999 999999 0 999999 999999 999999 999999 999999 999999 999999 999999 999999 999999 999999 999999 999999 999999 999999 999999 999999 999999 999999 999999 999999 999999 999999 999999 999999 999999 999999 999999 999999 999999 999999 999999 999999 999999 999999 999999 999999 999999 999999 999999 999999 999999 999999 999999 999999 999999 999999 999999 999999 999999 999999 999999 999999 999999 999999 999999 999999 999999 999999 999999 999999 999999 999999 999999 999999 999999 999999 999999 999999 999999 999999 999999 999999 999999 999999 999999 999999 999999 17100 12609 14546 15997 13005 17247 13598 10823 11367 11560 14610 14474 18456 17811 14383 14800 10318 13246 11191 14741 12463 12749 18470 15625 11531 13243 19744 12482 19248 19625 19232 12864 15330 11638 11618 11850 13164 19551 17146 17028 15462 10125 17948 11547 11724 10820 19187 15322 17924 12560 999999
999999 999999 999999 999999 999999 999999 999999 999999 999999 999999 999999 999999 999999 999999 999999 999999 999999 999999 999999 999999 999999 999999 999999 0 999999 999999 999999 999999 999999 999999 999999 999999 999999 999999 999999 999999 999999 999999 999999 999999 999999 999999 999999 999999 999999 999999 999999 999999 999999 999999 999999 999999 999999 999999 999999 999999 999999 999999 999999 999999 999999 999999 999999 999999 999999 999999 999999 999999 999999 999999 999999 999999 999999 999999 999999 999999 999999 999999 999999 999999 999999 999999 999999 999999 999999 999999 999999 999999 999999 999999 999999 999999 999999 999999 999999 999999 999999 999999 999999 999999 999999 19464 16098 15935 19582 17963 19128 18695 18635 18141 15380 11395 14483 14637 10005 15347 10336 19613 19068 18321 17833 16951 12131 11955 18257 18384 12503 17842 13734 15271 17833 13391 10550 17174 19456 12721 17733 17684 11382 18026 15762 14591 13743 15432 13831 10975 13354 16155 16122 14801 13443 999999
999999 999999 999999 999999 999999 999999 999999 999999 999999 999999 999999 999999 999999 999999 999999 999999 999999 999999 999999 999999 999999 999999 999999 999999 0 999999 999999 999999 999999 999999 999999 999999 999999 999999 999999 999999 999999 999999 999999 999999 999999 999999 999999 999999 999999 999999 999999 999999 999999 999999 999999 999999 999999 999999 999999 999999 999999 999999 999999 999999 999999 999999 999999 999999 999999 999999 999999 999999 999999 999999 999999 999999 999999 999999 999999 999999 999999 999999 999999 999999 999999 999999 999999 999999 999999 999999 999999 999999 999999 999999 999999 999999 999999 999999 999999 999999 999999 999999 999999 999999 999999 10643 15990 17262 16339 15495 13001 18414 10903 10647 18684 17225 12597 19575 12880 15858 15765 14571 18065 11222 16788 18610 16355 18682 14344 12884 14495 16082 15592 18396 14448 11538 13794 15448 17305 14338 16808 14550 18235 14814 14402 11280 19589 12640 13152 16016 18177 12581 19415 11271 12717 999999
999999 999999 999999 999999 999999 999999 999999 999999 999999 999999 999999 999999 999999 999999 999999 999999 999999 999999 999999 999999 999999 999999 999999 999999 999999 0 999999 999999 999999 999999 999999 999999 999999 999999 999999 999999 999999 999999 999999 999999 999999 999999 999999 999999 999999 999999 999999 999999 999999 999999 999999 999999 999999 999999 999999 999999 999999 999999 999999 999999 999999 999999 999999 999999 999999 999999 999999 999999 999999 999999 999999 999999 999999 999999 999999 999999 999999 999999 999999 999999 999999 999999 999999 999999 999999 999999 999999 999999 999999 999999 999999 999999 999999 999999 999999 999999 999999 999999 999999 999999 999999 13234 12724 11592 19581 17020 17196 10115 12205 14903 16432 19184 10724 10007 16639 19827 13139 14344 16177 12124 13828 12522 15455 11533 10608 19366 17435 19185 13772 14091 14844 12560 13214 10090 10746 16850 19753 19261 15705 17500 14538 12781 15039 15293 15305 12936 19403 16026 19407 19944 15701 999999
999999 999999 999999 999999 999999 999999 999999 999999 999999 999999 999999 999999 999999 999999 999999 999999 999999 999999 999999 999999 999999 999999 999999 999999 999999 999999 0 999999 999999 999999 999999 999999 999999 999999 999999 999999 999999 999999 999999 999999 999999 999999 999999 999999 999999 999999 999999 999999 999999 999999 999999 999999 999999 999999 999999 999999 999999 999999 999999 999999 999999 999999 999999 999999 999999 999999 999999 999999 999999 999999 999999 999999 999999 999999 999999 999999 999999 999999 999999 999999 999999 999999 999999 999999 999999 999999 999999 999999 999999 999999 999999 999999 999999 999999 999999 999999 999999 999999 999999 999999 999999 18955 17380 14976 18190 17097 10189 18525 11645 12276 16514 18827 16611 14280 17272 10025 17700 17328 18284 14334 12324 10069 17234 10799 15544 13457 17322 11090 19430 15090 15023 19873 14502 13077 18272 16893 14188 16063 16272 18817 17244 13256 13134 13045 12374 17042 15955 16728 16127 18205 19487 999999
999999 999999 999999 999999 999999 999999 999999 999999 999999 999999 999999 999999 999999 999999 999999 999999 999999 999999 999999 999999 999999 999999 999999 999999 999999 999999 999999 0 999999 999999 999999 999999 999999 999999 999999 999999 999999 999999 999999 999999 999999 999999 999999 999999 999999 999999 999999 999999 999999 999999 999999 999999 999999 999999 999999 999999 999999 999999 999999 999999 999999 999999 999999 999999 999999 999999 999999 999999 999999 999999 999999 999999 999999 999999 999999 999999 999999 999999 999999 999999 999999 999999 999999 999999 999999 999999 999999 999999 999999 999999 999999 999999 999999 999999 999999 999999 999999 999999 999999 999999 999999 19195 16338 19630 13434 19969 12611 15365 19999 15467 10577 10535 10179 19272 11997 10226 10235 13619 11261 17047 18943 10001 10308 15147 17360 17761 15817 16769 15516 16851 17320 14124 14071 13867 13448 13065 19143 13920 11951 19320 16556 14246 11395 17981 14365 17792 17067 11251 14047 15927 19136 999999
999999 999999 999999 999999 999999 999999 999999 999999 999999 999999 999999 999999 999999 999999 999999 999999 999999 999999 999999 999999 999999 999999 999999 999999 999999 999999 999999 999999 0 999999 999999 999999 999999 999999 999999 999999 999999 999999 999999 999999 999999 999999 999999 999999 999999 999999 999999 999999 999999 999999 999999 999999 999999 999999 999999 999999 999999 999999 999999 999999 999999 999999 999999 999999 999999 999999 999999 999999 999999 999999 999999 999999 999999 999999 999999 999999 999999 999999 999999 999999 999999 999999 999999 999999 999999 999999 999999 999999 999999 999999 999999 999999 999999 999999 999999 999999 999999 999999 999999 999999 999999 10475 19219 19263 10813 16340 15713 15378 11640 11028 16208 14292 16315 15726 13523 11630 13527 13687 15609 13172 16578 14982 15659 19264 12133 11271 10481 13668 16635 15315 17268 15530 18024 18319 16616 17071 12693 12649 17733 13584 10976 18811 16592 10029 18517 19747 19711 10911 16365 19655 19647 999999
999999 999999 999999 999999 999999 999999 999999 999999 999999 999999 999999 999999 999999 999999 999999 999999 999999 999999 999999 999999 999999 999999 999999 999999 999999 999999 999999 999999 999999 0 999999 999999 999999 999999 999999 999999 999999 999999 999999 999999 999999 999999 999999 999999 999999 999999 999999 999999 999999 999999 999999 999999 999999 999999 999999 999999 999999 999999 999999 999999 999999 999999 999999 999999 999999 999999 999999 999999 999999 999999 999999 999999 999999 999999 999999 999999 999999 999999 999999 999999 999999 999999 999999 999999 999999 999999 999999 999999 999999 999999 999999 999999 999999 999999 999999 999999 999999 999999 999999 999999 999999 18041 19360 12642 10489 17678 18074 12925 15616 16353 12952 15209 16059 16328 11162 19576 18474 11685 14964 11292 11597 15655 11125 12290 18504 19498 15160 19202 11283 17728 15696 15813 13675 10601 13969 10858 17077 16803 16130 10811 17190 19339 16334 10247 17263 13580 19479 12574 17300 13616 11711 999999
999999 999999 999999 999999 999999 999999 999999 999999 999999 999999 999999 999999 999999 999999 999999 999999 999999 999999 999999 999999 999999 999999 999999 999999 999999 999999 999999 999999 999999 999999 0 999999 999999 999999 999999 999999 999999 999999 999999 999999 999999 999999 999999 999999 999999 999999 999999 999999 999999 999999 999999 999999 999999 999999 999999 999999 999999 999999 999999 999999 999999 999999 999999 999999 999999 999999 999999 999999 999999 999999 999999 999999 999999 999999 999999 999999 999999 999999 999999 999999 999999 999999 999999 999999 999999 999999 999999 999999 999999 999999 999999 999999 999999 999999 999999 999999 999999 999999 999999 999999 999999 19095 15374 19980 16648 19744 19641 17416 13350 12240 13633 15729 10966 14160 17572 13211 12053 16452 10749 15177 16387 13841 17340 14679 19122 19277 18464 19692 19456 14076 14717 19530 16824 16069 13289 11512 15889 18124 13108 17083 19980 14859 12596 10697 13623 13623 14049 15328 19556 14304 12150 999999
999999 999999 999999 999999 999999 999999 999999 999999 999999 999999 999999 999999 999999 999999 999999 999999 999999 999999 999999 999999 999999 999999 999999 999999 999999 999999 999999 999999 999999 999999 999999 0 999999 999999 999999 999999 999999 999999 999999 999999 999999 999999 999999 999999 999999 999999 999999 999999 999999 999999 999999 999999 999999 999999 999999 999999 999999 999999 999999 999999 999999 999999 999999 999999 999999 999999 999999 999999 999999 999999 999999 999999 999999 999999 999999 999999 999999 999999 999999 999999 999999 999999 999999 999999 999999 999999 999999 999999 999999 999999 999999 999999 999999 999999 999999 999999 999999 999999 999999 999999 999999 14908 18583 13861 12106 13386 14317 10977 18422 15813 14516 10522 14763 17767 11234 13322 17117 12047 18162 16683 17643 16246 12803 10941 17468 15707 12023 16285 17656 11589 14789 12338 10202 16452 18374 18134 13488 16025 10133 17224 18548 19180 19702 13568 13499 15953 12923 15973 10005 15406 13204 999999
999999 999999 999999 999999 999999 999999 999999 999999 999999 999999 999999 999999 999999 999999 999999 999999 999999 999999 999999 999999 999999 999999 999999 999999 999999 999999 999999 999999 999999 999999 999999 999999 0 999999 999999 999999 999999 999999 999999 999999 999999 999999 999999 999999 999999 999999 999999 999999 999999 999999 999999 999999 999999 999999 999999 999999 999999 999999 999999 999999 999999 999999 999999 999999 999999 999999 999999 999999 999999 999999 999999 999999 999999 999999 999999 999999 999999 999999 999999 999999 999999 999999 999999 999999 999999 999999 999999 999999 999999 999999 999999 999999 999999 999999 999999 999999 999999 999999 999999 999999 999999 13142 13293 12836 14971 14116 19759 14332 15660 12709 19628 11491 17628 19983 13448 18304 18618 11261 11979 12913 19689 10179 16008 15442 14104 11637 10088 14062 19882 17777 11840 16084 17053 14357 15885 19775 11975 19212 11573 11804 19629 15397 14062 13622 11196 10458 13760 16992 18969 19798 18500 999999
999999 999999 999999 999999 999999 999999 999999 999999 999999 999999 999999 999999 999999 999999 999999 999999 999999 999999 999999 999999 999999 999999 999999 999999 999999 999999 999999 999999 999999 999999 999999 999999 999999 0 999999 999999 999999 999999 999999 999999 999999 999999 999999 999999 999999 999999 999999 999999 999999 999999 999999 999999 999999 999999 999999 999999 999999 999999 999999 999999 999999 999999 999999 999999 999999 999999 999999 999999 999999 999999 999999 999999 999999 999999 999999 999999 999999 999999 999999 999999 999999 999999 999999 999999 999999 999999 999999 999999 999999 999999 999999 999999 999999 999999 999999 999999 999999 999999 999999 999999 999999 18245 16863 17563 15262 18160 19570 15194 17614 13003 12946 17959 15668 11104 13493 16661 15607 16904 15774 15633 17231 11429 18627 19989 11914 14977 12881 10881 15064 13492 10069 15963 13569 17440 18081 18554 11966 15274 18958 13225 13479 14540 17644 17599 19790 11442 14394 13283 12224 15197 19979 999999
999999 999999 999999 999999 999999 999999 999999 999999 999999 999999 999999 999999 999999 999999 999999 999999 999999 999999 999999 999999 999999 999999 999999 999999 999999 999999 999999 999999 999999 999999 999999 999999 999999 999999 0 999999 999999 999999 999999 999999 999999 999999 999999 999999 999999 999999 999999 999999 999999 999999 999999 999999 999999 999999 999999 999999 999999 999999 999999 999999 999999 999999 999999 999999 999999 999999 999999 999999 999999 999999 999999 999999 999999 999999 999999 999999 999999 999999 999999 999999 999999 999999 999999 999999 999999 999999 999999 999999 999999 999999 999999 999999 999999 999999 999999 999999 999999 999999 999999 999999 999999 11036 16177 16640 17841 17472 10246 17824 12712 16435 11494 17545 14831 16907 14239 17076 12700 14907 15091 11834 16107 17337 14253 12892 10530 19191 12518 15980 11362 19994 14618 18261 10832 15125 12666 19657 12548 14203 10833 16028 15492 14793 10766 13148 19871 10469 14848 17414 11386 16240 15664 999999
999999 999999 999999 999999 999999 999999 999999 999999 999999 999999 999999 999999 999999 999999 999999 999999 999999 999999 999999 999999 999999 999999 999999 999999 999999 999999 999999 999999 999999 999999 999999 999999 999999 999999 999999 0 999999 999999 999999 999999 999999 999999 999999 999999 999999 999999 999999 999999 999999 999999 999999 999999 999999 999999 999999 999999 999999 999999 999999 999999 999999 999999 999999 999999 999999 999999 999999 999999 999999 999999 999999 999999 999999 999999 999999 999999 999999 999999 999999 999999 999999 999999 999999 999999 999999 999999 999999 999999 999999 999999 999999 999999 999999 999999 999999 999999 999999 999999 999999 999999 999999 11016 15479 18649 15672 18029 13489 15695 15077 11698 14961 13881 16712 13981 19116 11564 10751 17496 10429 10838 13868 14066 10879 10337 19222 11226 19029 17685 19235 10781 13734 16532 12213 15410 19991 17497 16438 16448 12141 10897 16212 12200 10653 10327 11433 16216 16280 14506 17676 10328 11883 999999
999999 999999 999999 999999 999999 999999 999999 999999 999999 999999 999999 999999 999999 999999 999999 999999 999999 999999 999999 999999 999999 999999 999999 999999 999999 999999 999999 999999 999999 999999 999999 999999 999999 999999 999999 999999 0 999999 999999 999999 999999 999999 999999 999999 999999 999999 999999 999999 999999 999999 999999 999999 999999 999999 999999 999999 999999 999999 999999 999999 999999 999999 999999 999999 999999 999999 999999 999999 999999 999999 999999 999999 999999 999999 999999 999999 999999 999999 999999 999999 999999 999999 999999 999999 999999 999999 999999 999999 999999 999999 999999 999999 999999 999999 999999 999999 999999 999999 999999 999999 999999 18793 15110 16568 17745 16630 16906 11828 15608 16250 12646 16267 13221 10438 17854 11912 11004 14220 12822 13161 13353 18771 11408 18388 17974 15878 10366 10979 13770 17095 15089 17908 17295 11204 15744 14513 17995 14118 16143 19602 10023 14365 18107 17734 16882 16483 19254 13241 10098 14781 11064 999999
999999 999999 999999 999999 999999 999999 999999 999999 999999 999999 999999 999999 999999 999999 999999 999999 999999 999999 999999 999999 999999 999999 999999 999999 999999 999999 999999 999999 999999 999999 999999 999999 999999 999999 999999 999999 999999 0 999999 999999 999999 999999 999999 999999 999999 999999 999999 999999 999999 999999 999999 999999 999999 999999 999999 999999 999999 999999 999999 999999 999999 999999 999999 999999 999999 999999 999999 999999 999999 999999 999999 999999 999999 999999 999999 999999 999999 999999 999999 999999 999999 999999 999999 999999 999999 999999 999999 999999 999999 999999 999999 999999 999999 999999 999999 999999 999999 999999 999999 999999 999999 19177 12727 16029 14779 13895 19751 19030 15280 18959 13684 16050 10822 17781 12059 18205 19478 16417 11419 15806 18159 18142 12097 12050 15154 17938 15946 15318 11353 14460 15439 18073 15289 16598 12176 18855 14885 18549 14774 16442 10999 18222 15240 10334 10634 17580 11584 16712 13254 13571 15254 999999
999999 999999 999999 999999 999999 999999 999999 999999 999999 999999 999999 999999 999999 999999 999999 999999 999999 999999 999999 999999 999999 999999 999999 999999 999999 999999 999999 999999 999999 999999 999999 999999 999999 999999 999999 999999 999999 999999 0 999999 999999 999999 999999 999999 999999 999999 999999 999999 999999 999999 999999 999999 999999 999999 999999 999999 999999 999999 999999 999999 999999 999999 999999 999999 999999 999999 999999 999999 999999 999999 999999 999999 999999 999999 999999 999999 999999 999999 999999 999999 999999 999999 999999 999999 999999 999999 999999 999999 999999 999999 999999 999999 999999 999999 999999 999999 999999 999999 999999 999999 999999 13229 16951 18169 11216 11252 19569 14756 18513 16324 16884 10838 11941 10385 16208 18791 15010 18820 10717 16725 15237 11313 11423 15905 12662 10653 14830 12583 19009 18487 15294 18002 13520 15852 17350 16785 17661 18642 10960 12156 13188 12774 15726 19867 17366 11142 11488 17263 13976 16773 19253 999999
999999 999999 999999 999999 999999 999999 999999 999999 999999 999999 999999 999999 999999 999999 999999 999999 999999 999999 999999 999999 999999 999999 999999 999999 999999 999999 999999 999999 999999 999999 999999 999999 999999 999999 999999 999999 999999 999999 999999 0 999999 999999 999999 999999 999999 999999 999999 999999 999999 999999 999999 999999 999999 999999 999999 999999 999999 999999 999999 999999 999999 999999 999999 999999 999999 999999 999999 999999 999999 999999 999999 999999 999999 999999 999999 999999 999999 999999 999999 999999 999999 999999 999999 999999 999999 999999 999999 999999 999999 999999 999999 999999 999999 999999 999999 999999 999999 999999 999999 999999 999999 18696 18095 17033 12879 11180 12638 19218 10703 14688 19059 16498 11726 10311 10376 17470 11105 16853 10509 16789 10134 13813 10975 12225 17416 15368 18433 10396 15993 17081 19981 17637 12767 17358 14773 10851 16678 13663 18990 11750 13988 12683 13408 19565 12990 16182 15740 11717 16632 17686 19922 999999
999999 999999 999999 999999 999999 999999 999999 999999 999999 999999 999999 999999 999999 999999 999999 999999 999999 999999 999999 999999 999999 999999 999999 999999 999999 999999 999999 999999 999999 999999 999999 999999 999999 999999 999999 999999 999999 999999 999999 999999 0 999999 999999 999999 999999 999999 999999 999999 999999 999999 999999 999999 999999 999999 999999 999999 999999 999999 999999 999999 999999 999999 999999 999999 999999 999999 999999 999999 999999 999999 999999 999999 999999 999999 999999 999999 999999 999999 999999 999999 999999 999999 999999 999999 999999 999999 999999 999999 999999 999999 999999 999999 999999 999999 999999 999999 999999 999999 999999 999999 999999 14371 15450 17058 19468 14922 17771 17923 11248 18479 11926 14367 16826 10752 16983 13733 19548 19495 16575 15595 18991 12709 19566 13579 15660 15753 18232 19368 12916 10581 17469 18369 12099 17472 18491 10093 18639 19220 10868 13859 13077 17212 17539 17713 12889 13967 17216 10146 15093 10579 19197 999999
999999 999999 999999 999999 999999 999999 999999 999999 999999 999999 999999 999999 999999 999999 999999 999999 999999 999999 999999 999999 999999 999999 999999 999999 999999 999999 999999 999999 999999 999999 999999 999999 999999 999999 999999 999999 999999 999999 999999 999999 999999 0 999999 999999 999999 999999 999999 999999 999999 999999 999999 999999 999999 999999 999999 999999 999999 999999 999999 999999 999999 999999 999999 999999 999999 999999 999999 999999 999999 999999 999999 999999 999999 999999 999999 999999 999999 999999 999999 999999 999999 999999 999999 999999 999999 999999 999999 999999 999999 999999 999999 999999 999999 999999 999999 999999 999999 999999 999999 999999 999999 17426 18479 13504 12218 15585 15016 13417 15295 12444 19615 14317 16270 19795 15023 14756 10587 15654 12275 18668 18519 16738 18269 12809 12283 17917 10662 18244 14964 13251 14693 13300 10843 17795 14798 12966 11353 19974 19896 11778 13466 17424 14241 11349 19336 17836 10316 17792 10560 10899 15841 999999
999999 999999 999999 999999 999999 999999 999999 999999 999999 999999 999999 999999 999999 999999 999999 999999 999999 999999 999999 999999 999999 999999 999999 999999 999999 999999 999999 999999 999999 999999 999999 999999 999999 999999 999999 999999 999999 999999 999999 999999 999999 999999 0 999999 999999 999999 999999 999999 999999 999999 999999 999999 999999 999999 999999 999999 999999 999999 999999 999999 999999 999999 999999 999999 999999 999999 999999 999999 999999 999999 999999 999999 999999 999999 999999 999999 999999 999999 999999 999999 999999 999999 999999 999999 999999 999999 999999 999999 999999 999999 999999 999999 999999 999999 999999 999999 999999 999999 999999 999999 999999 17788 19843 17732 11908 10859 14643 19341 16270 11593 18507 18676 16195 15781 11636 10278 17342 15805 12993 15894 16993 12538 15465 18330 17026 15138 13749 13313 14117 18843 17426 17586 10935 14822 14407 15309 18539 13594 17744 12895 11100 19518 12576 15602 18204 10036 17677 11799 15015 11460 11276 999999
999999 999999 999999 999999 999999 999999 999999 999999 999999 999999 999999 999999 999999 999999 999999 999999 999999 999999 999999 999999 999999 999999 999999 999999 999999 999999 999999 999999 999999 999999 999999 999999 999999 999999 999999 999999 999999 999999 999999 999999 999999 999999 999999 0 999999 999999 999999 999999 999999 999999 999999 999999 999999 999999 999999 999999 999999 999999 999999 999999 999999 999999 999999 999999 999999 999999 999999 999999 999999 999999 999999 999999 999999 999999 999999 999999 999999 999999 999999 999999 999999 999999 999999 999999 999999 999999 999999 999999 999999 999999 999999 999999 999999 999999 999999 999999 999999 999999 999999 999999 999999 19634 18100 18698 16764 12742 14451 13425 18881 12389 17237 14855 11117 15726 14720 12302 18792 12080 13898 11212 12879 18706 12739 10938 19344 12828 12672 11588 14426 19284 19794 12266 10289 14871 10478 15899 16337 15196 10924 19065 12642 16670 18781 11053 15746 13406 13381 10969 12954 12831 17536 999999
999999 999999 999999 999999 999999 999999 999999 999999 999999 999999 999999 999999 999999 999999 999999 999999 999999 999999 999999 999999 999999 999999 999999 999999 999999 999999 999999 999999 999999 999999 999999 999999 999999 999999 999999 999999 999999 999999 999999 999999 999999 999999 999999 999999 0 999999 999999 999999 999999 999999 999999 999999 999999 999999 999999 999999 999999 999999 999999 999999 999999 999999 999999 999999 999999 999999 999999 999999 999999 999999 999999 999999 999999 999999 999999 999999 999999 999999 999999 999999 999999 999999 999999 999999 999999 999999 999999 999999 999999 999999 999999 999999 999999 999999 999999 999999 999999 999999 999999 999999 999999 18397 14974 19639 19174 13337 15178 19047 15768 19363 13105 19462 15180 19350 15381 17444 16766 11813 10797 13042 13467 16551 10244 18825 16555 17602 10554 10436 15776 13104 12084 15074 18032 10064 19568 10408 13714 16574 14706 12575 14659 17414 19649 16185 16413 13593 19301 11778 10447 15079 10270 999999
999999 999999 999999 999999 999999 999999 999999 999999 999999 999999 999999 999999 999999 999999 999999 999999 999999 999999 999999 999999 999999 999999 999999 999999 999999 999999 999999 999999 999999 999999 999999 999999 999999 999999 999999 999999 999999 999999 999999 999999 999999 999999 999999 999999 999999 0 999999 999999 999999 999999 999999 999999 999999 999999 999999 999999 999999 999999 999999 999999 999999 999999 999999 999999 999999 999999 999999 999999 999999 999999 999999 999999 999999 999999 999999 999999 999999 999999 999999 999999 999999 999999 999999 999999 999999 999999 999999 999999 999999 999999 999999 999999 999999 999999 999999 999999 999999 999999 999999 999999 999999 10025 15394 18649 15161 12108 13122 13187 10212 18493 12746 14162 18476 11655 14453 18948 10790 12723 17695 13373 17101 10031 14563 12218 10584 12397 13276 11911 13136 16447 10853 17317 17989 14290 16583 14042 15703 12596 15517 18392 19698 19735 10757 12148 16900 11125 10565 17180 15775 15920 13750 999999
999999 999999 999999 999999 999999 999999 999999 999999 999999 999999 999999 999999 999999 999999 999999 999999 999999 999999 999999 999999 999999 999999 999999 999999 999999 999999 999999 999999 999999 999999 999999 999999 999999 999999 999999 999999 999999 999999 999999 999999 999999 999999 999999 999999 999999 999999 0 999999 999999 999999 999999 999999 999999 999999 999999 999999 999999 999999 999999 999999 999999 999999 999999 999999 999999 999999 999999 999999 999999 999999 999999 999999 999999 999999 999999 999999 999999 999999 999999 999999 999999 999999 999999 999999 999999 999999 999999 999999 999999 999999 999999 999999 999999 999999 999999 999999 999999 999999 999999 999999 999999 12528 16628 16107 12982 16654 17049 12909 11153 16338 13671 11396 17730 10561 10103 15762 13277 19239 17073 14250 19972 13459 13565 15395 16353 16304 15700 11615 13857 12840 17516 16965 14381 18540 17390 10425 18831 15024 16210 16684 13033 18602 17204 18496 11676 10818 13252 11170 12527 19121 12067 999999
999999 999999 999999 999999 999999 999999 999999 999999 999999 999999 999999 999999 999999 999999 999999 999999 999999 999999 999999 999999 999999 999999 999999 999999 999999 999999 999999 999999 999999 999999 999999 999999 999999 999999 999999 999999 999999 999999 999999 999999 999999 999999 999999 999999 999999 999999 999999 0 999999 999999 999999 999999 999999 999999 999999 999999 999999 999999 999999 999999 999999 999999 999999 999999 999999 999999 999999 999999 999999 999999 999999 999999 999999 999999 999999 999999 999999 999999 999999 999999 999999 999999 999999 999999 999999 999999 999999 999999 999999 999999 999999 999999 999999 999999 999999 999999 999999 999999 999999 999999 999999 14269 15561 12642 18973 13766 12684 11822 17711 16207 12533 10388 13247 17899 18360 13336 12943 15332 16771 13399 19616 16054 17926 13356 19991 14758 14266 13103 18926 16923 17560 13853 19843 15554 18886 12029 18800 12723 19919 18699 18762 13443 16666 11254 14870 10649 10414 19488 19729 13439 13319 999999
999999 999999 999999 999999 999999 999999 999999 999999 999999 999999 999999 999999 999999 999999 999999 999999 999999 999999 999999 999999 999999 999999 999999 999999 999999 999999 999999 999999 999999 999999 999999 999999 999999 999999 999999 999999 999999 999999 999999 999999 999999 999999 999999 999999 999999 999999 999999 999999 0 999999 999999 999999 999999 999999 999999 999999 999999 999999 999999 999999 999999 999999 999999 999999 999999 999999 999999 999999 999999 999999 999999 999999 999999 999999 999999 999999 999999 999999 999999 999999 999999 999999 999999 999999 999999 999999 999999 999999 999999 999999 999999 999999 999999 999999 999999 999999 999999 999999 999999 999999 999999 10566 16959 19038 18319 17308 12215 14385 18216 11435 13235 12291 12263 15943 11281 17180 12066 11829 12059 13361 14726 10490 17911 13633 14796 14891 14937 18223 15642 15572 14415 19015 16576 12828 12539 15017 18175 14040 12891 10232 18975 15803 11795 10642 15243 10342 18721 11927 18498 18282 10164 999999
999999 999999 999999 999999 999999 999999 999999 999999 999999 999999 999999 999999 999999 999999 999999 999999 999999 999999 999999 999999 999999 999999 999999 999999 999999 999999 999999 999999 999999 999999 999999 999999 999999 999999 999999 999999 999999 999999 999999 999999 999999 999999 999999 999999 999999 999999 999999 999999 999999 0 999999 999999 999999 999999 999999 999999 999999 999999 999999 999999 999999 999999 999999 999999 999999 999999 999999 999999 999999 999999 999999 999999 999999 999999 999999 999999 999999 999999 999999 999999 999999 999999 999999 999999 999999 999999 999999 999999 999999 999999 999999 999999 999999 999999 999999 999999 999999 999999 999999 999999 999999 10489 18453 14954 17368 19485 10426 14078 14116 15303 12230 13692 15474 11108 13196 17112 10218 17070 10749 10009 16109 15177 16230 12692 18825 19455 16212 11287 17754 16396 13687 17340 11219 17398 16994 14514 12086 16579 19717 16615 11423 10687 11970 16055 16687 19332 18207 18092 13124 11196 11172 999999
999999 999999 999999 999999 999999 999999 999999 999999 999999 999999 999999 999999 999999 999999 999999 999999 999999 999999 999999 999999 999999 999999 999999 999999 999999 999999 999999 999999 999999 999999 999999 999999 999999 999999 999999 999999 999999 999999 999999 999999 999999 999999 999999 999999 999999 999999 999999 999999 999999 999999 0 999999 999999 999999 999999 999999 999999 999999 999999 999999 999999 999999 999999 999999 999999 999999 999999 999999 999999 999999 999999 999999 999999 999999 999999 999999 999999 999999 999999 999999 999999 999999 999999 999999 999999 999999 999999 999999 999999 999999 999999 999999 999999 999999 999999 999999 999999 999999 999999 999999 999999 17820 16517 19251 10149 12982 17265 17066 18655 16794 11965 15734 12854 17202 13638 19245 18586 19781 19918 18686 10775 13542 19017 18198 19651 14704 16247 13134 17497 19621 15229 12183 12408 13076 19592 18019 12414 12498 14449 14392 11867 19284 13438 15643 11232 14134 17663 14981 16689 15577 12376 999999
999999 999999 999999 999999 999999 999999 999999 999999 999999 999999 999999 999999 999999 999999 999999 999999 999999 999999 999999 999999 999999 999999 999999 999999 999999 999999 999999 999999 999999 999999 999999 999999 999999 999999 999999 999999 999999 999999 999999 999999 999999 999999 999999 999999 999999 999999 999999 999999 999999 999999 999999 0 999999 999999 999999 999999 999999 999999 999999 999999 999999 999999 999999 999999 999999 999999 999999 999999 999999 999999 999999 999999 999999 999999 999999 999999 999999 999999 999999 999999 999999 999999 999999 999999 999999 999999 999999 999999 999999 999999 999999 999999 999999 999999 999999 999999 999999 999999 999999 999999 999999 15318 17147 14947 18915 15397 15016 14576 18605 19926 12612 17647 12464 17226 18017 10714 14360 12142 14520 14208 13931 11995 17864 12890 18618 17968 16545 10162 12259 13092 11525 19813 13890 12525 17884 15060 17960 12779 17883 16419 10719 19409 17305 10707 16373 16965 12418 12234 13714 17762 19654 999999
999999 999999 999999 999999 999999 999999 999999 999999 999999 999999 999999 999999 999999 999999 999999 999999 999999 999999 999999 999999 999999 999999 999999 999999 999999 999999 999999 999999 999999 999999 999999 999999 999999 999999 999999 999999 999999 999999 999999 999999 999999 999999 999999 999999 999999 999999 999999 999999 999999 999999 999999 999999 0 999999 999999 999999 999999 999999 999999 999999 999999 999999 999999 999999 999999 999999 999999 999999 999999 999999 999999 999999 999999 999999 999999 999999 999999 999999 999999 999999 999999 999999 999999 999999 999999 999999 999999 999999 999999 999999 999999 999999 999999 999999 999999 999999 999999 999999 999999 999999 999999 16670 16229 11306 12796 11794 10835 14867 18032 15249 14631 17985 15069 17503 12211 15446 11348 10171 10738 12912 10678 12892 12061 13348 18817 12524 19899 13672 17891 17157 15841 18261 11795 12901 10596 10736 17096 14303 12599 19002 14476 13971 17978 18655 19159 19730 11532 17266 18769 13354 15619 999999
999999 999999 999999 999999 999999 999999 999999 999999 999999 999999 999999 999999 999999 999999 999999 999999 999999 999999 999999 999999 999999 999999 999999 999999 999999 999999 999999 999999 999999 999999 999999 999999 999999 999999 999999 999999 999999 999999 999999 999999 999999 999999 999999 999999 999999 999999 999999 999999 999999 999999 999999 999999 999999 0 999999 999999 999999 999999 999999 999999 999999 999999 999999 999999 999999 999999 999999 999999 999999 999999 999999 999999 999999 999999 999999 999999 999999 999999 999999 999999 999999 999999 999999 999999 999999 999999 999999 999999 999999 999999 999999 999999 999999 999999 999999 999999 999999 999999 999999 999999 999999 16303 18919 16085 11873 17891 16015 13137 11182 14674 17776 12298 10450 12124 11965 17812 10381 18024 16387 19516 17201 11859 18657 13680 16134 14240 14831 14993 15485 17357 12106 11019 12545 18619 10173 16404 16782 12016 14411 14162 10003 19367 10567 11487 17197 19240 16173 13318 17372 13946 11517 999999
999999 999999 999999 999999 999999 999999 999999 999999 999999 999999 999999 999999 999999 999999 999999 999999 999999 999999 999999 999999 999999 999999 999999 999999 999999 999999 999999 999999 999999 999999 999999 999999 999999 999999 999999 999999 999999 999999 999999 999999 999999 999999 999999 999999 999999 999999 999999 999999 999999 999999 999999 999999 999999 999999 0 999999 999999 999999 999999 999999 999999 999999 999999 999999 999999 999999 999999 999999 999999 999999 999999 999999 999999 999999 999999 999999 999999 999999 999999 999999 999999 999999 999999 999999 999999 999999 999999 999999 999999 999999 999999 999999 999999 999999 999999 999999 999999 999999 999999 999999 999999 10995 15067 13188 18344 13313 17114 18103 14192 13279 17924 12788 10017 16979 16730 11591 10671 18227 19068 16638 15568 15682 10069 10388 11336 12791 17373 18523 19730 11255 12681 10929 10502 11301 16425 13564 18857 10783 15607 17140 14992 13573 16276 14606 16795 10590 15741 15857 12056 12567 19507 999999
999999 999999 999999 999999 999999 999999 999999 999999 999999 999999 999999 999999 999999 999999 999999 999999 999999 999999 999999 999999 999999 999999 999999 999999 999999 999999 999999 999999 999999 999999 999999 999999 999999 999999 999999 999999 999999 999999 999999 999999 999999 999999 999999 999999 999999 999999 999999 999999 999999 999999 999999 999999 999999 999999 999999 0 999999 999999 999999 999999 999999 999999 999999 999999 999999 999999 999999 999999 999999 999999 999999 999999 999999 999999 999999 999999 999999 999999 999999 999999 999999 999999 999999 999999 999999 999999 999999 999999 999999 999999 999999 999999 999999 999999 999999 999999 999999 999999 999999 999999 999999 15434 11648 18638 12419 12161 15094 12411 18959 13621 16892 10113 17962 17288 12955 10670 10775 14852 10377 16430 17183 13978 15133 13236 11662 13235 19887 18122 13660 12054 15772 16053 15000 13731 14158 13017 13244 10874 11496 16035 11906 13193 10140 15460 11894 11755 12635 14421 18645 15026 10966 999999
999999 999999 999999 999999 999999 999999 999999 999999 999999 999999 999999 999999 999999 999999 999999 999999 999999 999999 999999 999999 999999 999999 999999 999999 999999 999999 999999 999999 999999 999999 999999 999999 999999 999999 999999 999999 999999 999999 999999 999999 999999 999999 999999 999999 999999 999999 999999 999999 999999 999999 999999 999999 999999 999999 999999 999999 0 999999 999999 999999 999999 999999 999999 999999 999999 999999 999999 999999 999999 999999 999999 999999 999999 999999 999999 999999 999999 999999 999999 999999 999999 999999 999999 999999 999999 999999 999999 999999 999999 999999 999999 999999 999999 999999 999999 999999 999999 999999 999999 999999 999999 13846 14182 11681 15505 10951 13796 10991 19008 14689 12022 10482 16206 19652 16990 12782 12705 13172 13727 12928 13473 11243 19784 19893 16947 18120 14162 19178 18989 18557 17636 10837 19608 16075 11754 12280 11611 15535 19811 11299 18651 14549 18273 13076 16504 12795 13230 17011 12039 13346 12780 999999
999999 999999 999999 999999 999999 999999 999999 999999 999999 999999 999999 999999 999999 999999 999999 999999 999999 999999 999999 999999 999999 999999 999999 999999 999999 999999 999999 999999 999999 999999 999999 999999 999999 999999 999999 999999 999999 999999 999999 999999 999999 999999 999999 999999 999999 999999 999999 999999 999999 999999 999999 999999 999999 999999 999999 999999 999999 0 999999 999999 999999 999999 999999 999999 999999 999999 999999 999999 999999 999999 999999 999999 999999 999999 999999 999999 999999 999999 999999 999999 999999 999999 999999 999999 999999 999999 999999 999999 999999 999999 999999 999999 999999 999999 999999 999999 999999 999999 999999 999999 999999 15549 14929 18939 15830 19184 13178 14038 17688 17268 10705 19553 16262 12598 12319 10171 12060 19445 18422 19668 16179 15295 10895 16793 19891 19012 16280 11360 16484 10597 17810 12938 13289 10896 15232 16868 15388 18724 15158 17923 16474 17887 14971 10950 12872 13975 18983 11451 12735 14968 19326 999999
999999 999999 999999 999999 999999 999999 999999 999999 999999 999999 999999 999999 999999 999999 999999 999999 999999 999999 999999 999999 999999 999999 999999 999999 999999 999999 999999 999999 999999 999999 999999 999999 999999 999999 999999 999999 999999 999999 999999 999999 999999 999999 999999 999999 999999 999999 999999 999999 999999 999999 999999 999999 999999 999999 999999 999999 999999 999999 0 999999 999999 999999 999999 999999 999999 999999 999999 999999 999999 999999 999999 999999 999999 999999 999999 999999 999999 999999 999999 999999 999999 999999 999999 999999 999999 999999 999999 999999 999999 999999 999999 999999 999999 999999 999999 999999 999999 999999 999999 999999 999999 15334 15724 17635 10008 16611 19570 12498 12686 10135 13119 15899 19316 11295 13458 16800 18652 19955 17168 15808 16645 14260 11558 12289 14627 13426 10088 13017 10671 11996 18046 19521 19052 15691 18712 13839 13840 11115 13486 14400 15885 16292 10547 17782 13584 19929 18857 17581 19583 11888 11284 999999
999999 999999 999999 999999 999999 999999 999999 999999 999999 999999 999999 999999 999999 999999 999999 999999 999999 999999 999999 999999 999999 999999 999999 999999 999999 999999 999999 999999 999999 999999 999999 999999 999999 999999 999999 999999 999999 999999 999999 999999 999999 999999 999999 999999 999999 999999 999999 999999 999999 999999 999999 999999 999999 999999 999999 999999 999999 999999 999999 0 999999 999999 999999 999999 999999 999999 999999 999999 999999 999999 999999 999999 999999 999999 999999 999999 999999 999999 999999 999999 999999 999999 999999 999999 999999 999999 999999 999999 999999 999999 999999 999999 999999 999999 999999 999999 999999 999999 999999 999999 999999 16395 16180 18063 19594 13538 13282 10795 13414 19627 16101 15350 18243 15678 19753 16198 18325 15143 19076 13502 10835 19040 10352 14162 16157 13164 16563 11430 10325 16033 17649 19511 12686 10951 12413 12326 14180 14932 12757 16331 19375 17981 18796 19192 17153 14145 12079 14302 12595 13511 18489 999999
999999 999999 999999 999999 999999 999999 999999 999999 999999 999999 999999 999999 999999 999999 999999 999999 999999 999999 999999 999999 999999 999999 999999 999999 999999 999999 999999 999999 999999 999999 999999 999999 999999 999999 999999 999999 999999 999999 999999 999999 999999 999999 999999 999999 999999 999999 999999 999999 999999 999999 999999 999999 999999 999999 999999 999999 999999 999999 999999 999999 0 999999 999999 999999 999999 999999 999999 999999 999999 999999 999999 999999 999999 999999 999999 999999 999999 999999 999999 999999 999999 999999 999999 999999 999999 999999 999999 999999 999999 999999 999999 999999 999999 999999 999999 999999 999999 999999 999999 999999 999999 17503 14626 13792 18109 16930 13038 11549 16855 11774 10084 11816 10642 15732 10633 11754 17379 14638 19564 18995 10442 11182 16595 18834 17922 16904 11242 15115 17308 12481 11755 10852 13555 17374 19085 16231 16225 12855 12980 19241 17940 12338 12703 19058 15252 17569 17453 17603 19966 18915 19925 999999
999999 999999 999999 999999 999999 999999 999999 999999 999999 999999 999999 999999 999999 999999 999999 999999 999999 999999 999999 999999 999999 999999 999999 999999 999999 999999 999999 999999 999999 999999 999999 999999 999999 999999 999999 999999 999999 999999 999999 999999 999999 999999 999999 999999 999999 999999 999999 999999 999999 999999 999999 999999 999999 999999 999999 999999 999999 999999 999999 999999 999999 0 999999 999999 999999 999999 999999 999999 999999 999999 999999 999999 999999 999999 999999 999999 999999 999999 999999 999999 999999 999999 999999 999999 999999 999999 999999 999999 999999 999999 999999 999999 999999 999999 999999 999999 999999 999999 999999 999999 999999 17227 10797 12206 18125 14698 12633 18956 10877 14811 16197 14594 17549 19260 15501 13208 15611 13279 14940 17818 18049 13532 18639 16028 16152 15780 16669 17775 19468 14999 13896 13858 13434 15237 15318 15073 13160 14559 13402 11591 12718 14283 19004 15319 14898 17457 16083 18354 11003 14744 15237 999999
999999 999999 999999 999999 999999 999999 999999 999999 999999 999999 999999 999999 999999 999999 999999 999999 999999 999999 999999 999999 999999 999999 999999 999999 999999 999999 999999 999999 999999 999999 999999 999999 999999 999999 999999 999999 999999 999999 999999 999999 999999 999999 999999 999999 999999 999999 999999 999999 999999 999999 999999 999999 999999 999999 999999 999999 999999 999999 999999 999999 999999 999999 0 999999 999999 999999 999999 999999 999999 999999 999999 999999 999999 999999 999999 999999 999999 999999 999999 999999 999999 999999 999999 999999 999999 999999 999999 999999 999999 999999 999999 999999 999999 999999 999999 999999 999999 999999 999999 999999 999999 11618 17503 14714 17957 16216 15467 17816 14439 10831 16801 11172 13618 14320 12376 19090 15112 18462 10443 15579 11332 15874 14851 15063 19517 14096 16368 10669 16843 16210 12110 16651 17363 14939 18624 14396 17095 18606 15479 17051 19114 17957 13097 14881 12627 18125 19888 14242 16253 15221 15767 999999
999999 999999 999999 999999 999999 999999 999999 999999 999999 999999 999999 999999 999999 999999 999999 999999 999999 999999 999999 999999 999999 999999 999999 999999 999999 999999 999999 999999 999999 999999 999999 999999 999999 999999 999999 999999 999999 999999 999999 999999 999999 999999 999999 999999 999999 999999 999999 999999 999999 999999 999999 999999 999999 999999 999999 999999 999999 999999 999999 999999 999999 999999 999999 0 999999 999999 999999 999999 999999 999999 999999 999999 999999 999999 999999 999999 999999 999999 999999 999999 999999 999999 999999 999999 999999 999999 999999 999999 999999 999999 999999 999999 999999 999999 999999 999999 999999 999999 999999 999999 999999 10324 12102 12452 19329 19849 10500 12071 16452 16659 12904 16033 17942 11259 12938 19132 11675 15782 19769 10449 19559 19343 19649 10873 14409 15527 12269 14110 17643 17087 15774 12431 16713 18315 12722 13487 13022 15567 12557 16216 11804 16156 11820 10878 15089 12965 11596 14963 18020 17985 16997 999999
999999 999999 999999 999999 999999 999999 999999 999999 999999 999999 999999 999999 999999 999999 999999 999999 999999 999999 999999 999999 999999 999999 999999 999999 999999 999999 999999 999999 999999 999999 999999 999999 999999 999999 999999 999999 999999 999999 999999 999999 999999 999999 999999 999999 999999 999999 999999 999999 999999 999999 999999 999999 999999 999999 999999 999999 999999 999999 999999 999999 999999 999999 999999 999999 0 999999 999999 999999 999999 999999 999999 999999 999999 999999 999999 999999 999999 999999 999999 999999 999999 999999 999999 999999 999999 999999 999999 999999 999999 999999 999999 999999 999999 999999 999999 999999 999999 999999 999999 999999 999999 14275 12151 15137 15596 16813 19419 13876 15725 15631 10535 11727 18016 15170 16201 16767 16592 19916 19898 17238 16364 19467 13390 16880 11906 13046 14789 18401 13488 17777 13142 15844 13742 11791 11222 17588 13273 11463 11535 14560 14493 13300 15164 12243 15123 11658 15852 17713 14733 16693 11811 999999
999999 999999 999999 999999 999999 999999 999999 999999 999999 999999 999999 999999 999999 999999 999999 999999 999999 999999 999999 999999 999999 999999 999999 999999 999999 999999 999999 999999 999999 999999 999999 999999 999999 999999 999999 999999 999999 999999 999999 999999 999999 999999 999999 999999 999999 999999 999999 999999 999999 999999 999999 999999 999999 999999 999999 999999 999999 999999 999999 999999 999999 999999 999999 999999 999999 0 999999 999999 999999 999999 999999 999999 999999 999999 999999 999999 999999 999999 999999 999999 999999 999999 999999 999999 999999 999999 999999 999999 999999 999999 999999 999999 999999 999999 999999 999999 999999 999999 999999 999999 999999 15034 19593 16445 11821 13654 15985 14705 19002 18547 19137 10780 15526 15083 15305 17983 13939 10550 11902 19502 12750 15647 19690 12105 15797 13696 17846 18829 15243 13815 15336 15832 11774 12358 12304 13840 10502 14648 18398 11555 19072 12404 11069 12186 19262 19431 11921 10483 15685 19676 19614 999999
999999 999999 999999 999999 999999 999999 999999 999999 999999 999999 999999 999999 999999 999999 999999 999999 999999 999999 999999 999999 999999 999999 999999 999999 999999 999999 999999 999999 999999 999999 999999 999999 999999 999999 999999 999999 999999 999999 999999 999999 999999 999999 999999 999999 999999 999999 999999 999999 999999 999999 999999 999999 999999 999999 999999 999999 999999 999999 999999 999999 999999 999999 999999 999999 999999 999999 0 999999 999999 999999 999999 999999 999999 999999 999999 999999 999999 999999 999999 999999 999999 999999 999999 999999 999999 999999 999999 999999 999999 999999 999999 999999 999999 999999 999999 999999 999999 999999 999999 999999 999999 14893 13938 17050 10990 10647 13885 14925 14581 19034 14644 14660 12165 16145 19786 15029 10530 10368 12526 13325 12796 18813 11229 11362 17824 16845 19075 15745 15507 13554 19092 11147 10735 15997 15630 10434 17363 16363 10012 16984 17077 11903 13294 19399 15030 17638 18097 18518 11848 19018 10135 999999
999999 999999 999999 999999 999999 999999 999999 999999 999999 999999 999999 999999 999999 999999 999999 999999 999999 999999 999999 999999 999999 999999 999999 999999 999999 999999 999999 999999 999999 999999 999999 999999 999999 999999 999999 999999 999999 999999 999999 999999 999999 999999 999999 999999 999999 999999 999999 999999 999999 999999 999999 999999 999999 999999 999999 999999 999999 999999 999999 999999 999999 999999 999999 999999 999999 999999 999999 0 999999 999999 999999 999999 999999 999999 999999 999999 999999 999999 999999 999999 999999 999999 999999 999999 999999 999999 999999 999999 999999 999999 999999 999999 999999 999999 999999 999999 999999 999999 999999 999999 999999 19809 15518 16394 14184 17245 11884 12125 16454 17016 15131 16258 18269 16872 16818 19729 16231 14205 11268 17000 10449 14753 19797 17120 15527 10463 15153 15592 11140 13220 17274 17979 15294 16485 11024 10751 15938 12275 16739 16224 17636 13378 16118 19299 18656 11891 19200 11771 19485 13194 10252 999999
999999 999999 999999 999999 999999 999999 999999 999999 999999 999999 999999 999999 999999 999999 999999 999999 999999 999999 999999 999999 999999 999999 999999 999999 999999 999999 999999 999999 999999 999999 999999 999999 999999 999999 999999 999999 999999 999999 999999 999999 999999 999999 999999 999999 999999 999999 999999 999999 999999 999999 999999 999999 999999 999999 999999 999999 999999 999999 999999 999999 999999 999999 999999 999999 999999 999999 999999 999999 0 999999 999999 999999 999999 999999 999999 999999 999999 999999 999999 999999 999999 999999 999999 999999 999999 999999 999999 999999 999999 999999 999999 999999 999999 999999 999999 999999 999999 999999 999999 999999 999999 12900 14685 16677 17191 15801 16790 14417 11520 14180 16320 17487 14888 13539 13217 13484 11530 14536 19411 12987 14775 15987 14845 12237 17074 11795 16988 15825 16964 13459 10380 15024 12068 15805 18503 13025 14119 11685 11221 12280 12545 10920 16141 13602 17565 15167 19668 19834 18306 13042 13858 999999
999999 999999 999999 999999 999999 999999 999999 999999 999999 999999 999999 999999 999999 999999 999999 999999 999999 999999 999999 999999 999999 999999 999999 999999 999999 999999 999999 999999 999999 999999 999999 999999 999999 999999 999999 999999 999999 999999 999999 999999 999999 999999 999999 999999 999999 999999 999999 999999 999999 999999 999999 999999 999999 999999 999999 999999 999999 999999 999999 999999 999999 999999 999999 999999 999999 999999 999999 999999 999999 0 999999 999999 999999 999999 999999 999999 999999 999999 999999 999999 999999 999999 999999 999999 999999 999999 999999 999999 999999 999999 999999 999999 999999 999999 999999 999999 999999 999999 999999 999999 999999 17151 11640 11630 18481 18623 11816 18022 13924 12528 18737 13996 16456 12581 15487 17787 12264 14007 17703 14337 12591 15426 12322 17905 15639 16560 18383 17721 10331 15684 19013 19528 15942 15978 19481 17691 19472 11198 19709 17976 15659 17640 19030 15416 18901 10426 14094 14295 12186 18686 13969 999999
999999 999999 999999 999999 999999 999999 999999 999999 999999 999999 999999 999999 999999 999999 999999 999999 999999 999999 999999 999999 999999 999999 999999 999999 999999 999999 999999 999999 999999 999999 999999 999999 999999 999999 999999 999999 999999 999999 999999 999999 999999 999999 999999 999999 999999 999999 999999 999999 999999 999999 999999 999999 999999 999999 999999 999999 999999 999999 999999 999999 999999 999999 999999 999999 999999 999999 999999 999999 999999 999999 0 999999 999999 999999 999999 999999 999999 999999 999999 999999 999999 999999 999999 999999 999999 999999 999999 999999 999999 999999 999999 999999 999999 999999 999999 999999 999999 999999 999999 999999 999999 10484 12109 10205 12133 14792 12435 14184 16613 11121 19336 12632 13951 18821 19388 10261 17330 17813 19962 12845 13824 13075 18831 15868 11516 16445 11395 16658 11742 12313 14255 15890 12107 15232 14879 14768 11872 13882 11771 18324 16621 14519 15898 12875 12986 14569 14168 14638 18988 13991 17948 999999
999999 999999 999999 999999 999999 999999 999999 999999 999999 999999 999999 999999 999999 999999 999999 999999 999999 999999 999999 999999 999999 999999 999999 999999 999999 999999 999999 999999 999999 999999 999999 999999 999999 999999 999999 999999 999999 999999 999999 999999 999999 999999 999999 999999 999999 999999 999999 999999 999999 999999 999999 999999 999999 999999 999999 999999 999999 999999 999999 999999 999999 999999 999999 999999 999999 999999 999999 999999 999999 999999 999999 0 999999 999999 999999 999999 999999 999999 999999 999999 999999 999999 999999 999999 999999 999999 999999 999999 999999 999999 999999 999999 999999 999999 999999 999999 999999 999999 999999 999999 999999 14485 12331 10128 10500 11954 19479 17400 14449 11958 19289 19963 16980 17714 15198 14174 11357 12678 17567 19004 12734 18522 10554 16241 18105 10779 19197 10712 19621 19517 16311 19879 15851 12418 19269 18182 14886 18185 19595 16182 14878 19576 18284 19217 18546 16985 12644 10594 19859 11365 16426 999999
999999 999999 999999 999999 999999 999999 999999 999999 999999 999999 999999 999999 999999 999999 999999 999999 999999 999999 999999 999999 999999 999999 999999 999999 999999 999999 999999 999999 999999 999999 999999 999999 999999 999999 999999 999999 999999 999999 999999 999999 999999 999999 999999 999999 999999 999999 999999 999999 999999 999999 999999 999999 999999 999999 999999 999999 999999 999999 999999 999999 999999 999999 999999 999999 999999 999999 999999 999999 999999 999999 999999 999999 0 999999 999999 999999 999999 999999 999999 999999 999999 999999 999999 999999 999999 999999 999999 999999 999999 999999 999999 999999 999999 999999 999999 999999 999999 999999 999999 999999 999999 18549 11603 11262 17697 13371 18992 14476 15682 15173 19217 11196 10961 13951 16874 12222 11365 12652 18772 19324 16804 13513 13530 17159 15260 12889 12396 11097 18849 17902 19055 10092 14860 15834 14461 15997 13080 14516 14553 11037 13426 19712 18016 14726 17832 11469 10175 19204 13921 19324 15981 999999
999999 999999 999999 999999 999999 999999 999999 999999 999999 999999 999999 999999 999999 999999 999999 999999 999999 999999 999999 999999 999999 999999 999999 999999 999999 999999 999999 999999 999999 999999 999999 999999 999999 999999 999999 999999 999999 999999 999999 999999 999999 999999 999999 999999 999999 999999 999999 999999 999999 999999 999999 999999 999999 999999 999999 999999 999999 999999 999999 999999 999999 999999 999999 999999 999999 999999 999999 999999 999999 999999 999999 999999 999999 0 999999 999999 999999 999999 999999 999999 999999 999999 999999 999999 999999 999999 999999 999999 999999 999999 999999 999999 999999 999999 999999 999999 999999 999999 999999 999999 999999 17114 16072 10360 14616 16966 13369 10788 10374 19917 13013 19524 13036 19948 16996 17547 13210 14908 17789 12313 12612 17921 11688 16578 14602 11019 17282 17273 15150 13964 10562 10859 14049 12015 18367 12379 11628 13437 16869 12484 15621 15767 11618 12059 16716 16101 18839 18465 15731 19701 16918 999999
999999 999999 999999 999999 999999 999999 999999 999999 999999 999999 999999 999999 999999 999999 999999 999999 999999 999999 999999 999999 999999 999999 999999 999999 999999 999999 999999 999999 999999 999999 999999 999999 999999 999999 999999 999999 999999 999999 999999 999999 999999 999999 999999 999999 999999 999999 999999 999999 999999 999999 999999 999999 999999 999999 999999 999999 999999 999999 999999 999999 999999 999999 999999 999999 999999 999999 999999 999999 999999 999999 999999 999999 999999 999999 0 999999 999999 999999 999999 999999 999999 999999 999999 999999 999999 999999 999999 999999 999999 999999 999999 999999 999999 999999 999999 999999 999999 999999 999999 999999 999999 10749 10137 10444 12738 13300 13621 13585 11756 17147 11569 13337 12368 19040 18203 11680 17794 19657 16550 14467 16537 13731 15060 17954 10278 11720 17758 16408 15253 10447 15941 14882 12588 11290 19919 11378 14797 15485 16716 19893 11963 19088 18788 13002 13188 15357 10452 19558 11019 11435 19197 999999
999999 999999 999999 999999 999999 999999 999999 999999 999999 999999 999999 999999 999999 999999 999999 999999 999999 999999 999999 999999 999999 999999 999999 999999 999999 999999 999999 999999 999999 999999 999999 999999 999999 999999 999999 999999 999999 999999 999999 999999 999999 999999 999999 999999 999999 999999 999999 999999 999999 999999 999999 999999 999999 999999 999999 999999 999999 999999 999999 999999 999999 999999 999999 999999 999999 999999 999999 999999 999999 999999 999999 999999 999999 999999 999999 0 999999 999999 999999 999999 999999 999999 999999 999999 999999 999999 999999 999999 999999 999999 999999 999999 999999 999999 999999 999999 999999 999999 999999 999999 999999 16672 17640 12476 18344 14338 19659 19303 11446 15928 11273 10899 16328 17644 11650 14004 11955 10555 15237 17876 13075 16705 12668 14570 14552 17777 16360 16633 16424 12648 17832 11845 10748 13039 10982 11299 15513 12623 11736 11642 13856 13980 19119 16130 11934 14502 12142 14885 13597 17831 11150 999999
999999 999999 999999 999999 999999 999999 999999 999999 999999 999999 999999 999999 999999 999999 999999 999999 999999 999999 999999 999999 999999 999999 999999 999999 999999 999999 999999 999999 999999 999999 999999 999999 999999 999999 999999 999999 999999 999999 999999 999999 999999 999999 999999 999999 999999 999999 999999 999999 999999 999999 999999 999999 999999 999999 999999 999999 999999 999999 999999 999999 999999 999999 999999 999999 999999 999999 999999 999999 999999 999999 999999 999999 999999 999999 999999 999999 0 999999 999999 999999 999999 999999 999999 999999 999999 999999 999999 999999 999999 999999 999999 999999 999999 999999 999999 999999 999999 999999 999999 999999 999999 11027 10573 14324 18426 10649 17239 16398 11949 10056 16531 15074 19786 10005 12394 17393 17318 17604 17706 18517 13075 11421 14004 15106 11272 13988 17518 19613 15471 12767 14435 18920 15866 17418 13239 13519 17656 10397 15181 18854 11704 13620 15607 16808 14506 17552 17257 14731 19850 11792 18296 999999
999999 999999 999999 999999 999999 999999 999999 999999 999999 999999 999999 999999 999999 999999 999999 999999 999999 999999 999999 999999 999999 999999 999999 999999 999999 999999 999999 999999 999999 999999 999999 999999 999999 999999 999999 999999 999999 999999 999999 999999 999999 999999 999999 999999 999999 999999 999999 999999 999999 999999 999999 999999 999999 999999 999999 999999 999999 999999 999999 999999 999999 999999 999999 999999 999999 999999 999999 999999 999999 999999 999999 999999 999999 999999 999999 999999 999999 0 999999 999999 999999 999999 999999 999999 999999 999999 999999 999999 999999 999999 999999 999999 999999 999999 999999 999999 999999 999999 999999 999999 999999 13836 15840 18590 19920 18433 17815 11376 10809 15805 10288 14650 11422 11282 12673 19952 13350 12191 19462 17975 10866 15819 12266 10502 19135 11186 11909 11403 18985 15882 10659 16318 14853 14248 18546 10056 16388 12314 13869 10212 13789 15638 16180 15070 19466 11897 17452 11505 16357 17404 17223 999999
999999 999999 999999 999999 999999 999999 999999 999999 999999 999999 999999 999999 999999 999999 999999 999999 999999 999999 999999 999999 999999 999999 999999 999999 999999 999999 999999 999999 999999 999999 999999 999999 999999 999999 999999 999999 999999 999999 999999 999999 999999 999999 999999 999999 999999 999999 999999 999999 999999 999999 999999 999999 999999 999999 999999 999999 999999 999999 999999 999999 999999 999999 999999 999999 999999 999999 999999 999999 999999 999999 999999 999999 999999 999999 999999 999999 999999 999999 0 999999 999999 999999 999999 999999 999999 999999 999999 999999 999999 999999 999999 999999 999999 999999 999999 999999 999999 999999 999999 999999 999999 11127 10684 12987 10197 11491 12865 10874 11836 15835 12157 11080 18641 16309 15441 19082 16570 14422 11932 13527 13350 15783 11640 13854 10552 19465 17452 18332 10731 10108 14204 18566 19020 16908 17120 11809 19320 12228 11150 17442 13380 14466 12961 12201 16717 18137 16208 17588 11862 10714 15963 999999
999999 999999 999999 999999 999999 999999 999999 999999 999999 999999 999999 999999 999999 999999 999999 999999 999999 999999 999999 999999 999999 999999 999999 999999 999999 999999 999999 999999 999999 999999 999999 999999 999999 999999 999999 999999 999999 999999 999999 999999 999999 999999 999999 999999 999999 999999 999999 999999 999999 999999 999999 999999 999999 999999 999999 999999 999999 999999 999999 999999 999999 999999 999999 999999 999999 999999 999999 999999 999999 999999 999999 999999 999999 999999 999999 999999 999999 999999 999999 0 999999 999999 999999 999999 999999 999999 999999 999999 999999 999999 999999 999999 999999 999999 999999 999999 999999 999999 999999 999999 999999 13675 11201 10153 12869 12085 18143 12560 11208 17507 19374 18136 14085 13571 12468 19510 17765 13330 15702 10933 12298 14376 18792 17317 16994 10214 17081 10836 17105 15839 14526 17928 11254 15507 10886 13157 17427 15481 18044 17562 12727 17671 14999 13544 16349 16080 15402 14051 10441 14681 19214 999999
999999 999999 999999 999999 999999 999999 999999 999999 999999 999999 999999 999999 999999 999999 999999 999999 999999 999999 999999 999999 999999 999999 999999 999999 999999 999999 999999 999999 999999 999999 999999 999999 999999 999999 999999 999999 999999 999999 999999 999999 999999 999999 999999 999999 999999 999999 999999 999999 999999 999999 999999 999999 999999 999999 999999 999999 999999 999999 999999 999999 999999 999999 999999 999999 999999 999999 999999 999999 999999 999999 999999 999999 999999 999999 999999 999999 999999 999999 999999 999999 0 999999 999999 999999 999999 999999 999999 999999 999999 999999 999999 999999 999999 999999 999999 999999 999999 999999 999999 999999 999999 18128 11744 12694 19168 14365 11401 16122 14535 14963 17008 13952 19425 17066 14455 10002 18453 17632 19222 15366 18417 13478 13699 11570 14507 16738 11332 13763 15830 17336 17270 17100 10145 17027 14260 15263 16853 18734 12304 19893 12526 14197 12989 18265 10679 13065 19912 11312 12142 18404 15014 999999
999999 999999 999999 999999 999999 999999 999999 999999 999999 999999 999999 999999 999999 999999 999999 999999 999999 999999 999999 999999 999999 999999 999999 999999 999999 999999 999999 999999 999999 999999 999999 999999 999999 999999 999999 999999 999999 999999 999999 999999 999999 999999 999999 999999 999999 999999 999999 999999 999999 999999 999999 999999 999999 999999 999999 999999 999999 999999 999999 999999 999999 999999 999999 999999 999999 999999 999999 999999 999999 999999 999999 999999 999999 999999 999999 999999 999999 999999 999999 999999 999999 0 999999 999999 999999 999999 999999 999999 999999 999999 999999 999999 999999 999999 999999 999999 999999 999999 999999 999999 999999 13941 12135 18664 17967 11954 11037 11760 17305 10651 17954 15728 18801 15740 17328 16530 19882 19524 17599 16384 13047 12753 12928 14831 19045 11288 17341 10417 13615 12025 14734 13037 14341 19938 12894 10386 17428 15376 12471 12796 15073 17862 18706 17074 12031 13201 11791 12150 17121 16703 10245 999999
999999 999999 999999 999999 999999 999999 999999 999999 999999 999999 999999 999999 999999 999999 999999 999999 999999 999999 999999 999999 999999 999999 999999 999999 999999 999999 999999 999999 999999 999999 999999 999999 999999 999999 999999 999999 999999 999999 999999 999999 999999 999999 999999 999999 999999 999999 999999 999999 999999 999999 999999 999999 999999 999999 999999 999999 999999 999999 999999 999999 999999 999999 999999 999999 999999 999999 999999 999999 999999 999999 999999 999999 999999 999999 999999 999999 999999 999999 999999 999999 999999 999999 0 999999 999999 999999 999999 999999 999999 999999 999999 999999 999999 999999 999999 999999 999999 999999 999999 999999 999999 12053 11715 16477 14750 19094 19975 13024 13550 19852 15962 18208 17934 17817 13997 11509 16646 18334 10689 12788 12215 19441 17628 15873 16611 10248 19680 17273 16454 12043 12444 14560 10349 14458 14645 18993 18744 11150 12667 18752 10315 18776 13149 12659 16673 12561 12307 19879 16316 14896 11482 999999
999999 999999 999999 999999 999999 999999 999999 999999 999999 999999 999999 999999 999999 999999 999999 999999 999999 999999 999999 999999 999999 999999 999999 999999 999999 999999 999999 999999 999999 999999 999999 999999 999999 999999 999999 999999 999999 999999 999999 999999 999999 999999 999999 999999 999999 999999 999999 999999 999999 999999 999999 999999 999999 999999 999999 999999 999999 999999 999999 999999 999999 999999 999999 999999 999999 999999 999999 999999 999999 999999 999999 999999 999999 999999 999999 999999 999999 999999 999999 999999 999999 999999 999999 0 999999 999999 999999 999999 999999 999999 999999 999999 999999 999999 999999 999999 999999 999999 999999 999999 999999 19817 11660 15430 11759 15531 15514 10155 14273 18821 11753 18538 19407 11234 19005 11155 15673 10996 13391 14157 14680 15332 11281 16589 14140 15723 11493 11208 16239 14876 18914 19849 15835 14712 17464 17829 12667 13549 15972 10375 19379 18751 12189 17909 11373 17900 17166 17688 15598 11821 12789 999999
999999 999999 999999 999999 999999 999999 999999 999999 999999 999999 999999 999999 999999 999999 999999 999999 999999 999999 999999 999999 999999 999999 999999 999999 999999 999999 999999 999999 999999 999999 999999 999999 999999 999999 999999 999999 999999 999999 999999 999999 999999 999999 999999 999999 999999 999999 999999 999999 999999 999999 999999 999999 999999 999999 999999 999999 999999 999999 999999 999999 999999 999999 999999 999999 999999 999999 999999 999999 999999 999999 999999 999999 999999 999999 999999 999999 999999 999999 999999 999999 999999 999999 999999 999999 0 999999 999999 999999 999999 999999 999999 999999 999999 999999 999999 999999 999999 999999 999999 999999 999999 14142 12860 19888 15866 15034 16109 12294 14036 11346 15653 10071 19364 15879 15019 12187 18311 11084 10555 12138 11067 10627 19805 15473 18782 12758 17257 12655 15695 17856 13939 18163 15307 15303 14045 17584 14040 16981 14112 11834 15128 11459 16625 15365 11101 19475 15626 11572 13590 17969 13488 999999
999999 999999 999999 999999 999999 999999 999999 999999 999999 999999 999999 999999 999999 999999 999999 999999 999999 999999 999999 999999 999999 999999 999999 999999 999999 999999 999999 999999 999999 999999 999999 999999 999999 999999 999999 999999 999999 999999 999999 999999 999999 999999 999999 999999 999999 999999 999999 999999 999999 999999 999999 999999 999999 999999 999999 999999 999999 999999 999999 999999 999999 999999 999999 999999 999999 999999 999999 999999 999999 999999 999999 999999 999999 999999 999999 999999 999999 999999 999999 999999 999999 999999 999999 999999 999999 0 999999 999999 999999 999999 999999 999999 999999 999999 999999 999999 999999 999999 999999 999999 999999 14459 16507 15869 19287 16079 19473 18083 12061 15772 11615 12232 15540 13523 12271 10914 18107 12025 13937 16048 13932 10106 15893 14835 19800 10429 10638 18117 11530 17414 18142 10180 17396 14908 13628 19050 12513 12263 11252 19212 13919 18995 13384 16772 12186 18143 10692 17550 15574 11339 11352 999999
999999 999999 999999 999999 999999 999999 999999 999999 999999 999999 999999 999999 999999 999999 999999 999999 999999 999999 999999 999999 999999 999999 999999 999999 999999 999999 999999 999999 999999 999999 999999 999999 999999 999999 999999 999999 999999 999999 999999 999999 999999 999999 999999 999999 999999 999999 999999 999999 999999 999999 999999 999999 999999 999999 999999 999999 999999 999999 999999 999999 999999 999999 999999 999999 999999 999999 999999 999999 999999 999999 999999 999999 999999 999999 999999 999999 999999 999999 999999 999999 999999 999999 999999 999999 999999 999999 0 999999 999999 999999 999999 999999 999999 999999 999999 999999 999999 999999 999999 999999 999999 19434 10719 17430 16683 19236 16852 17245 16571 16874 11822 17961 17991 18444 12505 17340 15124 17024 19895 11880 19352 13376 16488 18603 10348 18746 16205 17022 17516 16507 17231 16923 17931 17628 13383 10450 18780 12657 16743 12017 18677 19734 15342 10515 12243 17962 17066 16196 14510 10930 13102 999999
999999 999999 999999 999999 999999 999999 999999 999999 999999 999999 999999 999999 999999 999999 999999 999999 999999 999999 999999 999999 999999 999999 999999 999999 999999 999999 999999 999999 999999 999999 999999 999999 999999 999999 999999 999999 999999 999999 999999 999999 999999 999999 999999 999999 999999 999999 999999 999999 999999 999999 999999 999999 999999 999999 999999 999999 999999 999999 999999 999999 999999 999999 999999 999999 999999 999999 999999 999999 999999 999999 999999 999999 999999 999999 999999 999999 999999 999999 999999 999999 999999 999999 999999 999999 999999 999999 999999 0 999999 999999 999999 999999 999999 999999 999999 999999 999999 999999 999999 999999 999999 15805 15122 19346 16095 11652 10397 19004 10693 18428 17387 18194 11879 17286 19732 16919 13441 18000 18948 10321 12304 11022 17051 11707 19920 17158 14445 12816 14313 19368 12596 16610 16050 13085 18788 13071 17348 13363 18524 13693 16153 15765 16571 17176 10436 17344 15573 11602 16676 13740 13296 999999
999999 999999 999999 999999 999999 999999 999999 999999 999999 999999 999999 999999 999999 999999 999999 999999 999999 999999 999999 999999 999999 999999 999999 999999 999999 999999 999999 999999 999999 999999 999999 999999 999999 999999 999999 999999 999999 999999 999999 999999 999999 999999 999999 999999 999999 999999 999999 999999 999999 999999 999999 999999 999999 999999 999999 999999 999999 999999 999999 999999 999999 999999 999999 999999 999999 999999 999999 999999 999999 999999 999999 999999 999999 999999 999999 999999 999999 999999 999999 999999 999999 999999 999999 999999 999999 999999 999999 999999 0 999999 999999 999999 999999 999999 999999 999999 999999 999999 999999 999999 999999 16316 13855 18530 15008 17869 16853 10923 15025 16673 14197 18631 15255 16050 11570 14742 15492 19949 12556 12780 11420 10902 16659 15150 14007 12358 12037 19622 12687 14444 10804 13534 16190 17432 13600 16583 15783 10518 11838 17581 18528 11682 11747 17936 20000 14675 18873 14834 13000 13962 17816 999999
999999 999999 999999 999999 999999 999999 999999 999999 999999 999999 999999 999999 999999 999999 999999 999999 999999 999999 999999 999999 999999 999999 999999 999999 999999 999999 999999 999999 999999 999999 999999 999999 999999 999999 999999 999999 999999 999999 999999 999999 999999 999999 999999 999999 999999 999999 999999 999999 999999 999999 999999 999999 999999 999999 999999 999999 999999 999999 999999 999999 999999 999999 999999 999999 999999 999999 999999 999999 999999 999999 999999 999999 999999 999999 999999 999999 999999 999999 999999 999999 999999 999999 999999 999999 999999 999999 999999 999999 999999 0 999999 999999 999999 999999 999999 999999 999999 999999 999999 999999 999999 10005 14931 18479 12594 18483 16006 18520 18673 19975 14842 16243 16907 10511 18926 18108 13522 16421 17280 10192 15881 13334 14132 13801 11081 12850 16383 12728 16388 18668 18458 12939 19263 18719 15175 13043 12560 17035 11615 18396 13356 12297 15970 11606 19793 14297 12747 11502 14005 10106 14228 999999
999999 999999 999999 999999 999999 999999 999999 999999 999999 999999 999999 999999 999999 999999 999999 999999 999999 999999 999999 999999 999999 999999 999999 999999 999999 999999 999999 999999 999999 999999 999999 999999 999999 999999 999999 999999 999999 999999 999999 999999 999999 999999 999999 999999 999999 999999 999999 999999 999999 999999 999999 999999 999999 999999 999999 999999 999999 999999 999999 999999 999999 999999 999999 999999 999999 999999 999999 999999 999999 999999 999999 999999 999999 999999 999999 999999 999999 999999 999999 999999 999999 999999 999999 999999 999999 999999 999999 999999 999999 999999 0 999999 999999 999999 999999 999999 999999 999999 999999 999999 999999 18875 18799 11108 15168 11674 16384 11830 15885 13995 16508 11685 19838 11222 16903 16474 15108 11400 14437 19071 10391 13560 11775 19531 18412 19270 10275 19269 13721 17452 17896 18478 10011 13864 12708 13631 14370 16330 17468 10625 18767 12465 11246 12953 14714 10163 12566 11646 14054 13300 16340 999999
999999 999999 999999 999999 999999 999999 999999 999999 999999 999999 999999 999999 999999 999999 999999 999999 999999 999999 999999 999999 999999 999999 999999 999999 999999 999999 999999 999999 999999 999999 999999 999999 999999 999999 999999 999999 999999 999999 999999 999999 999999 999999 999999 999999 999999 999999 999999 999999 999999 999999 999999 999999 999999 999999 999999 999999 999999 999999 999999 999999 999999 999999 999999 999999 999999 999999 999999 999999 999999 999999 999999 999999 999999 999999 999999 999999 999999 999999 999999 999999 999999 999999 999999 999999 999999 999999 999999 999999 999999 999999 999999 0 999999 999999 999999 999999 999999 999999 999999 999999 999999 15721 15948 14188 14959 18276 13516 16693 10825 11089 11395 10835 19734 14638 11970 13065 12300 11537 15200 15469 12743 16474 17499 10032 10918 16139 18973 10735 15680 15787 18543 19931 12996 18282 12296 15761 11880 10323 17980 13316 13558 14780 10556 12169 13760 16792 17850 11093 14734 11137 17119 999999
999999 999999 999999 999999 999999 999999 999999 999999 999999 999999 999999 999999 999999 999999 999999 999999 999999 999999 999999 999999 999999 999999 999999 999999 999999 999999 999999 999999 999999 999999 999999 999999 999999 999999 999999 999999 999999 999999 999999 999999 999999 999999 999999 999999 999999 999999 999999 999999 999999 999999 999999 999999 999999 999999 999999 999999 999999 999999 999999 999999 999999 999999 999999 999999 999999 999999 999999 999999 999999 999999 999999 999999 999999 999999 999999 999999 999999 999999 999999 999999 999999 999999 999999 999999 999999 999999 999999 999999 999999 999999 999999 999999 0 999999 999999 999999 999999 999999 999999 999999 999999 14417 11130 16675 13066 19015 15526 16407 10992 13919 13446 15748 11361 13457 11818 12839 10025 16427 19908 13251 16493 17571 19329 14878 14295 14522 17475 10424 19665 16588 14630 10541 18572 14996 19658 15224 16102 19263 10437 19898 10176 19308 11487 13772 11819 15907 11044 16840 17998 17689 10093 999999
999999 999999 999999 999999 999999 999999 999999 999999 999999 999999 999999 999999 999999 999999 999999 999999 999999 999999 999999 999999 999999 999999 999999 999999 999999 999999 999999 999999 999999 999999 999999 999999 999999 999999 999999 999999 999999 999999 999999 999999 999999 999999 999999 999999 999999 999999 999999 999999 999999 999999 999999 999999 999999 999999 999999 999999 999999 999999 999999 999999 999999 999999 999999 999999 999999 999999 999999 999999 999999 999999 999999 999999 999999 999999 999999 999999 999999 999999 999999 999999 999999 999999 999999 999999 999999 999999 999999 999999 999999 999999 999999 999999 999999 0 999999 999999 999999 999999 999999 999999 999999 17902 11543 18969 15810 14409 19962 16539 18212 12989 19171 17280 10927 11295 12204 17266 16008 12485 18242 12245 16530 19957 19566 12836 19151 18967 19526 10059 16841 14524 16269 13437 18511 14176 14377 14557 16560 15062 16318 19501 17620 13959 19794 17734 16642 19415 16123 13705 19402 11523 17973 999999
999999 999999 999999 999999 999999 999999 999999 999999 999999 999999 999999 999999 999999 999999 999999 999999 999999 999999 999999 999999 999999 999999 999999 999999 999999 999999 999999 999999 999999 999999 999999 999999 999999 999999 999999 999999 999999 999999 999999 999999 999999 999999 999999 999999 999999 999999 999999 999999 999999 999999 999999 999999 999999 999999 999999 999999 999999 999999 999999 999999 999999 999999 999999 999999 999999 999999 999999 999999 999999 999999 999999 999999 999999 999999 999999 999999 999999 999999 999999 999999 999999 999999 999999 999999 999999 999999 999999 999999 999999 999999 999999 999999 999999 999999 0 999999 999999 999999 999999 999999 999999 18558 12762 20000 12880 16293 14551 15687 14531 16136 12965 17678 14868 11485 10094 10374 19863 19022 15623 14765 19875 18579 14043 16934 19894 12821 15778 13952 11151 14224 15475 12728 16916 17203 13742 14537 16648 19213 13426 19197 11961 17376 13419 14816 18002 15776 19354 10540 16307 10773 11650 999999
999999 999999 999999 999999 999999 999999 999999 999999 999999 999999 999999 999999 999999 999999 999999 999999 999999 999999 999999 999999 999999 999999 999999 999999 999999 999999 999999 999999 999999 999999 999999 999999 999999 999999 999999 999999 999999 999999 999999 999999 999999 999999 999999 999999 999999 999999 999999 999999 999999 999999 999999 999999 999999 999999 999999 999999 999999 999999 999999 999999 999999 999999 999999 999999 999999 999999 999999 999999 999999 999999 999999 999999 999999 999999 999999 999999 999999 999999 999999 999999 999999 999999 999999 999999 999999 999999 999999 999999 999999 999999 999999 999999 999999 999999 999999 0 999999 999999 999999 999999 999999 18400 17254 16188 15748 13227 18796 12778 19101 18437 14309 17018 14216 11680 13078 15448 19533 11485 19955 18329 17886 10378 10536 16832 13675 12514 12381 12986 15744 15099 10429 15703 13850 17954 14586 18416 15342 10333 14596 13775 15231 15528 12478 17017 17113 14939 10172 19419 13204 13628 11828 999999
999999 999999 999999 999999 999999 999999 999999 999999 999999 999999 999999 999999 999999 999999 999999 999999 999999 999999 999999 999999 999999 999999 999999 999999 999999 999999 999999 999999 999999 999999 999999 999999 999999 999999 999999 999999 999999 999999 999999 999999 999999 999999 999999 999999 999999 999999 999999 999999 999999 999999 999999 999999 999999 999999 999999 999999 999999 999999 999999 999999 999999 999999 999999 999999 999999 999999 999999 999999 999999 999999 999999 999999 999999 999999 999999 999999 999999 999999 999999 999999 999999 999999 999999 999999 999999 999999 999999 999999 999999 999999 999999 999999 999999 999999 999999 999999 0 999999 999999 999999 999999 15996 14389 11808 16755 13698 12841 10145 13876 14845 19848 15978 18360 14352 15163 18777 17660 10145 13743 19403 14487 13474 13091 10336 17110 16547 18337 15575 12264 14693 11913 14483 17967 14632 10386 15197 16469 18770 16054 14465 11094 16499 16626 17001 13122 19167 19432 19260 16484 11785 17900 999999
999999 999999 999999 999999 999999 999999 999999 999999 999999 999999 999999 999999 999999 999999 999999 999999 999999 999999 999999 999999 999999 999999 999999 999999 999999 999999 999999 999999 999999 999999 999999 999999 999999 999999 999999 999999 999999 999999 999999 999999 999999 999999 999999 999999 999999 999999 999999 999999 999999 999999 999999 999999 999999 999999 999999 999999 999999 999999 999999 999999 999999 999999 999999 999999 999999 999999 999999 999999 999999 999999 999999 999999 999999 999999 999999 999999 999999 999999 999999 999999 999999 999999 999999 999999 999999 999999 999999 999999 999999 999999 999999 999999 999999 999999 999999 999999 999999 0 999999 999999 999999 13889 15861 16109 19626 11956 14922 18128 12270 18938 18697 18410 10800 13027 16147 12052 12372 13876 19818 18721 19919 16859 11383 18467 14823 17785 16267 18962 14799 18793 14709 17134 14742 11626 14576 10536 11488 11287 15917 14231 14899 12669 13284 11028 19699 11013 10209 10242 19797 10924 10639 999999
999999 999999 999999 999999 999999 999999 999999 999999 999999 999999 999999 999999 999999 999999 999999 999999 999999 999999 999999 999999 999999 999999 999999 999999 999999 999999 999999 999999 999999 999999 999999 999999 999999 999999 999999 999999 999999 999999 999999 999999 999999 999999 999999 999999 999999 999999 999999 999999 999999 999999 999999 999999 999999 999999 999999 999999 999999 999999 999999 999999 999999 999999 999999 999999 999999 999999 999999 999999 999999 999999 999999 999999 999999 999999 999999 999999 999999 999999 999999 999999 999999 999999 999999 999999 999999 999999 999999 999999 999999 999999 999999 999999 999999 999999 999999 999999 999999 999999 0 999999 999999 11669 16925 11558 15567 14159 17615 16491 10548 19161 15297 16976 17168 16063 18420 14692 16969 10413 11054 19762 13814 15292 14671 11385 18416 10820 10041 14041 17757 11444 18956 12646 12812 13159 19243 19880 15468 10516 18966 16954 18555 17615 12300 17912 17765 11128 15198 11496 16030 19428 18560 999999
999999 999999 999999 999999 999999 999999 999999 999999 999999 999999 999999 999999 999999 999999 999999 999999 999999 999999 999999 999999 999999 999999 999999 999999 999999 999999 999999 999999 999999 999999 999999 999999 999999 999999 999999 999999 999999 999999 999999 999999 999999 999999 999999 999999 999999 999999 999999 999999 999999 999999 999999 999999 999999 999999 999999 999999 999999 999999 999999 999999 999999 999999 999999 999999 999999 999999 999999 999999 999999 999999 999999 999999 999999 999999 999999 999999 999999 999999 999999 999999 999999 999999 999999 999999 999999 999999 999999 999999 999999 999999 999999 999999 999999 999999 999999 999999 999999 999999 999999 0 999999 18277 10759 13567 19655 11213 16329 12930 12197 15289 17268 12980 13042 15868 12866 11898 14233 18040 12667 19164 15257 15513 16238 19724 10134 12729 19376 15751 18656 13058 11696 12606 19898 11985 17507 17822 16209 12375 14421 13608 19667 10711 15742 17298 14226 10818 16008 13494 10733 18883 17196 999999
999999 999999 999999 999999 999999 999999 999999 999999 999999 999999 999999 999999 999999 999999 999999 999999 999999 999999 999999 999999 999999 999999 999999 999999 999999 999999 999999 999999 999999 999999 999999 999999 999999 999999 999999 999999 999999 999999 999999 999999 999999 999999 999999 999999 999999 999999 999999 999999 999999 999999 999999 999999 999999 999999 999999 999999 999999 999999 999999 999999 999999 999999 999999 999999 999999 999999 999999 999999 999999 999999 999999 999999 999999 999999 999999 999999 999999 999999 999999 999999 999999 999999 999999 999999 999999 999999 999999 999999 999999 999999 999999 999999 999999 999999 999999 999999 999999 999999 999999 999999 0 19937 17653 16307 11411 14096 16117 12487 13695 19297 15189 14460 14436 16798 17523 12006 13067 14645 15409 18227 14593 19443 10105 17991 11441 17383 10389 15525 10787 10789 18074 18936 10154 14019 11183 19597 18084 19761 19960 11551 16049 14002 17479 19659 14613 18672 19996 13480 14401 19104 18180 999999
999999 18727 12970 19617 18684 16915 19404 18394 13456 10204 11721 13811 11593 16754 10838 19594 19715 11776 10547 16360 10302 13648 17100 19464 10643 13234 18955 19195 10475 18041 19095 14908 13142 18245 11036 11016 18793 19177 13229 18696 14371 17426 17788 19634 18397 10025 12528 14269 10566 10489 17820 15318 16670 16303 10995 15434 13846 15549 15334 16395 17503 17227 11618 10324 14275 15034 14893 19809 12900 17151 10484 14485 18549 17114 10749 16672 11027 13836 11127 13675 18128 13941 12053 19817 14142 14459 19434 15805 16316 10005 18875 15721 14417 17902 18558 18400 15996 13889 11669 18277 19937 0 999999 999999 999999 999999 999999 999999 999999 999999 999999 999999 999999 999999 999999 999999 999999 999999 999999 999999 999999 999999 999999 999999 999999 999999 999999 999999 999999 999999 999999 999999 999999 999999 999999 999999 999999 999999 999999 999999 999999 999999 999999 999999 999999 999999 999999 999999 999999 999999 999999 8376
999999 16439 15228 14206 18947 17464 14624 18617 13273 14304 17152 17516 18391 16911 14593 11290 18654 15438 14329 15098 10888 18573 12609 16098 15990 12724 17380 16338 19219 19360 15374 18583 13293 16863 16177 15479 15110 12727 16951 18095 15450 18479 19843 18100 14974 15394 16628 15561 16959 18453 16517 17147 16229 18919 15067 11648 14182 14929 15724 16180 14626 10797 17503 12102 12151 19593 13938 15518 14685 11640 12109 12331 11603 16072 10137 17640 10573 15840 10684 11201 11744 12135 11715 11660 12860 16507 10719 15122 13855 14931 18799 15948 11130 11543 12762 17254 14389 15861 16925 10759 17653 999999 0 999999 999999 999999 999999 999999 999999 999999 999999 999999 999999 999999 999999 999999 999999 999999 999999 999999 999999 999999 999999 999999 999999 999999 999999 999999 999999 999999 999999 999999 999999 999999 999999 999999 999999 999999 999999 999999 999999 999999 999999 999999 999999 999999 999999 999999 999999 999999 999999 9048
999999 11029 14601 16177 14209 19412 11330 13473 16396 15975 10844 18143 18973 18776 11764 19465 18066 19829 15370 17489 10520 14289 14546 15935 17262 11592 14976 19630 19263 12642 19980 13861 12836 17563 16640 18649 16568 16029 18169 17033 17058 13504 17732 18698 19639 18649 16107 12642 19038 14954 19251 14947 11306 16085 13188 18638 11681 18939 17635 18063 13792 12206 14714 12452 15137 16445 17050 16394 16677 11630 10205 10128 11262 10360 10444 12476 14324 18590 12987 10153 12694 18664 16477 15430 19888 15869 17430 19346 18530 18479 11108 14188 16675 18969 20000 16188 11808 16109 11558 13567 16307 999999 999999 0 999999 999999 999999 999999 999999 999999 999999 999999 999999 999999 999999 999999 999999 999999 999999 999999 999999 999999 999999 999999 999999 999999 999999 999999 999999 999999 999999 999999 999999 999999 999999 999999 999999 999999 999999 999999 999999 999999 999999 999999 999999 999999 999999 999999 999999 999999 999999 11406
999999 18979 12041 17764 10899 19135 19936 14548 15755 12755 10137 16006 13388 13816 13015 10523 16480 16927 19878 16516 11269 12171 15997 19582 16339 19581 18190 13434 10813 10489 16648 12106 14971 15262 17841 15672 17745 14779 11216 12879 19468 12218 11908 16764 19174 15161 12982 18973 18319 17368 10149 18915 12796 11873 18344 12419 15505 15830 10008 19594 18109 18125 17957 19329 15596 11821 10990 14184 17191 18481 12133 10500 17697 14616 12738 18344 18426 19920 10197 12869 19168 17967 14750 11759 15866 19287 16683 16095 15008 12594 15168 14959 13066 15810 12880 15748 16755 19626 15567 19655 11411 999999 999999 999999 0 999999 999999 999999 999999 999999 999999 999999 999999 999999 999999 999999 999999 999999 999999 999999 999999 999999 999999 999999 999999 999999 999999 999999 999999 999999 999999 999999 999999 999999 999999 999999 999999 999999 999999 999999 999999 999999 999999 999999 999999 999999 999999 999999 999999 999999 999999 12320
999999 11740 12248 12761 19982 18172 17469 14728 18044 13486 10767 13122 11752 15820 19899 11943 17391 13284 16839 19538 16531 13898 13005 17963 15495 17020 17097 19969 16340 17678 19744 13386 14116 18160 17472 18029 16630 13895 11252 11180 14922 15585 10859 12742 13337 12108 16654 13766 17308 19485 12982 15397 11794 17891 13313 12161 10951 19184 16611 13538 16930 14698 16216 19849 16813 13654 10647 17245 15801 18623 14792 11954 13371 16966 13300 14338 10649 18433 11491 12085 14365 11954 19094 15531 15034 16079 19236 11652 17869 18483 11674 18276 19015 14409 16293 13227 13698 11956 14159 11213 14096 999999 999999 999999 999999 0 999999 999999 999999 999999 999999 999999 999999 999999 999999 999999 999999 999999 999999 999999 999999 999999 999999 999999 999999 999999 999999 999999 999999 999999 999999 999999 999999 999999 999999 999999 999999 999999 999999 999999 999999 999999 999999 999999 999999 999999 999999 999999 999999 999999 999999 9138
999999 12515 14829 11550 14075 16763 18874 17289 13549 12123 15977 12503 11442 13520 17939 19404 13370 12724 18281 15948 12064 15055 17247 19128 13001 17196 10189 12611 15713 18074 19641 14317 19759 19570 10246 13489 16906 19751 19569 12638 17771 15016 14643 14451 15178 13122 17049 12684 12215 10426 17265 15016 10835 16015 17114 15094 13796 13178 19570 13282 13038 12633 15467 10500 19419 15985 13885 11884 16790 11816 12435 19479 18992 13369 13621 19659 17239 17815 12865 18143 11401 11037 19975 15514 16109 19473 16852 10397 16853 16006 16384 13516 15526 19962 14551 18796 12841 14922 17615 16329 16117 999999 999999 999999 999999 999999 0 999999 999999 999999 999999 999999 999999 999999 999999 999999 999999 999999 999999 999999 999999 999999 999999 999999 999999 999999 999999 999999 999999 999999 999999 999999 999999 999999 999999 999999 999999 999999 999999 999999 999999 999999 999999 999999 999999 999999 999999 999999 999999 999999 999999 6089
999999 14502 15189 14263 10038 13968 11409 19627 12343 10057 17686 15195 11074 16642 15424 18163 17674 16390 11744 19803 18632 11487 13598 18695 18414 10115 18525 15365 15378 12925 17416 10977 14332 15194 17824 15695 11828 19030 14756 19218 17923 13417 19341 13425 19047 13187 12909 11822 14385 14078 17066 14576 14867 13137 18103 12411 10991 14038 12498 10795 11549 18956 17816 12071 13876 14705 14925 12125 14417 18022 14184 17400 14476 10788 13585 19303 16398 11376 10874 12560 16122 11760 13024 10155 12294 18083 17245 19004 10923 18520 11830 16693 16407 16539 15687 12778 10145 18128 16491 12930 12487 999999 999999 999999 999999 999999 999999 0 999999 999999 999999 999999 999999 999999 999999 999999 999999 999999 999999 999999 999999 999999 999999 999999 999999 999999 999999 999999 999999 999999 999999 999999 999999 999999 999999 999999 999999 999999 999999 999999 999999 999999 999999 999999 999999 999999 999999 999999 999999 999999 999999 13852
999999 14171 17670 18600 11616 11491 18021 15636 15126 19527 19536 12277 12368 19600 18332 19693 19163 17339 11575 14081 10101 10102 10823 18635 10903 12205 11645 19999 11640 15616 13350 18422 15660 17614 12712 15077 15608 15280 18513 10703 11248 15295 16270 18881 15768 10212 11153 17711 18216 14116 18655 18605 18032 11182 14192 18959 19008 17688 12686 13414 16855 10877 14439 16452 15725 19002 14581 16454 11520 13924 16613 14449 15682 10374 11756 11446 11949 10809 11836 11208 14535 17305 13550 14273 14036 12061 16571 10693 15025 18673 15885 10825 10992 18212 14531 19101 13876 12270 10548 12197 13695 999999 999999 999999 999999 999999 999999 999999 0 999999 999999 999999 999999 999999 999999 999999 999999 999999 999999 999999 999999 999999 999999 999999 999999 999999 999999 999999 999999 999999 999999 999999 999999 999999 999999 999999 999999 999999 999999 999999 999999 999999 999999 999999 999999 999999 999999 999999 999999 999999 999999 6569
999999 11623 11424 10853 10059 19570 15381 13169 19295 16332 14734 12029 11997 13757 16088 14027 17995 13225 18321 17444 15015 14254 11367 18141 10647 14903 12276 15467 11028 16353 12240 15813 12709 13003 16435 11698 16250 18959 16324 14688 18479 12444 11593 12389 19363 18493 16338 16207 11435 15303 16794 19926 15249 14674 13279 13621 14689 17268 10135 19627 11774 14811 10831 16659 15631 18547 19034 17016 14180 12528 11121 11958 15173 19917 17147 15928 10056 15805 15835 17507 14963 10651 19852 18821 11346 15772 16874 18428 16673 19975 13995 11089 13919 12989 16136 18437 14845 18938 19161 15289 19297 999999 999999 999999 999999 999999 999999 999999 999999 0 999999 999999 999999 999999 999999 999999 999999 999999 999999 999999 999999 999999 999999 999999 999999 999999 999999 999999 999999 999999 999999 999999 999999 999999 999999 999999 999999 999999 999999 999999 999999 999999 999999 999999 999999 999999 999999 999999 999999 999999 999999 10872
999999 16299 15781 16481 16625 16023 15425 10075 16641 13106 19545 17895 16335 17391 14692 15044 13193 18496 13672 11926 10307 15183 11560 15380 18684 16432 16514 10577 16208 12952 13633 14516 19628 12946 11494 14961 12646 13684 16884 19059 11926 19615 18507 17237 13105 12746 13671 12533 13235 12230 11965 12612 14631 17776 17924 16892 12022 10705 13119 16101 10084 16197 16801 12904 10535 19137 14644 15131 16320 18737 19336 19289 19217 13013 11569 11273 16531 10288 12157 19374 17008 17954 15962 11753 15653 11615 11822 17387 14197 14842 16508 11395 13446 19171 12965 14309 19848 18697 15297 17268 15189 999999 999999 999999 999999 999999 999999 999999 999999 999999 0 999999 999999 999999 999999 999999 999999 999999 999999 999999 999999 999999 999999 999999 999999 999999 999999 999999 999999 999999 999999 999999 999999 999999 999999 999999 999999 999999 999999 999999 999999 999999 999999 999999 999999 999999 999999 999999 999999 999999 999999 12257
999999 10629 15652 11642 12552 16980 13146 16896 15940 16259 17704 16685 14197 15365 11351 14222 12318 12029 11620 18212 15338 12212 14610 11395 17225 19184 18827 10535 14292 15209 15729 10522 11491 17959 17545 13881 16267 16050 10838 16498 14367 14317 18676 14855 19462 14162 11396 10388 12291 13692 15734 17647 17985 12298 12788 10113 10482 19553 15899 15350 11816 14594 11172 16033 11727 10780 14660 16258 17487 13996 12632 19963 11196 19524 13337 10899 15074 14650 11080 18136 13952 15728 18208 18538 10071 12232 17961 18194 18631 16243 11685 10835 15748 17280 17678 17018 15978 18410 16976 12980 14460 999999 999999 999999 999999 999999 999999 999999 999999 999999 999999 0 999999 999999 999999 999999 999999 999999 999999 999999 999999 999999 999999 999999 999999 999999 999999 999999 999999 999999 999999 999999 999999 999999 999999 999999 999999 999999 999999 999999 999999 999999 999999 999999 999999 999999 999999 999999 999999 999999 999999 10529
999999 11299 12609 15452 14369 12093 12366 19225 17174 14151 17308 13797 11886 19581 12168 13687 15419 17932 15495 15189 12760 15457 14474 14483 12597 10724 16611 10179 16315 16059 10966 14763 17628 15668 14831 16712 13221 10822 11941 11726 16826 16270 16195 11117 15180 18476 17730 13247 12263 15474 12854 12464 15069 10450 10017 17962 16206 16262 19316 18243 10642 17549 13618 17942 18016 15526 12165 18269 14888 16456 13951 16980 10961 13036 12368 16328 19786 11422 18641 14085 19425 18801 17934 19407 19364 15540 17991 11879 15255 16907 19838 19734 11361 10927 14868 14216 18360 10800 17168 13042 14436 999999 999999 999999 999999 999999 999999 999999 999999 999999 999999 999999 0 999999 999999 999999 999999 999999 999999 999999 999999 999999 999999 999999 999999 999999 999999 999999 999999 999999 999999 999999 999999 999999 999999 999999 999999 999999 999999 999999 999999 999999 999999 999999 999999 999999 999999 999999 999999 999999 999999 6789
999999 12096 13881 11554 11449 14430 14457 19515 18773 15664 15306 18034 13764 14726 12775 11207 11592 18893 19063 12550 18128 15081 18456 14637 19575 10007 14280 19272 15726 16328 14160 17767 19983 11104 16907 13981 10438 17781 10385 10311 10752 19795 15781 15726 19350 11655 10561 17899 15943 11108 17202 17226 17503 12124 16979 17288 19652 12598 11295 15678 15732 19260 14320 11259 15170 15083 16145 16872 13539 12581 18821 17714 13951 19948 19040 17644 10005 11282 16309 13571 17066 15740 17817 11234 15879 13523 18444 17286 16050 10511 11222 14638 13457 11295 11485 11680 14352 13027 16063 15868 16798 999999 999999 999999 999999 999999 999999 999999 999999 999999 999999 999999 999999 0 999999 999999 999999 999999 999999 999999 999999 999999 999999 999999 999999 999999 999999 999999 999999 999999 999999 999999 999999 999999 999999 999999 999999 999999 999999 999999 999999 999999 999999 999999 999999 999999 999999 999999 999999 999999 999999 12677
999999 16375 13216 15357 15195 12672 13491 16018 16658 18714 15131 14621 12596 11429 10741 10201 19590 11637 18253 11063 12778 15511 17811 10005 12880 16639 17272 11997 13523 11162 17572 11234 13448 13493 14239 19116 17854 12059 16208 10376 16983 15023 11636 14720 15381 14453 10103 18360 11281 13196 13638 18017 12211 11965 16730 12955 16990 12319 13458 19753 10633 15501 12376 12938 16201 15305 19786 16818 13217 15487 19388 15198 16874 16996 18203 11650 12394 12673 15441 12468 14455 17328 13997 19005 15019 12271 12505 19732 11570 18926 16903 11970 11818 12204 10094 13078 15163 16147 18420 12866 17523 999999 999999 999999 999999 999999 999999 999999 999999 999999 999999 999999 999999 999999 0 999999 999999 999999 999999 999999 999999 999999 999999 999999 999999 999999 999999 999999 999999 999999 999999 999999 999999 999999 999999 999999 999999 999999 999999 999999 999999 999999 999999 999999 999999 999999 999999 999999 999999 999999 999999 12527
999999 12286 14557 11137 11931 16851 18025 10130 11176 10131 11439 12237 11688 16937 11650 14507 13358 12019 13886 17446 17313 11343 14383 15347 15858 19827 10025 10226 11630 19576 13211 13322 18304 16661 17076 11564 11912 18205 18791 17470 13733 14756 10278 12302 17444 18948 15762 13336 17180 17112 19245 10714 15446 17812 11591 10670 12782 10171 16800 16198 11754 13208 19090 19132 16767 17983 15029 19729 13484 17787 10261 14174 12222 17547 11680 14004 17393 19952 19082 19510 10002 16530 11509 11155 12187 10914 17340 16919 14742 18108 16474 13065 12839 17266 10374 15448 18777 12052 14692 11898 12006 999999 999999 999999 999999 999999 999999 999999 999999 999999 999999 999999 999999 999999 999999 0 999999 999999 999999 999999 999999 999999 999999 999999 999999 999999 999999 999999 999999 999999 999999 999999 999999 999999 999999 999999 999999 999999 999999 999999 999999 999999 999999 999999 999999 999999 999999 999999 999999 999999 999999 10918
999999 17516 11426 19778 18558 12596 15742 13678 10909 14456 10164 12761 19809 14381 16721 19062 10189 14945 13919 17305 19021 12213 14800 10336 15765 13139 17700 10235 13527 18474 12053 17117 18618 15607 12700 10751 11004 19478 15010 11105 19548 10587 17342 18792 16766 10790 13277 12943 12066 10218 18586 14360 11348 10381 10671 10775 12705 12060 18652 18325 17379 15611 15112 11675 16592 13939 10530 16231 11530 12264 17330 11357 11365 13210 17794 11955 17318 13350 16570 17765 18453 19882 16646 15673 18311 18107 15124 13441 15492 13522 15108 12300 10025 16008 19863 19533 17660 12372 16969 14233 13067 999999 999999 999999 999999 999999 999999 999999 999999 999999 999999 999999 999999 999999 999999 999999 0 999999 999999 999999 999999 999999 999999 999999 999999 999999 999999 999999 999999 999999 999999 999999 999999 999999 999999 999999 999999 999999 999999 999999 999999 999999 999999 999999 999999 999999 999999 999999 999999 999999 999999 14269
999999 18967 11406 16680 13736 15468 14161 16449 18227 15069 11867 17148 17498 10558 15798 15842 19908 12380 19537 17777 19968 17531 10318 19613 14571 14344 17328 13619 13687 11685 16452 12047 11261 16904 14907 17496 14220 16417 18820 16853 19495 15654 15805 12080 11813 12723 19239 15332 11829 17070 19781 12142 10171 18024 18227 14852 13172 19445 19955 15143 14638 13279 18462 15782 19916 10550 10368 14205 14536 14007 17813 12678 12652 14908 19657 10555 17604 12191 14422 13330 17632 19524 18334 10996 11084 12025 17024 18000 19949 16421 11400 11537 16427 12485 19022 11485 10145 13876 10413 18040 14645 999999 999999 999999 999999 999999 999999 999999 999999 999999 999999 999999 999999 999999 999999 999999 999999 0 999999 999999 999999 999999 999999 999999 999999 999999 999999 999999 999999 999999 999999 999999 999999 999999 999999 999999 999999 999999 999999 999999 999999 999999 999999 999999 999999 999999 999999 999999 999999 999999 999999 7837
999999 14461 16606 17027 11366 19321 18889 17460 15720 12466 10384 16493 13584 18353 18111 18350 11645 15712 10380 14058 13254 13916 13246 19068 18065 16177 18284 11261 15609 14964 10749 18162 11979 15774 15091 10429 12822 11419 10717 10509 16575 12275 12993 13898 10797 17695 17073 16771 12059 10749 19918 14520 10738 16387 19068 10377 13727 18422 17168 19076 19564 14940 10443 19769 19898 11902 12526 11268 19411 17703 19962 17567 18772 17789 16550 15237 17706 19462 11932 15702 19222 17599 10689 13391 10555 13937 19895 18948 12556 17280 14437 15200 19908 18242 15623 19955 13743 19818 11054 12667 15409 999999 999999 999999 999999 999999 999999 999999 999999 999999 999999 999999 999999 999999 999999 999999 999999 999999 0 999999 999999 999999 999999 999999 999999 999999 999999 999999 999999 999999 999999 999999 999999 999999 999999 999999 999999 999999 999999 999999 999999 999999 999999 999999 999999 999999 999999 999999 999999 999999 999999 11054
999999 10131 11120 17636 16368 19613 11180 13059 13739 12330 11853 19277 14714 19715 15910 16113 10376 16780 16025 13945 11955 17958 11191 18321 11222 12124 14334 17047 13172 11292 15177 16683 12913 15633 11834 10838 13161 15806 16725 16789 15595 18668 15894 11212 13042 13373 14250 13399 13361 10009 18686 14208 12912 19516 16638 16430 12928 19668 15808 13502 18995 17818 15579 10449 17238 19502 13325 17000 12987 14337 12845 19004 19324 12313 14467 17876 18517 17975 13527 10933 15366 16384 12788 14157 12138 16048 11880 10321 12780 10192 19071 15469 13251 12245 14765 18329 19403 18721 19762 19164 18227 999999 999999 999999 999999 999999 999999 999999 999999 999999 999999 999999 999999 999999 999999 999999 999999 999999 999999 0 999999 999999 999999 999999 999999 999999 999999 999999 999999 999999 999999 999999 999999 999999 999999 999999 999999 999999 999999 999999 999999 999999 999999 999999 999999 999999 999999 999999 999999 999999 999999 7845
999999 13443 19962 14320 14518 11152 18251 19793 11975 17719 12294 17520 19672 18461 18469 18834 13537 15788 10616 10480 15483 15765 14741 17833 16788 13828 12324 18943 16578 11597 16387 17643 19689 17231 16107 13868 13353 18159 15237 10134 18991 18519 16993 12879 13467 17101 19972 19616 14726 16109 10775 13931 10678 17201 15568 17183 13473 16179 16645 10835 10442 18049 11332 19559 16364 12750 12796 10449 14775 12591 13824 12734 16804 12612 16537 13075 13075 10866 13350 12298 18417 13047 12215 14680 11067 13932 19352 12304 11420 15881 10391 12743 16493 16530 19875 17886 14487 19919 13814 15257 14593 999999 999999 999999 999999 999999 999999 999999 999999 999999 999999 999999 999999 999999 999999 999999 999999 999999 999999 999999 0 999999 999999 999999 999999 999999 999999 999999 999999 999999 999999 999999 999999 999999 999999 999999 999999 999999 999999 999999 999999 999999 999999 999999 999999 999999 999999 999999 999999 999999 999999 12781
999999 19443 12591 11770 15955 10208 11949 15233 19787 12634 16747 16570 15470 15669 17135 16291 19952 12331 11616 17810 15720 13072 12463 16951 18610 12522 10069 10001 14982 15655 13841 16246 10179 11429 17337 14066 18771 18142 11313 13813 12709 16738 12538 18706 16551 10031 13459 16054 10490 15177 13542 11995 12892 11859 15682 13978 11243 15295 14260 19040 11182 13532 15874 19343 19467 15647 18813 14753 15987 15426 13075 18522 13513 17921 13731 16705 11421 15819 15783 14376 13478 12753 19441 15332 10627 10106 13376 11022 10902 13334 13560 16474 17571 19957 18579 10378 13474 16859 15292 15513 19443 999999 999999 999999 999999 999999 999999 999999 999999 999999 999999 999999 999999 999999 999999 999999 999999 999999 999999 999999 999999 0 999999 999999 999999 999999 999999 999999 999999 999999 999999 999999 999999 999999 999999 999999 999999 999999 999999 999999 999999 999999 999999 999999 999999 999999 999999 999999 999999 999999 999999 10324
999999 12873 16678 12995 10270 18242 11911 10973 17544 11166 12535 15449 14404 12683 15909 19870 19899 11482 10067 10975 10053 16949 12749 12131 16355 15455 17234 10308 15659 11125 17340 12803 16008 18627 14253 10879 11408 12097 11423 10975 19566 18269 15465 12739 10244 14563 13565 17926 17911 16230 19017 17864 12061 18657 10069 15133 19784 10895 11558 10352 16595 18639 14851 19649 13390 19690 11229 19797 14845 12322 18831 10554 13530 11688 15060 12668 14004 12266 11640 18792 13699 12928 17628 11281 19805 15893 16488 17051 16659 14132 11775 17499 19329 19566 14043 10536 13091 11383 14671 16238 10105 999999 999999 999999 999999 999999 999999 999999 999999 999999 999999 999999 999999 999999 999999 999999 999999 999999 999999 999999 999999 999999 0 999999 999999 999999 999999 999999 999999 999999 999999 999999 999999 999999 999999 999999 999999 999999 999999 999999 999999 999999 999999 999999 999999 999999 999999 999999 999999 999999 999999 11922
999999 13878 11077 12712 14055 18128 16578 15769 15797 19099 15825 13122 11658 15392 18015 12351 11667 14036 17270 19177 13362 11211 18470 11955 18682 11533 10799 15147 19264 12290 14679 10941 15442 19989 12892 10337 18388 12050 15905 12225 13579 12809 18330 10938 18825 12218 15395 13356 13633 12692 18198 12890 13348 13680 10388 13236 19893 16793 12289 14162 18834 16028 15063 10873 16880 12105 11362 17120 12237 17905 15868 16241 17159 16578 17954 14570 15106 10502 13854 17317 11570 14831 15873 16589 15473 14835 18603 11707 15150 13801 19531 10032 14878 12836 16934 16832 10336 18467 11385 19724 17991 999999 999999 999999 999999 999999 999999 999999 999999 999999 999999 999999 999999 999999 999999 999999 999999 999999 999999 999999 999999 999999 999999 0 999999 999999 999999 999999 999999 999999 999999 999999 999999 999999 999999 999999 999999 999999 999999 999999 999999 999999 999999 999999 999999 999999 999999 999999 999999 999999 999999 10899
999999 16891 10308 10691 19773 16565 13190 14068 15369 12526 17669 17845 13604 18333 13011 14858 13792 13766 12690 13351 13117 15018 15625 18257 14344 10608 15544 17360 12133 18504 19122 17468 14104 11914 10530 19222 17974 15154 12662 17416 15660 12283 17026 19344 16555 10584 16353 19991 14796 18825 19651 18618 18817 16134 11336 11662 16947 19891 14627 16157 17922 16152 19517 14409 11906 15797 17824 15527 17074 15639 11516 18105 15260 14602 10278 14552 11272 19135 10552 16994 14507 19045 16611 14140 18782 19800 10348 19920 14007 11081 18412 10918 14295 19151 19894 13675 17110 14823 18416 10134 11441 999999 999999 999999 999999 999999 999999 999999 999999 999999 999999 999999 999999 999999 999999 999999 999999 999999 999999 999999 999999 999999 999999 999999 0 999999 999999 999999 999999 999999 999999 999999 999999 999999 999999 999999 999999 999999 999999 999999 999999 999999 999999 999999 999999 999999 999999 999999 999999 999999 999999 6799
999999 18067 13443 14701 12062 11580 17797 11875 17538 14349 19656 17188 17382 16559 13242 17323 10148 13831 14708 18689 14495 17389 11531 18384 12884 19366 13457 17761 11271 19498 19277 15707 11637 14977 19191 11226 15878 17938 10653 15368 15753 17917 15138 12828 17602 12397 16304 14758 14891 19455 14704 17968 12524 14240 12791 13235 18120 19012 13426 13164 16904 15780 14096 15527 13046 13696 16845 10463 11795 16560 16445 10779 12889 11019 11720 17777 13988 11186 19465 10214 16738 11288 10248 15723 12758 10429 18746 17158 12358 12850 19270 16139 14522 18967 12821 12514 16547 17785 10820 12729 17383 999999 999999 999999 999999 999999 999999 999999 999999 999999 999999 999999 999999 999999 999999 999999 999999 999999 999999 999999 999999 999999 999999 999999 999999 0 999999 999999 999999 999999 999999 999999 999999 999999 999999 999999 999999 999999 999999 999999 999999 999999 999999 999999 999999 999999 999999 999999 999999 999999 999999 9518
999999 10157 17756 18180 19308 12912 16462 15974 19893 17140 12711 15538 12985 13411 16178 14959 12802 12063 18799 13203 18194 11045 13243 12503 14495 17435 17322 15817 10481 15160 18464 12023 10088 12881 12518 19029 10366 15946 14830 18433 18232 10662 13749 12672 10554 13276 15700 14266 14937 16212 16247 16545 19899 14831 17373 19887 14162 16280 10088 16563 11242 16669 16368 12269 14789 17846 19075 15153 16988 18383 11395 19197 12396 17282 17758 16360 17518 11909 17452 17081 11332 17341 19680 11493 17257 10638 16205 14445 12037 16383 10275 18973 17475 19526 15778 12381 18337 16267 10041 19376 10389 999999 999999 999999 999999 999999 999999 999999 999999 999999 999999 999999 999999 999999 999999 999999 999999 999999 999999 999999 999999 999999 999999 999999 999999 999999 0 999999 999999 999999 999999 999999 999999 999999 999999 999999 999999 999999 999999 999999 999999 999999 999999 999999 999999 999999 999999 999999 999999 999999 999999 14607
999999 11096 17455 10371 14962 11132 17811 11235 13473 18367 12896 12058 12995 10343 18640 11448 16480 19489 14229 15559 19488 19590 19744 17842 16082 19185 11090 16769 13668 19202 19692 16285 14062 10881 15980 17685 10979 15318 12583 10396 19368 18244 13313 11588 10436 11911 11615 13103 18223 11287 13134 10162 13672 14993 18523 18122 19178 11360 13017 11430 15115 17775 10669 14110 18401 18829 15745 15592 15825 17721 16658 10712 11097 17273 16408 16633 19613 11403 18332 10836 13763 10417 17273 11208 12655 18117 17022 12816 19622 12728 19269 10735 10424 10059 13952 12986 15575 18962 14041 15751 15525 999999 999999 999999 999999 999999 999999 999999 999999 999999 999999 999999 999999 999999 999999 999999 999999 999999 999999 999999 999999 999999 999999 999999 999999 999999 999999 0 999999 999999 999999 999999 999999 999999 999999 999999 999999 999999 999999 999999 999999 999999 999999 999999 999999 999999 999999 999999 999999 999999 999999 7850
999999 19944 15659 15110 14034 18521 17211 17134 11469 12611 17662 19620 11934 16572 13836 11910 12443 11260 14857 12954 10422 18425 12482 13734 15592 13772 19430 15516 16635 11283 19456 17656 19882 15064 11362 19235 13770 11353 19009 15993 12916 14964 14117 14426 15776 13136 13857 18926 15642 17754 17497 12259 17891 15485 19730 13660 18989 16484 10671 10325 17308 19468 16843 17643 13488 15243 15507 11140 16964 10331 11742 19621 18849 15150 15253 16424 15471 18985 10731 17105 15830 13615 16454 16239 15695 11530 17516 14313 12687 16388 13721 15680 19665 16841 11151 15744 12264 14799 17757 18656 10787 999999 999999 999999 999999 999999 999999 999999 999999 999999 999999 999999 999999 999999 999999 999999 999999 999999 999999 999999 999999 999999 999999 999999 999999 999999 999999 999999 0 999999 999999 999999 999999 999999 999999 999999 999999 999999 999999 999999 999999 999999 999999 999999 999999 999999 999999 999999 999999 999999 999999 8709
999999 13615 17381 18902 13984 15017 19764 13683 10068 11949 15034 10526 13146 15491 11426 15561 11864 18251 15176 15491 10421 19436 19248 15271 18396 14091 15090 16851 15315 17728 14076 11589 17777 13492 19994 10781 17095 14460 18487 17081 10581 13251 18843 19284 13104 16447 12840 16923 15572 16396 19621 13092 17157 17357 11255 12054 18557 10597 11996 16033 12481 14999 16210 17087 17777 13815 13554 13220 13459 15684 12313 19517 17902 13964 10447 12648 12767 15882 10108 15839 17336 12025 12043 14876 17856 17414 16507 19368 14444 18668 17452 15787 16588 14524 14224 15099 14693 18793 11444 13058 10789 999999 999999 999999 999999 999999 999999 999999 999999 999999 999999 999999 999999 999999 999999 999999 999999 999999 999999 999999 999999 999999 999999 999999 999999 999999 999999 999999 999999 0 999999 999999 999999 999999 999999 999999 999999 999999 999999 999999 999999 999999 999999 999999 999999 999999 999999 999999 999999 999999 999999 14378
999999 16163 17017 19394 14162 15038 19119 18531 17915 10512 15702 12958 13194 16291 11093 12054 18949 11612 11160 14693 18784 12888 19625 17833 14448 14844 15023 17320 17268 15696 14717 14789 11840 10069 14618 13734 15089 15439 15294 19981 17469 14693 17426 19794 12084 10853 17516 17560 14415 13687 15229 11525 15841 12106 12681 15772 17636 17810 18046 17649 11755 13896 12110 15774 13142 15336 19092 17274 10380 19013 14255 16311 19055 10562 15941 17832 14435 10659 14204 14526 17270 14734 12444 18914 13939 18142 17231 12596 10804 18458 17896 18543 14630 16269 15475 10429 11913 14709 18956 11696 18074 999999 999999 999999 999999 999999 999999 999999 999999 999999 999999 999999 999999 999999 999999 999999 999999 999999 999999 999999 999999 999999 999999 999999 999999 999999 999999 999999 999999 999999 0 999999 999999 999999 999999 999999 999999 999999 999999 999999 999999 999999 999999 999999 999999 999999 999999 999999 999999 999999 999999 6561
999999 12735 13345 10438 16947 10643 13461 15304 17511 10924 17021 18555 14476 18501 15622 18407 17042 12393 10115 15558 11918 19717 19232 13391 11538 12560 19873 14124 15530 15813 19530 12338 16084 15963 18261 16532 17908 18073 18002 17637 18369 13300 17586 12266 15074 17317 16965 13853 19015 17340 12183 19813 18261 11019 10929 16053 10837 12938 19521 19511 10852 13858 16651 12431 15844 15832 11147 17979 15024 19528 15890 19879 10092 10859 14882 11845 18920 16318 18566 17928 17100 13037 14560 19849 18163 10180 16923 16610 13534 12939 18478 19931 10541 13437 12728 15703 14483 17134 12646 12606 18936 999999 999999 999999 999999 999999 999999 999999 999999 999999 999999 999999 999999 999999 999999 999999 999999 999999 999999 999999 999999 999999 999999 999999 999999 999999 999999 999999 999999 999999 999999 0 999999 999999 999999 999999 999999 999999 999999 999999 999999 999999 999999 999999 999999 999999 999999 999999 999999 999999 999999 11109
999999 12619 13427 17034 14398 17354 17880 19025 15976 18626 17958 12685 11713 16167 15787 11656 15613 19540 15513 16886 10911 16217 12864 10550 13794 13214 14502 14071 18024 13675 16824 10202 17053 13569 10832 12213 17295 15289 13520 12767 12099 10843 10935 10289 18032 17989 14381 19843 16576 11219 12408 13890 11795 12545 10502 15000 19608 13289 19052 12686 13555 13434 17363 16713 13742 11774 10735 15294 12068 15942 12107 15851 14860 14049 12588 10748 15866 14853 19020 11254 10145 14341 10349 15835 15307 17396 17931 16050 16190 19263 10011 12996 18572 18511 16916 13850 17967 14742 12812 19898 10154 999999 999999 999999 999999 999999 999999 999999 999999 999999 999999 999999 999999 999999 999999 999999 999999 999999 999999 999999 999999 999999 999999 999999 999999 999999 999999 999999 999999 999999 999999 999999 0 999999 999999 999999 999999 999999 999999 999999 999999 999999 999999 999999 999999 999999 999999 999999 999999 999999 999999 10340
999999 15525 14488 14489 19690 13204 12118 14053 12082 11111 17918 17362 10905 12814 13900 18549 14280 19406 19972 14889 13092 12423 15330 17174 15448 10090 13077 13867 18319 10601 16069 16452 14357 17440 15125 15410 11204 16598 15852 17358 17472 17795 14822 14871 10064 14290 18540 15554 12828 17398 13076 12525 12901 18619 11301 13731 16075 10896 15691 10951 17374 15237 14939 18315 11791 12358 15997 16485 15805 15978 15232 12418 15834 12015 11290 13039 17418 14248 16908 15507 17027 19938 14458 14712 15303 14908 17628 13085 17432 18719 13864 18282 14996 14176 17203 17954 14632 11626 13159 11985 14019 999999 999999 999999 999999 999999 999999 999999 999999 999999 999999 999999 999999 999999 999999 999999 999999 999999 999999 999999 999999 999999 999999 999999 999999 999999 999999 999999 999999 999999 999999 999999 999999 0 999999 999999 999999 999999 999999 999999 999999 999999 999999 999999 999999 999999 999999 999999 999999 999999 999999 8486
999999 17714 14040 12656 14013 11066 10756 12869 13037 16751 16700 11341 14349 12660 14620 12255 19783 10715 16103 16337 12969 19494 11638 19456 17305 10746 18272 13448 16616 13969 13289 18374 15885 18081 12666 19991 15744 12176 17350 14773 18491 14798 14407 10478 19568 16583 17390 18886 12539 16994 19592 17884 10596 10173 16425 14158 11754 15232 18712 12413 19085 15318 18624 12722 11222 12304 15630 11024 18503 19481 14879 19269 14461 18367 19919 10982 13239 18546 17120 10886 14260 12894 14645 17464 14045 13628 13383 18788 13600 15175 12708 12296 19658 14377 13742 14586 10386 14576 19243 17507 11183 999999 999999 999999 999999 999999 999999 999999 999999 999999 999999 999999 999999 999999 999999 999999 999999 999999 999999 999999 999999 999999 999999 999999 999999 999999 999999 999999 999999 999999 999999 999999 999999 999999 0 999999 999999 999999 999999 999999 999999 999999 999999 999999 999999 999999 999999 999999 999999 999999 999999 12157
999999 11840 16439 12291 18306 14481 15995 11024 10058 15978 11572 10958 16656 19016 17765 17007 15390 18725 11845 10988 17440 12652 11618 12721 14338 16850 16893 13065 17071 10858 11512 18134 19775 18554 19657 17497 14513 18855 16785 10851 10093 12966 15309 15899 10408 14042 10425 12029 15017 14514 18019 15060 10736 16404 13564 13017 12280 16868 13839 12326 16231 15073 14396 13487 17588 13840 10434 10751 13025 17691 14768 18182 15997 12379 11378 11299 13519 10056 11809 13157 15263 10386 18993 17829 17584 19050 10450 13071 16583 13043 13631 15761 15224 14557 14537 18416 15197 10536 19880 17822 19597 999999 999999 999999 999999 999999 999999 999999 999999 999999 999999 999999 999999 999999 999999 999999 999999 999999 999999 999999 999999 999999 999999 999999 999999 999999 999999 999999 999999 999999 999999 999999 999999 999999 999999 0 999999 999999 999999 999999 999999 999999 999999 999999 999999 999999 999999 999999 999999 999999 999999 6108
999999 14301 13586 13773 14175 16448 13463 10242 16763 17064 17948 16864 19468 17202 13621 12217 17445 17026 14554 13545 16177 15083 11850 17733 16808 19753 14188 19143 12693 17077 15889 13488 11975 11966 12548 16438 17995 14885 17661 16678 18639 11353 18539 16337 13714 15703 18831 18800 18175 12086 12414 17960 17096 16782 18857 13244 11611 15388 13840 14180 16225 13160 17095 13022 13273 10502 17363 15938 14119 19472 11872 14886 13080 11628 14797 15513 17656 16388 19320 17427 16853 17428 18744 12667 14040 12513 18780 17348 15783 12560 14370 11880 16102 16560 16648 15342 16469 11488 15468 16209 18084 999999 999999 999999 999999 999999 999999 999999 999999 999999 999999 999999 999999 999999 999999 999999 999999 999999 999999 999999 999999 999999 999999 999999 999999 999999 999999 999999 999999 999999 999999 999999 999999 999999 999999 999999 0 999999 999999 999999 999999 999999 999999 999999 999999 999999 999999 999999 999999 999999 999999 7234
999999 18454 13213 16040 12768 14700 13832 16925 18340 19260 11649 10823 12150 15980 14418 18483 11240 19070 12042 15541 15031 11950 13164 17684 14550 19261 16063 13920 12649 16803 18124 16025 19212 15274 14203 16448 14118 18549 18642 13663 19220 19974 13594 15196 16574 12596 15024 12723 14040 16579 12498 12779 14303 12016 10783 10874 15535 18724 11115 14932 12855 14559 18606 15567 11463 14648 16363 12275 11685 11198 13882 18185 14516 13437 15485 12623 10397 12314 12228 15481 18734 15376 11150 13549 16981 12263 12657 13363 10518 17035 16330 10323 19263 15062 19213 10333 18770 11287 10516 12375 19761 999999 999999 999999 999999 999999 999999 999999 999999 999999 999999 999999 999999 999999 999999 999999 999999 999999 999999 999999 999999 999999 999999 999999 999999 999999 999999 999999 999999 999999 999999 999999 999999 999999 999999 999999 999999 0 999999 999999 999999 999999 999999 999999 999999 999999 999999 999999 999999 999999 999999 5575
999999 19676 15256 12173 15624 14668 10545 17809 10895 15583 11743 10358 13639 10289 19912 17320 17339 13402 17695 15663 16734 16774 19551 11382 18235 15705 16272 11951 17733 16130 13108 10133 11573 18958 10833 12141 16143 14774 10960 18990 10868 19896 17744 10924 14706 15517 16210 19919 12891 19717 14449 17883 12599 14411 15607 11496 19811 15158 13486 12757 12980 13402 15479 12557 11535 18398 10012 16739 11221 19709 11771 19595 14553 16869 16716 11736 15181 13869 11150 18044 12304 12471 12667 15972 14112 11252 16743 18524 11838 11615 17468 17980 10437 16318 13426 14596 16054 15917 18966 14421 19960 999999 999999 999999 999999 999999 999999 999999 999999 999999 999999 999999 999999 999999 999999 999999 999999 999999 999999 999999 999999 999999 999999 999999 999999 999999 999999 999999 999999 999999 999999 999999 999999 999999 999999 999999 999999 999999 0 999999 999999 999999 999999 999999 999999 999999 999999 999999 999999 999999 999999 8389
999999 17906 12574 17532 16090 16731 11047 11197 17099 14227 12323 11937 19482 10622 10995 13273 17066 13674 10165 15956 13345 12711 17146 18026 14814 17500 18817 19320 13584 10811 17083 17224 11804 13225 16028 10897 19602 16442 12156 11750 13859 11778 12895 19065 12575 18392 16684 18699 10232 16615 14392 16419 19002 14162 17140 16035 11299 17923 14400 16331 19241 11591 17051 16216 14560 11555 16984 16224 12280 17976 18324 16182 11037 12484 19893 11642 18854 10212 17442 17562 19893 12796 18752 10375 11834 19212 12017 13693 17581 18396 10625 13316 19898 19501 19197 13775 14465 14231 16954 13608 11551 999999 999999 999999 999999 999999 999999 999999 999999 999999 999999 999999 999999 999999 999999 999999 999999 999999 999999 999999 999999 999999 999999 999999 999999 999999 999999 999999 999999 999999 999999 999999 999999 999999 999999 999999 999999 999999 999999 0 999999 999999 999999 999999 999999 999999 999999 999999 999999 999999 999999 14924
999999 11114 17150 13703 10084 14951 17018 10690 16924 16956 18434 13341 17546 14138 16597 14923 12560 14964 13003 11938 12371 14799 17028 15762 14402 14538 17244 16556 10976 17190 19980 18548 19629 13479 15492 16212 10023 10999 13188 13988 13077 13466 11100 12642 14659 19698 13033 18762 18975 11423 11867 10719 14476 10003 14992 11906 18651 16474 15885 19375 17940 12718 19114 11804 14493 19072 17077 17636 12545 15659 16621 14878 13426 15621 11963 13856 11704 13789 13380 12727 12526 15073 10315 19379 15128 13919 18677 16153 18528 13356 18767 13558 10176 17620 11961 15231 11094 14899 18555 19667 16049 999999 999999 999999 999999 999999 999999 999999 999999 999999 999999 999999 999999 999999 999999 999999 999999 999999 999999 999999 999999 999999 999999 999999 999999 999999 999999 999999 999999 999999 999999 999999 999999 999999 999999 999999 999999 999999 999999 999999 0 999999 999999 999999 999999 999999 999999 999999 999999 999999 999999 9724
999999 11183 18814 13971 13403 11531 16189 17274 19399 16233 12070 15004 19363 14032 16448 19441 14778 16858 18319 18982 19568 17392 15462 14591 11280 12781 13256 14246 18811 19339 14859 19180 15397 14540 14793 12200 14365 18222 12774 12683 17212 17424 19518 16670 17414 19735 18602 13443 15803 10687 19284 19409 13971 19367 13573 13193 14549 17887 16292 17981 12338 14283 17957 16156 13300 12404 11903 13378 10920 17640 14519 19576 19712 15767 19088 13980 13620 15638 14466 17671 14197 17862 18776 18751 11459 18995 19734 15765 11682 12297 12465 14780 19308 13959 17376 15528 16499 12669 17615 10711 14002 999999 999999 999999 999999 999999 999999 999999 999999 999999 999999 999999 999999 999999 999999 999999 999999 999999 999999 999999 999999 999999 999999 999999 999999 999999 999999 999999 999999 999999 999999 999999 999999 999999 999999 999999 999999 999999 999999 999999 999999 0 999999 999999 999999 999999 999999 999999 999999 999999 999999 5295
999999 12591 18811 13682 11541 14821 10194 14440 11919 17280 11151 12535 14906 19488 15383 14246 12489 11547 14458 12277 16612 18915 10125 13743 19589 15039 13134 11395 16592 16334 12596 19702 14062 17644 10766 10653 18107 15240 15726 13408 17539 14241 12576 18781 19649 10757 17204 16666 11795 11970 13438 17305 17978 10567 16276 10140 18273 14971 10547 18796 12703 19004 13097 11820 15164 11069 13294 16118 16141 19030 15898 18284 18016 11618 18788 19119 15607 16180 12961 14999 12989 18706 13149 12189 16625 13384 15342 16571 11747 15970 11246 10556 11487 19794 13419 12478 16626 13284 12300 15742 17479 999999 999999 999999 999999 999999 999999 999999 999999 999999 999999 999999 999999 999999 999999 999999 999999 999999 999999 999999 999999 999999 999999 999999 999999 999999 999999 999999 999999 999999 999999 999999 999999 999999 999999 999999 999999 999999 999999 999999 999999 999999 0 999999 999999 999999 999999 999999 999999 999999 999999 10988
999999 10220 19573 10855 14272 18181 17710 19152 13817 11609 11249 17554 14813 13321 17092 17925 11671 10567 13866 19520 19202 13520 17948 15432 12640 15293 13045 17981 10029 10247 10697 13568 13622 17599 13148 10327 17734 10334 19867 19565 17713 11349 15602 11053 16185 12148 18496 11254 10642 16055 15643 10707 18655 11487 14606 15460 13076 10950 17782 19192 19058 15319 14881 10878 12243 12186 19399 19299 13602 15416 12875 19217 14726 12059 13002 16130 16808 15070 12201 13544 18265 17074 12659 17909 15365 16772 10515 17176 17936 11606 12953 12169 13772 17734 14816 17017 17001 11028 17912 17298 19659 999999 999999 999999 999999 999999 999999 999999 999999 999999 999999 999999 999999 999999 999999 999999 999999 999999 999999 999999 999999 999999 999999 999999 999999 999999 999999 999999 999999 999999 999999 999999 999999 999999 999999 999999 999999 999999 999999 999999 999999 999999 999999 0 999999 999999 999999 999999 999999 999999 999999 11907
999999 15595 13504 17810 16645 15326 17710 12824 15827 10096 15899 19902 19846 11690 18039 19648 17260 19524 15281 16049 16035 10406 11547 13831 13152 15305 12374 14365 18517 17263 13623 13499 11196 19790 19871 11433 16882 10634 17366 12990 12889 19336 18204 15746 16413 16900 11676 14870 15243 16687 11232 16373 19159 17197 16795 11894 16504 12872 13584 17153 15252 14898 12627 15089 15123 19262 15030 18656 17565 18901 12986 18546 17832 16716 13188 11934 14506 19466 16717 16349 10679 12031 16673 11373 11101 12186 12243 10436 20000 19793 14714 13760 11819 16642 18002 17113 13122 19699 17765 14226 14613 999999 999999 999999 999999 999999 999999 999999 999999 999999 999999 999999 999999 999999 999999 999999 999999 999999 999999 999999 999999 999999 999999 999999 999999 999999 999999 999999 999999 999999 999999 999999 999999 999999 999999 999999 999999 999999 999999 999999 999999 999999 999999 999999 0 999999 999999 999999 999999 999999 999999 5585
999999 19343 10735 12487 15058 17652 18831 11160 15713 14764 11618 14578 17088 18320 15827 13545 19976 15861 16468 10643 15946 14430 11724 10975 16016 12936 17042 17792 19747 13580 13623 15953 10458 11442 10469 16216 16483 17580 11142 16182 13967 17836 10036 13406 13593 11125 10818 10649 10342 19332 14134 16965 19730 19240 10590 11755 12795 13975 19929 14145 17569 17457 18125 12965 11658 19431 17638 11891 15167 10426 14569 16985 11469 16101 15357 14502 17552 11897 18137 16080 13065 13201 12561 17900 19475 18143 17962 17344 14675 14297 10163 16792 15907 19415 15776 14939 19167 11013 11128 10818 18672 999999 999999 999999 999999 999999 999999 999999 999999 999999 999999 999999 999999 999999 999999 999999 999999 999999 999999 999999 999999 999999 999999 999999 999999 999999 999999 999999 999999 999999 999999 999999 999999 999999 999999 999999 999999 999999 999999 999999 999999 999999 999999 999999 999999 0 999999 999999 999999 999999 999999 8278
999999 16684 12963 10844 10571 19306 14083 18529 13560 16295 17805 15163 12244 15426 14705 14548 14968 15139 18955 18658 11900 18147 10820 13354 18177 19403 15955 17067 19711 19479 14049 12923 13760 14394 14848 16280 19254 11584 11488 15740 17216 10316 17677 13381 19301 10565 13252 10414 18721 18207 17663 12418 11532 16173 15741 12635 13230 18983 18857 12079 17453 16083 19888 11596 15852 11921 18097 19200 19668 14094 14168 12644 10175 18839 10452 12142 17257 17452 16208 15402 19912 11791 12307 17166 15626 10692 17066 15573 18873 12747 12566 17850 11044 16123 19354 10172 19432 10209 15198 16008 19996 999999 999999 999999 999999 999999 999999 999999 999999 999999 999999 999999 999999 999999 999999 999999 999999 999999 999999 999999 999999 999999 999999 999999 999999 999999 999999 999999 999999 999999 999999 999999 999999 999999 999999 999999 999999 999999 999999 999999 999999 999999 999999 999999 999999 999999 0 999999 999999 999999 999999 12492
999999 12732 12050 19475 10096 15876 10581 15638 12371 18938 19328 17589 15995 16845 12592 15406 19096 14062 15560 15104 10917 18963 19187 16155 12581 16026 16728 11251 10911 12574 15328 15973 16992 13283 17414 14506 13241 16712 17263 11717 10146 17792 11799 10969 11778 17180 11170 19488 11927 18092 14981 12234 17266 13318 15857 14421 17011 11451 17581 14302 17603 18354 14242 14963 17713 10483 18518 11771 19834 14295 14638 10594 19204 18465 19558 14885 14731 11505 17588 14051 11312 12150 19879 17688 11572 17550 16196 11602 14834 11502 11646 11093 16840 13705 10540 19419 19260 10242 11496 13494 13480 999999 999999 999999 999999 999999 999999 999999 999999 999999 999999 999999 999999 999999 999999 999999 999999 999999 999999 999999 999999 999999 999999 999999 999999 999999 999999 999999 999999 999999 999999 999999 999999 999999 999999 999999 999999 999999 999999 999999 999999 999999 999999 999999 999999 999999 999999 0 999999 999999 999999 14265
999999 11442 10272 16162 19981 16904 15539 10410 14501 19331 17748 17628 12943 10764 10685 11056 18045 15110 16396 10969 11321 15544 15322 16122 19415 19407 16127 14047 16365 17300 19556 10005 18969 12224 11386 17676 10098 13254 13976 16632 15093 10560 15015 12954 10447 15775 12527 19729 18498 13124 16689 13714 18769 17372 12056 18645 12039 12735 19583 12595 19966 11003 16253 18020 14733 15685 11848 19485 18306 12186 18988 19859 13921 15731 11019 13597 19850 16357 11862 10441 12142 17121 16316 15598 13590 15574 14510 16676 13000 14005 14054 14734 17998 19402 16307 13204 16484 19797 16030 10733 14401 999999 999999 999999 999999 999999 999999 999999 999999 999999 999999 999999 999999 999999 999999 999999 999999 999999 999999 999999 999999 999999 999999 999999 999999 999999 999999 999999 999999 999999 999999 999999 999999 999999 999999 999999 999999 999999 999999 999999 999999 999999 999999 999999 999999 999999 999999 999999 0 999999 999999 13489
999999 11906 14988 15958 17497 18114 13255 12389 16018 11527 17525 15897 10856 14812 17220 12533 12113 17216 18590 19650 13229 18273 17924 14801 11271 19944 18205 15927 19655 13616 14304 15406 19798 15197 16240 10328 14781 13571 16773 17686 10579 10899 11460 12831 15079 15920 19121 13439 18282 11196 15577 17762 13354 13946 12567 15026 13346 14968 11888 13511 18915 14744 15221 17985 16693 19676 19018 13194 13042 18686 13991 11365 19324 19701 11435 17831 11792 17404 10714 14681 18404 16703 14896 11821 17969 11339 10930 13740 13962 10106 13300 11137 17689 11523 10773 13628 11785 10924 19428 18883 19104 999999 999999 999999 999999 999999 999999 999999 999999 999999 999999 999999 999999 999999 999999 999999 999999 999999 999999 999999 999999 999999 999999 999999 999999 999999 999999 999999 999999 999999 999999 999999 999999 999999 999999 999999 999999 999999 999999 999999 999999 999999 999999 999999 999999 999999 999999 999999 999999 0 999999 9655
999999 19974 15830 10008 17133 11395 10587 10652 11288 19453 15848 14643 16893 14470 11497 12047 15427 13077 18602 13101 13948 17688 12560 13443 12717 15701 19487 19136 19647 11711 12150 13204 18500 19979 15664 11883 11064 15254 19253 19922 19197 15841 11276 17536 10270 13750 12067 13319 10164 11172 12376 19654 15619 11517 19507 10966 12780 19326 11284 18489 19925 15237 15767 16997 11811 19614 10135 10252 13858 13969 17948 16426 15981 16918 19197 11150 18296 17223 15963 19214 15014 10245 11482 12789 13488 11352 13102 13296 17816 14228 16340 17119 10093 17973 11650 11828 17900 10639 18560 17196 18180 999999 999999 999999 999999 999999 999999 999999 999999 999999 999999 999999 999999 999999 999999 999999 999999 999999 999999 999999 999999 999999 999999 999999 999999 999999 999999 999999 999999 999999 999999 999999 999999 999999 999999 999999 999999 999999 999999 999999 999999 999999 999999 999999 999999 999999 999999 999999 999999 999999 0 12264
1 999999 999999 999999 999999 999999 999999 999999 999999 999999 999999 999999 999999 999999 999999 999999 999999 999999 999999 999999 999999 999999 999999 999999 999999 999999 999999 999999 999999 999999 999999 999999 999999 999999 999999 999999 999999 999999 999999 999999 999999 999999 999999 999999 999999 999999 999999 999999 999999 999999 999999 999999 999999 999999 999999 999999 999999 999999 999999 999999 999999 999999 999999 999999 999999 999999 999999 999999 999999 999999 999999 999999 999999 999999 999999 999999 999999 999999 999999 999999 999999 999999 999999 999999 999999 999999 999999 999999 999999 999999 999999 999999 999999 999999 999999 999999 999999 999999 999999 999999 999999 999999 999999 999999 999999 999999 999999 999999 999999 999999 999999 999999 999999 999999 999999 999999 999999 999999 999999 999999 999999 999999 999999 999999 999999 999999 999999 999999 999999 999999 999999 999999 999999 999999 999999 999999 999999 999999 999999 999999 999999 999999 999999 999999 999999 999999 999999 999999 999999 999999 999999 0
EOF