NAME: GR_1x5x6_KH_5x6_Run_4
TYPE: TSP
COMMENT: BTSP instance |A|=30 GR nodes |B|=30 KH nodes depot=0.0 end=0.0.0
DIMENSION: 62
EDGE_WEIGHT_TYPE: EXPLICIT
EDGE_WEIGHT_FORMAT: FULL_MATRIX
NODE_COORD_TYPE: NO_COORDS
EDGE_WEIGHT_SECTION
0 5080 8068 5687 11276 10502 13766 12204 12016 5773 14848 10339 6691 6173 13443 14692 11160 10601 12847 8158 5643 6951 8422 8739 5768 8084 13168 12186 11679 6785 6206 999999 999999 999999 999999 999999 999999 999999 999999 999999 999999 999999 999999 999999 999999 999999 999999 999999 999999 999999 999999 999999 999999 999999 999999 999999 999999 999999 999999 999999 999999 999999
999999 0 999999 999999 999999 999999 999999 999999 999999 999999 999999 999999 999999 999999 999999 999999 999999 999999 999999 999999 999999 999999 999999 999999 999999 999999 999999 999999 999999 999999 999999 16294 16230 11939 17974 10518 14708 16565 12470 19996 18872 15668 18583 16027 11953 19672 13221 19352 10179 18508 10539 16943 16192 17532 15553 13893 10379 13451 18718 18632 18534 999999
999999 999999 0 999999 999999 999999 999999 999999 999999 999999 999999 999999 999999 999999 999999 999999 999999 999999 999999 999999 999999 999999 999999 999999 999999 999999 999999 999999 999999 999999 999999 17894 18381 19300 16697 16921 11719 10614 18553 10212 19448 16404 12876 16855 13590 19968 13489 11028 16600 19979 18904 10937 17425 10856 18824 11746 14023 14129 15284 13104 14451 999999
999999 999999 999999 0 999999 999999 999999 999999 999999 999999 999999 999999 999999 999999 999999 999999 999999 999999 999999 999999 999999 999999 999999 999999 999999 999999 999999 999999 999999 999999 999999 10260 17568 11875 17988 11469 17058 12342 14745 17704 18387 15925 17650 15380 18810 12666 17290 14979 15962 18705 10315 17441 18107 15142 11510 15418 18614 10334 10696 15658 16330 999999
999999 999999 999999 999999 0 999999 999999 999999 999999 999999 999999 999999 999999 999999 999999 999999 999999 999999 999999 999999 999999 999999 999999 999999 999999 999999 999999 999999 999999 999999 999999 19847 18413 16151 17649 17188 17051 10557 12959 11591 19969 10146 15364 14237 11919 18663 18162 19018 10118 11855 12365 10223 18845 15089 13299 18482 15854 12412 11960 13798 11243 999999
999999 999999 999999 999999 999999 0 999999 999999 999999 999999 999999 999999 999999 999999 999999 999999 999999 999999 999999 999999 999999 999999 999999 999999 999999 999999 999999 999999 999999 999999 999999 19528 12327 13369 12056 11980 15076 15453 13270 10416 17338 13995 18527 12927 18037 17557 18736 16276 11574 11129 10085 17137 12413 11028 13216 11696 18358 10159 15870 10811 16182 999999
999999 999999 999999 999999 999999 999999 0 999999 999999 999999 999999 999999 999999 999999 999999 999999 999999 999999 999999 999999 999999 999999 999999 999999 999999 999999 999999 999999 999999 999999 999999 15589 16142 14615 13701 10011 10305 13706 17222 11381 10973 18899 14345 17317 16562 12993 15285 16657 15828 16489 18859 10183 14422 15036 17328 17650 14272 12578 14504 15531 14576 999999
999999 999999 999999 999999 999999 999999 999999 0 999999 999999 999999 999999 999999 999999 999999 999999 999999 999999 999999 999999 999999 999999 999999 999999 999999 999999 999999 999999 999999 999999 999999 17752 12179 16608 15230 14138 12398 11891 16929 13998 19239 14721 11362 15249 17253 15201 19619 17732 14420 16640 10687 18502 15836 17927 15922 11579 12666 11268 19128 16538 13806 999999
999999 999999 999999 999999 999999 999999 999999 999999 0 999999 999999 999999 999999 999999 999999 999999 999999 999999 999999 999999 999999 999999 999999 999999 999999 999999 999999 999999 999999 999999 999999 14800 18840 13491 10011 15710 13957 14404 18733 17157 13145 14441 17595 10597 16914 17990 13463 11917 10068 17182 12872 17016 11431 11857 18955 10227 10555 19798 17679 19333 18560 999999
999999 999999 999999 999999 999999 999999 999999 999999 999999 0 999999 999999 999999 999999 999999 999999 999999 999999 999999 999999 999999 999999 999999 999999 999999 999999 999999 999999 999999 999999 999999 19595 15661 13470 13673 16667 18978 12746 13918 17735 16154 12359 18197 15200 17591 13390 15436 17839 14106 14493 17980 12872 15442 10160 10124 18857 10394 19736 17580 16425 19191 999999
999999 999999 999999 999999 999999 999999 999999 999999 999999 999999 0 999999 999999 999999 999999 999999 999999 999999 999999 999999 999999 999999 999999 999999 999999 999999 999999 999999 999999 999999 999999 16864 11183 15987 15430 11107 10136 14577 18866 10126 13800 18225 14738 13630 15104 18688 11920 11842 10516 18456 18952 10385 11803 12784 13905 17035 12803 13897 13879 11099 16435 999999
999999 999999 999999 999999 999999 999999 999999 999999 999999 999999 999999 0 999999 999999 999999 999999 999999 999999 999999 999999 999999 999999 999999 999999 999999 999999 999999 999999 999999 999999 999999 18862 12412 14201 19221 19831 15609 19168 14477 10491 12826 14248 16332 10121 11281 18931 15327 18763 14852 13543 17653 14401 18163 19224 12629 17165 14188 14722 19904 17290 12607 999999
999999 999999 999999 999999 999999 999999 999999 999999 999999 999999 999999 999999 0 999999 999999 999999 999999 999999 999999 999999 999999 999999 999999 999999 999999 999999 999999 999999 999999 999999 999999 15644 17036 15194 16207 18682 16445 10113 15522 17627 18905 14145 17855 12381 10768 19191 14303 10502 19782 13697 16858 15644 16658 16142 14751 12883 11686 11873 13458 19717 14874 999999
999999 999999 999999 999999 999999 999999 999999 999999 999999 999999 999999 999999 999999 0 999999 999999 999999 999999 999999 999999 999999 999999 999999 999999 999999 999999 999999 999999 999999 999999 999999 19380 17622 15805 12251 18000 16922 14725 12147 17860 12856 18061 18962 14847 14731 13315 15863 16755 10465 11270 12342 10127 14124 10254 10833 16306 10606 13784 14827 12815 16720 999999
999999 999999 999999 999999 999999 999999 999999 999999 999999 999999 999999 999999 999999 999999 0 999999 999999 999999 999999 999999 999999 999999 999999 999999 999999 999999 999999 999999 999999 999999 999999 19036 19346 16213 13708 11843 16006 15977 17585 19610 10644 13574 13269 11407 12853 16665 19292 16769 14487 15606 17030 17875 19931 13421 13990 10289 11274 18565 15366 13503 10490 999999
999999 999999 999999 999999 999999 999999 999999 999999 999999 999999 999999 999999 999999 999999 999999 0 999999 999999 999999 999999 999999 999999 999999 999999 999999 999999 999999 999999 999999 999999 999999 17164 11234 10685 11825 11573 15999 11598 12495 19951 14720 19051 13242 14127 10750 12561 13593 13714 16582 11454 19120 11317 15706 11413 16022 10230 18948 13500 12963 11950 11183 999999
999999 999999 999999 999999 999999 999999 999999 999999 999999 999999 999999 999999 999999 999999 999999 999999 0 999999 999999 999999 999999 999999 999999 999999 999999 999999 999999 999999 999999 999999 999999 18321 19104 12408 10319 15740 10834 13199 16016 16126 19857 15165 17309 17702 14438 14518 17757 16251 15600 19551 15713 15235 15197 11841 10277 16363 18795 10427 11187 16102 11826 999999
999999 999999 999999 999999 999999 999999 999999 999999 999999 999999 999999 999999 999999 999999 999999 999999 999999 0 999999 999999 999999 999999 999999 999999 999999 999999 999999 999999 999999 999999 999999 13050 15052 13093 17576 13024 17848 17898 17976 10033 18415 17992 19375 15751 15566 10699 11628 18633 14673 10743 15478 15141 10596 17166 12078 14089 10374 16137 17883 14343 14775 999999
999999 999999 999999 999999 999999 999999 999999 999999 999999 999999 999999 999999 999999 999999 999999 999999 999999 999999 0 999999 999999 999999 999999 999999 999999 999999 999999 999999 999999 999999 999999 14184 13829 17800 19927 15742 15724 14976 17506 19780 18285 17181 18692 15299 13618 19390 12046 13854 13019 15401 15563 18507 12038 18538 10316 17497 12583 19234 19816 11395 10731 999999
999999 999999 999999 999999 999999 999999 999999 999999 999999 999999 999999 999999 999999 999999 999999 999999 999999 999999 999999 0 999999 999999 999999 999999 999999 999999 999999 999999 999999 999999 999999 18267 18209 12667 16184 14302 15149 10875 15379 19325 15317 12218 11657 17832 19038 13327 15994 15147 18553 14453 10269 19409 12152 13964 10431 15731 11143 17693 14349 18190 10826 999999
999999 999999 999999 999999 999999 999999 999999 999999 999999 999999 999999 999999 999999 999999 999999 999999 999999 999999 999999 999999 0 999999 999999 999999 999999 999999 999999 999999 999999 999999 999999 19485 10361 18222 14298 11944 19834 16509 15135 14286 15661 15416 13943 17661 13679 16992 10468 18070 18423 11750 16894 10431 12115 16094 17843 17367 11992 13065 13884 12801 17791 999999
999999 999999 999999 999999 999999 999999 999999 999999 999999 999999 999999 999999 999999 999999 999999 999999 999999 999999 999999 999999 999999 0 999999 999999 999999 999999 999999 999999 999999 999999 999999 10820 17025 18730 19043 10814 12515 18128 18320 17729 12447 14714 19350 16298 10744 13425 12491 13263 18656 15318 13750 14322 16032 16200 19918 11941 12680 15101 13894 16348 12385 999999
999999 999999 999999 999999 999999 999999 999999 999999 999999 999999 999999 999999 999999 999999 999999 999999 999999 999999 999999 999999 999999 999999 0 999999 999999 999999 999999 999999 999999 999999 999999 11976 17092 19988 17256 13223 14674 16667 15455 10981 10809 13286 10090 14496 18611 17273 12535 16912 17477 11044 12150 15918 14652 18106 16140 19102 10558 17967 14830 17684 10497 999999
999999 999999 999999 999999 999999 999999 999999 999999 999999 999999 999999 999999 999999 999999 999999 999999 999999 999999 999999 999999 999999 999999 999999 0 999999 999999 999999 999999 999999 999999 999999 11774 17451 12093 10621 11049 17094 18460 11656 17432 12821 15079 11392 11998 18234 12168 16409 16211 12649 13321 12406 15650 10099 11966 12197 10638 17989 13297 17417 10699 17061 999999
999999 999999 999999 999999 999999 999999 999999 999999 999999 999999 999999 999999 999999 999999 999999 999999 999999 999999 999999 999999 999999 999999 999999 999999 0 999999 999999 999999 999999 999999 999999 17307 12050 19365 13171 12208 13924 13341 16737 19643 13043 19375 14576 14155 16106 11219 11015 11885 11878 18240 10565 10557 11905 14965 14934 17944 11266 19404 11355 13241 10071 999999
999999 999999 999999 999999 999999 999999 999999 999999 999999 999999 999999 999999 999999 999999 999999 999999 999999 999999 999999 999999 999999 999999 999999 999999 999999 0 999999 999999 999999 999999 999999 19105 16262 17004 19663 17961 18038 19538 17795 18832 10305 19447 19126 11308 17909 15012 18799 19104 18746 10385 10779 17060 19995 12159 19772 16149 19034 17108 17579 14861 16075 999999
999999 999999 999999 999999 999999 999999 999999 999999 999999 999999 999999 999999 999999 999999 999999 999999 999999 999999 999999 999999 999999 999999 999999 999999 999999 999999 0 999999 999999 999999 999999 10344 14587 18817 17960 11999 10038 13121 19182 13066 15522 13735 17750 19960 11356 10202 18505 11781 13660 16191 18711 15897 14757 17089 18788 12191 11487 18994 14856 20000 16848 999999
999999 999999 999999 999999 999999 999999 999999 999999 999999 999999 999999 999999 999999 999999 999999 999999 999999 999999 999999 999999 999999 999999 999999 999999 999999 999999 999999 0 999999 999999 999999 17281 15004 18494 19462 16905 17453 13220 14620 16589 18377 16195 14058 12718 11522 14237 13443 11581 10617 18122 15650 13134 19414 17532 10040 18476 14392 13572 14263 17172 19858 999999
999999 999999 999999 999999 999999 999999 999999 999999 999999 999999 999999 999999 999999 999999 999999 999999 999999 999999 999999 999999 999999 999999 999999 999999 999999 999999 999999 999999 0 999999 999999 18888 13125 10773 13387 18322 17809 12052 18522 13893 15065 18757 19022 19814 19619 17543 13734 11081 15719 12454 12600 12084 17929 15210 12864 14007 19071 17803 15429 12562 17277 999999
999999 999999 999999 999999 999999 999999 999999 999999 999999 999999 999999 999999 999999 999999 999999 999999 999999 999999 999999 999999 999999 999999 999999 999999 999999 999999 999999 999999 999999 0 999999 17105 12837 15566 18526 12531 17571 16896 18200 17633 16522 11105 12579 11315 12108 17510 19296 13468 10414 14719 17768 11770 13876 17972 19272 10254 17207 12727 16480 15131 11582 999999
999999 999999 999999 999999 999999 999999 999999 999999 999999 999999 999999 999999 999999 999999 999999 999999 999999 999999 999999 999999 999999 999999 999999 999999 999999 999999 999999 999999 999999 999999 0 12405 19758 18789 18110 13316 19278 19043 19911 12311 15432 14407 17961 11749 18200 13618 10266 11557 10588 19688 19982 17119 13268 13309 14408 11120 11245 17320 19977 12215 19023 999999
999999 16294 17894 10260 19847 19528 15589 17752 14800 19595 16864 18862 15644 19380 19036 17164 18321 13050 14184 18267 19485 10820 11976 11774 17307 19105 10344 17281 18888 17105 12405 0 999999 999999 999999 999999 999999 999999 999999 999999 999999 999999 999999 999999 999999 999999 999999 999999 999999 999999 999999 999999 999999 999999 999999 999999 999999 999999 999999 999999 999999 5638
999999 16230 18381 17568 18413 12327 16142 12179 18840 15661 11183 12412 17036 17622 19346 11234 19104 15052 13829 18209 10361 17025 17092 17451 12050 16262 14587 15004 13125 12837 19758 999999 0 999999 999999 999999 999999 999999 999999 999999 999999 999999 999999 999999 999999 999999 999999 999999 999999 999999 999999 999999 999999 999999 999999 999999 999999 999999 999999 999999 999999 14953
999999 11939 19300 11875 16151 13369 14615 16608 13491 13470 15987 14201 15194 15805 16213 10685 12408 13093 17800 12667 18222 18730 19988 12093 19365 17004 18817 18494 10773 15566 18789 999999 999999 0 999999 999999 999999 999999 999999 999999 999999 999999 999999 999999 999999 999999 999999 999999 999999 999999 999999 999999 999999 999999 999999 999999 999999 999999 999999 999999 999999 9998
999999 17974 16697 17988 17649 12056 13701 15230 10011 13673 15430 19221 16207 12251 13708 11825 10319 17576 19927 16184 14298 19043 17256 10621 13171 19663 17960 19462 13387 18526 18110 999999 999999 999999 0 999999 999999 999999 999999 999999 999999 999999 999999 999999 999999 999999 999999 999999 999999 999999 999999 999999 999999 999999 999999 999999 999999 999999 999999 999999 999999 5674
999999 10518 16921 11469 17188 11980 10011 14138 15710 16667 11107 19831 18682 18000 11843 11573 15740 13024 15742 14302 11944 10814 13223 11049 12208 17961 11999 16905 18322 12531 13316 999999 999999 999999 999999 0 999999 999999 999999 999999 999999 999999 999999 999999 999999 999999 999999 999999 999999 999999 999999 999999 999999 999999 999999 999999 999999 999999 999999 999999 999999 5009
999999 14708 11719 17058 17051 15076 10305 12398 13957 18978 10136 15609 16445 16922 16006 15999 10834 17848 15724 15149 19834 12515 14674 17094 13924 18038 10038 17453 17809 17571 19278 999999 999999 999999 999999 999999 0 999999 999999 999999 999999 999999 999999 999999 999999 999999 999999 999999 999999 999999 999999 999999 999999 999999 999999 999999 999999 999999 999999 999999 999999 5932
999999 16565 10614 12342 10557 15453 13706 11891 14404 12746 14577 19168 10113 14725 15977 11598 13199 17898 14976 10875 16509 18128 16667 18460 13341 19538 13121 13220 12052 16896 19043 999999 999999 999999 999999 999999 999999 0 999999 999999 999999 999999 999999 999999 999999 999999 999999 999999 999999 999999 999999 999999 999999 999999 999999 999999 999999 999999 999999 999999 999999 7671
999999 12470 18553 14745 12959 13270 17222 16929 18733 13918 18866 14477 15522 12147 17585 12495 16016 17976 17506 15379 15135 18320 15455 11656 16737 17795 19182 14620 18522 18200 19911 999999 999999 999999 999999 999999 999999 999999 0 999999 999999 999999 999999 999999 999999 999999 999999 999999 999999 999999 999999 999999 999999 999999 999999 999999 999999 999999 999999 999999 999999 13249
999999 19996 10212 17704 11591 10416 11381 13998 17157 17735 10126 10491 17627 17860 19610 19951 16126 10033 19780 19325 14286 17729 10981 17432 19643 18832 13066 16589 13893 17633 12311 999999 999999 999999 999999 999999 999999 999999 999999 0 999999 999999 999999 999999 999999 999999 999999 999999 999999 999999 999999 999999 999999 999999 999999 999999 999999 999999 999999 999999 999999 9499
999999 18872 19448 18387 19969 17338 10973 19239 13145 16154 13800 12826 18905 12856 10644 14720 19857 18415 18285 15317 15661 12447 10809 12821 13043 10305 15522 18377 15065 16522 15432 999999 999999 999999 999999 999999 999999 999999 999999 999999 0 999999 999999 999999 999999 999999 999999 999999 999999 999999 999999 999999 999999 999999 999999 999999 999999 999999 999999 999999 999999 12781
999999 15668 16404 15925 10146 13995 18899 14721 14441 12359 18225 14248 14145 18061 13574 19051 15165 17992 17181 12218 15416 14714 13286 15079 19375 19447 13735 16195 18757 11105 14407 999999 999999 999999 999999 999999 999999 999999 999999 999999 999999 0 999999 999999 999999 999999 999999 999999 999999 999999 999999 999999 999999 999999 999999 999999 999999 999999 999999 999999 999999 8613
999999 18583 12876 17650 15364 18527 14345 11362 17595 18197 14738 16332 17855 18962 13269 13242 17309 19375 18692 11657 13943 19350 10090 11392 14576 19126 17750 14058 19022 12579 17961 999999 999999 999999 999999 999999 999999 999999 999999 999999 999999 999999 0 999999 999999 999999 999999 999999 999999 999999 999999 999999 999999 999999 999999 999999 999999 999999 999999 999999 999999 6339
999999 16027 16855 15380 14237 12927 17317 15249 10597 15200 13630 10121 12381 14847 11407 14127 17702 15751 15299 17832 17661 16298 14496 11998 14155 11308 19960 12718 19814 11315 11749 999999 999999 999999 999999 999999 999999 999999 999999 999999 999999 999999 999999 0 999999 999999 999999 999999 999999 999999 999999 999999 999999 999999 999999 999999 999999 999999 999999 999999 999999 8658
999999 11953 13590 18810 11919 18037 16562 17253 16914 17591 15104 11281 10768 14731 12853 10750 14438 15566 13618 19038 13679 10744 18611 18234 16106 17909 11356 11522 19619 12108 18200 999999 999999 999999 999999 999999 999999 999999 999999 999999 999999 999999 999999 999999 0 999999 999999 999999 999999 999999 999999 999999 999999 999999 999999 999999 999999 999999 999999 999999 999999 5004
999999 19672 19968 12666 18663 17557 12993 15201 17990 13390 18688 18931 19191 13315 16665 12561 14518 10699 19390 13327 16992 13425 17273 12168 11219 15012 10202 14237 17543 17510 13618 999999 999999 999999 999999 999999 999999 999999 999999 999999 999999 999999 999999 999999 999999 0 999999 999999 999999 999999 999999 999999 999999 999999 999999 999999 999999 999999 999999 999999 999999 5525
999999 13221 13489 17290 18162 18736 15285 19619 13463 15436 11920 15327 14303 15863 19292 13593 17757 11628 12046 15994 10468 12491 12535 16409 11015 18799 18505 13443 13734 19296 10266 999999 999999 999999 999999 999999 999999 999999 999999 999999 999999 999999 999999 999999 999999 999999 0 999999 999999 999999 999999 999999 999999 999999 999999 999999 999999 999999 999999 999999 999999 13906
999999 19352 11028 14979 19018 16276 16657 17732 11917 17839 11842 18763 10502 16755 16769 13714 16251 18633 13854 15147 18070 13263 16912 16211 11885 19104 11781 11581 11081 13468 11557 999999 999999 999999 999999 999999 999999 999999 999999 999999 999999 999999 999999 999999 999999 999999 999999 0 999999 999999 999999 999999 999999 999999 999999 999999 999999 999999 999999 999999 999999 14453
999999 10179 16600 15962 10118 11574 15828 14420 10068 14106 10516 14852 19782 10465 14487 16582 15600 14673 13019 18553 18423 18656 17477 12649 11878 18746 13660 10617 15719 10414 10588 999999 999999 999999 999999 999999 999999 999999 999999 999999 999999 999999 999999 999999 999999 999999 999999 999999 0 999999 999999 999999 999999 999999 999999 999999 999999 999999 999999 999999 999999 9435
999999 18508 19979 18705 11855 11129 16489 16640 17182 14493 18456 13543 13697 11270 15606 11454 19551 10743 15401 14453 11750 15318 11044 13321 18240 10385 16191 18122 12454 14719 19688 999999 999999 999999 999999 999999 999999 999999 999999 999999 999999 999999 999999 999999 999999 999999 999999 999999 999999 0 999999 999999 999999 999999 999999 999999 999999 999999 999999 999999 999999 9790
999999 10539 18904 10315 12365 10085 18859 10687 12872 17980 18952 17653 16858 12342 17030 19120 15713 15478 15563 10269 16894 13750 12150 12406 10565 10779 18711 15650 12600 17768 19982 999999 999999 999999 999999 999999 999999 999999 999999 999999 999999 999999 999999 999999 999999 999999 999999 999999 999999 999999 0 999999 999999 999999 999999 999999 999999 999999 999999 999999 999999 8543
999999 16943 10937 17441 10223 17137 10183 18502 17016 12872 10385 14401 15644 10127 17875 11317 15235 15141 18507 19409 10431 14322 15918 15650 10557 17060 15897 13134 12084 11770 17119 999999 999999 999999 999999 999999 999999 999999 999999 999999 999999 999999 999999 999999 999999 999999 999999 999999 999999 999999 999999 0 999999 999999 999999 999999 999999 999999 999999 999999 999999 14840
999999 16192 17425 18107 18845 12413 14422 15836 11431 15442 11803 18163 16658 14124 19931 15706 15197 10596 12038 12152 12115 16032 14652 10099 11905 19995 14757 19414 17929 13876 13268 999999 999999 999999 999999 999999 999999 999999 999999 999999 999999 999999 999999 999999 999999 999999 999999 999999 999999 999999 999999 999999 0 999999 999999 999999 999999 999999 999999 999999 999999 11055
999999 17532 10856 15142 15089 11028 15036 17927 11857 10160 12784 19224 16142 10254 13421 11413 11841 17166 18538 13964 16094 16200 18106 11966 14965 12159 17089 17532 15210 17972 13309 999999 999999 999999 999999 999999 999999 999999 999999 999999 999999 999999 999999 999999 999999 999999 999999 999999 999999 999999 999999 999999 999999 0 999999 999999 999999 999999 999999 999999 999999 12813
999999 15553 18824 11510 13299 13216 17328 15922 18955 10124 13905 12629 14751 10833 13990 16022 10277 12078 10316 10431 17843 19918 16140 12197 14934 19772 18788 10040 12864 19272 14408 999999 999999 999999 999999 999999 999999 999999 999999 999999 999999 999999 999999 999999 999999 999999 999999 999999 999999 999999 999999 999999 999999 999999 0 999999 999999 999999 999999 999999 999999 6798
999999 13893 11746 15418 18482 11696 17650 11579 10227 18857 17035 17165 12883 16306 10289 10230 16363 14089 17497 15731 17367 11941 19102 10638 17944 16149 12191 18476 14007 10254 11120 999999 999999 999999 999999 999999 999999 999999 999999 999999 999999 999999 999999 999999 999999 999999 999999 999999 999999 999999 999999 999999 999999 999999 999999 0 999999 999999 999999 999999 999999 9644
999999 10379 14023 18614 15854 18358 14272 12666 10555 10394 12803 14188 11686 10606 11274 18948 18795 10374 12583 11143 11992 12680 10558 17989 11266 19034 11487 14392 19071 17207 11245 999999 999999 999999 999999 999999 999999 999999 999999 999999 999999 999999 999999 999999 999999 999999 999999 999999 999999 999999 999999 999999 999999 999999 999999 999999 0 999999 999999 999999 999999 12953
999999 13451 14129 10334 12412 10159 12578 11268 19798 19736 13897 14722 11873 13784 18565 13500 10427 16137 19234 17693 13065 15101 17967 13297 19404 17108 18994 13572 17803 12727 17320 999999 999999 999999 999999 999999 999999 999999 999999 999999 999999 999999 999999 999999 999999 999999 999999 999999 999999 999999 999999 999999 999999 999999 999999 999999 999999 0 999999 999999 999999 12496
999999 18718 15284 10696 11960 15870 14504 19128 17679 17580 13879 19904 13458 14827 15366 12963 11187 17883 19816 14349 13884 13894 14830 17417 11355 17579 14856 14263 15429 16480 19977 999999 999999 999999 999999 999999 999999 999999 999999 999999 999999 999999 999999 999999 999999 999999 999999 999999 999999 999999 999999 999999 999999 999999 999999 999999 999999 999999 0 999999 999999 13981
999999 18632 13104 15658 13798 10811 15531 16538 19333 16425 11099 17290 19717 12815 13503 11950 16102 14343 11395 18190 12801 16348 17684 10699 13241 14861 20000 17172 12562 15131 12215 999999 999999 999999 999999 999999 999999 999999 999999 999999 999999 999999 999999 999999 999999 999999 999999 999999 999999 999999 999999 999999 999999 999999 999999 999999 999999 999999 999999 0 999999 10375
999999 18534 14451 16330 11243 16182 14576 13806 18560 19191 16435 12607 14874 16720 10490 11183 11826 14775 10731 10826 17791 12385 10497 17061 10071 16075 16848 19858 17277 11582 19023 999999 999999 999999 999999 999999 999999 999999 999999 999999 999999 999999 999999 999999 999999 999999 999999 999999 999999 999999 999999 999999 999999 999999 999999 999999 999999 999999 999999 999999 0 13189
1 999999 999999 999999 999999 999999 999999 999999 999999 999999 999999 999999 999999 999999 999999 999999 999999 999999 999999 999999 999999 999999 999999 999999 999999 999999 999999 999999 999999 999999 999999 999999 999999 999999 999999 999999 999999 999999 999999 999999 999999 999999 999999 999999 999999 999999 999999 999999 999999 999999 999999 999999 999999 999999 999999 999999 999999 999999 999999 999999 999999 0
EOF