NAME: GR_1x2x5_KH_2x5_Run_2
TYPE: TSP
COMMENT: BTSP instance |A|=10 GR nodes |B|=10 KH nodes depot=0.0 end=0.0.0
DIMENSION: 22
EDGE_WEIGHT_TYPE: EXPLICIT
EDGE_WEIGHT_FORMAT: FULL_MATRIX
NODE_COORD_TYPE: NO_COORDS
EDGE_WEIGHT_SECTION
0 10447 14783 7044 10441 8306 13566 12694 9778 5118 13509 999999 999999 999999 999999 999999 999999 999999 999999 999999 999999 999999
999999 0 999999 999999 999999 999999 999999 999999 999999 999999 999999 19663 999999 999999 999999 999999 999999 999999 999999 999999 999999 999999
999999 999999 0 999999 999999 999999 999999 999999 999999 999999 999999 999999 16930 999999 999999 999999 999999 999999 999999 999999 999999 999999
999999 999999 999999 0 999999 999999 999999 999999 999999 999999 999999 999999 999999 17387 999999 999999 999999 999999 999999 999999 999999 999999
999999 999999 999999 999999 0 999999 999999 999999 999999 999999 999999 999999 999999 999999 18482 999999 999999 999999 999999 999999 999999 999999
999999 999999 999999 999999 999999 0 999999 999999 999999 999999 999999 999999 999999 999999 999999 13052 999999 999999 999999 999999 999999 999999
999999 999999 999999 999999 999999 999999 0 999999 999999 999999 999999 999999 999999 999999 999999 999999 16676 999999 999999 999999 999999 999999
999999 999999 999999 999999 999999 999999 999999 0 999999 999999 999999 999999 999999 999999 999999 999999 999999 12531 999999 999999 999999 999999
999999 999999 999999 999999 999999 999999 999999 999999 0 999999 999999 999999 999999 999999 999999 999999 999999 999999 19654 999999 999999 999999
999999 999999 999999 999999 999999 999999 999999 999999 999999 0 999999 999999 999999 999999 999999 999999 999999 999999 999999 18449 999999 999999
999999 999999 999999 999999 999999 999999 999999 999999 999999 999999 0 999999 999999 999999 999999 999999 999999 999999 999999 999999 16728 999999
999999 19663 18287 12142 11908 11758 10099 19149 13500 16734 14920 0 999999 999999 999999 999999 999999 999999 999999 999999 999999 7939
999999 13081 16930 12573 18310 13519 19523 19547 16849 16795 15964 999999 0 999999 999999 999999 999999 999999 999999 999999 999999 8111
999999 11552 19796 17387 19188 16286 10083 15562 17947 14807 13258 999999 999999 0 999999 999999 999999 999999 999999 999999 999999 6348
999999 10623 13231 17322 18482 17622 12208 10955 16899 12214 13411 999999 999999 999999 0 999999 999999 999999 999999 999999 999999 14668
999999 12378 14976 15940 11967 13052 17387 11002 18148 11263 13540 999999 999999 999999 999999 0 999999 999999 999999 999999 999999 12755
999999 17243 13012 15701 18888 16320 16676 12407 14269 15523 15730 999999 999999 999999 999999 999999 0 999999 999999 999999 999999 7409
999999 11373 12776 14336 10032 17318 13768 12531 16078 16952 14976 999999 999999 999999 999999 999999 999999 0 999999 999999 999999 13736
999999 14253 16499 10183 14810 17774 18192 18681 19654 18598 10603 999999 999999 999999 999999 999999 999999 999999 0 999999 999999 14321
999999 11270 15931 11424 13395 10622 18965 16275 19025 18449 14711 999999 999999 999999 999999 999999 999999 999999 999999 0 999999 11220
999999 13145 14578 10607 13229 19787 10088 16340 16824 13883 16728 999999 999999 999999 999999 999999 999999 999999 999999 999999 0 9504
1 999999 999999 999999 999999 999999 999999 999999 999999 999999 999999 999999 999999 999999 999999 999999 999999 999999 999999 999999 999999 0
EOF