NAME: GR_1x5x12_KH_5x12_Run_10
TYPE: TSP
COMMENT: BTSP instance |A|=60 GR nodes |B|=60 KH nodes depot=0.0 end=0.0.0
DIMENSION: 122
EDGE_WEIGHT_TYPE: EXPLICIT
EDGE_WEIGHT_FORMAT: FULL_MATRIX
NODE_COORD_TYPE: NO_COORDS
EDGE_WEIGHT_SECTION
0 14365 14941 12344 9708 13810 13339 7148 14479 6140 5624 8215 12076 12528 6368 6723 11092 10244 5369 9947 8267 11312 10912 8568 8880 11595 5859 8631 13490 7328 10556 8766 8278 7419 7058 8289 10725 8240 7459 8109 14661 7690 6424 13275 8254 10698 9128 10517 12070 5624 7189 10883 9164 7944 8939 12898 14342 11093 9940 7081 13791 999999 999999 999999 999999 999999 999999 999999 999999 999999 999999 999999 999999 999999 999999 999999 999999 999999 999999 999999 999999 999999 999999 999999 999999 999999 999999 999999 999999 999999 999999 999999 999999 999999 999999 999999 999999 999999 999999 999999 999999 999999 999999 999999 999999 999999 999999 999999 999999 999999 999999 999999 999999 999999 999999 999999 999999 999999 999999 999999 999999 999999
999999 0 999999 999999 999999 999999 999999 999999 999999 999999 999999 999999 999999 999999 999999 999999 999999 999999 999999 999999 999999 999999 999999 999999 999999 999999 999999 999999 999999 999999 999999 999999 999999 999999 999999 999999 999999 999999 999999 999999 999999 999999 999999 999999 999999 999999 999999 999999 999999 999999 999999 999999 999999 999999 999999 999999 999999 999999 999999 999999 999999 999999 999999 10357 999999 999999 999999 999999 10852 999999 17193 999999 999999 999999 999999 999999 999999 999999 999999 999999 999999 999999 17703 999999 999999 999999 17660 999999 19733 999999 14410 999999 999999 999999 999999 999999 16975 999999 999999 999999 14876 999999 999999 999999 17668 999999 999999 17795 999999 10572 999999 999999 999999 999999 999999 999999 999999 999999 999999 999999 999999 999999
999999 999999 0 999999 999999 999999 999999 999999 999999 999999 999999 999999 999999 999999 999999 999999 999999 999999 999999 999999 999999 999999 999999 999999 999999 999999 999999 999999 999999 999999 999999 999999 999999 999999 999999 999999 999999 999999 999999 999999 999999 999999 999999 999999 999999 999999 999999 999999 999999 999999 999999 999999 999999 999999 999999 999999 999999 999999 999999 999999 999999 999999 999999 11421 999999 999999 999999 999999 11004 999999 10666 999999 999999 999999 999999 999999 999999 999999 999999 999999 999999 999999 15892 999999 999999 999999 19443 999999 17210 999999 14809 999999 999999 999999 999999 999999 14125 999999 999999 999999 18357 999999 999999 999999 18436 999999 999999 15531 999999 14119 999999 999999 999999 999999 999999 999999 999999 999999 999999 999999 999999 999999
999999 999999 999999 0 999999 999999 999999 999999 999999 999999 999999 999999 999999 999999 999999 999999 999999 999999 999999 999999 999999 999999 999999 999999 999999 999999 999999 999999 999999 999999 999999 999999 999999 999999 999999 999999 999999 999999 999999 999999 999999 999999 999999 999999 999999 999999 999999 999999 999999 999999 999999 999999 999999 999999 999999 999999 999999 999999 999999 999999 999999 999999 999999 17064 999999 999999 999999 999999 12811 999999 16085 999999 999999 999999 999999 999999 999999 999999 999999 999999 999999 999999 17255 999999 999999 999999 15793 999999 19276 999999 12456 999999 999999 999999 999999 999999 18993 999999 999999 999999 10356 999999 999999 999999 17077 999999 999999 17543 999999 16153 999999 999999 999999 999999 999999 999999 999999 999999 999999 999999 999999 999999
999999 999999 999999 999999 0 999999 999999 999999 999999 999999 999999 999999 999999 999999 999999 999999 999999 999999 999999 999999 999999 999999 999999 999999 999999 999999 999999 999999 999999 999999 999999 999999 999999 999999 999999 999999 999999 999999 999999 999999 999999 999999 999999 999999 999999 999999 999999 999999 999999 999999 999999 999999 999999 999999 999999 999999 999999 999999 999999 999999 999999 999999 999999 19267 999999 999999 999999 999999 17719 999999 17180 999999 999999 999999 999999 999999 999999 999999 999999 999999 999999 999999 16931 999999 999999 999999 16614 999999 18792 999999 14237 999999 999999 999999 999999 999999 19715 999999 999999 999999 14851 999999 999999 999999 11182 999999 999999 11727 999999 14457 999999 999999 999999 999999 999999 999999 999999 999999 999999 999999 999999 999999
999999 999999 999999 999999 999999 0 999999 999999 999999 999999 999999 999999 999999 999999 999999 999999 999999 999999 999999 999999 999999 999999 999999 999999 999999 999999 999999 999999 999999 999999 999999 999999 999999 999999 999999 999999 999999 999999 999999 999999 999999 999999 999999 999999 999999 999999 999999 999999 999999 999999 999999 999999 999999 999999 999999 999999 999999 999999 999999 999999 999999 999999 999999 19203 999999 999999 999999 999999 10661 999999 13120 999999 999999 999999 999999 999999 999999 999999 999999 999999 999999 999999 15652 999999 999999 999999 16115 999999 14760 999999 12731 999999 999999 999999 999999 999999 12757 999999 999999 999999 17101 999999 999999 999999 11787 999999 999999 17092 999999 10993 999999 999999 999999 999999 999999 999999 999999 999999 999999 999999 999999 999999
999999 999999 999999 999999 999999 999999 0 999999 999999 999999 999999 999999 999999 999999 999999 999999 999999 999999 999999 999999 999999 999999 999999 999999 999999 999999 999999 999999 999999 999999 999999 999999 999999 999999 999999 999999 999999 999999 999999 999999 999999 999999 999999 999999 999999 999999 999999 999999 999999 999999 999999 999999 999999 999999 999999 999999 999999 999999 999999 999999 999999 999999 999999 13241 999999 999999 999999 999999 15188 999999 15088 999999 999999 999999 999999 999999 999999 999999 999999 999999 999999 999999 18866 999999 999999 999999 19573 999999 12269 999999 14153 999999 999999 999999 999999 999999 19278 999999 999999 999999 14569 999999 999999 999999 14369 999999 999999 16688 999999 17821 999999 999999 999999 999999 999999 999999 999999 999999 999999 999999 999999 999999
999999 999999 999999 999999 999999 999999 999999 0 999999 999999 999999 999999 999999 999999 999999 999999 999999 999999 999999 999999 999999 999999 999999 999999 999999 999999 999999 999999 999999 999999 999999 999999 999999 999999 999999 999999 999999 999999 999999 999999 999999 999999 999999 999999 999999 999999 999999 999999 999999 999999 999999 999999 999999 999999 999999 999999 999999 999999 999999 999999 999999 999999 999999 14680 999999 999999 999999 999999 15920 999999 11342 999999 999999 999999 999999 999999 999999 999999 999999 999999 999999 999999 18938 999999 999999 999999 12011 999999 11947 999999 17116 999999 999999 999999 999999 999999 15976 999999 999999 999999 15320 999999 999999 999999 16237 999999 999999 11968 999999 11298 999999 999999 999999 999999 999999 999999 999999 999999 999999 999999 999999 999999
999999 999999 999999 999999 999999 999999 999999 999999 0 999999 999999 999999 999999 999999 999999 999999 999999 999999 999999 999999 999999 999999 999999 999999 999999 999999 999999 999999 999999 999999 999999 999999 999999 999999 999999 999999 999999 999999 999999 999999 999999 999999 999999 999999 999999 999999 999999 999999 999999 999999 999999 999999 999999 999999 999999 999999 999999 999999 999999 999999 999999 999999 999999 15869 999999 999999 999999 999999 10013 999999 18039 999999 999999 999999 999999 999999 999999 999999 999999 999999 999999 999999 16471 999999 999999 999999 13206 999999 10968 999999 13954 999999 999999 999999 999999 999999 19849 999999 999999 999999 12691 999999 999999 999999 14654 999999 999999 10980 999999 10188 999999 999999 999999 999999 999999 999999 999999 999999 999999 999999 999999 999999
999999 999999 999999 999999 999999 999999 999999 999999 999999 0 999999 999999 999999 999999 999999 999999 999999 999999 999999 999999 999999 999999 999999 999999 999999 999999 999999 999999 999999 999999 999999 999999 999999 999999 999999 999999 999999 999999 999999 999999 999999 999999 999999 999999 999999 999999 999999 999999 999999 999999 999999 999999 999999 999999 999999 999999 999999 999999 999999 999999 999999 999999 999999 15985 999999 999999 999999 999999 10694 999999 11665 999999 999999 999999 999999 999999 999999 999999 999999 999999 999999 999999 13719 999999 999999 999999 18986 999999 19971 999999 16788 999999 999999 999999 999999 999999 13592 999999 999999 999999 17730 999999 999999 999999 11599 999999 999999 11945 999999 18106 999999 999999 999999 999999 999999 999999 999999 999999 999999 999999 999999 999999
999999 999999 999999 999999 999999 999999 999999 999999 999999 999999 0 999999 999999 999999 999999 999999 999999 999999 999999 999999 999999 999999 999999 999999 999999 999999 999999 999999 999999 999999 999999 999999 999999 999999 999999 999999 999999 999999 999999 999999 999999 999999 999999 999999 999999 999999 999999 999999 999999 999999 999999 999999 999999 999999 999999 999999 999999 999999 999999 999999 999999 999999 999999 13282 999999 999999 999999 999999 16997 999999 17327 999999 999999 999999 999999 999999 999999 999999 999999 999999 999999 999999 18652 999999 999999 999999 13784 999999 19887 999999 18041 999999 999999 999999 999999 999999 17626 999999 999999 999999 13286 999999 999999 999999 12041 999999 999999 11943 999999 17393 999999 999999 999999 999999 999999 999999 999999 999999 999999 999999 999999 999999
999999 999999 999999 999999 999999 999999 999999 999999 999999 999999 999999 0 999999 999999 999999 999999 999999 999999 999999 999999 999999 999999 999999 999999 999999 999999 999999 999999 999999 999999 999999 999999 999999 999999 999999 999999 999999 999999 999999 999999 999999 999999 999999 999999 999999 999999 999999 999999 999999 999999 999999 999999 999999 999999 999999 999999 999999 999999 999999 999999 999999 999999 999999 16472 999999 999999 999999 999999 16772 999999 12033 999999 999999 999999 999999 999999 999999 999999 999999 999999 999999 999999 14264 999999 999999 999999 11140 999999 17217 999999 12724 999999 999999 999999 999999 999999 19675 999999 999999 999999 13482 999999 999999 999999 12374 999999 999999 17348 999999 11976 999999 999999 999999 999999 999999 999999 999999 999999 999999 999999 999999 999999
999999 999999 999999 999999 999999 999999 999999 999999 999999 999999 999999 999999 0 999999 999999 999999 999999 999999 999999 999999 999999 999999 999999 999999 999999 999999 999999 999999 999999 999999 999999 999999 999999 999999 999999 999999 999999 999999 999999 999999 999999 999999 999999 999999 999999 999999 999999 999999 999999 999999 999999 999999 999999 999999 999999 999999 999999 999999 999999 999999 999999 999999 999999 13476 999999 999999 999999 999999 14448 999999 15921 999999 999999 999999 999999 999999 999999 999999 999999 999999 999999 999999 12078 999999 999999 999999 18203 999999 16030 999999 13543 999999 999999 999999 999999 999999 15629 999999 999999 999999 13190 999999 999999 999999 19478 999999 999999 13340 999999 19985 999999 999999 999999 999999 999999 999999 999999 999999 999999 999999 999999 999999
999999 999999 999999 999999 999999 999999 999999 999999 999999 999999 999999 999999 999999 0 999999 999999 999999 999999 999999 999999 999999 999999 999999 999999 999999 999999 999999 999999 999999 999999 999999 999999 999999 999999 999999 999999 999999 999999 999999 999999 999999 999999 999999 999999 999999 999999 999999 999999 999999 999999 999999 999999 999999 999999 999999 999999 999999 999999 999999 999999 999999 999999 999999 999999 999999 999999 999999 999999 999999 999999 999999 999999 13906 999999 999999 17012 13605 999999 10042 999999 999999 999999 999999 10889 999999 18426 999999 999999 999999 999999 999999 999999 999999 999999 999999 17539 999999 999999 999999 999999 999999 999999 14339 15352 999999 999999 999999 999999 999999 999999 999999 17798 999999 999999 999999 999999 12281 999999 999999 999999 15143 999999
999999 999999 999999 999999 999999 999999 999999 999999 999999 999999 999999 999999 999999 999999 0 999999 999999 999999 999999 999999 999999 999999 999999 999999 999999 999999 999999 999999 999999 999999 999999 999999 999999 999999 999999 999999 999999 999999 999999 999999 999999 999999 999999 999999 999999 999999 999999 999999 999999 999999 999999 999999 999999 999999 999999 999999 999999 999999 999999 999999 999999 999999 999999 999999 999999 999999 999999 999999 999999 999999 999999 999999 12852 999999 999999 17160 16135 999999 17453 999999 999999 999999 999999 10706 999999 13990 999999 999999 999999 999999 999999 999999 999999 999999 999999 10498 999999 999999 999999 999999 999999 999999 16992 11577 999999 999999 999999 999999 999999 999999 999999 17315 999999 999999 999999 999999 18648 999999 999999 999999 16768 999999
999999 999999 999999 999999 999999 999999 999999 999999 999999 999999 999999 999999 999999 999999 999999 0 999999 999999 999999 999999 999999 999999 999999 999999 999999 999999 999999 999999 999999 999999 999999 999999 999999 999999 999999 999999 999999 999999 999999 999999 999999 999999 999999 999999 999999 999999 999999 999999 999999 999999 999999 999999 999999 999999 999999 999999 999999 999999 999999 999999 999999 999999 999999 999999 999999 999999 999999 999999 999999 999999 999999 999999 15819 999999 999999 15868 18517 999999 16188 999999 999999 999999 999999 18659 999999 19785 999999 999999 999999 999999 999999 999999 999999 999999 999999 10520 999999 999999 999999 999999 999999 999999 19300 19929 999999 999999 999999 999999 999999 999999 999999 11677 999999 999999 999999 999999 19457 999999 999999 999999 18569 999999
999999 999999 999999 999999 999999 999999 999999 999999 999999 999999 999999 999999 999999 999999 999999 999999 0 999999 999999 999999 999999 999999 999999 999999 999999 999999 999999 999999 999999 999999 999999 999999 999999 999999 999999 999999 999999 999999 999999 999999 999999 999999 999999 999999 999999 999999 999999 999999 999999 999999 999999 999999 999999 999999 999999 999999 999999 999999 999999 999999 999999 999999 999999 999999 999999 999999 999999 999999 999999 999999 999999 999999 11959 999999 999999 12805 16856 999999 16132 999999 999999 999999 999999 19557 999999 19048 999999 999999 999999 999999 999999 999999 999999 999999 999999 11004 999999 999999 999999 999999 999999 999999 18170 16702 999999 999999 999999 999999 999999 999999 999999 16756 999999 999999 999999 999999 18578 999999 999999 999999 18928 999999
999999 999999 999999 999999 999999 999999 999999 999999 999999 999999 999999 999999 999999 999999 999999 999999 999999 0 999999 999999 999999 999999 999999 999999 999999 999999 999999 999999 999999 999999 999999 999999 999999 999999 999999 999999 999999 999999 999999 999999 999999 999999 999999 999999 999999 999999 999999 999999 999999 999999 999999 999999 999999 999999 999999 999999 999999 999999 999999 999999 999999 999999 999999 999999 999999 999999 999999 999999 999999 999999 999999 999999 12272 999999 999999 19480 13253 999999 10611 999999 999999 999999 999999 13824 999999 12242 999999 999999 999999 999999 999999 999999 999999 999999 999999 19935 999999 999999 999999 999999 999999 999999 15581 13569 999999 999999 999999 999999 999999 999999 999999 15360 999999 999999 999999 999999 17781 999999 999999 999999 12925 999999
999999 999999 999999 999999 999999 999999 999999 999999 999999 999999 999999 999999 999999 999999 999999 999999 999999 999999 0 999999 999999 999999 999999 999999 999999 999999 999999 999999 999999 999999 999999 999999 999999 999999 999999 999999 999999 999999 999999 999999 999999 999999 999999 999999 999999 999999 999999 999999 999999 999999 999999 999999 999999 999999 999999 999999 999999 999999 999999 999999 999999 999999 999999 999999 999999 999999 999999 999999 999999 999999 999999 999999 15293 999999 999999 14127 12461 999999 15890 999999 999999 999999 999999 18382 999999 12951 999999 999999 999999 999999 999999 999999 999999 999999 999999 14509 999999 999999 999999 999999 999999 999999 12975 15566 999999 999999 999999 999999 999999 999999 999999 16492 999999 999999 999999 999999 14411 999999 999999 999999 19578 999999
999999 999999 999999 999999 999999 999999 999999 999999 999999 999999 999999 999999 999999 999999 999999 999999 999999 999999 999999 0 999999 999999 999999 999999 999999 999999 999999 999999 999999 999999 999999 999999 999999 999999 999999 999999 999999 999999 999999 999999 999999 999999 999999 999999 999999 999999 999999 999999 999999 999999 999999 999999 999999 999999 999999 999999 999999 999999 999999 999999 999999 999999 999999 999999 999999 999999 999999 999999 999999 999999 999999 999999 15292 999999 999999 11714 18855 999999 13953 999999 999999 999999 999999 11221 999999 15358 999999 999999 999999 999999 999999 999999 999999 999999 999999 15934 999999 999999 999999 999999 999999 999999 12982 13428 999999 999999 999999 999999 999999 999999 999999 19918 999999 999999 999999 999999 10086 999999 999999 999999 12834 999999
999999 999999 999999 999999 999999 999999 999999 999999 999999 999999 999999 999999 999999 999999 999999 999999 999999 999999 999999 999999 0 999999 999999 999999 999999 999999 999999 999999 999999 999999 999999 999999 999999 999999 999999 999999 999999 999999 999999 999999 999999 999999 999999 999999 999999 999999 999999 999999 999999 999999 999999 999999 999999 999999 999999 999999 999999 999999 999999 999999 999999 999999 999999 999999 999999 999999 999999 999999 999999 999999 999999 999999 10020 999999 999999 11898 11428 999999 10064 999999 999999 999999 999999 18338 999999 10132 999999 999999 999999 999999 999999 999999 999999 999999 999999 17121 999999 999999 999999 999999 999999 999999 19682 11199 999999 999999 999999 999999 999999 999999 999999 10180 999999 999999 999999 999999 14211 999999 999999 999999 13614 999999
999999 999999 999999 999999 999999 999999 999999 999999 999999 999999 999999 999999 999999 999999 999999 999999 999999 999999 999999 999999 999999 0 999999 999999 999999 999999 999999 999999 999999 999999 999999 999999 999999 999999 999999 999999 999999 999999 999999 999999 999999 999999 999999 999999 999999 999999 999999 999999 999999 999999 999999 999999 999999 999999 999999 999999 999999 999999 999999 999999 999999 999999 999999 999999 999999 999999 999999 999999 999999 999999 999999 999999 12293 999999 999999 14939 15534 999999 14895 999999 999999 999999 999999 10361 999999 15174 999999 999999 999999 999999 999999 999999 999999 999999 999999 14810 999999 999999 999999 999999 999999 999999 12472 18069 999999 999999 999999 999999 999999 999999 999999 10912 999999 999999 999999 999999 17495 999999 999999 999999 18908 999999
999999 999999 999999 999999 999999 999999 999999 999999 999999 999999 999999 999999 999999 999999 999999 999999 999999 999999 999999 999999 999999 999999 0 999999 999999 999999 999999 999999 999999 999999 999999 999999 999999 999999 999999 999999 999999 999999 999999 999999 999999 999999 999999 999999 999999 999999 999999 999999 999999 999999 999999 999999 999999 999999 999999 999999 999999 999999 999999 999999 999999 999999 999999 999999 999999 999999 999999 999999 999999 999999 999999 999999 13821 999999 999999 19738 17535 999999 11701 999999 999999 999999 999999 16155 999999 10565 999999 999999 999999 999999 999999 999999 999999 999999 999999 19754 999999 999999 999999 999999 999999 999999 10840 15415 999999 999999 999999 999999 999999 999999 999999 11290 999999 999999 999999 999999 18279 999999 999999 999999 17860 999999
999999 999999 999999 999999 999999 999999 999999 999999 999999 999999 999999 999999 999999 999999 999999 999999 999999 999999 999999 999999 999999 999999 999999 0 999999 999999 999999 999999 999999 999999 999999 999999 999999 999999 999999 999999 999999 999999 999999 999999 999999 999999 999999 999999 999999 999999 999999 999999 999999 999999 999999 999999 999999 999999 999999 999999 999999 999999 999999 999999 999999 999999 999999 999999 999999 999999 999999 999999 999999 999999 999999 999999 10296 999999 999999 17485 13298 999999 10069 999999 999999 999999 999999 13877 999999 15778 999999 999999 999999 999999 999999 999999 999999 999999 999999 19797 999999 999999 999999 999999 999999 999999 14396 13545 999999 999999 999999 999999 999999 999999 999999 10866 999999 999999 999999 999999 13464 999999 999999 999999 19926 999999
999999 999999 999999 999999 999999 999999 999999 999999 999999 999999 999999 999999 999999 999999 999999 999999 999999 999999 999999 999999 999999 999999 999999 999999 0 999999 999999 999999 999999 999999 999999 999999 999999 999999 999999 999999 999999 999999 999999 999999 999999 999999 999999 999999 999999 999999 999999 999999 999999 999999 999999 999999 999999 999999 999999 999999 999999 999999 999999 999999 999999 999999 999999 999999 999999 999999 999999 999999 999999 999999 999999 999999 10731 999999 999999 19873 15507 999999 19925 999999 999999 999999 999999 11214 999999 16116 999999 999999 999999 999999 999999 999999 999999 999999 999999 11487 999999 999999 999999 999999 999999 999999 12647 10578 999999 999999 999999 999999 999999 999999 999999 16400 999999 999999 999999 999999 17014 999999 999999 999999 13267 999999
999999 999999 999999 999999 999999 999999 999999 999999 999999 999999 999999 999999 999999 999999 999999 999999 999999 999999 999999 999999 999999 999999 999999 999999 999999 0 999999 999999 999999 999999 999999 999999 999999 999999 999999 999999 999999 999999 999999 999999 999999 999999 999999 999999 999999 999999 999999 999999 999999 999999 999999 999999 999999 999999 999999 999999 999999 999999 999999 999999 999999 999999 999999 999999 19339 999999 999999 999999 999999 19139 999999 999999 999999 17580 999999 999999 999999 15843 999999 16818 999999 15204 999999 999999 999999 999999 999999 15493 999999 999999 999999 999999 999999 11781 999999 999999 999999 999999 999999 10122 999999 999999 999999 999999 999999 11086 999999 999999 15630 999999 999999 999999 999999 13788 999999 999999 999999 999999 999999 999999 999999 999999
999999 999999 999999 999999 999999 999999 999999 999999 999999 999999 999999 999999 999999 999999 999999 999999 999999 999999 999999 999999 999999 999999 999999 999999 999999 999999 0 999999 999999 999999 999999 999999 999999 999999 999999 999999 999999 999999 999999 999999 999999 999999 999999 999999 999999 999999 999999 999999 999999 999999 999999 999999 999999 999999 999999 999999 999999 999999 999999 999999 999999 999999 999999 999999 14983 999999 999999 999999 999999 16631 999999 999999 999999 17386 999999 999999 999999 15542 999999 13268 999999 14362 999999 999999 999999 999999 999999 17108 999999 999999 999999 999999 999999 11718 999999 999999 999999 999999 999999 15110 999999 999999 999999 999999 999999 15741 999999 999999 18274 999999 999999 999999 999999 10608 999999 999999 999999 999999 999999 999999 999999 999999
999999 999999 999999 999999 999999 999999 999999 999999 999999 999999 999999 999999 999999 999999 999999 999999 999999 999999 999999 999999 999999 999999 999999 999999 999999 999999 999999 0 999999 999999 999999 999999 999999 999999 999999 999999 999999 999999 999999 999999 999999 999999 999999 999999 999999 999999 999999 999999 999999 999999 999999 999999 999999 999999 999999 999999 999999 999999 999999 999999 999999 999999 999999 999999 10217 999999 999999 999999 999999 17641 999999 999999 999999 17507 999999 999999 999999 14335 999999 11324 999999 11245 999999 999999 999999 999999 999999 11950 999999 999999 999999 999999 999999 12807 999999 999999 999999 999999 999999 11780 999999 999999 999999 999999 999999 14338 999999 999999 19696 999999 999999 999999 999999 19795 999999 999999 999999 999999 999999 999999 999999 999999
999999 999999 999999 999999 999999 999999 999999 999999 999999 999999 999999 999999 999999 999999 999999 999999 999999 999999 999999 999999 999999 999999 999999 999999 999999 999999 999999 999999 0 999999 999999 999999 999999 999999 999999 999999 999999 999999 999999 999999 999999 999999 999999 999999 999999 999999 999999 999999 999999 999999 999999 999999 999999 999999 999999 999999 999999 999999 999999 999999 999999 999999 999999 999999 15104 999999 999999 999999 999999 16683 999999 999999 999999 10784 999999 999999 999999 11023 999999 12504 999999 10609 999999 999999 999999 999999 999999 10565 999999 999999 999999 999999 999999 13149 999999 999999 999999 999999 999999 14485 999999 999999 999999 999999 999999 12422 999999 999999 16250 999999 999999 999999 999999 10140 999999 999999 999999 999999 999999 999999 999999 999999
999999 999999 999999 999999 999999 999999 999999 999999 999999 999999 999999 999999 999999 999999 999999 999999 999999 999999 999999 999999 999999 999999 999999 999999 999999 999999 999999 999999 999999 0 999999 999999 999999 999999 999999 999999 999999 999999 999999 999999 999999 999999 999999 999999 999999 999999 999999 999999 999999 999999 999999 999999 999999 999999 999999 999999 999999 999999 999999 999999 999999 999999 999999 999999 12618 999999 999999 999999 999999 16497 999999 999999 999999 12076 999999 999999 999999 11840 999999 13305 999999 11989 999999 999999 999999 999999 999999 15230 999999 999999 999999 999999 999999 18571 999999 999999 999999 999999 999999 16418 999999 999999 999999 999999 999999 14172 999999 999999 13508 999999 999999 999999 999999 10509 999999 999999 999999 999999 999999 999999 999999 999999
999999 999999 999999 999999 999999 999999 999999 999999 999999 999999 999999 999999 999999 999999 999999 999999 999999 999999 999999 999999 999999 999999 999999 999999 999999 999999 999999 999999 999999 999999 0 999999 999999 999999 999999 999999 999999 999999 999999 999999 999999 999999 999999 999999 999999 999999 999999 999999 999999 999999 999999 999999 999999 999999 999999 999999 999999 999999 999999 999999 999999 999999 999999 999999 19630 999999 999999 999999 999999 12436 999999 999999 999999 19847 999999 999999 999999 11029 999999 18779 999999 17103 999999 999999 999999 999999 999999 14582 999999 999999 999999 999999 999999 14805 999999 999999 999999 999999 999999 13350 999999 999999 999999 999999 999999 19128 999999 999999 18302 999999 999999 999999 999999 17750 999999 999999 999999 999999 999999 999999 999999 999999
999999 999999 999999 999999 999999 999999 999999 999999 999999 999999 999999 999999 999999 999999 999999 999999 999999 999999 999999 999999 999999 999999 999999 999999 999999 999999 999999 999999 999999 999999 999999 0 999999 999999 999999 999999 999999 999999 999999 999999 999999 999999 999999 999999 999999 999999 999999 999999 999999 999999 999999 999999 999999 999999 999999 999999 999999 999999 999999 999999 999999 999999 999999 999999 10444 999999 999999 999999 999999 15919 999999 999999 999999 11590 999999 999999 999999 14289 999999 15002 999999 17093 999999 999999 999999 999999 999999 19782 999999 999999 999999 999999 999999 16958 999999 999999 999999 999999 999999 17130 999999 999999 999999 999999 999999 12501 999999 999999 10835 999999 999999 999999 999999 17568 999999 999999 999999 999999 999999 999999 999999 999999
999999 999999 999999 999999 999999 999999 999999 999999 999999 999999 999999 999999 999999 999999 999999 999999 999999 999999 999999 999999 999999 999999 999999 999999 999999 999999 999999 999999 999999 999999 999999 999999 0 999999 999999 999999 999999 999999 999999 999999 999999 999999 999999 999999 999999 999999 999999 999999 999999 999999 999999 999999 999999 999999 999999 999999 999999 999999 999999 999999 999999 999999 999999 999999 11941 999999 999999 999999 999999 16702 999999 999999 999999 17381 999999 999999 999999 19926 999999 11676 999999 11948 999999 999999 999999 999999 999999 12465 999999 999999 999999 999999 999999 11693 999999 999999 999999 999999 999999 13733 999999 999999 999999 999999 999999 19806 999999 999999 18496 999999 999999 999999 999999 11603 999999 999999 999999 999999 999999 999999 999999 999999
999999 999999 999999 999999 999999 999999 999999 999999 999999 999999 999999 999999 999999 999999 999999 999999 999999 999999 999999 999999 999999 999999 999999 999999 999999 999999 999999 999999 999999 999999 999999 999999 999999 0 999999 999999 999999 999999 999999 999999 999999 999999 999999 999999 999999 999999 999999 999999 999999 999999 999999 999999 999999 999999 999999 999999 999999 999999 999999 999999 999999 999999 999999 999999 14253 999999 999999 999999 999999 15665 999999 999999 999999 18132 999999 999999 999999 18281 999999 18018 999999 10765 999999 999999 999999 999999 999999 14640 999999 999999 999999 999999 999999 19921 999999 999999 999999 999999 999999 11403 999999 999999 999999 999999 999999 13295 999999 999999 12420 999999 999999 999999 999999 10641 999999 999999 999999 999999 999999 999999 999999 999999
999999 999999 999999 999999 999999 999999 999999 999999 999999 999999 999999 999999 999999 999999 999999 999999 999999 999999 999999 999999 999999 999999 999999 999999 999999 999999 999999 999999 999999 999999 999999 999999 999999 999999 0 999999 999999 999999 999999 999999 999999 999999 999999 999999 999999 999999 999999 999999 999999 999999 999999 999999 999999 999999 999999 999999 999999 999999 999999 999999 999999 999999 999999 999999 17648 999999 999999 999999 999999 10306 999999 999999 999999 12042 999999 999999 999999 17686 999999 17123 999999 17912 999999 999999 999999 999999 999999 10672 999999 999999 999999 999999 999999 15955 999999 999999 999999 999999 999999 11146 999999 999999 999999 999999 999999 19341 999999 999999 16738 999999 999999 999999 999999 12804 999999 999999 999999 999999 999999 999999 999999 999999
999999 999999 999999 999999 999999 999999 999999 999999 999999 999999 999999 999999 999999 999999 999999 999999 999999 999999 999999 999999 999999 999999 999999 999999 999999 999999 999999 999999 999999 999999 999999 999999 999999 999999 999999 0 999999 999999 999999 999999 999999 999999 999999 999999 999999 999999 999999 999999 999999 999999 999999 999999 999999 999999 999999 999999 999999 999999 999999 999999 999999 999999 999999 999999 14455 999999 999999 999999 999999 19603 999999 999999 999999 16106 999999 999999 999999 13959 999999 19706 999999 11638 999999 999999 999999 999999 999999 14404 999999 999999 999999 999999 999999 10756 999999 999999 999999 999999 999999 16989 999999 999999 999999 999999 999999 10982 999999 999999 14290 999999 999999 999999 999999 17389 999999 999999 999999 999999 999999 999999 999999 999999
999999 999999 999999 999999 999999 999999 999999 999999 999999 999999 999999 999999 999999 999999 999999 999999 999999 999999 999999 999999 999999 999999 999999 999999 999999 999999 999999 999999 999999 999999 999999 999999 999999 999999 999999 999999 0 999999 999999 999999 999999 999999 999999 999999 999999 999999 999999 999999 999999 999999 999999 999999 999999 999999 999999 999999 999999 999999 999999 999999 999999 999999 999999 999999 10263 999999 999999 999999 999999 10346 999999 999999 999999 10655 999999 999999 999999 14682 999999 17017 999999 18854 999999 999999 999999 999999 999999 16931 999999 999999 999999 999999 999999 16659 999999 999999 999999 999999 999999 10036 999999 999999 999999 999999 999999 14738 999999 999999 11630 999999 999999 999999 999999 12493 999999 999999 999999 999999 999999 999999 999999 999999
999999 999999 999999 999999 999999 999999 999999 999999 999999 999999 999999 999999 999999 999999 999999 999999 999999 999999 999999 999999 999999 999999 999999 999999 999999 999999 999999 999999 999999 999999 999999 999999 999999 999999 999999 999999 999999 0 999999 999999 999999 999999 999999 999999 999999 999999 999999 999999 999999 999999 999999 999999 999999 999999 999999 999999 999999 999999 999999 999999 999999 999999 999999 999999 999999 13386 999999 13079 999999 999999 999999 999999 999999 999999 999999 999999 999999 999999 999999 999999 999999 999999 999999 999999 19711 999999 999999 999999 999999 999999 999999 17063 999999 999999 999999 999999 999999 15284 13009 999999 999999 16145 999999 999999 999999 999999 999999 999999 999999 999999 12419 999999 999999 999999 19558 17092 999999 17025 10506 999999 999999 999999
999999 999999 999999 999999 999999 999999 999999 999999 999999 999999 999999 999999 999999 999999 999999 999999 999999 999999 999999 999999 999999 999999 999999 999999 999999 999999 999999 999999 999999 999999 999999 999999 999999 999999 999999 999999 999999 999999 0 999999 999999 999999 999999 999999 999999 999999 999999 999999 999999 999999 999999 999999 999999 999999 999999 999999 999999 999999 999999 999999 999999 999999 999999 999999 999999 15321 999999 15028 999999 999999 999999 999999 999999 999999 999999 999999 999999 999999 999999 999999 999999 999999 999999 999999 15110 999999 999999 999999 999999 999999 999999 17562 999999 999999 999999 999999 999999 13260 18556 999999 999999 17874 999999 999999 999999 999999 999999 999999 999999 999999 17841 999999 999999 999999 17990 12803 999999 13971 12109 999999 999999 999999
999999 999999 999999 999999 999999 999999 999999 999999 999999 999999 999999 999999 999999 999999 999999 999999 999999 999999 999999 999999 999999 999999 999999 999999 999999 999999 999999 999999 999999 999999 999999 999999 999999 999999 999999 999999 999999 999999 999999 0 999999 999999 999999 999999 999999 999999 999999 999999 999999 999999 999999 999999 999999 999999 999999 999999 999999 999999 999999 999999 999999 999999 999999 999999 999999 19709 999999 11280 999999 999999 999999 999999 999999 999999 999999 999999 999999 999999 999999 999999 999999 999999 999999 999999 11923 999999 999999 999999 999999 999999 999999 19780 999999 999999 999999 999999 999999 17492 17924 999999 999999 13624 999999 999999 999999 999999 999999 999999 999999 999999 19536 999999 999999 999999 19478 11999 999999 18158 19809 999999 999999 999999
999999 999999 999999 999999 999999 999999 999999 999999 999999 999999 999999 999999 999999 999999 999999 999999 999999 999999 999999 999999 999999 999999 999999 999999 999999 999999 999999 999999 999999 999999 999999 999999 999999 999999 999999 999999 999999 999999 999999 999999 0 999999 999999 999999 999999 999999 999999 999999 999999 999999 999999 999999 999999 999999 999999 999999 999999 999999 999999 999999 999999 999999 999999 999999 999999 15317 999999 19236 999999 999999 999999 999999 999999 999999 999999 999999 999999 999999 999999 999999 999999 999999 999999 999999 19543 999999 999999 999999 999999 999999 999999 12244 999999 999999 999999 999999 999999 16902 14239 999999 999999 12940 999999 999999 999999 999999 999999 999999 999999 999999 12019 999999 999999 999999 18603 13768 999999 12697 10088 999999 999999 999999
999999 999999 999999 999999 999999 999999 999999 999999 999999 999999 999999 999999 999999 999999 999999 999999 999999 999999 999999 999999 999999 999999 999999 999999 999999 999999 999999 999999 999999 999999 999999 999999 999999 999999 999999 999999 999999 999999 999999 999999 999999 0 999999 999999 999999 999999 999999 999999 999999 999999 999999 999999 999999 999999 999999 999999 999999 999999 999999 999999 999999 999999 999999 999999 999999 16789 999999 13388 999999 999999 999999 999999 999999 999999 999999 999999 999999 999999 999999 999999 999999 999999 999999 999999 11621 999999 999999 999999 999999 999999 999999 16309 999999 999999 999999 999999 999999 11184 12869 999999 999999 18326 999999 999999 999999 999999 999999 999999 999999 999999 19519 999999 999999 999999 19521 17536 999999 15340 13713 999999 999999 999999
999999 999999 999999 999999 999999 999999 999999 999999 999999 999999 999999 999999 999999 999999 999999 999999 999999 999999 999999 999999 999999 999999 999999 999999 999999 999999 999999 999999 999999 999999 999999 999999 999999 999999 999999 999999 999999 999999 999999 999999 999999 999999 0 999999 999999 999999 999999 999999 999999 999999 999999 999999 999999 999999 999999 999999 999999 999999 999999 999999 999999 999999 999999 999999 999999 19908 999999 13830 999999 999999 999999 999999 999999 999999 999999 999999 999999 999999 999999 999999 999999 999999 999999 999999 16971 999999 999999 999999 999999 999999 999999 13084 999999 999999 999999 999999 999999 16055 17282 999999 999999 19535 999999 999999 999999 999999 999999 999999 999999 999999 19142 999999 999999 999999 18776 13085 999999 17242 11776 999999 999999 999999
999999 999999 999999 999999 999999 999999 999999 999999 999999 999999 999999 999999 999999 999999 999999 999999 999999 999999 999999 999999 999999 999999 999999 999999 999999 999999 999999 999999 999999 999999 999999 999999 999999 999999 999999 999999 999999 999999 999999 999999 999999 999999 999999 0 999999 999999 999999 999999 999999 999999 999999 999999 999999 999999 999999 999999 999999 999999 999999 999999 999999 999999 999999 999999 999999 16781 999999 19081 999999 999999 999999 999999 999999 999999 999999 999999 999999 999999 999999 999999 999999 999999 999999 999999 15963 999999 999999 999999 999999 999999 999999 19174 999999 999999 999999 999999 999999 10724 11569 999999 999999 10144 999999 999999 999999 999999 999999 999999 999999 999999 12433 999999 999999 999999 12077 16318 999999 17818 16394 999999 999999 999999
999999 999999 999999 999999 999999 999999 999999 999999 999999 999999 999999 999999 999999 999999 999999 999999 999999 999999 999999 999999 999999 999999 999999 999999 999999 999999 999999 999999 999999 999999 999999 999999 999999 999999 999999 999999 999999 999999 999999 999999 999999 999999 999999 999999 0 999999 999999 999999 999999 999999 999999 999999 999999 999999 999999 999999 999999 999999 999999 999999 999999 999999 999999 999999 999999 15622 999999 19349 999999 999999 999999 999999 999999 999999 999999 999999 999999 999999 999999 999999 999999 999999 999999 999999 13757 999999 999999 999999 999999 999999 999999 11068 999999 999999 999999 999999 999999 14648 15436 999999 999999 19634 999999 999999 999999 999999 999999 999999 999999 999999 10264 999999 999999 999999 10119 10787 999999 13849 11728 999999 999999 999999
999999 999999 999999 999999 999999 999999 999999 999999 999999 999999 999999 999999 999999 999999 999999 999999 999999 999999 999999 999999 999999 999999 999999 999999 999999 999999 999999 999999 999999 999999 999999 999999 999999 999999 999999 999999 999999 999999 999999 999999 999999 999999 999999 999999 999999 0 999999 999999 999999 999999 999999 999999 999999 999999 999999 999999 999999 999999 999999 999999 999999 999999 999999 999999 999999 19369 999999 13360 999999 999999 999999 999999 999999 999999 999999 999999 999999 999999 999999 999999 999999 999999 999999 999999 10293 999999 999999 999999 999999 999999 999999 14133 999999 999999 999999 999999 999999 16617 15952 999999 999999 10041 999999 999999 999999 999999 999999 999999 999999 999999 12888 999999 999999 999999 14120 14001 999999 15998 17326 999999 999999 999999
999999 999999 999999 999999 999999 999999 999999 999999 999999 999999 999999 999999 999999 999999 999999 999999 999999 999999 999999 999999 999999 999999 999999 999999 999999 999999 999999 999999 999999 999999 999999 999999 999999 999999 999999 999999 999999 999999 999999 999999 999999 999999 999999 999999 999999 999999 0 999999 999999 999999 999999 999999 999999 999999 999999 999999 999999 999999 999999 999999 999999 999999 999999 999999 999999 18432 999999 19345 999999 999999 999999 999999 999999 999999 999999 999999 999999 999999 999999 999999 999999 999999 999999 999999 14786 999999 999999 999999 999999 999999 999999 11647 999999 999999 999999 999999 999999 19805 17263 999999 999999 12528 999999 999999 999999 999999 999999 999999 999999 999999 15295 999999 999999 999999 11364 19467 999999 12896 14399 999999 999999 999999
999999 999999 999999 999999 999999 999999 999999 999999 999999 999999 999999 999999 999999 999999 999999 999999 999999 999999 999999 999999 999999 999999 999999 999999 999999 999999 999999 999999 999999 999999 999999 999999 999999 999999 999999 999999 999999 999999 999999 999999 999999 999999 999999 999999 999999 999999 999999 0 999999 999999 999999 999999 999999 999999 999999 999999 999999 999999 999999 999999 999999 999999 999999 999999 999999 16583 999999 17330 999999 999999 999999 999999 999999 999999 999999 999999 999999 999999 999999 999999 999999 999999 999999 999999 17736 999999 999999 999999 999999 999999 999999 17244 999999 999999 999999 999999 999999 14499 12643 999999 999999 14807 999999 999999 999999 999999 999999 999999 999999 999999 14581 999999 999999 999999 15949 13559 999999 16466 10473 999999 999999 999999
999999 999999 999999 999999 999999 999999 999999 999999 999999 999999 999999 999999 999999 999999 999999 999999 999999 999999 999999 999999 999999 999999 999999 999999 999999 999999 999999 999999 999999 999999 999999 999999 999999 999999 999999 999999 999999 999999 999999 999999 999999 999999 999999 999999 999999 999999 999999 999999 0 999999 999999 999999 999999 999999 999999 999999 999999 999999 999999 999999 999999 999999 999999 999999 999999 11562 999999 11917 999999 999999 999999 999999 999999 999999 999999 999999 999999 999999 999999 999999 999999 999999 999999 999999 18963 999999 999999 999999 999999 999999 999999 15724 999999 999999 999999 999999 999999 10850 18970 999999 999999 19113 999999 999999 999999 999999 999999 999999 999999 999999 19253 999999 999999 999999 13413 14205 999999 16111 10837 999999 999999 999999
999999 999999 999999 999999 999999 999999 999999 999999 999999 999999 999999 999999 999999 999999 999999 999999 999999 999999 999999 999999 999999 999999 999999 999999 999999 999999 999999 999999 999999 999999 999999 999999 999999 999999 999999 999999 999999 999999 999999 999999 999999 999999 999999 999999 999999 999999 999999 999999 999999 0 999999 999999 999999 999999 999999 999999 999999 999999 999999 999999 999999 11433 17310 999999 999999 999999 18477 999999 999999 999999 999999 12473 999999 999999 19346 999999 999999 999999 999999 999999 10656 999999 999999 999999 999999 999999 999999 999999 999999 14906 999999 999999 13149 999999 11376 999999 999999 999999 999999 999999 999999 999999 999999 999999 999999 999999 14670 999999 999999 999999 999999 999999 17611 999999 999999 999999 999999 999999 999999 18218 999999 999999
999999 999999 999999 999999 999999 999999 999999 999999 999999 999999 999999 999999 999999 999999 999999 999999 999999 999999 999999 999999 999999 999999 999999 999999 999999 999999 999999 999999 999999 999999 999999 999999 999999 999999 999999 999999 999999 999999 999999 999999 999999 999999 999999 999999 999999 999999 999999 999999 999999 999999 0 999999 999999 999999 999999 999999 999999 999999 999999 999999 999999 17576 16248 999999 999999 999999 13118 999999 999999 999999 999999 16806 999999 999999 19081 999999 999999 999999 999999 999999 12948 999999 999999 999999 999999 999999 999999 999999 999999 18327 999999 999999 14175 999999 10189 999999 999999 999999 999999 999999 999999 999999 999999 999999 999999 999999 14318 999999 999999 999999 999999 999999 16514 999999 999999 999999 999999 999999 999999 18468 999999 999999
999999 999999 999999 999999 999999 999999 999999 999999 999999 999999 999999 999999 999999 999999 999999 999999 999999 999999 999999 999999 999999 999999 999999 999999 999999 999999 999999 999999 999999 999999 999999 999999 999999 999999 999999 999999 999999 999999 999999 999999 999999 999999 999999 999999 999999 999999 999999 999999 999999 999999 999999 0 999999 999999 999999 999999 999999 999999 999999 999999 999999 12122 12526 999999 999999 999999 10543 999999 999999 999999 999999 18542 999999 999999 18160 999999 999999 999999 999999 999999 13399 999999 999999 999999 999999 999999 999999 999999 999999 13620 999999 999999 12909 999999 13400 999999 999999 999999 999999 999999 999999 999999 999999 999999 999999 999999 13596 999999 999999 999999 999999 999999 11428 999999 999999 999999 999999 999999 999999 16957 999999 999999
999999 999999 999999 999999 999999 999999 999999 999999 999999 999999 999999 999999 999999 999999 999999 999999 999999 999999 999999 999999 999999 999999 999999 999999 999999 999999 999999 999999 999999 999999 999999 999999 999999 999999 999999 999999 999999 999999 999999 999999 999999 999999 999999 999999 999999 999999 999999 999999 999999 999999 999999 999999 0 999999 999999 999999 999999 999999 999999 999999 999999 12146 17838 999999 999999 999999 18373 999999 999999 999999 999999 10730 999999 999999 18858 999999 999999 999999 999999 999999 10843 999999 999999 999999 999999 999999 999999 999999 999999 16534 999999 999999 15736 999999 19062 999999 999999 999999 999999 999999 999999 999999 999999 999999 999999 999999 11664 999999 999999 999999 999999 999999 10680 999999 999999 999999 999999 999999 999999 13875 999999 999999
999999 999999 999999 999999 999999 999999 999999 999999 999999 999999 999999 999999 999999 999999 999999 999999 999999 999999 999999 999999 999999 999999 999999 999999 999999 999999 999999 999999 999999 999999 999999 999999 999999 999999 999999 999999 999999 999999 999999 999999 999999 999999 999999 999999 999999 999999 999999 999999 999999 999999 999999 999999 999999 0 999999 999999 999999 999999 999999 999999 999999 10883 10672 999999 999999 999999 17432 999999 999999 999999 999999 16602 999999 999999 18701 999999 999999 999999 999999 999999 13487 999999 999999 999999 999999 999999 999999 999999 999999 15783 999999 999999 15845 999999 16267 999999 999999 999999 999999 999999 999999 999999 999999 999999 999999 999999 12659 999999 999999 999999 999999 999999 13068 999999 999999 999999 999999 999999 999999 15327 999999 999999
999999 999999 999999 999999 999999 999999 999999 999999 999999 999999 999999 999999 999999 999999 999999 999999 999999 999999 999999 999999 999999 999999 999999 999999 999999 999999 999999 999999 999999 999999 999999 999999 999999 999999 999999 999999 999999 999999 999999 999999 999999 999999 999999 999999 999999 999999 999999 999999 999999 999999 999999 999999 999999 999999 0 999999 999999 999999 999999 999999 999999 17814 14528 999999 999999 999999 18483 999999 999999 999999 999999 10255 999999 999999 10344 999999 999999 999999 999999 999999 16171 999999 999999 999999 999999 999999 999999 999999 999999 19396 999999 999999 10722 999999 18943 999999 999999 999999 999999 999999 999999 999999 999999 999999 999999 999999 18425 999999 999999 999999 999999 999999 11698 999999 999999 999999 999999 999999 999999 16848 999999 999999
999999 999999 999999 999999 999999 999999 999999 999999 999999 999999 999999 999999 999999 999999 999999 999999 999999 999999 999999 999999 999999 999999 999999 999999 999999 999999 999999 999999 999999 999999 999999 999999 999999 999999 999999 999999 999999 999999 999999 999999 999999 999999 999999 999999 999999 999999 999999 999999 999999 999999 999999 999999 999999 999999 999999 0 999999 999999 999999 999999 999999 15141 13518 999999 999999 999999 18230 999999 999999 999999 999999 13675 999999 999999 17173 999999 999999 999999 999999 999999 15976 999999 999999 999999 999999 999999 999999 999999 999999 16370 999999 999999 12730 999999 18680 999999 999999 999999 999999 999999 999999 999999 999999 999999 999999 999999 15568 999999 999999 999999 999999 999999 16356 999999 999999 999999 999999 999999 999999 15394 999999 999999
999999 999999 999999 999999 999999 999999 999999 999999 999999 999999 999999 999999 999999 999999 999999 999999 999999 999999 999999 999999 999999 999999 999999 999999 999999 999999 999999 999999 999999 999999 999999 999999 999999 999999 999999 999999 999999 999999 999999 999999 999999 999999 999999 999999 999999 999999 999999 999999 999999 999999 999999 999999 999999 999999 999999 999999 0 999999 999999 999999 999999 11755 10149 999999 999999 999999 10300 999999 999999 999999 999999 19838 999999 999999 10136 999999 999999 999999 999999 999999 16964 999999 999999 999999 999999 999999 999999 999999 999999 14306 999999 999999 16983 999999 10113 999999 999999 999999 999999 999999 999999 999999 999999 999999 999999 999999 16457 999999 999999 999999 999999 999999 19019 999999 999999 999999 999999 999999 999999 12916 999999 999999
999999 999999 999999 999999 999999 999999 999999 999999 999999 999999 999999 999999 999999 999999 999999 999999 999999 999999 999999 999999 999999 999999 999999 999999 999999 999999 999999 999999 999999 999999 999999 999999 999999 999999 999999 999999 999999 999999 999999 999999 999999 999999 999999 999999 999999 999999 999999 999999 999999 999999 999999 999999 999999 999999 999999 999999 999999 0 999999 999999 999999 10415 19992 999999 999999 999999 19481 999999 999999 999999 999999 17823 999999 999999 11911 999999 999999 999999 999999 999999 16681 999999 999999 999999 999999 999999 999999 999999 999999 10480 999999 999999 10945 999999 13799 999999 999999 999999 999999 999999 999999 999999 999999 999999 999999 999999 12086 999999 999999 999999 999999 999999 10606 999999 999999 999999 999999 999999 999999 19276 999999 999999
999999 999999 999999 999999 999999 999999 999999 999999 999999 999999 999999 999999 999999 999999 999999 999999 999999 999999 999999 999999 999999 999999 999999 999999 999999 999999 999999 999999 999999 999999 999999 999999 999999 999999 999999 999999 999999 999999 999999 999999 999999 999999 999999 999999 999999 999999 999999 999999 999999 999999 999999 999999 999999 999999 999999 999999 999999 999999 0 999999 999999 17921 19146 999999 999999 999999 15575 999999 999999 999999 999999 10650 999999 999999 18396 999999 999999 999999 999999 999999 15446 999999 999999 999999 999999 999999 999999 999999 999999 15033 999999 999999 12738 999999 12565 999999 999999 999999 999999 999999 999999 999999 999999 999999 999999 999999 18101 999999 999999 999999 999999 999999 18476 999999 999999 999999 999999 999999 999999 18128 999999 999999
999999 999999 999999 999999 999999 999999 999999 999999 999999 999999 999999 999999 999999 999999 999999 999999 999999 999999 999999 999999 999999 999999 999999 999999 999999 999999 999999 999999 999999 999999 999999 999999 999999 999999 999999 999999 999999 999999 999999 999999 999999 999999 999999 999999 999999 999999 999999 999999 999999 999999 999999 999999 999999 999999 999999 999999 999999 999999 999999 0 999999 10494 10318 999999 999999 999999 16777 999999 999999 999999 999999 19823 999999 999999 10829 999999 999999 999999 999999 999999 16300 999999 999999 999999 999999 999999 999999 999999 999999 16703 999999 999999 14194 999999 16713 999999 999999 999999 999999 999999 999999 999999 999999 999999 999999 999999 18922 999999 999999 999999 999999 999999 17060 999999 999999 999999 999999 999999 999999 13586 999999 999999
999999 999999 999999 999999 999999 999999 999999 999999 999999 999999 999999 999999 999999 999999 999999 999999 999999 999999 999999 999999 999999 999999 999999 999999 999999 999999 999999 999999 999999 999999 999999 999999 999999 999999 999999 999999 999999 999999 999999 999999 999999 999999 999999 999999 999999 999999 999999 999999 999999 999999 999999 999999 999999 999999 999999 999999 999999 999999 999999 999999 0 15583 14910 999999 999999 999999 18828 999999 999999 999999 999999 16532 999999 999999 18968 999999 999999 999999 999999 999999 14078 999999 999999 999999 999999 999999 999999 999999 999999 11210 999999 999999 11621 999999 10590 999999 999999 999999 999999 999999 999999 999999 999999 999999 999999 999999 11282 999999 999999 999999 999999 999999 18735 999999 999999 999999 999999 999999 999999 14780 999999 999999
999999 14008 19986 11955 17709 11425 15201 15052 10491 14092 18864 11076 13613 10855 11179 10826 10214 18079 18884 13835 12519 18263 16430 16748 15844 19294 11264 12294 13138 17891 16455 18830 18822 14510 17365 11547 13583 14322 19814 15068 13519 18132 18230 18338 15643 14337 19449 10389 11382 11433 17576 12122 12146 10883 17814 15141 11755 10415 17921 10494 15583 0 999999 999999 999999 999999 999999 999999 999999 999999 999999 999999 999999 999999 999999 999999 999999 999999 999999 999999 999999 999999 999999 999999 999999 999999 999999 999999 999999 999999 999999 999999 999999 999999 999999 999999 999999 999999 999999 999999 999999 999999 999999 999999 999999 999999 999999 999999 999999 999999 999999 999999 999999 999999 999999 999999 999999 999999 999999 999999 999999 14773
999999 18596 15764 12222 13756 12585 19247 14401 14365 15926 18158 14006 17921 19081 17181 14932 17584 14392 16358 19544 19586 14711 19571 15903 15577 14249 10225 14959 17810 13813 11053 11521 16307 13388 10602 12953 13404 13774 15567 18519 15106 11586 15631 17362 12135 19633 19586 10211 12016 17310 16248 12526 17838 10672 14528 13518 10149 19992 19146 10318 14910 999999 0 999999 999999 999999 999999 999999 999999 999999 999999 999999 999999 999999 999999 999999 999999 999999 999999 999999 999999 999999 999999 999999 999999 999999 999999 999999 999999 999999 999999 999999 999999 999999 999999 999999 999999 999999 999999 999999 999999 999999 999999 999999 999999 999999 999999 999999 999999 999999 999999 999999 999999 999999 999999 999999 999999 999999 999999 999999 999999 11466
999999 10357 11421 17064 19267 19203 13241 14680 15869 15985 13282 16472 13476 12926 11851 12146 10456 10018 14985 19205 14682 11324 13236 10686 12080 17942 19783 13848 16348 11256 13950 12953 17981 14362 16410 11249 13734 11123 14446 14622 16362 17457 18072 18150 17576 11383 14998 18946 16162 10872 16775 12005 11062 14859 16189 14351 13331 13267 10946 14504 16690 999999 999999 0 999999 999999 999999 999999 999999 999999 999999 999999 999999 999999 999999 999999 999999 999999 999999 999999 999999 999999 999999 999999 999999 999999 999999 999999 999999 999999 999999 999999 999999 999999 999999 999999 999999 999999 999999 999999 999999 999999 999999 999999 999999 999999 999999 999999 999999 999999 999999 999999 999999 999999 999999 999999 999999 999999 999999 999999 999999 14016
999999 18228 12513 10642 14890 14304 11124 18330 12668 12461 14888 16948 19546 15615 17663 19639 14054 14177 15876 14862 10463 15018 17268 18607 15508 19339 14983 10217 15104 12618 19630 10444 11941 14253 17648 14455 10263 14728 16894 10805 15229 11715 11255 14908 18683 19002 14601 17191 19580 18925 12040 11648 14339 14395 13723 12244 10460 10095 15196 14063 10681 999999 999999 999999 0 999999 999999 999999 999999 999999 999999 999999 999999 999999 999999 999999 999999 999999 999999 999999 999999 999999 999999 999999 999999 999999 999999 999999 999999 999999 999999 999999 999999 999999 999999 999999 999999 999999 999999 999999 999999 999999 999999 999999 999999 999999 999999 999999 999999 999999 999999 999999 999999 999999 999999 999999 999999 999999 999999 999999 999999 6890
999999 16378 15093 14924 18525 15257 16163 14490 19935 17238 15906 19608 15289 12276 18002 10510 15976 17206 19033 19534 16533 11863 13645 10306 18432 14712 10917 10272 15401 10532 14093 16696 14818 17254 14553 19798 15589 13386 15321 19709 15317 16789 19908 16781 15622 19369 18432 16583 11562 18955 16917 18989 11313 15841 10177 15154 14288 11032 11059 12727 17566 999999 999999 999999 999999 0 999999 999999 999999 999999 999999 999999 999999 999999 999999 999999 999999 999999 999999 999999 999999 999999 999999 999999 999999 999999 999999 999999 999999 999999 999999 999999 999999 999999 999999 999999 999999 999999 999999 999999 999999 999999 999999 999999 999999 999999 999999 999999 999999 999999 999999 999999 999999 999999 999999 999999 999999 999999 999999 999999 999999 6628
999999 17827 17363 17558 17917 10797 15125 10296 13902 19762 17265 19740 16365 10255 16439 14396 14472 16008 12193 11108 10764 17677 18854 14479 15400 12923 19606 19888 11939 15550 16550 10303 14320 15255 12379 15735 19140 13245 11589 11718 11619 12078 11589 13125 13547 12313 10299 10449 14481 18477 13118 10543 18373 17432 18483 18230 10300 19481 15575 16777 18828 999999 999999 999999 999999 999999 0 999999 999999 999999 999999 999999 999999 999999 999999 999999 999999 999999 999999 999999 999999 999999 999999 999999 999999 999999 999999 999999 999999 999999 999999 999999 999999 999999 999999 999999 999999 999999 999999 999999 999999 999999 999999 999999 999999 999999 999999 999999 999999 999999 999999 999999 999999 999999 999999 999999 999999 999999 999999 999999 999999 7543
999999 15067 15430 18944 13686 17146 15391 16147 10740 15568 18633 12086 19894 13499 10900 11675 18403 10533 18725 14006 15066 19191 16297 12078 13929 18926 11558 14618 11346 17623 10985 15191 16794 12047 12846 15074 17298 13079 15028 11280 19236 13388 13830 19081 19349 13360 19345 17330 11917 13244 10376 10855 12593 13298 13116 13489 17621 17439 16213 15570 15289 999999 999999 999999 999999 999999 999999 0 999999 999999 999999 999999 999999 999999 999999 999999 999999 999999 999999 999999 999999 999999 999999 999999 999999 999999 999999 999999 999999 999999 999999 999999 999999 999999 999999 999999 999999 999999 999999 999999 999999 999999 999999 999999 999999 999999 999999 999999 999999 999999 999999 999999 999999 999999 999999 999999 999999 999999 999999 999999 999999 12498
999999 10852 11004 12811 17719 10661 15188 15920 10013 10694 16997 16772 14448 17239 11779 18886 12470 15832 17617 11611 12132 12100 13952 13163 16279 11647 16353 15006 12458 19469 15868 18782 10697 16418 10780 12611 19336 13643 12140 12714 16582 11248 11331 16551 19346 12754 14385 13539 15743 15449 12429 11146 13072 18541 11310 11619 11091 16181 12494 18537 19762 999999 999999 999999 999999 999999 999999 999999 0 999999 999999 999999 999999 999999 999999 999999 999999 999999 999999 999999 999999 999999 999999 999999 999999 999999 999999 999999 999999 999999 999999 999999 999999 999999 999999 999999 999999 999999 999999 999999 999999 999999 999999 999999 999999 999999 999999 999999 999999 999999 999999 999999 999999 999999 999999 999999 999999 999999 999999 999999 999999 14595
999999 15745 10259 14691 17576 12919 16254 19019 14539 11321 11489 11445 15004 14817 18663 10128 19579 13706 17559 18355 13440 14241 11393 10759 12356 19139 16631 17641 16683 16497 12436 15919 16702 15665 10306 19603 10346 15152 14213 11791 17932 15095 15769 13803 14180 14661 19038 14499 13176 12060 13917 15625 16126 14581 19501 10039 12807 10649 12323 12124 19766 999999 999999 999999 999999 999999 999999 999999 999999 0 999999 999999 999999 999999 999999 999999 999999 999999 999999 999999 999999 999999 999999 999999 999999 999999 999999 999999 999999 999999 999999 999999 999999 999999 999999 999999 999999 999999 999999 999999 999999 999999 999999 999999 999999 999999 999999 999999 999999 999999 999999 999999 999999 999999 999999 999999 999999 999999 999999 999999 999999 11928
999999 17193 10666 16085 17180 13120 15088 11342 18039 11665 17327 12033 15921 11266 19303 17931 10223 14754 17202 12785 19094 12376 12104 12151 15083 16444 15186 15352 19287 19929 19918 18073 18254 10527 18896 16868 15155 14478 19546 13157 11621 12581 17889 14713 11461 16273 17283 17107 19293 11687 13600 15309 13949 11117 12492 11607 19746 12745 14541 17830 16946 999999 999999 999999 999999 999999 999999 999999 999999 999999 0 999999 999999 999999 999999 999999 999999 999999 999999 999999 999999 999999 999999 999999 999999 999999 999999 999999 999999 999999 999999 999999 999999 999999 999999 999999 999999 999999 999999 999999 999999 999999 999999 999999 999999 999999 999999 999999 999999 999999 999999 999999 999999 999999 999999 999999 999999 999999 999999 999999 999999 10258
999999 11907 12666 15068 18474 19096 12605 10846 14512 18193 17024 19823 11648 12269 13409 19648 10387 18852 10073 10268 12962 16314 16784 17983 17961 10652 14771 15601 10461 19418 18598 18619 13463 12325 14062 10417 17511 16914 11974 14954 19419 11046 18739 13226 19956 16663 16492 14414 10180 12473 16806 18542 10730 16602 10255 13675 19838 17823 10650 19823 16532 999999 999999 999999 999999 999999 999999 999999 999999 999999 999999 0 999999 999999 999999 999999 999999 999999 999999 999999 999999 999999 999999 999999 999999 999999 999999 999999 999999 999999 999999 999999 999999 999999 999999 999999 999999 999999 999999 999999 999999 999999 999999 999999 999999 999999 999999 999999 999999 999999 999999 999999 999999 999999 999999 999999 999999 999999 999999 999999 999999 14744
999999 17397 15802 17454 17344 15743 16296 10411 17356 10803 16810 11400 18215 13906 12852 15819 11959 12272 15293 15292 10020 12293 13821 10296 10731 17507 16366 17132 18125 18326 12599 13927 13958 15499 16106 12935 11485 14586 17368 16271 11200 17726 13302 19759 14925 15812 17613 11469 19464 15634 14918 13235 12674 17542 10423 11706 18394 14971 14213 10206 10033 999999 999999 999999 999999 999999 999999 999999 999999 999999 999999 999999 0 999999 999999 999999 999999 999999 999999 999999 999999 999999 999999 999999 999999 999999 999999 999999 999999 999999 999999 999999 999999 999999 999999 999999 999999 999999 999999 999999 999999 999999 999999 999999 999999 999999 999999 999999 999999 999999 999999 999999 999999 999999 999999 999999 999999 999999 999999 999999 999999 7686
999999 11257 16515 13607 19476 18572 10521 19274 18982 14761 18739 17879 13708 15108 15597 15914 11452 10743 11547 16494 13414 10602 16715 14964 18283 17580 17386 17507 10784 12076 19847 11590 17381 18132 12042 16106 10655 13992 14955 16906 12126 14214 17552 15448 16217 19168 11842 17631 13155 10894 13133 15037 14677 11012 14407 10693 19483 18617 19662 15032 17507 999999 999999 999999 999999 999999 999999 999999 999999 999999 999999 999999 999999 0 999999 999999 999999 999999 999999 999999 999999 999999 999999 999999 999999 999999 999999 999999 999999 999999 999999 999999 999999 999999 999999 999999 999999 999999 999999 999999 999999 999999 999999 999999 999999 999999 999999 999999 999999 999999 999999 999999 999999 999999 999999 999999 999999 999999 999999 999999 999999 14801
999999 10640 19617 15745 14066 13785 15941 19430 16157 18158 16825 13368 10618 13139 10345 18797 15389 16510 13983 12455 13820 19401 18634 13603 10251 18270 10566 11150 18247 13723 15797 15034 13888 11382 15337 19497 11561 18686 17237 10554 19453 10891 19789 12337 13024 13230 16841 14952 16170 19346 19081 18160 18858 18701 10344 17173 10136 11911 18396 10829 18968 999999 999999 999999 999999 999999 999999 999999 999999 999999 999999 999999 999999 999999 0 999999 999999 999999 999999 999999 999999 999999 999999 999999 999999 999999 999999 999999 999999 999999 999999 999999 999999 999999 999999 999999 999999 999999 999999 999999 999999 999999 999999 999999 999999 999999 999999 999999 999999 999999 999999 999999 999999 999999 999999 999999 999999 999999 999999 999999 999999 7929
999999 17287 12130 18329 10762 19118 18370 17163 12544 15551 10721 10409 18564 17012 17160 15868 12805 19480 14127 11714 11898 14939 19738 17485 19873 13071 12631 14756 13744 15641 17863 11189 19640 17963 14951 18423 19359 14528 11748 12108 12029 10473 15093 13263 11635 14964 12376 16580 16857 17586 16854 15171 16098 11589 16784 17063 19799 12609 11252 19214 16009 999999 999999 999999 999999 999999 999999 999999 999999 999999 999999 999999 999999 999999 999999 0 999999 999999 999999 999999 999999 999999 999999 999999 999999 999999 999999 999999 999999 999999 999999 999999 999999 999999 999999 999999 999999 999999 999999 999999 999999 999999 999999 999999 999999 999999 999999 999999 999999 999999 999999 999999 999999 999999 999999 999999 999999 999999 999999 999999 999999 6337
999999 10085 10036 12240 15875 15271 14057 17068 11029 10102 14064 17368 11237 13605 16135 18517 16856 13253 12461 18855 11428 15534 17535 13298 15507 15467 20000 14225 10182 14528 19208 14376 16270 15985 16252 18161 12777 12782 11151 17107 18838 16116 19542 19575 12606 17482 17931 16963 18840 17282 11585 11401 19961 15677 10757 12685 14354 18569 11221 11406 14605 999999 999999 999999 999999 999999 999999 999999 999999 999999 999999 999999 999999 999999 999999 999999 0 999999 999999 999999 999999 999999 999999 999999 999999 999999 999999 999999 999999 999999 999999 999999 999999 999999 999999 999999 999999 999999 999999 999999 999999 999999 999999 999999 999999 999999 999999 999999 999999 999999 999999 999999 999999 999999 999999 999999 999999 999999 999999 999999 999999 6879
999999 16304 13848 10243 16058 14971 15304 14294 16056 16385 17139 10896 19482 11938 16446 17383 19502 10561 17178 13958 17102 16948 13203 12481 17744 15843 15542 14335 11023 11840 11029 14289 19926 18281 17686 13959 14682 13112 17542 18878 11943 16046 15662 15168 16457 19262 19704 12631 16175 13577 14324 10446 14024 12989 13073 10284 12871 14136 11731 15492 13406 999999 999999 999999 999999 999999 999999 999999 999999 999999 999999 999999 999999 999999 999999 999999 999999 0 999999 999999 999999 999999 999999 999999 999999 999999 999999 999999 999999 999999 999999 999999 999999 999999 999999 999999 999999 999999 999999 999999 999999 999999 999999 999999 999999 999999 999999 999999 999999 999999 999999 999999 999999 999999 999999 999999 999999 999999 999999 999999 999999 6294
999999 18221 15198 15704 15176 18436 11399 16340 11686 13167 16337 10613 13347 10042 17453 16188 16132 10611 15890 13953 10064 14895 11701 10069 19925 12085 16919 18279 14628 13869 14418 14046 16152 18853 19003 17899 14936 19991 18017 13404 17739 13650 13974 13523 15176 19760 12975 12243 16438 11703 16842 14230 10219 16761 11704 14190 10003 14387 16120 15916 11548 999999 999999 999999 999999 999999 999999 999999 999999 999999 999999 999999 999999 999999 999999 999999 999999 999999 0 999999 999999 999999 999999 999999 999999 999999 999999 999999 999999 999999 999999 999999 999999 999999 999999 999999 999999 999999 999999 999999 999999 999999 999999 999999 999999 999999 999999 999999 999999 999999 999999 999999 999999 999999 999999 999999 999999 999999 999999 999999 999999 8884
999999 14777 18830 13329 15765 17856 13623 12418 18725 14379 10781 11438 11481 13795 11637 14508 12326 11674 18850 16514 10554 11875 16576 19704 14625 16818 13268 11324 12504 13305 18779 15002 11676 18018 17123 19706 17017 14434 17367 19349 14873 15438 14010 19946 16808 13628 12005 15991 16595 12646 13855 13726 14209 13535 17846 12451 10313 10788 13878 18740 14887 999999 999999 999999 999999 999999 999999 999999 999999 999999 999999 999999 999999 999999 999999 999999 999999 999999 999999 0 999999 999999 999999 999999 999999 999999 999999 999999 999999 999999 999999 999999 999999 999999 999999 999999 999999 999999 999999 999999 999999 999999 999999 999999 999999 999999 999999 999999 999999 999999 999999 999999 999999 999999 999999 999999 999999 999999 999999 999999 999999 6528
999999 17365 17873 18720 12705 16130 13188 13438 16870 18364 12739 10778 14565 15337 18606 17428 10653 17293 10116 11863 16846 19961 14574 12666 11920 17581 17619 19997 19495 15029 16922 14766 16132 16538 18134 11133 19070 18832 11031 15270 19821 14465 15216 17569 11098 12019 10996 15635 13270 10656 12948 13399 10843 13487 16171 15976 16964 16681 15446 16300 14078 999999 999999 999999 999999 999999 999999 999999 999999 999999 999999 999999 999999 999999 999999 999999 999999 999999 999999 999999 0 999999 999999 999999 999999 999999 999999 999999 999999 999999 999999 999999 999999 999999 999999 999999 999999 999999 999999 999999 999999 999999 999999 999999 999999 999999 999999 999999 999999 999999 999999 999999 999999 999999 999999 999999 999999 999999 999999 999999 999999 11082
999999 13015 13928 14547 19185 15800 11991 14687 10186 19490 10793 15839 15071 17912 14106 17191 16427 18631 13376 11654 17928 17086 14727 18008 12872 15204 14362 11245 10609 11989 17103 17093 11948 10765 17912 11638 18854 12510 12693 12536 13997 18753 14350 17608 19639 12781 11815 13619 13118 16973 13469 19902 17748 11669 17586 15737 13796 11761 16242 12751 10702 999999 999999 999999 999999 999999 999999 999999 999999 999999 999999 999999 999999 999999 999999 999999 999999 999999 999999 999999 999999 0 999999 999999 999999 999999 999999 999999 999999 999999 999999 999999 999999 999999 999999 999999 999999 999999 999999 999999 999999 999999 999999 999999 999999 999999 999999 999999 999999 999999 999999 999999 999999 999999 999999 999999 999999 999999 999999 999999 999999 11180
999999 17703 15892 17255 16931 15652 18866 18938 16471 13719 18652 14264 12078 15947 13733 11010 10288 17065 17065 16560 17321 13692 13579 15952 15838 10214 10317 16642 11938 18605 15944 15987 12191 16489 13532 14692 10478 15818 15656 12892 13686 13586 15430 19308 13502 16949 19575 11586 19469 17051 15460 10057 14539 17866 17689 13945 16057 14235 13947 10357 10350 999999 999999 999999 999999 999999 999999 999999 999999 999999 999999 999999 999999 999999 999999 999999 999999 999999 999999 999999 999999 999999 0 999999 999999 999999 999999 999999 999999 999999 999999 999999 999999 999999 999999 999999 999999 999999 999999 999999 999999 999999 999999 999999 999999 999999 999999 999999 999999 999999 999999 999999 999999 999999 999999 999999 999999 999999 999999 999999 999999 8886
999999 17474 16007 11333 14688 13631 12104 13307 16436 11550 16497 19842 14391 10889 10706 18659 19557 13824 18382 11221 18338 10361 16155 13877 11214 15168 13385 19128 15964 10168 10082 12755 13028 11972 18637 15918 15549 16468 17633 16931 11867 16971 13306 16504 17479 17887 19105 11740 13154 12200 13938 17914 11003 15078 13571 13017 15730 11203 14916 15768 14193 999999 999999 999999 999999 999999 999999 999999 999999 999999 999999 999999 999999 999999 999999 999999 999999 999999 999999 999999 999999 999999 999999 0 999999 999999 999999 999999 999999 999999 999999 999999 999999 999999 999999 999999 999999 999999 999999 999999 999999 999999 999999 999999 999999 999999 999999 999999 999999 999999 999999 999999 999999 999999 999999 999999 999999 999999 999999 999999 999999 10558
999999 17631 15762 18820 19234 16333 18969 16780 18356 17897 13733 10512 14165 11384 18890 19563 13014 11812 15334 17857 13418 13337 10751 18641 17469 12379 11616 19374 17958 12825 15263 14832 10755 17534 14360 14318 13729 19711 15110 11923 19543 11621 16971 15963 13757 10293 14786 17736 18963 18003 14664 18272 14858 16921 19123 18623 17175 14858 13790 11481 13144 999999 999999 999999 999999 999999 999999 999999 999999 999999 999999 999999 999999 999999 999999 999999 999999 999999 999999 999999 999999 999999 999999 999999 0 999999 999999 999999 999999 999999 999999 999999 999999 999999 999999 999999 999999 999999 999999 999999 999999 999999 999999 999999 999999 999999 999999 999999 999999 999999 999999 999999 999999 999999 999999 999999 999999 999999 999999 999999 999999 14930
999999 10307 16232 10364 18397 15997 15602 13425 17013 16568 19944 12788 14923 18426 13990 19785 19048 12242 12951 15358 10132 15174 10565 15778 16116 11964 19406 10793 16058 15013 16509 16202 19213 15933 18953 10828 15291 19362 16896 18599 16984 17272 14208 12547 16068 12022 10848 15699 16772 10641 13037 18088 18186 17497 18178 13305 17472 16247 11353 19973 18468 999999 999999 999999 999999 999999 999999 999999 999999 999999 999999 999999 999999 999999 999999 999999 999999 999999 999999 999999 999999 999999 999999 999999 999999 0 999999 999999 999999 999999 999999 999999 999999 999999 999999 999999 999999 999999 999999 999999 999999 999999 999999 999999 999999 999999 999999 999999 999999 999999 999999 999999 999999 999999 999999 999999 999999 999999 999999 999999 999999 5867
999999 17660 19443 15793 16614 16115 19573 12011 13206 18986 13784 11140 18203 19248 10704 16360 18323 17700 13583 10114 10254 15530 14731 16328 14175 15824 17968 14063 14649 16460 11924 10963 15454 17046 16595 18222 18342 13920 13875 19751 15560 10382 19802 15023 15981 18258 18520 19370 16408 17503 17701 14724 10801 11576 13990 16228 16951 17820 11392 17962 17708 999999 999999 999999 999999 999999 999999 999999 999999 999999 999999 999999 999999 999999 999999 999999 999999 999999 999999 999999 999999 999999 999999 999999 999999 999999 0 999999 999999 999999 999999 999999 999999 999999 999999 999999 999999 999999 999999 999999 999999 999999 999999 999999 999999 999999 999999 999999 999999 999999 999999 999999 999999 999999 999999 999999 999999 999999 999999 999999 999999 6141
999999 17412 15685 11137 14155 12881 14321 19883 11705 19187 14088 18118 18493 12563 16786 11094 12482 17175 19728 18765 19449 10956 18210 14647 10926 15493 17108 11950 10565 15230 14582 19782 12465 14640 10672 14404 16931 17820 19230 12185 14452 13786 19422 18968 16072 14754 13149 15357 12298 17613 15070 12935 17796 13075 15386 18310 17207 17175 18110 10489 14990 999999 999999 999999 999999 999999 999999 999999 999999 999999 999999 999999 999999 999999 999999 999999 999999 999999 999999 999999 999999 999999 999999 999999 999999 999999 999999 0 999999 999999 999999 999999 999999 999999 999999 999999 999999 999999 999999 999999 999999 999999 999999 999999 999999 999999 999999 999999 999999 999999 999999 999999 999999 999999 999999 999999 999999 999999 999999 999999 999999 11292
999999 19733 17210 19276 18792 14760 12269 11947 10968 19971 19887 17217 16030 15908 13197 10253 17844 12462 17760 19610 18017 14846 17609 13048 12683 10549 12784 14290 19764 14733 10482 11311 14148 15022 16371 12758 14591 17466 14784 17576 16966 10415 13264 11898 10979 17886 11271 15129 18749 14633 14805 19621 12075 18459 17638 16881 14206 16397 17210 11884 14505 999999 999999 999999 999999 999999 999999 999999 999999 999999 999999 999999 999999 999999 999999 999999 999999 999999 999999 999999 999999 999999 999999 999999 999999 999999 999999 999999 0 999999 999999 999999 999999 999999 999999 999999 999999 999999 999999 999999 999999 999999 999999 999999 999999 999999 999999 999999 999999 999999 999999 999999 999999 999999 999999 999999 999999 999999 999999 999999 999999 13002
999999 10601 19520 15729 10533 17994 14013 15687 16463 17422 15958 14304 19003 17724 15236 15703 15094 13050 10938 13079 11128 10269 17352 17845 19097 16962 13920 19079 14844 19861 15527 14634 18228 10074 19163 13307 12357 17127 16624 17469 11171 16697 12400 18199 17841 15388 17122 10391 14306 14906 18327 13620 16534 15783 19396 16370 14306 10480 15033 16703 11210 999999 999999 999999 999999 999999 999999 999999 999999 999999 999999 999999 999999 999999 999999 999999 999999 999999 999999 999999 999999 999999 999999 999999 999999 999999 999999 999999 999999 0 999999 999999 999999 999999 999999 999999 999999 999999 999999 999999 999999 999999 999999 999999 999999 999999 999999 999999 999999 999999 999999 999999 999999 999999 999999 999999 999999 999999 999999 999999 999999 12533
999999 14410 14809 12456 14237 12731 14153 17116 13954 16788 18041 12724 13543 13431 16452 10141 12429 15890 16322 13327 14084 13155 19719 11225 15832 13014 17998 12941 12970 13645 16955 16546 11341 17943 19379 18769 10878 14104 12484 18317 13242 14043 15443 19909 13725 15337 17081 16377 17377 11036 16024 10503 16121 12799 15155 19433 16775 10624 19335 13264 17615 999999 999999 999999 999999 999999 999999 999999 999999 999999 999999 999999 999999 999999 999999 999999 999999 999999 999999 999999 999999 999999 999999 999999 999999 999999 999999 999999 999999 999999 0 999999 999999 999999 999999 999999 999999 999999 999999 999999 999999 999999 999999 999999 999999 999999 999999 999999 999999 999999 999999 999999 999999 999999 999999 999999 999999 999999 999999 999999 999999 13455
999999 17459 12334 10285 12692 17027 18555 12609 14998 16365 14322 15272 11274 13282 14504 15913 13827 16083 14359 12953 16638 17097 12451 12103 14651 16257 19022 12602 12431 11509 17037 16701 19896 16751 11708 18041 12506 17063 17562 19780 12244 16309 13084 19174 11068 14133 11647 17244 15724 17144 12975 10982 15020 18041 18485 11627 17610 19601 18081 14483 17985 999999 999999 999999 999999 999999 999999 999999 999999 999999 999999 999999 999999 999999 999999 999999 999999 999999 999999 999999 999999 999999 999999 999999 999999 999999 999999 999999 999999 999999 999999 0 999999 999999 999999 999999 999999 999999 999999 999999 999999 999999 999999 999999 999999 999999 999999 999999 999999 999999 999999 999999 999999 999999 999999 999999 999999 999999 999999 999999 999999 13554
999999 11332 10543 18331 13992 18752 17061 11661 11458 11834 12128 13238 15567 12547 14356 11328 10323 10861 17284 14020 14575 12478 15250 13115 11378 19765 14368 16247 15526 10065 14389 15052 11938 16983 17762 12693 15850 14393 16467 12469 15619 14406 16634 11415 14271 18257 16538 15603 10331 13149 14175 12909 15736 15845 10722 12730 16983 10945 12738 14194 11621 999999 999999 999999 999999 999999 999999 999999 999999 999999 999999 999999 999999 999999 999999 999999 999999 999999 999999 999999 999999 999999 999999 999999 999999 999999 999999 999999 999999 999999 999999 999999 0 999999 999999 999999 999999 999999 999999 999999 999999 999999 999999 999999 999999 999999 999999 999999 999999 999999 999999 999999 999999 999999 999999 999999 999999 999999 999999 999999 999999 7162
999999 16624 11746 17604 14295 11244 18221 11687 17439 10279 14779 13318 12308 11589 19240 17805 19889 17869 11893 10680 17304 12914 13222 15535 14067 11781 11718 12807 13149 18571 14805 16958 11693 19921 15955 10756 16659 17260 15989 11404 18706 13764 14275 16387 18310 19866 10131 19525 15672 17994 11248 13862 19186 19795 18039 11496 16965 18470 12437 17383 11164 999999 999999 999999 999999 999999 999999 999999 999999 999999 999999 999999 999999 999999 999999 999999 999999 999999 999999 999999 999999 999999 999999 999999 999999 999999 999999 999999 999999 999999 999999 999999 999999 0 999999 999999 999999 999999 999999 999999 999999 999999 999999 999999 999999 999999 999999 999999 999999 999999 999999 999999 999999 999999 999999 999999 999999 999999 999999 999999 999999 5505
999999 13298 17650 19771 12864 10679 17338 18343 16915 12068 16250 18476 17161 14681 10248 17732 15142 12540 16049 18447 15048 12671 19729 17529 18001 15609 15249 15990 13617 14031 18595 14278 14519 19604 11080 19494 12995 13222 14703 17580 14786 19542 18251 11205 11607 18528 17303 15985 15918 11376 10189 13400 19062 16267 18943 18680 10113 13799 12565 16713 10590 999999 999999 999999 999999 999999 999999 999999 999999 999999 999999 999999 999999 999999 999999 999999 999999 999999 999999 999999 999999 999999 999999 999999 999999 999999 999999 999999 999999 999999 999999 999999 999999 999999 0 999999 999999 999999 999999 999999 999999 999999 999999 999999 999999 999999 999999 999999 999999 999999 999999 999999 999999 999999 999999 999999 999999 999999 999999 999999 999999 13091
999999 11222 16283 16513 15008 16281 11830 16514 11355 11638 19254 10471 16187 17539 10498 10520 11004 19935 14509 15934 17121 14810 19754 19797 11487 10791 13334 13934 12857 17884 14926 12403 18303 11316 14573 15677 17058 13347 14006 13820 14761 16591 11487 12333 12429 12358 12287 19995 13755 10746 10474 13307 17828 15199 19658 13786 16093 18207 10104 12184 18030 999999 999999 999999 999999 999999 999999 999999 999999 999999 999999 999999 999999 999999 999999 999999 999999 999999 999999 999999 999999 999999 999999 999999 999999 999999 999999 999999 999999 999999 999999 999999 999999 999999 999999 0 999999 999999 999999 999999 999999 999999 999999 999999 999999 999999 999999 999999 999999 999999 999999 999999 999999 999999 999999 999999 999999 999999 999999 999999 999999 6393
999999 16975 14125 18993 19715 12757 19278 15976 19849 13592 17626 19675 15629 16283 11669 19283 15277 15370 16847 15296 15196 10428 18458 18834 12661 17176 10175 12315 10648 17146 15947 11855 12758 19864 12148 15833 14695 10480 19324 10109 17288 18432 12099 18641 14549 12564 19544 11816 16665 19153 11864 17412 11470 19932 14876 16153 14574 10501 19591 19372 17295 999999 999999 999999 999999 999999 999999 999999 999999 999999 999999 999999 999999 999999 999999 999999 999999 999999 999999 999999 999999 999999 999999 999999 999999 999999 999999 999999 999999 999999 999999 999999 999999 999999 999999 999999 0 999999 999999 999999 999999 999999 999999 999999 999999 999999 999999 999999 999999 999999 999999 999999 999999 999999 999999 999999 999999 999999 999999 999999 999999 9658
999999 19695 10138 18653 12418 14022 18412 13987 12215 15148 13361 19871 17603 19277 12014 13360 11184 16799 18737 11689 18837 11791 16074 17235 16970 14558 17264 12371 18305 15196 14865 17783 17845 18798 10246 16106 16049 15284 13260 17492 16902 11184 16055 10724 14648 16617 19805 14499 10850 19399 13378 13776 10165 19640 18846 11433 13063 12191 17917 17098 18913 999999 999999 999999 999999 999999 999999 999999 999999 999999 999999 999999 999999 999999 999999 999999 999999 999999 999999 999999 999999 999999 999999 999999 999999 999999 999999 999999 999999 999999 999999 999999 999999 999999 999999 999999 999999 0 999999 999999 999999 999999 999999 999999 999999 999999 999999 999999 999999 999999 999999 999999 999999 999999 999999 999999 999999 999999 999999 999999 999999 7588
999999 15178 18227 13612 18620 12373 14127 16028 11356 15972 10994 18484 17311 11474 11612 11850 11079 17461 16771 11824 15758 12142 12196 18427 13014 17191 10966 18989 12017 14862 13826 10773 12136 17082 14831 17211 12359 13009 18556 17924 14239 12869 17282 11569 15436 15952 17263 12643 18970 18785 15498 12678 19815 11332 18344 18624 17524 11096 13655 18354 11519 999999 999999 999999 999999 999999 999999 999999 999999 999999 999999 999999 999999 999999 999999 999999 999999 999999 999999 999999 999999 999999 999999 999999 999999 999999 999999 999999 999999 999999 999999 999999 999999 999999 999999 999999 999999 999999 0 999999 999999 999999 999999 999999 999999 999999 999999 999999 999999 999999 999999 999999 999999 999999 999999 999999 999999 999999 999999 999999 999999 13495
999999 17551 16777 14778 11120 11320 12713 15431 17198 16196 12104 19397 19220 12602 14950 10618 10555 15111 18570 12238 18318 13665 13469 13635 12869 10122 15110 11780 14485 16418 13350 17130 13733 11403 11146 16989 10036 10043 12543 17156 17007 12611 12494 14677 19352 10442 19965 12479 14176 19826 16392 17907 18352 16715 17471 12016 11251 15091 16749 11970 18537 999999 999999 999999 999999 999999 999999 999999 999999 999999 999999 999999 999999 999999 999999 999999 999999 999999 999999 999999 999999 999999 999999 999999 999999 999999 999999 999999 999999 999999 999999 999999 999999 999999 999999 999999 999999 999999 999999 0 999999 999999 999999 999999 999999 999999 999999 999999 999999 999999 999999 999999 999999 999999 999999 999999 999999 999999 999999 999999 999999 6755
999999 14876 18357 10356 14851 17101 14569 15320 12691 17730 13286 13482 13190 14889 10781 18499 19501 13890 18714 18265 15323 14778 11710 15412 14267 17296 12093 11377 13896 18936 13289 10325 16347 12160 18761 12592 18883 10686 14328 19880 16643 11474 11301 16267 15762 13075 14960 14867 13655 16977 13013 18496 15227 10953 19757 16332 18874 11972 15225 13429 19235 999999 999999 999999 999999 999999 999999 999999 999999 999999 999999 999999 999999 999999 999999 999999 999999 999999 999999 999999 999999 999999 999999 999999 999999 999999 999999 999999 999999 999999 999999 999999 999999 999999 999999 999999 999999 999999 999999 999999 0 999999 999999 999999 999999 999999 999999 999999 999999 999999 999999 999999 999999 999999 999999 999999 999999 999999 999999 999999 999999 10907
999999 11680 16341 19675 12177 10199 11967 11396 15393 12300 15004 12475 13958 14886 12150 13696 19870 18582 19072 16923 14063 15156 16419 11393 15085 15099 19961 12658 10582 18887 10500 12731 16408 12048 11097 16175 16771 16145 17874 13624 12940 18326 19535 10144 19634 10041 12528 14807 19113 16177 16299 13921 18268 19415 17865 12624 16375 19225 19493 19244 16195 999999 999999 999999 999999 999999 999999 999999 999999 999999 999999 999999 999999 999999 999999 999999 999999 999999 999999 999999 999999 999999 999999 999999 999999 999999 999999 999999 999999 999999 999999 999999 999999 999999 999999 999999 999999 999999 999999 999999 999999 0 999999 999999 999999 999999 999999 999999 999999 999999 999999 999999 999999 999999 999999 999999 999999 999999 999999 999999 999999 11014
999999 19246 15430 17420 19599 18745 14570 11936 14808 16630 15593 13035 11923 14339 16992 19300 18170 15581 12975 12982 19682 12472 10840 14396 12647 19512 16659 16442 10095 18925 19172 13849 18448 15102 14051 11660 16812 10229 13814 15337 10588 16567 13349 18890 11058 12574 15965 14626 19550 17563 14419 14903 12341 18489 12132 17230 10464 12949 10312 10027 17715 999999 999999 999999 999999 999999 999999 999999 999999 999999 999999 999999 999999 999999 999999 999999 999999 999999 999999 999999 999999 999999 999999 999999 999999 999999 999999 999999 999999 999999 999999 999999 999999 999999 999999 999999 999999 999999 999999 999999 999999 999999 0 999999 999999 999999 999999 999999 999999 999999 999999 999999 999999 999999 999999 999999 999999 999999 999999 999999 999999 14141
999999 18920 14992 16024 10463 12092 16925 18877 19644 14422 14607 17645 12616 15352 11577 19929 16702 13569 15566 13428 11199 18069 15415 13545 10578 10121 13867 12056 18763 14575 17717 14483 15183 16810 16037 14319 16541 10881 19033 15780 15924 16269 18450 13946 11449 15571 15275 16431 18859 12603 16947 11854 13471 11923 11921 19532 11008 10333 19835 11041 12990 999999 999999 999999 999999 999999 999999 999999 999999 999999 999999 999999 999999 999999 999999 999999 999999 999999 999999 999999 999999 999999 999999 999999 999999 999999 999999 999999 999999 999999 999999 999999 999999 999999 999999 999999 999999 999999 999999 999999 999999 999999 999999 0 999999 999999 999999 999999 999999 999999 999999 999999 999999 999999 999999 999999 999999 999999 999999 999999 999999 10934
999999 17668 18436 17077 11182 11787 14369 16237 14654 11599 12041 12374 19478 10175 19749 19438 12569 12849 10407 18119 14355 12946 12289 13713 12267 18810 19806 19965 10970 11345 12744 18919 10699 12746 17106 15863 17004 16917 17351 16284 19592 15544 11405 18851 14866 19853 14154 13671 14619 11962 18168 11917 16516 17176 15449 19266 11443 12972 18851 15122 16163 999999 999999 999999 999999 999999 999999 999999 999999 999999 999999 999999 999999 999999 999999 999999 999999 999999 999999 999999 999999 999999 999999 999999 999999 999999 999999 999999 999999 999999 999999 999999 999999 999999 999999 999999 999999 999999 999999 999999 999999 999999 999999 999999 0 999999 999999 999999 999999 999999 999999 999999 999999 999999 999999 999999 999999 999999 999999 999999 999999 11631
999999 18633 16745 19412 13056 13609 13440 15377 14033 17729 17131 19910 19612 13602 16560 10607 13191 14085 19284 19886 16844 18302 11572 14505 17848 11086 15741 14338 12422 14172 19128 12501 19806 13295 19341 10982 14738 10375 16162 18371 15651 18870 16366 16965 19080 19470 11739 14426 15722 13933 16909 11156 18072 12400 19368 10424 17179 10055 17276 14126 13905 999999 999999 999999 999999 999999 999999 999999 999999 999999 999999 999999 999999 999999 999999 999999 999999 999999 999999 999999 999999 999999 999999 999999 999999 999999 999999 999999 999999 999999 999999 999999 999999 999999 999999 999999 999999 999999 999999 999999 999999 999999 999999 999999 999999 0 999999 999999 999999 999999 999999 999999 999999 999999 999999 999999 999999 999999 999999 999999 999999 14596
999999 18317 14033 16498 19538 11361 13867 18267 17316 17162 18997 17437 15472 16194 14699 15341 17446 18934 11736 10022 18361 13660 13827 11798 13869 16209 13468 16418 14001 13112 14736 15641 14227 17108 15879 17766 15595 16650 17388 14274 14196 14019 15137 15156 18539 11177 10174 10079 16451 14670 14318 13596 11664 12659 18425 15568 16457 12086 18101 18922 11282 999999 999999 999999 999999 999999 999999 999999 999999 999999 999999 999999 999999 999999 999999 999999 999999 999999 999999 999999 999999 999999 999999 999999 999999 999999 999999 999999 999999 999999 999999 999999 999999 999999 999999 999999 999999 999999 999999 999999 999999 999999 999999 999999 999999 999999 0 999999 999999 999999 999999 999999 999999 999999 999999 999999 999999 999999 999999 999999 999999 8664
999999 17795 15531 17543 11727 17092 16688 11968 10980 11945 11943 17348 13340 17590 13049 15012 12505 15210 13006 17169 13379 11948 18694 10959 10195 12109 12260 16120 18573 15062 15951 13497 19516 12849 12178 13528 15988 17886 17062 12767 10083 10960 17535 18388 12415 18507 17684 14861 11240 18353 16775 13519 12258 11364 15871 19529 13547 11487 11618 13784 18336 999999 999999 999999 999999 999999 999999 999999 999999 999999 999999 999999 999999 999999 999999 999999 999999 999999 999999 999999 999999 999999 999999 999999 999999 999999 999999 999999 999999 999999 999999 999999 999999 999999 999999 999999 999999 999999 999999 999999 999999 999999 999999 999999 999999 999999 999999 0 999999 999999 999999 999999 999999 999999 999999 999999 999999 999999 999999 999999 999999 8553
999999 16387 18970 16351 15863 17837 17679 16020 15788 18225 19811 12424 16805 11516 13195 18399 10055 13711 18600 13577 16307 15983 12615 19850 16459 15630 18274 19696 16250 13508 18302 10835 18496 12420 16738 14290 11630 19486 10647 11168 13443 17654 12277 19755 17938 16398 19852 12499 18747 19981 11932 10528 18231 11816 10134 10752 11993 14170 17560 16984 12438 999999 999999 999999 999999 999999 999999 999999 999999 999999 999999 999999 999999 999999 999999 999999 999999 999999 999999 999999 999999 999999 999999 999999 999999 999999 999999 999999 999999 999999 999999 999999 999999 999999 999999 999999 999999 999999 999999 999999 999999 999999 999999 999999 999999 999999 999999 999999 0 999999 999999 999999 999999 999999 999999 999999 999999 999999 999999 999999 999999 11804
999999 10572 14119 16153 14457 10993 17821 11298 10188 18106 17393 11976 19985 17301 12272 19443 18578 19911 10828 16957 15260 19220 13697 14241 19995 18232 16608 18792 15255 19457 15351 19990 11179 17777 17336 16089 14440 17787 18737 15036 13549 14294 13779 14091 15516 16345 10115 11618 17851 18180 18185 11025 14145 15950 11455 13303 18344 10973 14278 18541 14291 999999 999999 999999 999999 999999 999999 999999 999999 999999 999999 999999 999999 999999 999999 999999 999999 999999 999999 999999 999999 999999 999999 999999 999999 999999 999999 999999 999999 999999 999999 999999 999999 999999 999999 999999 999999 999999 999999 999999 999999 999999 999999 999999 999999 999999 999999 999999 999999 0 999999 999999 999999 999999 999999 999999 999999 999999 999999 999999 999999 10734
999999 13870 17197 12420 10770 18153 11050 17547 12888 19504 15452 10508 16191 18429 13124 12188 14818 18823 14322 12756 11521 16190 14627 11050 16569 17667 16116 12506 18303 14687 10950 11045 10652 15949 12978 10262 18183 12419 17841 19536 12019 19519 19142 12433 10264 12888 15295 14581 19253 16790 16397 19765 15068 15195 11570 18829 11937 12893 19328 15378 18514 999999 999999 999999 999999 999999 999999 999999 999999 999999 999999 999999 999999 999999 999999 999999 999999 999999 999999 999999 999999 999999 999999 999999 999999 999999 999999 999999 999999 999999 999999 999999 999999 999999 999999 999999 999999 999999 999999 999999 999999 999999 999999 999999 999999 999999 999999 999999 999999 999999 0 999999 999999 999999 999999 999999 999999 999999 999999 999999 999999 11521
999999 17279 12198 16111 19194 14349 14776 11284 14688 18005 12784 11409 10471 17798 17315 11677 16756 15360 16492 19918 10180 10912 11290 10866 16400 19969 12741 12783 15527 10535 19438 15835 12446 19305 16893 19089 12218 11147 13562 11326 13450 13589 11065 18640 11403 19241 14883 17865 14775 17816 11177 11536 10643 19701 17180 12452 19965 12278 17177 13984 18072 999999 999999 999999 999999 999999 999999 999999 999999 999999 999999 999999 999999 999999 999999 999999 999999 999999 999999 999999 999999 999999 999999 999999 999999 999999 999999 999999 999999 999999 999999 999999 999999 999999 999999 999999 999999 999999 999999 999999 999999 999999 999999 999999 999999 999999 999999 999999 999999 999999 999999 0 999999 999999 999999 999999 999999 999999 999999 999999 999999 9988
999999 16124 15973 17904 10589 18323 11031 15675 10347 13002 15120 17300 14791 10881 19825 14301 18370 18639 18774 11615 18252 19956 12626 18106 10443 17002 18846 12478 11698 10066 15622 10584 18229 13752 17708 19836 17037 17335 13077 12659 13498 10093 13143 17128 16747 10957 11653 10435 17928 17611 16514 11428 10680 13068 11698 16356 19019 10606 18476 17060 18735 999999 999999 999999 999999 999999 999999 999999 999999 999999 999999 999999 999999 999999 999999 999999 999999 999999 999999 999999 999999 999999 999999 999999 999999 999999 999999 999999 999999 999999 999999 999999 999999 999999 999999 999999 999999 999999 999999 999999 999999 999999 999999 999999 999999 999999 999999 999999 999999 999999 999999 999999 0 999999 999999 999999 999999 999999 999999 999999 999999 6405
999999 13402 13486 18161 18155 14752 13363 17373 12703 10590 11733 18601 17549 13153 10485 10300 12081 17604 13759 11803 10831 15233 10326 10739 10091 13788 10608 19795 10140 10509 17750 17568 11603 10641 12804 17389 12493 19961 12193 16851 18386 16329 10842 16910 17495 17281 18616 17473 11277 17999 13002 18279 12793 13677 16985 17851 15681 19380 13872 17602 18121 999999 999999 999999 999999 999999 999999 999999 999999 999999 999999 999999 999999 999999 999999 999999 999999 999999 999999 999999 999999 999999 999999 999999 999999 999999 999999 999999 999999 999999 999999 999999 999999 999999 999999 999999 999999 999999 999999 999999 999999 999999 999999 999999 999999 999999 999999 999999 999999 999999 999999 999999 999999 0 999999 999999 999999 999999 999999 999999 999999 9537
999999 16946 12610 15939 10537 17259 16151 18101 10771 15915 19548 19604 18289 10673 12319 19658 13886 14106 17788 18861 13192 18080 10700 15694 11244 15952 19236 11554 15767 18572 14621 11341 18583 17081 10228 17783 17684 19558 17990 19478 18603 19521 18776 12077 10119 14120 11364 15949 13413 13530 15183 15518 10514 17325 17566 12494 15533 13487 19020 10750 19362 999999 999999 999999 999999 999999 999999 999999 999999 999999 999999 999999 999999 999999 999999 999999 999999 999999 999999 999999 999999 999999 999999 999999 999999 999999 999999 999999 999999 999999 999999 999999 999999 999999 999999 999999 999999 999999 999999 999999 999999 999999 999999 999999 999999 999999 999999 999999 999999 999999 999999 999999 999999 999999 0 999999 999999 999999 999999 999999 999999 10863
999999 17936 19148 17079 13182 17937 10783 16585 19344 14622 18437 19357 15712 10482 18647 17676 10454 13888 19551 12802 19442 17189 15790 17201 11308 14924 18710 12152 18430 17918 19693 12313 10114 10597 11149 13690 16686 17092 12803 11999 13768 17536 13085 16318 10787 14001 19467 13559 14205 11882 15199 11171 14925 19119 15382 11443 19143 19167 15670 17270 19133 999999 999999 999999 999999 999999 999999 999999 999999 999999 999999 999999 999999 999999 999999 999999 999999 999999 999999 999999 999999 999999 999999 999999 999999 999999 999999 999999 999999 999999 999999 999999 999999 999999 999999 999999 999999 999999 999999 999999 999999 999999 999999 999999 999999 999999 999999 999999 999999 999999 999999 999999 999999 999999 999999 0 999999 999999 999999 999999 999999 8339
999999 15830 19848 15820 10073 16928 15939 13482 11686 12522 15572 13373 10165 12281 18648 19457 18578 17781 14411 10086 14211 17495 18279 13464 17014 14064 16430 11876 16070 13884 19457 12805 17901 15721 11732 11083 12887 16214 11489 10190 12359 11798 18300 15890 18778 16931 11609 12925 14644 14599 16801 15927 18496 15900 14225 19219 16242 16838 16143 17727 10922 999999 999999 999999 999999 999999 999999 999999 999999 999999 999999 999999 999999 999999 999999 999999 999999 999999 999999 999999 999999 999999 999999 999999 999999 999999 999999 999999 999999 999999 999999 999999 999999 999999 999999 999999 999999 999999 999999 999999 999999 999999 999999 999999 999999 999999 999999 999999 999999 999999 999999 999999 999999 999999 999999 999999 0 999999 999999 999999 999999 12054
999999 13627 10523 11146 14989 14298 13283 10357 14210 10296 19979 10545 10488 13101 17753 12621 11392 10041 19354 10291 18867 11986 12691 14689 17394 16162 18028 15319 14800 12654 13812 14888 19540 16786 17453 17701 15151 17025 13971 18158 12697 15340 17242 17818 13849 15998 12896 16466 16111 11100 12855 17200 13680 19325 14993 10248 15342 12447 13389 12133 11642 999999 999999 999999 999999 999999 999999 999999 999999 999999 999999 999999 999999 999999 999999 999999 999999 999999 999999 999999 999999 999999 999999 999999 999999 999999 999999 999999 999999 999999 999999 999999 999999 999999 999999 999999 999999 999999 999999 999999 999999 999999 999999 999999 999999 999999 999999 999999 999999 999999 999999 999999 999999 999999 999999 999999 999999 0 999999 999999 999999 9734
999999 15261 14587 14825 19331 12547 19858 15710 10362 18306 19770 17973 10042 14547 11862 15942 10175 15241 11610 15761 18095 16463 14111 17667 15926 10601 18442 13904 12964 16309 13963 17188 17890 11398 10611 16070 18878 10506 12109 19809 10088 13713 11776 16394 11728 17326 14399 10473 10837 19923 19134 12147 10100 17192 11032 14483 18429 16872 16544 10854 13304 999999 999999 999999 999999 999999 999999 999999 999999 999999 999999 999999 999999 999999 999999 999999 999999 999999 999999 999999 999999 999999 999999 999999 999999 999999 999999 999999 999999 999999 999999 999999 999999 999999 999999 999999 999999 999999 999999 999999 999999 999999 999999 999999 999999 999999 999999 999999 999999 999999 999999 999999 999999 999999 999999 999999 999999 999999 0 999999 999999 9953
999999 12636 18210 11145 10070 16694 10815 17181 15441 17806 19796 12679 17332 18377 17018 15313 12845 18521 10208 19432 13340 17630 16688 11729 15285 12515 16422 13335 17312 19444 15778 10514 19902 18421 19150 17744 12469 12511 14749 16110 12910 17570 10660 13988 11782 12216 18234 14149 19380 18218 18468 16957 13875 15327 16848 15394 12916 19276 18128 13586 14780 999999 999999 999999 999999 999999 999999 999999 999999 999999 999999 999999 999999 999999 999999 999999 999999 999999 999999 999999 999999 999999 999999 999999 999999 999999 999999 999999 999999 999999 999999 999999 999999 999999 999999 999999 999999 999999 999999 999999 999999 999999 999999 999999 999999 999999 999999 999999 999999 999999 999999 999999 999999 999999 999999 999999 999999 999999 999999 0 999999 11874
999999 16457 19173 13827 10250 14002 10462 12623 16930 10306 19669 13063 13943 15143 16768 18569 18928 12925 19578 12834 13614 18908 17860 19926 13267 11907 16827 11635 12592 15524 17907 11138 18415 15080 12371 11972 19187 15172 18019 14816 18842 18204 18114 15653 13097 10699 15539 13293 10074 16193 14701 10991 14503 18548 15910 14357 13195 10715 16461 13114 17698 999999 999999 999999 999999 999999 999999 999999 999999 999999 999999 999999 999999 999999 999999 999999 999999 999999 999999 999999 999999 999999 999999 999999 999999 999999 999999 999999 999999 999999 999999 999999 999999 999999 999999 999999 999999 999999 999999 999999 999999 999999 999999 999999 999999 999999 999999 999999 999999 999999 999999 999999 999999 999999 999999 999999 999999 999999 999999 999999 0 10104
1 999999 999999 999999 999999 999999 999999 999999 999999 999999 999999 999999 999999 999999 999999 999999 999999 999999 999999 999999 999999 999999 999999 999999 999999 999999 999999 999999 999999 999999 999999 999999 999999 999999 999999 999999 999999 999999 999999 999999 999999 999999 999999 999999 999999 999999 999999 999999 999999 999999 999999 999999 999999 999999 999999 999999 999999 999999 999999 999999 999999 999999 999999 999999 999999 999999 999999 999999 999999 999999 999999 999999 999999 999999 999999 999999 999999 999999 999999 999999 999999 999999 999999 999999 999999 999999 999999 999999 999999 999999 999999 999999 999999 999999 999999 999999 999999 999999 999999 999999 999999 999999 999999 999999 999999 999999 999999 999999 999999 999999 999999 999999 999999 999999 999999 999999 999999 999999 999999 999999 999999 0
EOF