NAME: GR_1x5x12_KH_5x12_Run_9
TYPE: TSP
COMMENT: BTSP instance |A|=60 GR nodes |B|=60 KH nodes depot=0.0 end=0.0.0
DIMENSION: 122
EDGE_WEIGHT_TYPE: EXPLICIT
EDGE_WEIGHT_FORMAT: FULL_MATRIX
NODE_COORD_TYPE: NO_COORDS
EDGE_WEIGHT_SECTION
0 8906 5931 7786 10085 14885 9951 14776 8585 14733 14840 13045 8468 6231 14053 7470 14194 6520 14012 13061 6461 12623 6214 13690 9643 7657 9619 7744 9429 12989 9109 10102 10828 7557 8005 14414 10105 5427 10094 11900 9610 6348 13878 6025 9697 6994 14317 11194 10437 13766 5834 11891 14644 9410 6513 14308 13920 11860 11629 9922 12938 999999 999999 999999 999999 999999 999999 999999 999999 999999 999999 999999 999999 999999 999999 999999 999999 999999 999999 999999 999999 999999 999999 999999 999999 999999 999999 999999 999999 999999 999999 999999 999999 999999 999999 999999 999999 999999 999999 999999 999999 999999 999999 999999 999999 999999 999999 999999 999999 999999 999999 999999 999999 999999 999999 999999 999999 999999 999999 999999 999999 999999
999999 0 999999 999999 999999 999999 999999 999999 999999 999999 999999 999999 999999 999999 999999 999999 999999 999999 999999 999999 999999 999999 999999 999999 999999 999999 999999 999999 999999 999999 999999 999999 999999 999999 999999 999999 999999 999999 999999 999999 999999 999999 999999 999999 999999 999999 999999 999999 999999 999999 999999 999999 999999 999999 999999 999999 999999 999999 999999 999999 999999 999999 999999 999999 19828 999999 19837 999999 999999 999999 999999 999999 999999 17703 999999 18459 999999 999999 999999 999999 999999 999999 999999 999999 999999 999999 11345 999999 17386 999999 999999 999999 999999 999999 999999 16860 999999 999999 999999 999999 999999 999999 999999 999999 999999 15040 999999 999999 999999 10079 999999 999999 12191 11357 999999 999999 999999 11464 999999 999999 999999 999999
999999 999999 0 999999 999999 999999 999999 999999 999999 999999 999999 999999 999999 999999 999999 999999 999999 999999 999999 999999 999999 999999 999999 999999 999999 999999 999999 999999 999999 999999 999999 999999 999999 999999 999999 999999 999999 999999 999999 999999 999999 999999 999999 999999 999999 999999 999999 999999 999999 999999 999999 999999 999999 999999 999999 999999 999999 999999 999999 999999 999999 999999 999999 999999 16306 999999 17895 999999 999999 999999 999999 999999 999999 10524 999999 12169 999999 999999 999999 999999 999999 999999 999999 999999 999999 999999 14925 999999 12385 999999 999999 999999 999999 999999 999999 19018 999999 999999 999999 999999 999999 999999 999999 999999 999999 18631 999999 999999 999999 11667 999999 999999 10511 14663 999999 999999 999999 15857 999999 999999 999999 999999
999999 999999 999999 0 999999 999999 999999 999999 999999 999999 999999 999999 999999 999999 999999 999999 999999 999999 999999 999999 999999 999999 999999 999999 999999 999999 999999 999999 999999 999999 999999 999999 999999 999999 999999 999999 999999 999999 999999 999999 999999 999999 999999 999999 999999 999999 999999 999999 999999 999999 999999 999999 999999 999999 999999 999999 999999 999999 999999 999999 999999 999999 999999 999999 11526 999999 16445 999999 999999 999999 999999 999999 999999 11900 999999 10278 999999 999999 999999 999999 999999 999999 999999 999999 999999 999999 19372 999999 11766 999999 999999 999999 999999 999999 999999 17620 999999 999999 999999 999999 999999 999999 999999 999999 999999 19708 999999 999999 999999 17818 999999 999999 18530 19153 999999 999999 999999 16679 999999 999999 999999 999999
999999 999999 999999 999999 0 999999 999999 999999 999999 999999 999999 999999 999999 999999 999999 999999 999999 999999 999999 999999 999999 999999 999999 999999 999999 999999 999999 999999 999999 999999 999999 999999 999999 999999 999999 999999 999999 999999 999999 999999 999999 999999 999999 999999 999999 999999 999999 999999 999999 999999 999999 999999 999999 999999 999999 999999 999999 999999 999999 999999 999999 999999 999999 999999 12074 999999 16952 999999 999999 999999 999999 999999 999999 16605 999999 14172 999999 999999 999999 999999 999999 999999 999999 999999 999999 999999 10604 999999 11296 999999 999999 999999 999999 999999 999999 12438 999999 999999 999999 999999 999999 999999 999999 999999 999999 17859 999999 999999 999999 14233 999999 999999 19158 19729 999999 999999 999999 13697 999999 999999 999999 999999
999999 999999 999999 999999 999999 0 999999 999999 999999 999999 999999 999999 999999 999999 999999 999999 999999 999999 999999 999999 999999 999999 999999 999999 999999 999999 999999 999999 999999 999999 999999 999999 999999 999999 999999 999999 999999 999999 999999 999999 999999 999999 999999 999999 999999 999999 999999 999999 999999 999999 999999 999999 999999 999999 999999 999999 999999 999999 999999 999999 999999 999999 999999 999999 17383 999999 15462 999999 999999 999999 999999 999999 999999 15853 999999 19609 999999 999999 999999 999999 999999 999999 999999 999999 999999 999999 19490 999999 18882 999999 999999 999999 999999 999999 999999 15439 999999 999999 999999 999999 999999 999999 999999 999999 999999 17649 999999 999999 999999 16588 999999 999999 11439 19767 999999 999999 999999 16982 999999 999999 999999 999999
999999 999999 999999 999999 999999 999999 0 999999 999999 999999 999999 999999 999999 999999 999999 999999 999999 999999 999999 999999 999999 999999 999999 999999 999999 999999 999999 999999 999999 999999 999999 999999 999999 999999 999999 999999 999999 999999 999999 999999 999999 999999 999999 999999 999999 999999 999999 999999 999999 999999 999999 999999 999999 999999 999999 999999 999999 999999 999999 999999 999999 999999 999999 999999 17635 999999 19480 999999 999999 999999 999999 999999 999999 11477 999999 15141 999999 999999 999999 999999 999999 999999 999999 999999 999999 999999 11502 999999 16632 999999 999999 999999 999999 999999 999999 13013 999999 999999 999999 999999 999999 999999 999999 999999 999999 18810 999999 999999 999999 11989 999999 999999 17911 16946 999999 999999 999999 14505 999999 999999 999999 999999
999999 999999 999999 999999 999999 999999 999999 0 999999 999999 999999 999999 999999 999999 999999 999999 999999 999999 999999 999999 999999 999999 999999 999999 999999 999999 999999 999999 999999 999999 999999 999999 999999 999999 999999 999999 999999 999999 999999 999999 999999 999999 999999 999999 999999 999999 999999 999999 999999 999999 999999 999999 999999 999999 999999 999999 999999 999999 999999 999999 999999 999999 999999 999999 13270 999999 11184 999999 999999 999999 999999 999999 999999 10123 999999 11995 999999 999999 999999 999999 999999 999999 999999 999999 999999 999999 13076 999999 18092 999999 999999 999999 999999 999999 999999 13704 999999 999999 999999 999999 999999 999999 999999 999999 999999 13344 999999 999999 999999 10393 999999 999999 18347 13591 999999 999999 999999 19891 999999 999999 999999 999999
999999 999999 999999 999999 999999 999999 999999 999999 0 999999 999999 999999 999999 999999 999999 999999 999999 999999 999999 999999 999999 999999 999999 999999 999999 999999 999999 999999 999999 999999 999999 999999 999999 999999 999999 999999 999999 999999 999999 999999 999999 999999 999999 999999 999999 999999 999999 999999 999999 999999 999999 999999 999999 999999 999999 999999 999999 999999 999999 999999 999999 999999 999999 999999 18203 999999 17161 999999 999999 999999 999999 999999 999999 15954 999999 16562 999999 999999 999999 999999 999999 999999 999999 999999 999999 999999 18518 999999 18013 999999 999999 999999 999999 999999 999999 19738 999999 999999 999999 999999 999999 999999 999999 999999 999999 19212 999999 999999 999999 16125 999999 999999 18842 12963 999999 999999 999999 19797 999999 999999 999999 999999
999999 999999 999999 999999 999999 999999 999999 999999 999999 0 999999 999999 999999 999999 999999 999999 999999 999999 999999 999999 999999 999999 999999 999999 999999 999999 999999 999999 999999 999999 999999 999999 999999 999999 999999 999999 999999 999999 999999 999999 999999 999999 999999 999999 999999 999999 999999 999999 999999 999999 999999 999999 999999 999999 999999 999999 999999 999999 999999 999999 999999 999999 999999 999999 11652 999999 19978 999999 999999 999999 999999 999999 999999 17545 999999 14467 999999 999999 999999 999999 999999 999999 999999 999999 999999 999999 11670 999999 14233 999999 999999 999999 999999 999999 999999 16280 999999 999999 999999 999999 999999 999999 999999 999999 999999 16995 999999 999999 999999 15573 999999 999999 11954 19059 999999 999999 999999 16074 999999 999999 999999 999999
999999 999999 999999 999999 999999 999999 999999 999999 999999 999999 0 999999 999999 999999 999999 999999 999999 999999 999999 999999 999999 999999 999999 999999 999999 999999 999999 999999 999999 999999 999999 999999 999999 999999 999999 999999 999999 999999 999999 999999 999999 999999 999999 999999 999999 999999 999999 999999 999999 999999 999999 999999 999999 999999 999999 999999 999999 999999 999999 999999 999999 999999 999999 999999 14305 999999 16028 999999 999999 999999 999999 999999 999999 15711 999999 10576 999999 999999 999999 999999 999999 999999 999999 999999 999999 999999 15125 999999 12763 999999 999999 999999 999999 999999 999999 13326 999999 999999 999999 999999 999999 999999 999999 999999 999999 10410 999999 999999 999999 17733 999999 999999 14726 18513 999999 999999 999999 10526 999999 999999 999999 999999
999999 999999 999999 999999 999999 999999 999999 999999 999999 999999 999999 0 999999 999999 999999 999999 999999 999999 999999 999999 999999 999999 999999 999999 999999 999999 999999 999999 999999 999999 999999 999999 999999 999999 999999 999999 999999 999999 999999 999999 999999 999999 999999 999999 999999 999999 999999 999999 999999 999999 999999 999999 999999 999999 999999 999999 999999 999999 999999 999999 999999 999999 999999 999999 13386 999999 10628 999999 999999 999999 999999 999999 999999 15259 999999 18015 999999 999999 999999 999999 999999 999999 999999 999999 999999 999999 18428 999999 14604 999999 999999 999999 999999 999999 999999 15681 999999 999999 999999 999999 999999 999999 999999 999999 999999 11948 999999 999999 999999 19898 999999 999999 18799 11541 999999 999999 999999 12508 999999 999999 999999 999999
999999 999999 999999 999999 999999 999999 999999 999999 999999 999999 999999 999999 0 999999 999999 999999 999999 999999 999999 999999 999999 999999 999999 999999 999999 999999 999999 999999 999999 999999 999999 999999 999999 999999 999999 999999 999999 999999 999999 999999 999999 999999 999999 999999 999999 999999 999999 999999 999999 999999 999999 999999 999999 999999 999999 999999 999999 999999 999999 999999 999999 999999 999999 999999 14718 999999 12989 999999 999999 999999 999999 999999 999999 11467 999999 12657 999999 999999 999999 999999 999999 999999 999999 999999 999999 999999 17858 999999 17859 999999 999999 999999 999999 999999 999999 14969 999999 999999 999999 999999 999999 999999 999999 999999 999999 15838 999999 999999 999999 12278 999999 999999 11557 12763 999999 999999 999999 11546 999999 999999 999999 999999
999999 999999 999999 999999 999999 999999 999999 999999 999999 999999 999999 999999 999999 0 999999 999999 999999 999999 999999 999999 999999 999999 999999 999999 999999 999999 999999 999999 999999 999999 999999 999999 999999 999999 999999 999999 999999 999999 999999 999999 999999 999999 999999 999999 999999 999999 999999 999999 999999 999999 999999 999999 999999 999999 999999 999999 999999 999999 999999 999999 999999 999999 999999 999999 999999 999999 999999 999999 19836 999999 999999 999999 999999 999999 999999 999999 999999 999999 999999 999999 999999 999999 999999 19657 999999 999999 999999 999999 999999 999999 18666 999999 999999 15064 999999 999999 14707 999999 14742 14549 999999 19765 17807 999999 999999 999999 13612 10952 999999 999999 19472 999999 999999 999999 999999 999999 999999 999999 999999 999999 999999 999999
999999 999999 999999 999999 999999 999999 999999 999999 999999 999999 999999 999999 999999 999999 0 999999 999999 999999 999999 999999 999999 999999 999999 999999 999999 999999 999999 999999 999999 999999 999999 999999 999999 999999 999999 999999 999999 999999 999999 999999 999999 999999 999999 999999 999999 999999 999999 999999 999999 999999 999999 999999 999999 999999 999999 999999 999999 999999 999999 999999 999999 999999 999999 999999 999999 999999 999999 999999 15837 999999 999999 999999 999999 999999 999999 999999 999999 999999 999999 999999 999999 999999 999999 11464 999999 999999 999999 999999 999999 999999 11740 999999 999999 11615 999999 999999 10703 999999 15193 19190 999999 13948 10104 999999 999999 999999 15558 17244 999999 999999 11838 999999 999999 999999 999999 999999 999999 999999 999999 999999 999999 999999
999999 999999 999999 999999 999999 999999 999999 999999 999999 999999 999999 999999 999999 999999 999999 0 999999 999999 999999 999999 999999 999999 999999 999999 999999 999999 999999 999999 999999 999999 999999 999999 999999 999999 999999 999999 999999 999999 999999 999999 999999 999999 999999 999999 999999 999999 999999 999999 999999 999999 999999 999999 999999 999999 999999 999999 999999 999999 999999 999999 999999 999999 999999 999999 999999 999999 999999 999999 18436 999999 999999 999999 999999 999999 999999 999999 999999 999999 999999 999999 999999 999999 999999 13376 999999 999999 999999 999999 999999 999999 17737 999999 999999 17838 999999 999999 16684 999999 14339 13264 999999 17107 15793 999999 999999 999999 19590 14390 999999 999999 15687 999999 999999 999999 999999 999999 999999 999999 999999 999999 999999 999999
999999 999999 999999 999999 999999 999999 999999 999999 999999 999999 999999 999999 999999 999999 999999 999999 0 999999 999999 999999 999999 999999 999999 999999 999999 999999 999999 999999 999999 999999 999999 999999 999999 999999 999999 999999 999999 999999 999999 999999 999999 999999 999999 999999 999999 999999 999999 999999 999999 999999 999999 999999 999999 999999 999999 999999 999999 999999 999999 999999 999999 999999 999999 999999 999999 999999 999999 999999 12824 999999 999999 999999 999999 999999 999999 999999 999999 999999 999999 999999 999999 999999 999999 18335 999999 999999 999999 999999 999999 999999 10982 999999 999999 11420 999999 999999 13862 999999 13542 11081 999999 18229 18968 999999 999999 999999 11031 12762 999999 999999 10239 999999 999999 999999 999999 999999 999999 999999 999999 999999 999999 999999
999999 999999 999999 999999 999999 999999 999999 999999 999999 999999 999999 999999 999999 999999 999999 999999 999999 0 999999 999999 999999 999999 999999 999999 999999 999999 999999 999999 999999 999999 999999 999999 999999 999999 999999 999999 999999 999999 999999 999999 999999 999999 999999 999999 999999 999999 999999 999999 999999 999999 999999 999999 999999 999999 999999 999999 999999 999999 999999 999999 999999 999999 999999 999999 999999 999999 999999 999999 10684 999999 999999 999999 999999 999999 999999 999999 999999 999999 999999 999999 999999 999999 999999 12461 999999 999999 999999 999999 999999 999999 16843 999999 999999 19562 999999 999999 19051 999999 18729 18861 999999 15675 11579 999999 999999 999999 15955 11992 999999 999999 19411 999999 999999 999999 999999 999999 999999 999999 999999 999999 999999 999999
999999 999999 999999 999999 999999 999999 999999 999999 999999 999999 999999 999999 999999 999999 999999 999999 999999 999999 0 999999 999999 999999 999999 999999 999999 999999 999999 999999 999999 999999 999999 999999 999999 999999 999999 999999 999999 999999 999999 999999 999999 999999 999999 999999 999999 999999 999999 999999 999999 999999 999999 999999 999999 999999 999999 999999 999999 999999 999999 999999 999999 999999 999999 999999 999999 999999 999999 999999 19365 999999 999999 999999 999999 999999 999999 999999 999999 999999 999999 999999 999999 999999 999999 15890 999999 999999 999999 999999 999999 999999 19114 999999 999999 19481 999999 999999 13492 999999 14910 13439 999999 18742 11398 999999 999999 999999 14869 10358 999999 999999 12344 999999 999999 999999 999999 999999 999999 999999 999999 999999 999999 999999
999999 999999 999999 999999 999999 999999 999999 999999 999999 999999 999999 999999 999999 999999 999999 999999 999999 999999 999999 0 999999 999999 999999 999999 999999 999999 999999 999999 999999 999999 999999 999999 999999 999999 999999 999999 999999 999999 999999 999999 999999 999999 999999 999999 999999 999999 999999 999999 999999 999999 999999 999999 999999 999999 999999 999999 999999 999999 999999 999999 999999 999999 999999 999999 999999 999999 999999 999999 16466 999999 999999 999999 999999 999999 999999 999999 999999 999999 999999 999999 999999 999999 999999 18261 999999 999999 999999 999999 999999 999999 15862 999999 999999 13022 999999 999999 11698 999999 10578 17059 999999 16973 18331 999999 999999 999999 17955 19704 999999 999999 16681 999999 999999 999999 999999 999999 999999 999999 999999 999999 999999 999999
999999 999999 999999 999999 999999 999999 999999 999999 999999 999999 999999 999999 999999 999999 999999 999999 999999 999999 999999 999999 0 999999 999999 999999 999999 999999 999999 999999 999999 999999 999999 999999 999999 999999 999999 999999 999999 999999 999999 999999 999999 999999 999999 999999 999999 999999 999999 999999 999999 999999 999999 999999 999999 999999 999999 999999 999999 999999 999999 999999 999999 999999 999999 999999 999999 999999 999999 999999 17957 999999 999999 999999 999999 999999 999999 999999 999999 999999 999999 999999 999999 999999 999999 12530 999999 999999 999999 999999 999999 999999 15266 999999 999999 15189 999999 999999 15437 999999 13386 13831 999999 16905 17620 999999 999999 999999 17910 13440 999999 999999 17873 999999 999999 999999 999999 999999 999999 999999 999999 999999 999999 999999
999999 999999 999999 999999 999999 999999 999999 999999 999999 999999 999999 999999 999999 999999 999999 999999 999999 999999 999999 999999 999999 0 999999 999999 999999 999999 999999 999999 999999 999999 999999 999999 999999 999999 999999 999999 999999 999999 999999 999999 999999 999999 999999 999999 999999 999999 999999 999999 999999 999999 999999 999999 999999 999999 999999 999999 999999 999999 999999 999999 999999 999999 999999 999999 999999 999999 999999 999999 12792 999999 999999 999999 999999 999999 999999 999999 999999 999999 999999 999999 999999 999999 999999 18943 999999 999999 999999 999999 999999 999999 12886 999999 999999 19655 999999 999999 13362 999999 12640 17329 999999 19527 17190 999999 999999 999999 16720 11596 999999 999999 18162 999999 999999 999999 999999 999999 999999 999999 999999 999999 999999 999999
999999 999999 999999 999999 999999 999999 999999 999999 999999 999999 999999 999999 999999 999999 999999 999999 999999 999999 999999 999999 999999 999999 0 999999 999999 999999 999999 999999 999999 999999 999999 999999 999999 999999 999999 999999 999999 999999 999999 999999 999999 999999 999999 999999 999999 999999 999999 999999 999999 999999 999999 999999 999999 999999 999999 999999 999999 999999 999999 999999 999999 999999 999999 999999 999999 999999 999999 999999 19066 999999 999999 999999 999999 999999 999999 999999 999999 999999 999999 999999 999999 999999 999999 11582 999999 999999 999999 999999 999999 999999 15664 999999 999999 13057 999999 999999 11054 999999 10786 14104 999999 11061 16167 999999 999999 999999 17050 15910 999999 999999 13889 999999 999999 999999 999999 999999 999999 999999 999999 999999 999999 999999
999999 999999 999999 999999 999999 999999 999999 999999 999999 999999 999999 999999 999999 999999 999999 999999 999999 999999 999999 999999 999999 999999 999999 0 999999 999999 999999 999999 999999 999999 999999 999999 999999 999999 999999 999999 999999 999999 999999 999999 999999 999999 999999 999999 999999 999999 999999 999999 999999 999999 999999 999999 999999 999999 999999 999999 999999 999999 999999 999999 999999 999999 999999 999999 999999 999999 999999 999999 13787 999999 999999 999999 999999 999999 999999 999999 999999 999999 999999 999999 999999 999999 999999 18022 999999 999999 999999 999999 999999 999999 18461 999999 999999 15734 999999 999999 19125 999999 19701 15448 999999 17250 17777 999999 999999 999999 16421 17208 999999 999999 14407 999999 999999 999999 999999 999999 999999 999999 999999 999999 999999 999999
999999 999999 999999 999999 999999 999999 999999 999999 999999 999999 999999 999999 999999 999999 999999 999999 999999 999999 999999 999999 999999 999999 999999 999999 0 999999 999999 999999 999999 999999 999999 999999 999999 999999 999999 999999 999999 999999 999999 999999 999999 999999 999999 999999 999999 999999 999999 999999 999999 999999 999999 999999 999999 999999 999999 999999 999999 999999 999999 999999 999999 999999 999999 999999 999999 999999 999999 999999 12950 999999 999999 999999 999999 999999 999999 999999 999999 999999 999999 999999 999999 999999 999999 17974 999999 999999 999999 999999 999999 999999 19055 999999 999999 11161 999999 999999 14803 999999 14524 15731 999999 17975 17903 999999 999999 999999 14768 19409 999999 999999 13968 999999 999999 999999 999999 999999 999999 999999 999999 999999 999999 999999
999999 999999 999999 999999 999999 999999 999999 999999 999999 999999 999999 999999 999999 999999 999999 999999 999999 999999 999999 999999 999999 999999 999999 999999 999999 0 999999 999999 999999 999999 999999 999999 999999 999999 999999 999999 999999 999999 999999 999999 999999 999999 999999 999999 999999 999999 999999 999999 999999 999999 999999 999999 999999 999999 999999 999999 999999 999999 999999 999999 999999 14392 12427 999999 999999 999999 999999 999999 999999 999999 999999 999999 14361 999999 999999 999999 999999 10547 999999 999999 10425 999999 11491 999999 999999 999999 999999 999999 999999 17974 999999 999999 999999 999999 17302 999999 999999 999999 999999 999999 19296 999999 999999 999999 12630 999999 999999 999999 999999 999999 999999 999999 999999 999999 999999 999999 999999 999999 12609 999999 14578 999999
999999 999999 999999 999999 999999 999999 999999 999999 999999 999999 999999 999999 999999 999999 999999 999999 999999 999999 999999 999999 999999 999999 999999 999999 999999 999999 0 999999 999999 999999 999999 999999 999999 999999 999999 999999 999999 999999 999999 999999 999999 999999 999999 999999 999999 999999 999999 999999 999999 999999 999999 999999 999999 999999 999999 999999 999999 999999 999999 999999 999999 13217 18175 999999 999999 999999 999999 999999 999999 999999 999999 999999 16217 999999 999999 999999 999999 14681 999999 999999 10156 999999 18056 999999 999999 999999 999999 999999 999999 16891 999999 999999 999999 999999 14494 999999 999999 999999 999999 999999 11301 999999 999999 999999 18221 999999 999999 999999 999999 999999 999999 999999 999999 999999 999999 999999 999999 999999 14513 999999 10057 999999
999999 999999 999999 999999 999999 999999 999999 999999 999999 999999 999999 999999 999999 999999 999999 999999 999999 999999 999999 999999 999999 999999 999999 999999 999999 999999 999999 0 999999 999999 999999 999999 999999 999999 999999 999999 999999 999999 999999 999999 999999 999999 999999 999999 999999 999999 999999 999999 999999 999999 999999 999999 999999 999999 999999 999999 999999 999999 999999 999999 999999 18642 19379 999999 999999 999999 999999 999999 999999 999999 999999 999999 14714 999999 999999 999999 999999 19598 999999 999999 13260 999999 17252 999999 999999 999999 999999 999999 999999 18170 999999 999999 999999 999999 18054 999999 999999 999999 999999 999999 18604 999999 999999 999999 16249 999999 999999 999999 999999 999999 999999 999999 999999 999999 999999 999999 999999 999999 17312 999999 13241 999999
999999 999999 999999 999999 999999 999999 999999 999999 999999 999999 999999 999999 999999 999999 999999 999999 999999 999999 999999 999999 999999 999999 999999 999999 999999 999999 999999 999999 0 999999 999999 999999 999999 999999 999999 999999 999999 999999 999999 999999 999999 999999 999999 999999 999999 999999 999999 999999 999999 999999 999999 999999 999999 999999 999999 999999 999999 999999 999999 999999 999999 12060 11676 999999 999999 999999 999999 999999 999999 999999 999999 999999 18472 999999 999999 999999 999999 14063 999999 999999 16794 999999 19157 999999 999999 999999 999999 999999 999999 16183 999999 999999 999999 999999 15085 999999 999999 999999 999999 999999 12159 999999 999999 999999 12986 999999 999999 999999 999999 999999 999999 999999 999999 999999 999999 999999 999999 999999 18221 999999 17214 999999
999999 999999 999999 999999 999999 999999 999999 999999 999999 999999 999999 999999 999999 999999 999999 999999 999999 999999 999999 999999 999999 999999 999999 999999 999999 999999 999999 999999 999999 0 999999 999999 999999 999999 999999 999999 999999 999999 999999 999999 999999 999999 999999 999999 999999 999999 999999 999999 999999 999999 999999 999999 999999 999999 999999 999999 999999 999999 999999 999999 999999 12410 18544 999999 999999 999999 999999 999999 999999 999999 999999 999999 17416 999999 999999 999999 999999 13966 999999 999999 17755 999999 17986 999999 999999 999999 999999 999999 999999 12230 999999 999999 999999 999999 14761 999999 999999 999999 999999 999999 12190 999999 999999 999999 13694 999999 999999 999999 999999 999999 999999 999999 999999 999999 999999 999999 999999 999999 15154 999999 17056 999999
999999 999999 999999 999999 999999 999999 999999 999999 999999 999999 999999 999999 999999 999999 999999 999999 999999 999999 999999 999999 999999 999999 999999 999999 999999 999999 999999 999999 999999 999999 0 999999 999999 999999 999999 999999 999999 999999 999999 999999 999999 999999 999999 999999 999999 999999 999999 999999 999999 999999 999999 999999 999999 999999 999999 999999 999999 999999 999999 999999 999999 13964 18323 999999 999999 999999 999999 999999 999999 999999 999999 999999 15972 999999 999999 999999 999999 14482 999999 999999 14669 999999 13226 999999 999999 999999 999999 999999 999999 19093 999999 999999 999999 999999 13790 999999 999999 999999 999999 999999 11561 999999 999999 999999 10736 999999 999999 999999 999999 999999 999999 999999 999999 999999 999999 999999 999999 999999 19528 999999 13550 999999
999999 999999 999999 999999 999999 999999 999999 999999 999999 999999 999999 999999 999999 999999 999999 999999 999999 999999 999999 999999 999999 999999 999999 999999 999999 999999 999999 999999 999999 999999 999999 0 999999 999999 999999 999999 999999 999999 999999 999999 999999 999999 999999 999999 999999 999999 999999 999999 999999 999999 999999 999999 999999 999999 999999 999999 999999 999999 999999 999999 999999 13521 19267 999999 999999 999999 999999 999999 999999 999999 999999 999999 17533 999999 999999 999999 999999 19125 999999 999999 10801 999999 16011 999999 999999 999999 999999 999999 999999 12013 999999 999999 999999 999999 16214 999999 999999 999999 999999 999999 14109 999999 999999 999999 18977 999999 999999 999999 999999 999999 999999 999999 999999 999999 999999 999999 999999 999999 11530 999999 17743 999999
999999 999999 999999 999999 999999 999999 999999 999999 999999 999999 999999 999999 999999 999999 999999 999999 999999 999999 999999 999999 999999 999999 999999 999999 999999 999999 999999 999999 999999 999999 999999 999999 0 999999 999999 999999 999999 999999 999999 999999 999999 999999 999999 999999 999999 999999 999999 999999 999999 999999 999999 999999 999999 999999 999999 999999 999999 999999 999999 999999 999999 16808 18446 999999 999999 999999 999999 999999 999999 999999 999999 999999 18447 999999 999999 999999 999999 18285 999999 999999 15182 999999 11155 999999 999999 999999 999999 999999 999999 11343 999999 999999 999999 999999 16979 999999 999999 999999 999999 999999 15269 999999 999999 999999 13468 999999 999999 999999 999999 999999 999999 999999 999999 999999 999999 999999 999999 999999 14953 999999 17453 999999
999999 999999 999999 999999 999999 999999 999999 999999 999999 999999 999999 999999 999999 999999 999999 999999 999999 999999 999999 999999 999999 999999 999999 999999 999999 999999 999999 999999 999999 999999 999999 999999 999999 0 999999 999999 999999 999999 999999 999999 999999 999999 999999 999999 999999 999999 999999 999999 999999 999999 999999 999999 999999 999999 999999 999999 999999 999999 999999 999999 999999 10131 10548 999999 999999 999999 999999 999999 999999 999999 999999 999999 14443 999999 999999 999999 999999 13645 999999 999999 17322 999999 18957 999999 999999 999999 999999 999999 999999 13963 999999 999999 999999 999999 14762 999999 999999 999999 999999 999999 19433 999999 999999 999999 19086 999999 999999 999999 999999 999999 999999 999999 999999 999999 999999 999999 999999 999999 19419 999999 15487 999999
999999 999999 999999 999999 999999 999999 999999 999999 999999 999999 999999 999999 999999 999999 999999 999999 999999 999999 999999 999999 999999 999999 999999 999999 999999 999999 999999 999999 999999 999999 999999 999999 999999 999999 0 999999 999999 999999 999999 999999 999999 999999 999999 999999 999999 999999 999999 999999 999999 999999 999999 999999 999999 999999 999999 999999 999999 999999 999999 999999 999999 15330 13582 999999 999999 999999 999999 999999 999999 999999 999999 999999 15748 999999 999999 999999 999999 18569 999999 999999 15326 999999 19278 999999 999999 999999 999999 999999 999999 12214 999999 999999 999999 999999 19712 999999 999999 999999 999999 999999 12544 999999 999999 999999 19940 999999 999999 999999 999999 999999 999999 999999 999999 999999 999999 999999 999999 999999 14310 999999 16371 999999
999999 999999 999999 999999 999999 999999 999999 999999 999999 999999 999999 999999 999999 999999 999999 999999 999999 999999 999999 999999 999999 999999 999999 999999 999999 999999 999999 999999 999999 999999 999999 999999 999999 999999 999999 0 999999 999999 999999 999999 999999 999999 999999 999999 999999 999999 999999 999999 999999 999999 999999 999999 999999 999999 999999 999999 999999 999999 999999 999999 999999 12547 18221 999999 999999 999999 999999 999999 999999 999999 999999 999999 13739 999999 999999 999999 999999 13605 999999 999999 17372 999999 10379 999999 999999 999999 999999 999999 999999 18098 999999 999999 999999 999999 19950 999999 999999 999999 999999 999999 18689 999999 999999 999999 17937 999999 999999 999999 999999 999999 999999 999999 999999 999999 999999 999999 999999 999999 10960 999999 12939 999999
999999 999999 999999 999999 999999 999999 999999 999999 999999 999999 999999 999999 999999 999999 999999 999999 999999 999999 999999 999999 999999 999999 999999 999999 999999 999999 999999 999999 999999 999999 999999 999999 999999 999999 999999 999999 0 999999 999999 999999 999999 999999 999999 999999 999999 999999 999999 999999 999999 999999 999999 999999 999999 999999 999999 999999 999999 999999 999999 999999 999999 18001 17023 999999 999999 999999 999999 999999 999999 999999 999999 999999 11007 999999 999999 999999 999999 18691 999999 999999 17536 999999 17181 999999 999999 999999 999999 999999 999999 10498 999999 999999 999999 999999 12062 999999 999999 999999 999999 999999 12698 999999 999999 999999 17304 999999 999999 999999 999999 999999 999999 999999 999999 999999 999999 999999 999999 999999 13871 999999 19210 999999
999999 999999 999999 999999 999999 999999 999999 999999 999999 999999 999999 999999 999999 999999 999999 999999 999999 999999 999999 999999 999999 999999 999999 999999 999999 999999 999999 999999 999999 999999 999999 999999 999999 999999 999999 999999 999999 0 999999 999999 999999 999999 999999 999999 999999 999999 999999 999999 999999 999999 999999 999999 999999 999999 999999 999999 999999 999999 999999 999999 999999 999999 999999 999999 999999 999999 999999 15551 999999 11536 14199 999999 999999 999999 999999 999999 14994 999999 999999 13883 999999 10506 999999 999999 999999 999999 999999 999999 999999 999999 999999 999999 10527 999999 999999 999999 999999 13633 999999 999999 999999 999999 999999 16059 999999 999999 999999 999999 999999 999999 999999 999999 999999 999999 17985 18404 999999 999999 999999 11887 999999 999999
999999 999999 999999 999999 999999 999999 999999 999999 999999 999999 999999 999999 999999 999999 999999 999999 999999 999999 999999 999999 999999 999999 999999 999999 999999 999999 999999 999999 999999 999999 999999 999999 999999 999999 999999 999999 999999 999999 0 999999 999999 999999 999999 999999 999999 999999 999999 999999 999999 999999 999999 999999 999999 999999 999999 999999 999999 999999 999999 999999 999999 999999 999999 999999 999999 999999 999999 16339 999999 17872 10388 999999 999999 999999 999999 999999 15277 999999 999999 19773 999999 12178 999999 999999 999999 999999 999999 999999 999999 999999 999999 999999 18549 999999 999999 999999 999999 11755 999999 999999 999999 999999 999999 11629 999999 999999 999999 999999 999999 999999 999999 999999 999999 999999 11402 15203 999999 999999 999999 12270 999999 999999
999999 999999 999999 999999 999999 999999 999999 999999 999999 999999 999999 999999 999999 999999 999999 999999 999999 999999 999999 999999 999999 999999 999999 999999 999999 999999 999999 999999 999999 999999 999999 999999 999999 999999 999999 999999 999999 999999 999999 0 999999 999999 999999 999999 999999 999999 999999 999999 999999 999999 999999 999999 999999 999999 999999 999999 999999 999999 999999 999999 999999 999999 999999 999999 999999 999999 999999 13271 999999 10024 10358 999999 999999 999999 999999 999999 11726 999999 999999 17360 999999 14402 999999 999999 999999 999999 999999 999999 999999 999999 999999 999999 19049 999999 999999 999999 999999 13703 999999 999999 999999 999999 999999 17339 999999 999999 999999 999999 999999 999999 999999 999999 999999 999999 11721 10386 999999 999999 999999 12832 999999 999999
999999 999999 999999 999999 999999 999999 999999 999999 999999 999999 999999 999999 999999 999999 999999 999999 999999 999999 999999 999999 999999 999999 999999 999999 999999 999999 999999 999999 999999 999999 999999 999999 999999 999999 999999 999999 999999 999999 999999 999999 0 999999 999999 999999 999999 999999 999999 999999 999999 999999 999999 999999 999999 999999 999999 999999 999999 999999 999999 999999 999999 999999 999999 999999 999999 999999 999999 13772 999999 15952 12252 999999 999999 999999 999999 999999 11358 999999 999999 12224 999999 19718 999999 999999 999999 999999 999999 999999 999999 999999 999999 999999 15297 999999 999999 999999 999999 18175 999999 999999 999999 999999 999999 15257 999999 999999 999999 999999 999999 999999 999999 999999 999999 999999 15426 18274 999999 999999 999999 12224 999999 999999
999999 999999 999999 999999 999999 999999 999999 999999 999999 999999 999999 999999 999999 999999 999999 999999 999999 999999 999999 999999 999999 999999 999999 999999 999999 999999 999999 999999 999999 999999 999999 999999 999999 999999 999999 999999 999999 999999 999999 999999 999999 0 999999 999999 999999 999999 999999 999999 999999 999999 999999 999999 999999 999999 999999 999999 999999 999999 999999 999999 999999 999999 999999 999999 999999 999999 999999 10330 999999 12588 11941 999999 999999 999999 999999 999999 12511 999999 999999 13096 999999 14204 999999 999999 999999 999999 999999 999999 999999 999999 999999 999999 19472 999999 999999 999999 999999 14616 999999 999999 999999 999999 999999 14725 999999 999999 999999 999999 999999 999999 999999 999999 999999 999999 18039 19471 999999 999999 999999 14132 999999 999999
999999 999999 999999 999999 999999 999999 999999 999999 999999 999999 999999 999999 999999 999999 999999 999999 999999 999999 999999 999999 999999 999999 999999 999999 999999 999999 999999 999999 999999 999999 999999 999999 999999 999999 999999 999999 999999 999999 999999 999999 999999 999999 0 999999 999999 999999 999999 999999 999999 999999 999999 999999 999999 999999 999999 999999 999999 999999 999999 999999 999999 999999 999999 999999 999999 999999 999999 13676 999999 15667 18529 999999 999999 999999 999999 999999 11037 999999 999999 14944 999999 17415 999999 999999 999999 999999 999999 999999 999999 999999 999999 999999 19988 999999 999999 999999 999999 16192 999999 999999 999999 999999 999999 18227 999999 999999 999999 999999 999999 999999 999999 999999 999999 999999 19845 15430 999999 999999 999999 15694 999999 999999
999999 999999 999999 999999 999999 999999 999999 999999 999999 999999 999999 999999 999999 999999 999999 999999 999999 999999 999999 999999 999999 999999 999999 999999 999999 999999 999999 999999 999999 999999 999999 999999 999999 999999 999999 999999 999999 999999 999999 999999 999999 999999 999999 0 999999 999999 999999 999999 999999 999999 999999 999999 999999 999999 999999 999999 999999 999999 999999 999999 999999 999999 999999 999999 999999 999999 999999 12386 999999 17711 15800 999999 999999 999999 999999 999999 11805 999999 999999 16734 999999 15045 999999 999999 999999 999999 999999 999999 999999 999999 999999 999999 19638 999999 999999 999999 999999 11049 999999 999999 999999 999999 999999 18836 999999 999999 999999 999999 999999 999999 999999 999999 999999 999999 12207 16522 999999 999999 999999 12806 999999 999999
999999 999999 999999 999999 999999 999999 999999 999999 999999 999999 999999 999999 999999 999999 999999 999999 999999 999999 999999 999999 999999 999999 999999 999999 999999 999999 999999 999999 999999 999999 999999 999999 999999 999999 999999 999999 999999 999999 999999 999999 999999 999999 999999 999999 0 999999 999999 999999 999999 999999 999999 999999 999999 999999 999999 999999 999999 999999 999999 999999 999999 999999 999999 999999 999999 999999 999999 18307 999999 18343 16190 999999 999999 999999 999999 999999 10408 999999 999999 19266 999999 14163 999999 999999 999999 999999 999999 999999 999999 999999 999999 999999 13230 999999 999999 999999 999999 14589 999999 999999 999999 999999 999999 18884 999999 999999 999999 999999 999999 999999 999999 999999 999999 999999 10012 12400 999999 999999 999999 18468 999999 999999
999999 999999 999999 999999 999999 999999 999999 999999 999999 999999 999999 999999 999999 999999 999999 999999 999999 999999 999999 999999 999999 999999 999999 999999 999999 999999 999999 999999 999999 999999 999999 999999 999999 999999 999999 999999 999999 999999 999999 999999 999999 999999 999999 999999 999999 0 999999 999999 999999 999999 999999 999999 999999 999999 999999 999999 999999 999999 999999 999999 999999 999999 999999 999999 999999 999999 999999 17526 999999 13403 19665 999999 999999 999999 999999 999999 14559 999999 999999 10569 999999 13367 999999 999999 999999 999999 999999 999999 999999 999999 999999 999999 11298 999999 999999 999999 999999 14292 999999 999999 999999 999999 999999 18595 999999 999999 999999 999999 999999 999999 999999 999999 999999 999999 15470 19245 999999 999999 999999 10710 999999 999999
999999 999999 999999 999999 999999 999999 999999 999999 999999 999999 999999 999999 999999 999999 999999 999999 999999 999999 999999 999999 999999 999999 999999 999999 999999 999999 999999 999999 999999 999999 999999 999999 999999 999999 999999 999999 999999 999999 999999 999999 999999 999999 999999 999999 999999 999999 0 999999 999999 999999 999999 999999 999999 999999 999999 999999 999999 999999 999999 999999 999999 999999 999999 999999 999999 999999 999999 17734 999999 18037 12217 999999 999999 999999 999999 999999 16541 999999 999999 16565 999999 11991 999999 999999 999999 999999 999999 999999 999999 999999 999999 999999 15267 999999 999999 999999 999999 13503 999999 999999 999999 999999 999999 16384 999999 999999 999999 999999 999999 999999 999999 999999 999999 999999 11566 17653 999999 999999 999999 11800 999999 999999
999999 999999 999999 999999 999999 999999 999999 999999 999999 999999 999999 999999 999999 999999 999999 999999 999999 999999 999999 999999 999999 999999 999999 999999 999999 999999 999999 999999 999999 999999 999999 999999 999999 999999 999999 999999 999999 999999 999999 999999 999999 999999 999999 999999 999999 999999 999999 0 999999 999999 999999 999999 999999 999999 999999 999999 999999 999999 999999 999999 999999 999999 999999 999999 999999 999999 999999 17992 999999 14153 12324 999999 999999 999999 999999 999999 19404 999999 999999 17678 999999 15590 999999 999999 999999 999999 999999 999999 999999 999999 999999 999999 10580 999999 999999 999999 999999 17198 999999 999999 999999 999999 999999 12439 999999 999999 999999 999999 999999 999999 999999 999999 999999 999999 14300 19629 999999 999999 999999 11294 999999 999999
999999 999999 999999 999999 999999 999999 999999 999999 999999 999999 999999 999999 999999 999999 999999 999999 999999 999999 999999 999999 999999 999999 999999 999999 999999 999999 999999 999999 999999 999999 999999 999999 999999 999999 999999 999999 999999 999999 999999 999999 999999 999999 999999 999999 999999 999999 999999 999999 0 999999 999999 999999 999999 999999 999999 999999 999999 999999 999999 999999 999999 999999 999999 999999 999999 999999 999999 11013 999999 13198 10478 999999 999999 999999 999999 999999 15496 999999 999999 19638 999999 12975 999999 999999 999999 999999 999999 999999 999999 999999 999999 999999 16563 999999 999999 999999 999999 14008 999999 999999 999999 999999 999999 19744 999999 999999 999999 999999 999999 999999 999999 999999 999999 999999 10908 10674 999999 999999 999999 14285 999999 999999
999999 999999 999999 999999 999999 999999 999999 999999 999999 999999 999999 999999 999999 999999 999999 999999 999999 999999 999999 999999 999999 999999 999999 999999 999999 999999 999999 999999 999999 999999 999999 999999 999999 999999 999999 999999 999999 999999 999999 999999 999999 999999 999999 999999 999999 999999 999999 999999 999999 0 999999 999999 999999 999999 999999 999999 999999 999999 999999 999999 999999 999999 999999 13651 999999 15049 999999 999999 999999 999999 999999 17380 999999 999999 15671 999999 999999 999999 12366 999999 999999 999999 999999 999999 11341 14578 999999 15223 999999 999999 999999 10721 999999 999999 999999 999999 999999 999999 999999 999999 999999 999999 999999 999999 999999 999999 999999 999999 16364 999999 999999 12890 999999 999999 999999 999999 19842 999999 999999 999999 999999 999999
999999 999999 999999 999999 999999 999999 999999 999999 999999 999999 999999 999999 999999 999999 999999 999999 999999 999999 999999 999999 999999 999999 999999 999999 999999 999999 999999 999999 999999 999999 999999 999999 999999 999999 999999 999999 999999 999999 999999 999999 999999 999999 999999 999999 999999 999999 999999 999999 999999 999999 0 999999 999999 999999 999999 999999 999999 999999 999999 999999 999999 999999 999999 18786 999999 11670 999999 999999 999999 999999 999999 14085 999999 999999 10515 999999 999999 999999 15502 999999 999999 999999 999999 999999 19317 17598 999999 12003 999999 999999 999999 13699 999999 999999 999999 999999 999999 999999 999999 999999 999999 999999 999999 999999 999999 999999 999999 999999 19588 999999 999999 11302 999999 999999 999999 999999 19977 999999 999999 999999 999999 999999
999999 999999 999999 999999 999999 999999 999999 999999 999999 999999 999999 999999 999999 999999 999999 999999 999999 999999 999999 999999 999999 999999 999999 999999 999999 999999 999999 999999 999999 999999 999999 999999 999999 999999 999999 999999 999999 999999 999999 999999 999999 999999 999999 999999 999999 999999 999999 999999 999999 999999 999999 0 999999 999999 999999 999999 999999 999999 999999 999999 999999 999999 999999 11232 999999 16579 999999 999999 999999 999999 999999 10280 999999 999999 19395 999999 999999 999999 19485 999999 999999 999999 999999 999999 18045 11766 999999 18596 999999 999999 999999 16469 999999 999999 999999 999999 999999 999999 999999 999999 999999 999999 999999 999999 999999 999999 999999 999999 11667 999999 999999 19698 999999 999999 999999 999999 12230 999999 999999 999999 999999 999999
999999 999999 999999 999999 999999 999999 999999 999999 999999 999999 999999 999999 999999 999999 999999 999999 999999 999999 999999 999999 999999 999999 999999 999999 999999 999999 999999 999999 999999 999999 999999 999999 999999 999999 999999 999999 999999 999999 999999 999999 999999 999999 999999 999999 999999 999999 999999 999999 999999 999999 999999 999999 0 999999 999999 999999 999999 999999 999999 999999 999999 999999 999999 11001 999999 12982 999999 999999 999999 999999 999999 12900 999999 999999 11637 999999 999999 999999 10153 999999 999999 999999 999999 999999 18716 16962 999999 16016 999999 999999 999999 10182 999999 999999 999999 999999 999999 999999 999999 999999 999999 999999 999999 999999 999999 999999 999999 999999 16743 999999 999999 19252 999999 999999 999999 999999 16647 999999 999999 999999 999999 999999
999999 999999 999999 999999 999999 999999 999999 999999 999999 999999 999999 999999 999999 999999 999999 999999 999999 999999 999999 999999 999999 999999 999999 999999 999999 999999 999999 999999 999999 999999 999999 999999 999999 999999 999999 999999 999999 999999 999999 999999 999999 999999 999999 999999 999999 999999 999999 999999 999999 999999 999999 999999 999999 0 999999 999999 999999 999999 999999 999999 999999 999999 999999 17968 999999 13606 999999 999999 999999 999999 999999 19453 999999 999999 18621 999999 999999 999999 15155 999999 999999 999999 999999 999999 15140 14814 999999 19666 999999 999999 999999 15216 999999 999999 999999 999999 999999 999999 999999 999999 999999 999999 999999 999999 999999 999999 999999 999999 11986 999999 999999 16010 999999 999999 999999 999999 16682 999999 999999 999999 999999 999999
999999 999999 999999 999999 999999 999999 999999 999999 999999 999999 999999 999999 999999 999999 999999 999999 999999 999999 999999 999999 999999 999999 999999 999999 999999 999999 999999 999999 999999 999999 999999 999999 999999 999999 999999 999999 999999 999999 999999 999999 999999 999999 999999 999999 999999 999999 999999 999999 999999 999999 999999 999999 999999 999999 0 999999 999999 999999 999999 999999 999999 999999 999999 14952 999999 18222 999999 999999 999999 999999 999999 12042 999999 999999 16167 999999 999999 999999 19305 999999 999999 999999 999999 999999 12961 10469 999999 12843 999999 999999 999999 17790 999999 999999 999999 999999 999999 999999 999999 999999 999999 999999 999999 999999 999999 999999 999999 999999 19505 999999 999999 17340 999999 999999 999999 999999 14186 999999 999999 999999 999999 999999
999999 999999 999999 999999 999999 999999 999999 999999 999999 999999 999999 999999 999999 999999 999999 999999 999999 999999 999999 999999 999999 999999 999999 999999 999999 999999 999999 999999 999999 999999 999999 999999 999999 999999 999999 999999 999999 999999 999999 999999 999999 999999 999999 999999 999999 999999 999999 999999 999999 999999 999999 999999 999999 999999 999999 0 999999 999999 999999 999999 999999 999999 999999 17731 999999 16066 999999 999999 999999 999999 999999 12752 999999 999999 14799 999999 999999 999999 19966 999999 999999 999999 999999 999999 10591 15720 999999 12022 999999 999999 999999 18818 999999 999999 999999 999999 999999 999999 999999 999999 999999 999999 999999 999999 999999 999999 999999 999999 11607 999999 999999 18332 999999 999999 999999 999999 10270 999999 999999 999999 999999 999999
999999 999999 999999 999999 999999 999999 999999 999999 999999 999999 999999 999999 999999 999999 999999 999999 999999 999999 999999 999999 999999 999999 999999 999999 999999 999999 999999 999999 999999 999999 999999 999999 999999 999999 999999 999999 999999 999999 999999 999999 999999 999999 999999 999999 999999 999999 999999 999999 999999 999999 999999 999999 999999 999999 999999 999999 0 999999 999999 999999 999999 999999 999999 14421 999999 16600 999999 999999 999999 999999 999999 17128 999999 999999 15366 999999 999999 999999 11782 999999 999999 999999 999999 999999 11465 16723 999999 10023 999999 999999 999999 13257 999999 999999 999999 999999 999999 999999 999999 999999 999999 999999 999999 999999 999999 999999 999999 999999 17529 999999 999999 16038 999999 999999 999999 999999 18353 999999 999999 999999 999999 999999
999999 999999 999999 999999 999999 999999 999999 999999 999999 999999 999999 999999 999999 999999 999999 999999 999999 999999 999999 999999 999999 999999 999999 999999 999999 999999 999999 999999 999999 999999 999999 999999 999999 999999 999999 999999 999999 999999 999999 999999 999999 999999 999999 999999 999999 999999 999999 999999 999999 999999 999999 999999 999999 999999 999999 999999 999999 0 999999 999999 999999 999999 999999 17662 999999 17218 999999 999999 999999 999999 999999 10466 999999 999999 12572 999999 999999 999999 15309 999999 999999 999999 999999 999999 16507 13531 999999 16064 999999 999999 999999 14607 999999 999999 999999 999999 999999 999999 999999 999999 999999 999999 999999 999999 999999 999999 999999 999999 12571 999999 999999 17801 999999 999999 999999 999999 11715 999999 999999 999999 999999 999999
999999 999999 999999 999999 999999 999999 999999 999999 999999 999999 999999 999999 999999 999999 999999 999999 999999 999999 999999 999999 999999 999999 999999 999999 999999 999999 999999 999999 999999 999999 999999 999999 999999 999999 999999 999999 999999 999999 999999 999999 999999 999999 999999 999999 999999 999999 999999 999999 999999 999999 999999 999999 999999 999999 999999 999999 999999 999999 0 999999 999999 999999 999999 16677 999999 15757 999999 999999 999999 999999 999999 11740 999999 999999 11975 999999 999999 999999 10864 999999 999999 999999 999999 999999 15994 14441 999999 18673 999999 999999 999999 18438 999999 999999 999999 999999 999999 999999 999999 999999 999999 999999 999999 999999 999999 999999 999999 999999 13624 999999 999999 14109 999999 999999 999999 999999 10496 999999 999999 999999 999999 999999
999999 999999 999999 999999 999999 999999 999999 999999 999999 999999 999999 999999 999999 999999 999999 999999 999999 999999 999999 999999 999999 999999 999999 999999 999999 999999 999999 999999 999999 999999 999999 999999 999999 999999 999999 999999 999999 999999 999999 999999 999999 999999 999999 999999 999999 999999 999999 999999 999999 999999 999999 999999 999999 999999 999999 999999 999999 999999 999999 0 999999 999999 999999 18070 999999 12266 999999 999999 999999 999999 999999 19937 999999 999999 12455 999999 999999 999999 15255 999999 999999 999999 999999 999999 14960 19877 999999 12642 999999 999999 999999 17517 999999 999999 999999 999999 999999 999999 999999 999999 999999 999999 999999 999999 999999 999999 999999 999999 15396 999999 999999 10620 999999 999999 999999 999999 10350 999999 999999 999999 999999 999999
999999 999999 999999 999999 999999 999999 999999 999999 999999 999999 999999 999999 999999 999999 999999 999999 999999 999999 999999 999999 999999 999999 999999 999999 999999 999999 999999 999999 999999 999999 999999 999999 999999 999999 999999 999999 999999 999999 999999 999999 999999 999999 999999 999999 999999 999999 999999 999999 999999 999999 999999 999999 999999 999999 999999 999999 999999 999999 999999 999999 0 999999 999999 15683 999999 11778 999999 999999 999999 999999 999999 12765 999999 999999 14670 999999 999999 999999 14644 999999 999999 999999 999999 999999 12928 10640 999999 14949 999999 999999 999999 16767 999999 999999 999999 999999 999999 999999 999999 999999 999999 999999 999999 999999 999999 999999 999999 999999 12410 999999 999999 16181 999999 999999 999999 999999 16180 999999 999999 999999 999999 999999
999999 19861 19551 16033 17158 17715 18027 18029 18688 18698 10256 10112 14370 10431 18852 11577 18789 19268 19843 14923 10331 17685 13243 10848 12540 14392 13217 18642 12060 12410 13964 13521 16808 10131 15330 12547 18001 12236 19287 14920 11711 15080 19008 14601 16214 18732 19630 15563 18664 11139 18011 19223 18411 13884 11573 13423 13599 13362 10515 13918 18465 0 999999 999999 999999 999999 999999 999999 999999 999999 999999 999999 999999 999999 999999 999999 999999 999999 999999 999999 999999 999999 999999 999999 999999 999999 999999 999999 999999 999999 999999 999999 999999 999999 999999 999999 999999 999999 999999 999999 999999 999999 999999 999999 999999 999999 999999 999999 999999 999999 999999 999999 999999 999999 999999 999999 999999 999999 999999 999999 999999 6250
999999 14536 17350 10750 16696 10771 15839 18102 15878 17879 16193 19021 15824 17954 14556 12007 12068 18964 11660 12762 11090 17269 16410 19389 15311 12427 18175 19379 11676 18544 18323 19267 18446 10548 13582 18221 17023 11520 19316 15820 15156 15468 19090 18719 13521 11671 18194 10300 17501 11831 18886 16366 10411 11375 13522 15888 13054 19556 19496 18882 13213 999999 0 999999 999999 999999 999999 999999 999999 999999 999999 999999 999999 999999 999999 999999 999999 999999 999999 999999 999999 999999 999999 999999 999999 999999 999999 999999 999999 999999 999999 999999 999999 999999 999999 999999 999999 999999 999999 999999 999999 999999 999999 999999 999999 999999 999999 999999 999999 999999 999999 999999 999999 999999 999999 999999 999999 999999 999999 999999 999999 12681
999999 17281 13676 18973 13326 14519 18813 14270 10923 15221 18857 14676 13371 18086 10767 11813 17385 14756 14896 12352 13462 16356 19858 10599 18534 16183 10946 10171 16956 16181 14796 14812 15615 11461 11916 18562 13507 12377 17731 13565 11111 15410 11496 13514 14415 11011 16062 17254 15056 13651 18786 11232 11001 17968 14952 17731 14421 17662 16677 18070 15683 999999 999999 0 999999 999999 999999 999999 999999 999999 999999 999999 999999 999999 999999 999999 999999 999999 999999 999999 999999 999999 999999 999999 999999 999999 999999 999999 999999 999999 999999 999999 999999 999999 999999 999999 999999 999999 999999 999999 999999 999999 999999 999999 999999 999999 999999 999999 999999 999999 999999 999999 999999 999999 999999 999999 999999 999999 999999 999999 999999 11254
999999 19828 16306 11526 12074 17383 17635 13270 18203 11652 14305 13386 14718 14854 16444 18139 10968 19493 19912 19329 10207 14096 19392 10434 18000 14278 19259 15289 12520 19792 19925 13916 19791 18034 17038 18351 14473 16268 12070 13517 14076 17039 17828 17986 15613 11670 17493 19882 18452 16083 14822 13581 19877 11093 12453 11052 11341 14168 12267 18827 17048 999999 999999 999999 0 999999 999999 999999 999999 999999 999999 999999 999999 999999 999999 999999 999999 999999 999999 999999 999999 999999 999999 999999 999999 999999 999999 999999 999999 999999 999999 999999 999999 999999 999999 999999 999999 999999 999999 999999 999999 999999 999999 999999 999999 999999 999999 999999 999999 999999 999999 999999 999999 999999 999999 999999 999999 999999 999999 999999 999999 14734
999999 19291 10072 13994 19569 17841 10243 12041 19516 16931 10142 13318 19047 12816 16107 12062 11455 11042 11235 11269 13551 19226 15026 15091 19337 15804 12613 17295 17077 16677 15933 14576 15732 14279 11590 18085 16395 13487 19393 12421 14986 11067 17063 19152 11483 16561 11114 17280 17444 15049 11670 16579 12982 13606 18222 16066 16600 17218 15757 12266 11778 999999 999999 999999 999999 0 999999 999999 999999 999999 999999 999999 999999 999999 999999 999999 999999 999999 999999 999999 999999 999999 999999 999999 999999 999999 999999 999999 999999 999999 999999 999999 999999 999999 999999 999999 999999 999999 999999 999999 999999 999999 999999 999999 999999 999999 999999 999999 999999 999999 999999 999999 999999 999999 999999 999999 999999 999999 999999 999999 999999 8307
999999 19837 17895 16445 16952 15462 19480 11184 17161 19978 16028 10628 12989 14092 16020 15764 13866 19865 17932 12802 18456 17631 12519 12078 14267 10219 18647 16893 12075 11551 13573 16370 19386 11219 19738 13901 16139 14170 12640 14487 10207 19630 16051 13584 13977 12255 14194 16609 11405 10957 19350 15090 13745 17415 14053 10261 19209 16341 19917 11008 11106 999999 999999 999999 999999 999999 0 999999 999999 999999 999999 999999 999999 999999 999999 999999 999999 999999 999999 999999 999999 999999 999999 999999 999999 999999 999999 999999 999999 999999 999999 999999 999999 999999 999999 999999 999999 999999 999999 999999 999999 999999 999999 999999 999999 999999 999999 999999 999999 999999 999999 999999 999999 999999 999999 999999 999999 999999 999999 999999 999999 7248
999999 11003 19573 18734 10218 10923 13821 12083 19143 12515 16854 15121 11577 14872 14667 19579 16225 15805 14506 19709 19642 17321 11580 13814 17121 16075 11589 11310 19320 11083 18702 11285 13333 17427 11420 12745 12166 15551 16339 13271 13772 10330 13676 12386 18307 17526 17734 17992 11013 16290 18306 18791 19541 14454 14408 18858 11691 10073 11278 19949 17427 999999 999999 999999 999999 999999 999999 0 999999 999999 999999 999999 999999 999999 999999 999999 999999 999999 999999 999999 999999 999999 999999 999999 999999 999999 999999 999999 999999 999999 999999 999999 999999 999999 999999 999999 999999 999999 999999 999999 999999 999999 999999 999999 999999 999999 999999 999999 999999 999999 999999 999999 999999 999999 999999 999999 999999 999999 999999 999999 999999 7285
999999 15235 12028 13801 11764 14611 15572 15940 10865 15330 17523 19480 16101 19836 15837 18436 12824 10684 19365 16466 17957 12792 19066 13787 12950 17841 15213 17126 19203 11811 18366 13489 18997 13751 13921 18221 17820 14580 10167 13537 15190 10649 16400 10418 14432 19178 13246 10171 14989 16101 15264 12618 12206 18490 15466 13528 12955 11089 14018 13140 10896 999999 999999 999999 999999 999999 999999 999999 0 999999 999999 999999 999999 999999 999999 999999 999999 999999 999999 999999 999999 999999 999999 999999 999999 999999 999999 999999 999999 999999 999999 999999 999999 999999 999999 999999 999999 999999 999999 999999 999999 999999 999999 999999 999999 999999 999999 999999 999999 999999 999999 999999 999999 999999 999999 999999 999999 999999 999999 999999 999999 9264
999999 15156 11554 18284 15382 11946 10156 10962 17048 13132 15024 18253 17634 10315 18936 14804 17231 10728 10892 11918 15082 11910 14050 19775 18029 18851 14753 14014 10900 10160 13184 10997 10772 18762 15284 14143 16256 11536 17872 10024 15952 12588 15667 17711 18343 13403 18037 14153 13198 19581 15120 19374 13271 19977 12009 17115 19223 15772 12644 13718 14102 999999 999999 999999 999999 999999 999999 999999 999999 0 999999 999999 999999 999999 999999 999999 999999 999999 999999 999999 999999 999999 999999 999999 999999 999999 999999 999999 999999 999999 999999 999999 999999 999999 999999 999999 999999 999999 999999 999999 999999 999999 999999 999999 999999 999999 999999 999999 999999 999999 999999 999999 999999 999999 999999 999999 999999 999999 999999 999999 999999 7209
999999 13276 16311 16506 14925 16603 19785 16880 13125 13332 18802 10651 16030 18133 13732 18356 12606 17996 16313 11530 11971 14138 10022 19445 18138 18396 18455 16430 15034 10226 10309 19509 13925 17141 16485 10301 13993 14199 10388 10358 12252 11941 18529 15800 16190 19665 12217 12324 10478 13560 16658 13819 17837 15716 16515 11099 15953 15235 19900 18053 13074 999999 999999 999999 999999 999999 999999 999999 999999 999999 0 999999 999999 999999 999999 999999 999999 999999 999999 999999 999999 999999 999999 999999 999999 999999 999999 999999 999999 999999 999999 999999 999999 999999 999999 999999 999999 999999 999999 999999 999999 999999 999999 999999 999999 999999 999999 999999 999999 999999 999999 999999 999999 999999 999999 999999 999999 999999 999999 999999 999999 5345
999999 10254 11483 17868 19803 18771 15786 18208 12456 10645 12764 14940 11675 17852 11987 16836 16408 10540 11979 13012 16506 17333 14638 14327 16969 14998 12710 17560 18084 16743 15609 19256 14805 10903 15167 16996 10153 18528 14846 16290 14824 14823 12573 16969 10729 13382 16666 13635 15562 17380 14085 10280 12900 19453 12042 12752 17128 10466 11740 19937 12765 999999 999999 999999 999999 999999 999999 999999 999999 999999 999999 0 999999 999999 999999 999999 999999 999999 999999 999999 999999 999999 999999 999999 999999 999999 999999 999999 999999 999999 999999 999999 999999 999999 999999 999999 999999 999999 999999 999999 999999 999999 999999 999999 999999 999999 999999 999999 999999 999999 999999 999999 999999 999999 999999 999999 999999 999999 999999 999999 999999 8443
999999 10678 19861 13156 10979 16399 13103 12422 13844 18956 12065 15954 13603 17023 12572 14501 13316 15082 12593 13394 13191 12049 14559 10080 12796 14361 16217 14714 18472 17416 15972 17533 18447 14443 15748 13739 11007 14128 17822 15794 15789 13292 16672 12213 12806 19269 10361 19843 13735 19966 14038 15642 16214 11099 19620 11066 16164 19255 17348 12180 19858 999999 999999 999999 999999 999999 999999 999999 999999 999999 999999 999999 0 999999 999999 999999 999999 999999 999999 999999 999999 999999 999999 999999 999999 999999 999999 999999 999999 999999 999999 999999 999999 999999 999999 999999 999999 999999 999999 999999 999999 999999 999999 999999 999999 999999 999999 999999 999999 999999 999999 999999 999999 999999 999999 999999 999999 999999 999999 999999 999999 8553
999999 17703 10524 11900 16605 15853 11477 10123 15954 17545 15711 15259 11467 13861 14847 17583 14323 16668 12767 11418 11357 14636 12116 11092 11881 12602 16926 18321 12418 17118 14684 19958 14211 15648 10116 17613 17949 10981 18627 10557 10606 15849 11768 13422 12316 17126 11511 12741 17637 14719 13213 18868 14859 13029 10068 14988 11054 13261 19634 15420 17566 999999 999999 999999 999999 999999 999999 999999 999999 999999 999999 999999 999999 0 999999 999999 999999 999999 999999 999999 999999 999999 999999 999999 999999 999999 999999 999999 999999 999999 999999 999999 999999 999999 999999 999999 999999 999999 999999 999999 999999 999999 999999 999999 999999 999999 999999 999999 999999 999999 999999 999999 999999 999999 999999 999999 999999 999999 999999 999999 999999 11021
999999 18172 19528 11046 13301 16461 12950 17100 10611 11064 13673 12719 17194 12006 19467 13809 10131 14604 16908 10199 16339 16547 15220 13739 14541 15336 16739 10140 10503 18686 18681 11017 13120 12893 13239 11960 11106 15375 13032 16779 15864 11641 19228 15555 18741 15957 11066 19379 14270 15671 10515 19395 11637 18621 16167 14799 15366 12572 11975 12455 14670 999999 999999 999999 999999 999999 999999 999999 999999 999999 999999 999999 999999 999999 0 999999 999999 999999 999999 999999 999999 999999 999999 999999 999999 999999 999999 999999 999999 999999 999999 999999 999999 999999 999999 999999 999999 999999 999999 999999 999999 999999 999999 999999 999999 999999 999999 999999 999999 999999 999999 999999 999999 999999 999999 999999 999999 999999 999999 999999 999999 6992
999999 18459 12169 10278 14172 19609 15141 11995 16562 14467 10576 18015 12657 16140 16257 10949 11209 11006 13294 14767 13823 11810 17132 18578 16178 14662 19416 19881 10154 18811 12524 14607 19979 17191 17594 14950 18526 16041 18328 14965 16665 13996 16326 16021 17929 12470 13161 19327 19098 12654 17546 11767 14653 14883 15520 14246 17159 11298 19134 13521 15904 999999 999999 999999 999999 999999 999999 999999 999999 999999 999999 999999 999999 999999 999999 0 999999 999999 999999 999999 999999 999999 999999 999999 999999 999999 999999 999999 999999 999999 999999 999999 999999 999999 999999 999999 999999 999999 999999 999999 999999 999999 999999 999999 999999 999999 999999 999999 999999 999999 999999 999999 999999 999999 999999 999999 999999 999999 999999 999999 999999 6828
999999 15696 16300 17971 18408 18249 19805 14136 17826 17658 13234 15858 10628 19568 17381 16059 16277 12718 11632 16117 16509 11978 14211 16023 19331 14561 18285 12971 12427 15804 18435 13343 19636 19548 12048 19490 11439 14994 15277 11726 11358 12511 11037 11805 10408 14559 16541 19404 15496 19871 11489 18865 16552 17031 18521 15769 13963 11981 14232 17663 11054 999999 999999 999999 999999 999999 999999 999999 999999 999999 999999 999999 999999 999999 999999 999999 0 999999 999999 999999 999999 999999 999999 999999 999999 999999 999999 999999 999999 999999 999999 999999 999999 999999 999999 999999 999999 999999 999999 999999 999999 999999 999999 999999 999999 999999 999999 999999 999999 999999 999999 999999 999999 999999 999999 999999 999999 999999 999999 999999 999999 8070
999999 12253 14830 14741 17067 14343 14438 10462 18288 17841 10773 14670 14281 15754 13079 19481 16867 19765 17628 19086 17141 17921 18996 14981 12802 10547 14681 19598 14063 13966 14482 19125 18285 13645 18569 13605 18691 15224 14492 16862 10465 10893 16786 10757 19370 11907 12617 15345 16644 16470 17615 17129 17085 17493 15447 19880 19353 17566 12072 14964 10646 999999 999999 999999 999999 999999 999999 999999 999999 999999 999999 999999 999999 999999 999999 999999 999999 0 999999 999999 999999 999999 999999 999999 999999 999999 999999 999999 999999 999999 999999 999999 999999 999999 999999 999999 999999 999999 999999 999999 999999 999999 999999 999999 999999 999999 999999 999999 999999 999999 999999 999999 999999 999999 999999 999999 999999 999999 999999 999999 999999 9975
999999 15615 15049 12086 11697 10245 18938 12521 13055 15424 13615 18349 10467 14600 12882 13310 12279 15019 17101 17541 12058 11038 18557 14846 19367 19828 17948 12431 14171 11179 19335 13742 12248 13002 12905 18683 10384 10059 18252 13861 12633 14139 18572 16615 18322 14961 10749 12650 17085 12366 15502 19485 10153 15155 19305 19966 11782 15309 10864 15255 14644 999999 999999 999999 999999 999999 999999 999999 999999 999999 999999 999999 999999 999999 999999 999999 999999 999999 0 999999 999999 999999 999999 999999 999999 999999 999999 999999 999999 999999 999999 999999 999999 999999 999999 999999 999999 999999 999999 999999 999999 999999 999999 999999 999999 999999 999999 999999 999999 999999 999999 999999 999999 999999 999999 999999 999999 999999 999999 999999 999999 11171
999999 13676 12621 18765 16539 15080 19461 18144 19023 14901 11518 18277 15759 16490 17644 11140 10240 10329 18609 12892 18125 15128 10649 10749 19972 12361 10353 17420 14364 11221 11413 12381 13048 10128 11923 16455 10441 13883 19773 17360 12224 13096 14944 16734 19266 10569 16565 17678 19638 10788 11859 19524 16489 13151 13262 15868 11197 16462 13878 17147 10087 999999 999999 999999 999999 999999 999999 999999 999999 999999 999999 999999 999999 999999 999999 999999 999999 999999 999999 0 999999 999999 999999 999999 999999 999999 999999 999999 999999 999999 999999 999999 999999 999999 999999 999999 999999 999999 999999 999999 999999 999999 999999 999999 999999 999999 999999 999999 999999 999999 999999 999999 999999 999999 999999 999999 999999 999999 999999 999999 999999 5718
999999 16355 15017 17264 17880 16687 11882 10024 17263 16498 16806 11310 16221 11992 16477 17284 18974 12163 10823 10143 16465 15331 11634 16546 11024 10425 10156 13260 16794 17755 14669 10801 15182 17322 15326 17372 17536 19688 16087 10623 12818 12887 11791 16253 15110 15558 13244 14573 15318 17655 19592 14186 11883 11016 15448 19597 19937 15832 14630 12357 15033 999999 999999 999999 999999 999999 999999 999999 999999 999999 999999 999999 999999 999999 999999 999999 999999 999999 999999 999999 0 999999 999999 999999 999999 999999 999999 999999 999999 999999 999999 999999 999999 999999 999999 999999 999999 999999 999999 999999 999999 999999 999999 999999 999999 999999 999999 999999 999999 999999 999999 999999 999999 999999 999999 999999 999999 999999 999999 999999 999999 14101
999999 15878 16530 19922 16633 19140 12189 15413 10686 19673 10261 16038 15862 14497 19940 13093 13780 13712 15361 13274 16891 15389 16496 14222 18427 14031 18385 14260 14300 17437 17959 17738 15327 19001 19327 11235 12162 10506 12178 14402 19718 14204 17415 15045 14163 13367 11991 15590 12975 18493 18901 14778 16738 15012 13070 15241 18968 16502 18773 12077 16364 999999 999999 999999 999999 999999 999999 999999 999999 999999 999999 999999 999999 999999 999999 999999 999999 999999 999999 999999 999999 0 999999 999999 999999 999999 999999 999999 999999 999999 999999 999999 999999 999999 999999 999999 999999 999999 999999 999999 999999 999999 999999 999999 999999 999999 999999 999999 999999 999999 999999 999999 999999 999999 999999 999999 999999 999999 999999 999999 999999 9915
999999 16503 17586 10058 13571 13730 15517 11608 17245 12648 17361 15726 14372 15018 17659 10126 19945 13729 12291 17142 12333 18554 10418 10765 15084 11491 18056 17252 19157 17986 13226 16011 11155 18957 19278 10379 17181 19359 14018 16615 15567 14046 11942 10506 10507 10300 13622 15189 17143 14510 17081 19960 12538 15167 17015 16536 19851 17690 13987 15670 17219 999999 999999 999999 999999 999999 999999 999999 999999 999999 999999 999999 999999 999999 999999 999999 999999 999999 999999 999999 999999 999999 0 999999 999999 999999 999999 999999 999999 999999 999999 999999 999999 999999 999999 999999 999999 999999 999999 999999 999999 999999 999999 999999 999999 999999 999999 999999 999999 999999 999999 999999 999999 999999 999999 999999 999999 999999 999999 999999 999999 12803
999999 14412 18113 19503 17689 13541 15777 19539 18106 18348 17907 14290 12598 19657 11464 13376 18335 12461 15890 18261 12530 18943 11582 18022 17974 19431 18006 10951 11023 15113 13280 16450 12386 18927 11014 18749 12030 18231 13106 18492 18545 14589 14589 15468 18727 11045 15472 18690 11430 17701 15019 10297 16923 19258 12584 11494 15305 16112 15003 14118 11070 999999 999999 999999 999999 999999 999999 999999 999999 999999 999999 999999 999999 999999 999999 999999 999999 999999 999999 999999 999999 999999 999999 0 999999 999999 999999 999999 999999 999999 999999 999999 999999 999999 999999 999999 999999 999999 999999 999999 999999 999999 999999 999999 999999 999999 999999 999999 999999 999999 999999 999999 999999 999999 999999 999999 999999 999999 999999 999999 999999 10247
999999 17201 11007 12178 11237 11488 18135 13623 16882 13909 18923 12800 18435 13449 12069 18196 14602 19975 14086 17811 13818 11419 18096 10686 14190 16260 16857 16016 10288 11980 17436 14074 17726 10198 15813 10757 14395 18214 19108 18007 12747 14481 13368 10350 16391 15877 18353 17766 13224 11341 19317 18045 18716 15140 12961 10591 11465 16507 15994 14960 12928 999999 999999 999999 999999 999999 999999 999999 999999 999999 999999 999999 999999 999999 999999 999999 999999 999999 999999 999999 999999 999999 999999 999999 0 999999 999999 999999 999999 999999 999999 999999 999999 999999 999999 999999 999999 999999 999999 999999 999999 999999 999999 999999 999999 999999 999999 999999 999999 999999 999999 999999 999999 999999 999999 999999 999999 999999 999999 999999 999999 5294
999999 12506 14370 19539 17016 12270 16412 10105 11514 18992 16206 14862 15010 13674 10233 16235 13068 18959 14287 14892 18074 13976 19755 12906 19576 17508 12541 17220 11913 18888 18248 12479 12692 15089 12433 15496 17693 14517 13947 14360 17306 15544 19367 16244 18246 10962 14205 14394 15743 14578 17598 11766 16962 14814 10469 15720 16723 13531 14441 19877 10640 999999 999999 999999 999999 999999 999999 999999 999999 999999 999999 999999 999999 999999 999999 999999 999999 999999 999999 999999 999999 999999 999999 999999 999999 0 999999 999999 999999 999999 999999 999999 999999 999999 999999 999999 999999 999999 999999 999999 999999 999999 999999 999999 999999 999999 999999 999999 999999 999999 999999 999999 999999 999999 999999 999999 999999 999999 999999 999999 999999 8213
999999 11345 14925 19372 10604 19490 11502 13076 18518 11670 15125 18428 17858 14485 12890 19824 14507 19477 18491 16708 15504 11173 12757 13873 14497 15379 10103 16176 18270 14009 14925 12735 15686 15559 13896 17349 10697 15998 17677 16565 18412 12172 13249 13015 16213 19875 16375 10566 10611 14718 13956 11117 17131 17913 18521 17062 16792 13483 15149 17037 15872 999999 999999 999999 999999 999999 999999 999999 999999 999999 999999 999999 999999 999999 999999 999999 999999 999999 999999 999999 999999 999999 999999 999999 999999 999999 0 999999 999999 999999 999999 999999 999999 999999 999999 999999 999999 999999 999999 999999 999999 999999 999999 999999 999999 999999 999999 999999 999999 999999 999999 999999 999999 999999 999999 999999 999999 999999 999999 999999 999999 9261
999999 13137 18749 18372 17135 12453 11736 16491 11281 11078 12327 12867 16328 19708 10489 19950 13097 15430 16783 10056 13539 16719 14086 12198 15216 19703 16470 17688 14182 15496 18698 13321 19865 17461 18947 10067 19481 10135 15596 17804 17265 12765 17943 11414 17937 17351 18132 10256 16495 15223 12003 18596 16016 19666 12843 12022 10023 16064 18673 12642 14949 999999 999999 999999 999999 999999 999999 999999 999999 999999 999999 999999 999999 999999 999999 999999 999999 999999 999999 999999 999999 999999 999999 999999 999999 999999 999999 0 999999 999999 999999 999999 999999 999999 999999 999999 999999 999999 999999 999999 999999 999999 999999 999999 999999 999999 999999 999999 999999 999999 999999 999999 999999 999999 999999 999999 999999 999999 999999 999999 999999 8143
999999 17386 12385 11766 11296 18882 16632 18092 18013 14233 12763 14604 17859 11248 14336 12803 17388 16999 10784 12925 15300 14965 15059 16266 19558 10072 16978 19999 15151 13055 15418 15965 16592 14112 10192 16448 18305 19813 12774 11078 10607 16458 12245 11343 17742 15442 12131 10295 16828 18586 17017 17078 13660 19663 16257 10559 14240 10536 12708 19396 12291 999999 999999 999999 999999 999999 999999 999999 999999 999999 999999 999999 999999 999999 999999 999999 999999 999999 999999 999999 999999 999999 999999 999999 999999 999999 999999 999999 0 999999 999999 999999 999999 999999 999999 999999 999999 999999 999999 999999 999999 999999 999999 999999 999999 999999 999999 999999 999999 999999 999999 999999 999999 999999 999999 999999 999999 999999 999999 999999 999999 14858
999999 19000 18053 15777 11235 19987 19858 17570 11060 15515 13878 13392 15531 15938 11061 13871 11566 11466 18694 13621 18405 15508 14517 17825 13256 17974 16891 18170 16183 12230 19093 12013 11343 13963 12214 18098 10498 11669 10247 18328 14751 12640 19060 13777 13018 17346 19316 16991 13525 14214 11235 11181 12782 13621 15873 17137 12289 19092 18368 15051 11825 999999 999999 999999 999999 999999 999999 999999 999999 999999 999999 999999 999999 999999 999999 999999 999999 999999 999999 999999 999999 999999 999999 999999 999999 999999 999999 999999 999999 0 999999 999999 999999 999999 999999 999999 999999 999999 999999 999999 999999 999999 999999 999999 999999 999999 999999 999999 999999 999999 999999 999999 999999 999999 999999 999999 999999 999999 999999 999999 999999 8343
999999 13484 12938 13198 14366 15799 16763 13343 10560 15507 13431 19260 16639 18666 11740 17737 10982 16843 19114 15862 15266 12886 15664 18461 19055 11981 11472 12972 10800 10973 13301 19739 19581 12926 14604 10457 10462 14813 17956 19026 12115 17494 14833 14728 17292 16865 13082 18901 15891 18778 18904 19592 14168 10695 11363 18462 15894 13557 17741 17552 16023 999999 999999 999999 999999 999999 999999 999999 999999 999999 999999 999999 999999 999999 999999 999999 999999 999999 999999 999999 999999 999999 999999 999999 999999 999999 999999 999999 999999 999999 0 999999 999999 999999 999999 999999 999999 999999 999999 999999 999999 999999 999999 999999 999999 999999 999999 999999 999999 999999 999999 999999 999999 999999 999999 999999 999999 999999 999999 999999 999999 6573
999999 12299 14280 14820 10659 14815 11794 17775 13462 15278 18988 17646 17533 12423 12468 12913 16423 13914 17169 11600 15543 16123 18887 18739 10028 11428 10260 12640 16524 10761 12604 14865 16577 12025 13297 12645 14729 10079 10054 16959 14511 19898 17858 10640 13412 10978 19176 14784 10900 10721 13699 16469 10182 15216 17790 18818 13257 14607 18438 17517 16767 999999 999999 999999 999999 999999 999999 999999 999999 999999 999999 999999 999999 999999 999999 999999 999999 999999 999999 999999 999999 999999 999999 999999 999999 999999 999999 999999 999999 999999 999999 0 999999 999999 999999 999999 999999 999999 999999 999999 999999 999999 999999 999999 999999 999999 999999 999999 999999 999999 999999 999999 999999 999999 999999 999999 999999 999999 999999 999999 999999 5696
999999 19576 13481 11200 11010 15486 19564 13066 16370 19782 13521 17019 18262 19422 14069 16423 10679 12472 19281 16244 16652 12611 10398 18322 19699 19168 16684 19738 18986 12618 19344 14359 15571 11246 13436 14387 13969 10527 18549 19049 15297 19472 19988 19638 13230 11298 15267 10580 16563 19020 18263 20000 18619 16690 15806 19071 14654 16006 15324 16704 17166 999999 999999 999999 999999 999999 999999 999999 999999 999999 999999 999999 999999 999999 999999 999999 999999 999999 999999 999999 999999 999999 999999 999999 999999 999999 999999 999999 999999 999999 999999 999999 0 999999 999999 999999 999999 999999 999999 999999 999999 999999 999999 999999 999999 999999 999999 999999 999999 999999 999999 999999 999999 999999 999999 999999 999999 999999 999999 999999 999999 12165
999999 11901 18142 19593 12329 17826 14858 11028 16166 18872 18258 12037 19770 15064 11615 17838 11420 19562 19481 13022 15189 19655 13057 15734 11161 12628 19921 17012 10611 10626 10410 11676 13343 13710 18120 17002 17670 15396 15218 11173 11530 18908 10667 18933 12705 13461 14325 19890 15069 13695 15761 14900 16305 19439 19591 14178 11640 10535 18846 11366 14207 999999 999999 999999 999999 999999 999999 999999 999999 999999 999999 999999 999999 999999 999999 999999 999999 999999 999999 999999 999999 999999 999999 999999 999999 999999 999999 999999 999999 999999 999999 999999 999999 0 999999 999999 999999 999999 999999 999999 999999 999999 999999 999999 999999 999999 999999 999999 999999 999999 999999 999999 999999 999999 999999 999999 999999 999999 999999 999999 999999 6429
999999 13462 18452 14474 18460 15891 17499 14220 17476 14694 10987 15054 19789 13229 14351 18130 11866 15646 19855 13412 17717 11508 13128 17885 15140 17302 14494 18054 15085 14761 13790 16214 16979 14762 19712 19950 12062 19663 11579 16307 18304 14385 16625 10893 13158 18950 10830 10356 18613 11264 10745 17496 18092 13306 14089 14847 16219 17274 17813 16253 15973 999999 999999 999999 999999 999999 999999 999999 999999 999999 999999 999999 999999 999999 999999 999999 999999 999999 999999 999999 999999 999999 999999 999999 999999 999999 999999 999999 999999 999999 999999 999999 999999 999999 0 999999 999999 999999 999999 999999 999999 999999 999999 999999 999999 999999 999999 999999 999999 999999 999999 999999 999999 999999 999999 999999 999999 999999 999999 999999 999999 5303
999999 16860 19018 17620 12438 15439 13013 13704 19738 16280 13326 15681 14969 14881 14349 10077 10228 17170 19739 17703 18794 14272 19391 13799 11262 19493 18580 14471 16120 14189 19240 17449 13899 15823 17284 16132 12394 12289 10445 18081 13377 17956 19827 12695 19886 15128 19946 11165 17801 16396 15593 19244 17755 18504 15997 11989 13412 15217 15109 11365 13610 999999 999999 999999 999999 999999 999999 999999 999999 999999 999999 999999 999999 999999 999999 999999 999999 999999 999999 999999 999999 999999 999999 999999 999999 999999 999999 999999 999999 999999 999999 999999 999999 999999 999999 0 999999 999999 999999 999999 999999 999999 999999 999999 999999 999999 999999 999999 999999 999999 999999 999999 999999 999999 999999 999999 999999 999999 999999 999999 999999 6886
999999 16606 16832 14365 10433 18495 14490 19499 19777 19844 19306 13276 19692 14707 10703 16684 13862 19051 13492 11698 15437 13362 11054 19125 14803 10710 18417 16169 17183 12016 12938 18757 12175 12203 12054 11282 12301 17294 11836 16413 12679 10466 17527 19922 15949 11562 14176 12748 18326 17638 11340 19027 18287 10112 13667 11018 13900 16277 19728 18163 13725 999999 999999 999999 999999 999999 999999 999999 999999 999999 999999 999999 999999 999999 999999 999999 999999 999999 999999 999999 999999 999999 999999 999999 999999 999999 999999 999999 999999 999999 999999 999999 999999 999999 999999 999999 0 999999 999999 999999 999999 999999 999999 999999 999999 999999 999999 999999 999999 999999 999999 999999 999999 999999 999999 999999 999999 999999 999999 999999 999999 8932
999999 14004 12721 16217 13481 18239 12044 13434 18220 12004 18628 18123 16122 11031 13363 14226 13886 13165 16774 16488 17215 17728 14415 10008 19990 17505 18568 14830 10889 11832 14989 10382 13344 19170 15859 11591 16683 13633 11755 13703 18175 14616 16192 11049 14589 14292 13503 17198 14008 15286 16408 11279 16972 19031 19670 11006 18783 13756 12465 18721 18687 999999 999999 999999 999999 999999 999999 999999 999999 999999 999999 999999 999999 999999 999999 999999 999999 999999 999999 999999 999999 999999 999999 999999 999999 999999 999999 999999 999999 999999 999999 999999 999999 999999 999999 999999 999999 0 999999 999999 999999 999999 999999 999999 999999 999999 999999 999999 999999 999999 999999 999999 999999 999999 999999 999999 999999 999999 999999 999999 999999 12492
999999 16352 11295 15194 12955 13900 19663 16753 16296 16691 14063 11568 15363 14742 15193 14339 13542 18729 14910 10578 13386 12640 10786 19701 14524 14807 10502 10666 10449 16725 16559 13508 16755 15982 15827 10412 11015 16964 13618 16655 19268 17530 19181 15630 17257 18142 12076 14231 10177 10628 15997 13062 17867 14135 19586 10586 12936 14343 13901 10792 17415 999999 999999 999999 999999 999999 999999 999999 999999 999999 999999 999999 999999 999999 999999 999999 999999 999999 999999 999999 999999 999999 999999 999999 999999 999999 999999 999999 999999 999999 999999 999999 999999 999999 999999 999999 999999 999999 0 999999 999999 999999 999999 999999 999999 999999 999999 999999 999999 999999 999999 999999 999999 999999 999999 999999 999999 999999 999999 999999 999999 13879
999999 13513 13157 17186 13993 12293 13040 13583 17634 10865 18259 15108 14716 14549 19190 13264 11081 18861 13439 17059 13831 17329 14104 15448 15731 15076 16784 13001 17507 12078 20000 10827 14692 19452 19058 19494 15675 13705 18603 13413 10416 11314 11564 11632 15984 15545 19016 19992 10764 12988 18664 13311 10577 12130 18035 16179 17099 12352 19273 18924 11553 999999 999999 999999 999999 999999 999999 999999 999999 999999 999999 999999 999999 999999 999999 999999 999999 999999 999999 999999 999999 999999 999999 999999 999999 999999 999999 999999 999999 999999 999999 999999 999999 999999 999999 999999 999999 999999 999999 0 999999 999999 999999 999999 999999 999999 999999 999999 999999 999999 999999 999999 999999 999999 999999 999999 999999 999999 999999 999999 999999 5222
999999 18218 11644 13254 15806 16124 19902 16110 11661 18000 18791 19499 19918 13865 13818 16682 12307 13176 16341 13507 14994 17164 11477 14208 13530 19296 11301 18604 12159 12190 11561 14109 15269 19433 12544 18689 12698 19241 18245 14541 16896 17482 18348 16513 16273 11307 16783 18328 18400 14986 16044 11541 19355 16029 14086 18612 10103 15596 15720 19397 19404 999999 999999 999999 999999 999999 999999 999999 999999 999999 999999 999999 999999 999999 999999 999999 999999 999999 999999 999999 999999 999999 999999 999999 999999 999999 999999 999999 999999 999999 999999 999999 999999 999999 999999 999999 999999 999999 999999 999999 0 999999 999999 999999 999999 999999 999999 999999 999999 999999 999999 999999 999999 999999 999999 999999 999999 999999 999999 999999 999999 9524
999999 16396 16020 12102 12248 12149 19264 14949 11965 14230 13525 14929 10973 19765 13948 17107 18229 15675 18742 16973 16905 19527 11061 17250 17975 18805 19328 19495 13407 17144 11558 10724 10848 19350 15252 19312 11679 14938 15159 11026 18119 18301 18497 14649 15843 18018 10167 19591 16808 13372 15023 15860 10462 10906 14517 19754 11860 13908 10912 15053 18215 999999 999999 999999 999999 999999 999999 999999 999999 999999 999999 999999 999999 999999 999999 999999 999999 999999 999999 999999 999999 999999 999999 999999 999999 999999 999999 999999 999999 999999 999999 999999 999999 999999 999999 999999 999999 999999 999999 999999 999999 0 999999 999999 999999 999999 999999 999999 999999 999999 999999 999999 999999 999999 999999 999999 999999 999999 999999 999999 999999 12649
999999 12466 10290 17804 17998 14079 18974 18963 18269 11157 12737 12956 18871 17807 10104 15793 18968 11579 11398 18331 17620 17190 16167 17777 17903 13664 16402 19714 17087 12320 13290 10902 10971 18404 13988 11752 18696 18632 18496 11131 19566 10494 10614 16138 12659 18467 14274 17449 14836 18668 15653 14199 14527 16436 19883 18906 12903 19125 12319 18122 10110 999999 999999 999999 999999 999999 999999 999999 999999 999999 999999 999999 999999 999999 999999 999999 999999 999999 999999 999999 999999 999999 999999 999999 999999 999999 999999 999999 999999 999999 999999 999999 999999 999999 999999 999999 999999 999999 999999 999999 999999 999999 0 999999 999999 999999 999999 999999 999999 999999 999999 999999 999999 999999 999999 999999 999999 999999 999999 999999 999999 8323
999999 10862 13993 13772 19260 15361 15556 16448 15488 16181 13325 14758 18051 10089 16729 18265 11855 13734 18608 10674 18598 13243 13410 17136 17020 17062 12479 14909 13111 10582 14254 19201 17806 12313 18143 17821 13124 16059 11629 17339 15257 14725 18227 18836 18884 18595 16384 12439 19744 15783 10830 11685 10843 14615 17813 18157 16651 18490 15413 16703 14192 999999 999999 999999 999999 999999 999999 999999 999999 999999 999999 999999 999999 999999 999999 999999 999999 999999 999999 999999 999999 999999 999999 999999 999999 999999 999999 999999 999999 999999 999999 999999 999999 999999 999999 999999 999999 999999 999999 999999 999999 999999 999999 0 999999 999999 999999 999999 999999 999999 999999 999999 999999 999999 999999 999999 999999 999999 999999 999999 999999 7931
999999 17535 16741 10206 19100 16484 14575 15692 13430 15787 16695 17261 18290 18981 11289 13079 18645 11194 15712 12359 19390 15530 17249 11529 17699 12630 18221 16249 12986 13694 10736 18977 13468 19086 19940 17937 17304 19605 11391 19787 12084 19124 10199 14782 12759 11553 19596 19431 19103 11270 11070 17317 14366 13037 16210 16331 11035 13496 14297 18671 18307 999999 999999 999999 999999 999999 999999 999999 999999 999999 999999 999999 999999 999999 999999 999999 999999 999999 999999 999999 999999 999999 999999 999999 999999 999999 999999 999999 999999 999999 999999 999999 999999 999999 999999 999999 999999 999999 999999 999999 999999 999999 999999 999999 0 999999 999999 999999 999999 999999 999999 999999 999999 999999 999999 999999 999999 999999 999999 999999 999999 13089
999999 15040 18631 19708 17859 17649 18810 13344 19212 16995 10410 11948 15838 13472 11765 11941 10300 18436 19460 10748 11808 16644 14099 17870 15862 12374 19186 17052 17354 14768 13061 14341 13334 18438 10505 15373 11446 19790 17698 14726 15120 13131 10019 16089 16524 18380 19062 10017 17207 19774 10346 10050 18536 17034 18709 10711 13353 12404 12318 12759 17006 999999 999999 999999 999999 999999 999999 999999 999999 999999 999999 999999 999999 999999 999999 999999 999999 999999 999999 999999 999999 999999 999999 999999 999999 999999 999999 999999 999999 999999 999999 999999 999999 999999 999999 999999 999999 999999 999999 999999 999999 999999 999999 999999 999999 0 999999 999999 999999 999999 999999 999999 999999 999999 999999 999999 999999 999999 999999 999999 999999 5759
999999 10153 16924 15514 11012 11794 16078 10981 12796 19784 15552 14882 18314 13612 15558 19590 11031 15955 14869 17955 17910 16720 17050 16421 14768 16941 13221 17145 16998 17162 18541 12017 13906 10201 18056 17261 18357 13860 18871 18649 18992 13203 16028 19061 10753 11443 13760 14655 15837 11411 11122 16753 11483 17693 13422 16283 10142 11865 16385 13108 17009 999999 999999 999999 999999 999999 999999 999999 999999 999999 999999 999999 999999 999999 999999 999999 999999 999999 999999 999999 999999 999999 999999 999999 999999 999999 999999 999999 999999 999999 999999 999999 999999 999999 999999 999999 999999 999999 999999 999999 999999 999999 999999 999999 999999 999999 0 999999 999999 999999 999999 999999 999999 999999 999999 999999 999999 999999 999999 999999 999999 9101
999999 15456 10053 12895 10423 16964 11865 19499 11426 14026 19930 18028 11132 10952 17244 14390 12762 11992 10358 19704 13440 11596 15910 17208 19409 18252 18847 15980 11553 18347 19563 18711 15032 10635 14091 14895 13535 11845 14667 10037 11947 18160 19628 17067 11362 16885 16684 16538 11916 17574 11069 12136 19768 16991 13762 12750 12219 12780 15554 17520 19378 999999 999999 999999 999999 999999 999999 999999 999999 999999 999999 999999 999999 999999 999999 999999 999999 999999 999999 999999 999999 999999 999999 999999 999999 999999 999999 999999 999999 999999 999999 999999 999999 999999 999999 999999 999999 999999 999999 999999 999999 999999 999999 999999 999999 999999 999999 0 999999 999999 999999 999999 999999 999999 999999 999999 999999 999999 999999 999999 999999 14785
999999 14699 12511 18098 19096 17726 14786 10316 17895 19186 19512 16307 10173 12228 10404 11694 15379 17513 14910 15897 19998 14282 10681 15937 19340 16500 14055 19485 14345 18581 17225 14110 18248 13071 18337 15994 10168 16247 11441 16840 14045 16578 11867 13771 12554 11692 12945 14083 17365 16364 19588 11667 16743 11986 19505 11607 17529 12571 13624 15396 12410 999999 999999 999999 999999 999999 999999 999999 999999 999999 999999 999999 999999 999999 999999 999999 999999 999999 999999 999999 999999 999999 999999 999999 999999 999999 999999 999999 999999 999999 999999 999999 999999 999999 999999 999999 999999 999999 999999 999999 999999 999999 999999 999999 999999 999999 999999 999999 0 999999 999999 999999 999999 999999 999999 999999 999999 999999 999999 999999 999999 13749
999999 10079 11667 17818 14233 16588 11989 10393 16125 15573 17733 19898 12278 19091 13770 17331 12422 14816 13660 13434 19910 15551 10986 18402 14852 14292 12993 18007 16027 15339 15463 13862 11858 14896 13042 18183 16417 18294 13108 19723 14711 17159 16913 10558 19590 16362 13954 12645 13982 11716 12091 13469 15627 19210 17373 17049 15052 15189 15503 14069 10363 999999 999999 999999 999999 999999 999999 999999 999999 999999 999999 999999 999999 999999 999999 999999 999999 999999 999999 999999 999999 999999 999999 999999 999999 999999 999999 999999 999999 999999 999999 999999 999999 999999 999999 999999 999999 999999 999999 999999 999999 999999 999999 999999 999999 999999 999999 999999 999999 0 999999 999999 999999 999999 999999 999999 999999 999999 999999 999999 999999 8873
999999 13689 14562 15684 11919 10137 14249 14635 13457 10108 18089 19493 12990 19472 11838 15687 10239 19411 12344 16681 17873 18162 13889 14407 13968 19129 17171 10944 14350 16842 13604 14656 12180 15794 12351 11945 12852 11342 14899 19780 19666 18140 17753 17959 12009 15746 13046 18524 14287 14035 14440 16243 10255 11485 15685 18196 16425 17399 13160 13201 13483 999999 999999 999999 999999 999999 999999 999999 999999 999999 999999 999999 999999 999999 999999 999999 999999 999999 999999 999999 999999 999999 999999 999999 999999 999999 999999 999999 999999 999999 999999 999999 999999 999999 999999 999999 999999 999999 999999 999999 999999 999999 999999 999999 999999 999999 999999 999999 999999 999999 0 999999 999999 999999 999999 999999 999999 999999 999999 999999 999999 11441
999999 13657 18919 12295 16813 14556 10473 14270 13081 14869 13439 18629 16238 13346 13717 10662 15355 11205 18276 10806 10507 10182 14980 13612 19579 17113 13365 15908 18452 12439 19433 14708 19652 11875 10845 13407 13507 11823 15232 13787 17914 13966 14708 12717 11154 14684 16117 16016 11476 12890 11302 19698 19252 16010 17340 18332 16038 17801 14109 10620 16181 999999 999999 999999 999999 999999 999999 999999 999999 999999 999999 999999 999999 999999 999999 999999 999999 999999 999999 999999 999999 999999 999999 999999 999999 999999 999999 999999 999999 999999 999999 999999 999999 999999 999999 999999 999999 999999 999999 999999 999999 999999 999999 999999 999999 999999 999999 999999 999999 999999 999999 0 999999 999999 999999 999999 999999 999999 999999 999999 999999 10832
999999 12191 10511 18530 19158 11439 17911 18347 18842 11954 14726 18799 11557 16106 19380 14303 18826 10026 18135 18376 13485 12821 12499 13912 11586 17650 19639 13417 18736 12117 15351 19239 18390 12040 17842 11149 13665 18141 15412 18491 10047 19720 10128 10202 14342 12787 18163 12194 11041 11760 18382 15638 18011 11332 15297 13712 15245 18888 13358 18476 13661 999999 999999 999999 999999 999999 999999 999999 999999 999999 999999 999999 999999 999999 999999 999999 999999 999999 999999 999999 999999 999999 999999 999999 999999 999999 999999 999999 999999 999999 999999 999999 999999 999999 999999 999999 999999 999999 999999 999999 999999 999999 999999 999999 999999 999999 999999 999999 999999 999999 999999 999999 0 999999 999999 999999 999999 999999 999999 999999 999999 13675
999999 11357 14663 19153 19729 19767 16946 13591 12963 19059 18513 11541 12763 19760 10685 12905 14345 14660 11829 10005 15312 17547 12951 15422 17107 13133 16547 13776 18433 10137 11304 18891 18491 11218 11628 18572 15279 17038 13806 10616 17447 16465 18655 19237 17402 16776 16355 13321 17575 13395 11452 11436 10251 11501 15313 14323 13809 15257 12114 16001 10530 999999 999999 999999 999999 999999 999999 999999 999999 999999 999999 999999 999999 999999 999999 999999 999999 999999 999999 999999 999999 999999 999999 999999 999999 999999 999999 999999 999999 999999 999999 999999 999999 999999 999999 999999 999999 999999 999999 999999 999999 999999 999999 999999 999999 999999 999999 999999 999999 999999 999999 999999 999999 0 999999 999999 999999 999999 999999 999999 999999 7502
999999 15803 17428 17397 14423 16839 14592 11913 11445 10503 11176 15095 14091 18147 14572 11068 18824 14417 11541 19657 18491 14328 16113 14581 14491 10090 12351 10550 16004 11980 11708 11025 13348 12264 17523 11678 13349 17985 11402 11721 15426 18039 19845 12207 10012 15470 11566 14300 10908 17053 18978 13486 16052 15348 13491 19317 15523 11678 15500 12568 15286 999999 999999 999999 999999 999999 999999 999999 999999 999999 999999 999999 999999 999999 999999 999999 999999 999999 999999 999999 999999 999999 999999 999999 999999 999999 999999 999999 999999 999999 999999 999999 999999 999999 999999 999999 999999 999999 999999 999999 999999 999999 999999 999999 999999 999999 999999 999999 999999 999999 999999 999999 999999 999999 0 999999 999999 999999 999999 999999 999999 7696
999999 18358 14045 10075 10509 18026 18096 17086 16285 15883 11617 19754 14398 11118 10577 13616 11661 17157 17473 11561 10670 10846 14759 10729 19717 12274 10699 11605 15834 14561 12554 13188 14516 14139 19514 15663 17735 18404 15203 10386 18274 19471 15430 16522 12400 19245 17653 19629 10674 19691 11261 10539 15288 13641 13175 15925 10994 14054 13698 13312 16767 999999 999999 999999 999999 999999 999999 999999 999999 999999 999999 999999 999999 999999 999999 999999 999999 999999 999999 999999 999999 999999 999999 999999 999999 999999 999999 999999 999999 999999 999999 999999 999999 999999 999999 999999 999999 999999 999999 999999 999999 999999 999999 999999 999999 999999 999999 999999 999999 999999 999999 999999 999999 999999 999999 0 999999 999999 999999 999999 999999 10750
999999 10317 16900 15117 13374 10135 11551 18436 18653 11133 14942 10888 19394 13388 19779 14121 15183 16697 10395 12500 12052 14367 15998 16140 12030 12119 17541 15462 16507 14918 15532 14815 17950 17314 11182 19182 15281 19458 10375 12678 18782 11962 12801 14238 16850 17659 15670 13008 15686 19842 19977 12230 16647 16682 14186 10270 18353 11715 10496 10350 16180 999999 999999 999999 999999 999999 999999 999999 999999 999999 999999 999999 999999 999999 999999 999999 999999 999999 999999 999999 999999 999999 999999 999999 999999 999999 999999 999999 999999 999999 999999 999999 999999 999999 999999 999999 999999 999999 999999 999999 999999 999999 999999 999999 999999 999999 999999 999999 999999 999999 999999 999999 999999 999999 999999 999999 0 999999 999999 999999 999999 12623
999999 11464 15857 16679 13697 16982 14505 19891 19797 16074 10526 12508 11546 10268 19032 10402 15566 12212 11709 19665 12250 14080 13786 15821 17123 16101 17026 10391 17735 11035 17262 14046 11330 13470 10437 12386 16429 12766 19332 15447 10918 18206 11051 15806 19722 14527 15240 16544 16764 17703 13435 15347 11102 16908 11732 10409 19728 17310 12473 11083 12430 999999 999999 999999 999999 999999 999999 999999 999999 999999 999999 999999 999999 999999 999999 999999 999999 999999 999999 999999 999999 999999 999999 999999 999999 999999 999999 999999 999999 999999 999999 999999 999999 999999 999999 999999 999999 999999 999999 999999 999999 999999 999999 999999 999999 999999 999999 999999 999999 999999 999999 999999 999999 999999 999999 999999 999999 0 999999 999999 999999 11680
999999 19861 19092 16588 13323 16656 12838 18294 17295 14000 11791 17121 17544 18553 18778 11311 10835 17432 10203 11047 12455 16264 15941 18050 14807 12609 14513 17312 18221 15154 19528 11530 14953 19419 14310 10960 13871 10595 19222 10078 11571 16510 14167 17850 15847 17950 13854 13452 14307 11270 17360 10825 13654 10922 13019 15877 11732 11745 13626 19758 14545 999999 999999 999999 999999 999999 999999 999999 999999 999999 999999 999999 999999 999999 999999 999999 999999 999999 999999 999999 999999 999999 999999 999999 999999 999999 999999 999999 999999 999999 999999 999999 999999 999999 999999 999999 999999 999999 999999 999999 999999 999999 999999 999999 999999 999999 999999 999999 999999 999999 999999 999999 999999 999999 999999 999999 999999 999999 0 999999 999999 8359
999999 10835 13705 16597 18140 13287 19140 10849 19698 15921 11114 14032 16388 14040 12327 10915 14102 13001 13150 12082 16286 12741 15802 19273 13946 17329 17597 15530 17704 18772 17873 12280 10589 15464 19892 10472 10378 11887 12270 12832 12224 14132 15694 12806 18468 10710 11800 11294 14285 19764 14557 14190 14226 10927 12636 17095 15895 12012 17027 10990 17111 999999 999999 999999 999999 999999 999999 999999 999999 999999 999999 999999 999999 999999 999999 999999 999999 999999 999999 999999 999999 999999 999999 999999 999999 999999 999999 999999 999999 999999 999999 999999 999999 999999 999999 999999 999999 999999 999999 999999 999999 999999 999999 999999 999999 999999 999999 999999 999999 999999 999999 999999 999999 999999 999999 999999 999999 999999 999999 0 999999 12066
999999 13035 17096 16734 15415 12743 17234 13085 12618 17024 12568 11714 10302 14623 18775 15572 14738 18371 15173 12958 15239 10856 17845 14781 13977 14578 10057 13241 17214 17056 13550 17743 17453 15487 16371 12939 19210 15491 17136 11937 17237 10837 10774 16373 15762 16952 10107 18348 14329 14060 10368 13338 10674 11736 14012 16267 18041 15808 12708 15586 16563 999999 999999 999999 999999 999999 999999 999999 999999 999999 999999 999999 999999 999999 999999 999999 999999 999999 999999 999999 999999 999999 999999 999999 999999 999999 999999 999999 999999 999999 999999 999999 999999 999999 999999 999999 999999 999999 999999 999999 999999 999999 999999 999999 999999 999999 999999 999999 999999 999999 999999 999999 999999 999999 999999 999999 999999 999999 999999 999999 0 11668
1 999999 999999 999999 999999 999999 999999 999999 999999 999999 999999 999999 999999 999999 999999 999999 999999 999999 999999 999999 999999 999999 999999 999999 999999 999999 999999 999999 999999 999999 999999 999999 999999 999999 999999 999999 999999 999999 999999 999999 999999 999999 999999 999999 999999 999999 999999 999999 999999 999999 999999 999999 999999 999999 999999 999999 999999 999999 999999 999999 999999 999999 999999 999999 999999 999999 999999 999999 999999 999999 999999 999999 999999 999999 999999 999999 999999 999999 999999 999999 999999 999999 999999 999999 999999 999999 999999 999999 999999 999999 999999 999999 999999 999999 999999 999999 999999 999999 999999 999999 999999 999999 999999 999999 999999 999999 999999 999999 999999 999999 999999 999999 999999 999999 999999 999999 999999 999999 999999 999999 999999 0
EOF