NAME: GR_1x2x5_KH_2x5_Run_9
TYPE: TSP
COMMENT: BTSP instance |A|=10 GR nodes |B|=10 KH nodes depot=0.0 end=0.0.0
DIMENSION: 22
EDGE_WEIGHT_TYPE: EXPLICIT
EDGE_WEIGHT_FORMAT: FULL_MATRIX
NODE_COORD_TYPE: NO_COORDS
EDGE_WEIGHT_SECTION
0 7694 6206 11893 7317 12170 13243 6187 14857 6214 6213 999999 999999 999999 999999 999999 999999 999999 999999 999999 999999 999999
999999 0 999999 999999 999999 999999 999999 999999 999999 999999 999999 16822 999999 999999 999999 999999 999999 999999 999999 999999 999999 999999
999999 999999 0 999999 999999 999999 999999 999999 999999 999999 999999 999999 16678 999999 999999 999999 999999 999999 999999 999999 999999 999999
999999 999999 999999 0 999999 999999 999999 999999 999999 999999 999999 999999 999999 11982 999999 999999 999999 999999 999999 999999 999999 999999
999999 999999 999999 999999 0 999999 999999 999999 999999 999999 999999 999999 999999 999999 17704 999999 999999 999999 999999 999999 999999 999999
999999 999999 999999 999999 999999 0 999999 999999 999999 999999 999999 999999 999999 999999 999999 11642 999999 999999 999999 999999 999999 999999
999999 999999 999999 999999 999999 999999 0 999999 999999 999999 999999 999999 999999 999999 999999 999999 13626 999999 999999 999999 999999 999999
999999 999999 999999 999999 999999 999999 999999 0 999999 999999 999999 999999 999999 999999 999999 999999 999999 17937 999999 999999 999999 999999
999999 999999 999999 999999 999999 999999 999999 999999 0 999999 999999 999999 999999 999999 999999 999999 999999 999999 18681 999999 999999 999999
999999 999999 999999 999999 999999 999999 999999 999999 999999 0 999999 999999 999999 999999 999999 999999 999999 999999 999999 18269 999999 999999
999999 999999 999999 999999 999999 999999 999999 999999 999999 999999 0 999999 999999 999999 999999 999999 999999 999999 999999 999999 14099 999999
999999 16822 15731 13284 10935 18908 17933 14652 15198 19295 16838 0 999999 999999 999999 999999 999999 999999 999999 999999 999999 6083
999999 12663 16678 19142 12711 19247 19556 19901 11150 13053 12281 999999 0 999999 999999 999999 999999 999999 999999 999999 999999 9519
999999 17631 13381 11982 14152 10770 13818 12901 13944 18298 10086 999999 999999 0 999999 999999 999999 999999 999999 999999 999999 8003
999999 10167 11902 16288 17704 19742 14366 10984 19294 17394 15408 999999 999999 999999 0 999999 999999 999999 999999 999999 999999 7943
999999 19800 14940 11067 19972 11642 15668 19396 12980 12860 15847 999999 999999 999999 999999 0 999999 999999 999999 999999 999999 7394
999999 19578 11501 13386 18865 10788 13626 14784 16399 10637 11335 999999 999999 999999 999999 999999 0 999999 999999 999999 999999 8433
999999 17109 10507 18844 17168 14356 15091 17937 19684 18719 14498 999999 999999 999999 999999 999999 999999 0 999999 999999 999999 5035
999999 17955 16795 16198 14582 19329 19057 19868 18681 11695 13181 999999 999999 999999 999999 999999 999999 999999 0 999999 999999 14197
999999 17085 16439 15932 11743 17950 12597 17776 18004 18269 13159 999999 999999 999999 999999 999999 999999 999999 999999 0 999999 5311
999999 18212 12995 12595 11495 13885 13820 13735 16018 12799 14099 999999 999999 999999 999999 999999 999999 999999 999999 999999 0 10234
1 999999 999999 999999 999999 999999 999999 999999 999999 999999 999999 999999 999999 999999 999999 999999 999999 999999 999999 999999 999999 0
EOF