NAME: GR_1x5x12_KH_5x12_Run_1
TYPE: TSP
COMMENT: BTSP instance |A|=60 GR nodes |B|=60 KH nodes depot=0.0 end=0.0.0
DIMENSION: 122
EDGE_WEIGHT_TYPE: EXPLICIT
EDGE_WEIGHT_FORMAT: FULL_MATRIX
NODE_COORD_TYPE: NO_COORDS
EDGE_WEIGHT_SECTION
0 13243 11902 6244 7795 9506 7565 7365 9181 9204 12156 6294 14262 12273 14301 6526 6245 5178 13054 7417 8782 14696 14629 10675 7094 5168 8820 10001 10318 8550 12489 13981 12197 10915 12191 14782 5018 10083 5611 11848 7691 5198 6684 10514 7522 9006 7208 12832 5441 6570 13895 13556 12557 6788 5109 11700 5503 7507 11701 14942 13259 999999 999999 999999 999999 999999 999999 999999 999999 999999 999999 999999 999999 999999 999999 999999 999999 999999 999999 999999 999999 999999 999999 999999 999999 999999 999999 999999 999999 999999 999999 999999 999999 999999 999999 999999 999999 999999 999999 999999 999999 999999 999999 999999 999999 999999 999999 999999 999999 999999 999999 999999 999999 999999 999999 999999 999999 999999 999999 999999 999999 999999
999999 0 999999 999999 999999 999999 999999 999999 999999 999999 999999 999999 999999 999999 999999 999999 999999 999999 999999 999999 999999 999999 999999 999999 999999 999999 999999 999999 999999 999999 999999 999999 999999 999999 999999 999999 999999 999999 999999 999999 999999 999999 999999 999999 999999 999999 999999 999999 999999 999999 999999 999999 999999 999999 999999 999999 999999 999999 999999 999999 999999 15347 16621 17405 16434 12911 19125 18702 10617 15195 10391 17342 12420 14017 15173 18649 11422 13218 17125 15893 18659 11679 14628 11034 12141 11394 15171 10193 18591 19672 10662 10146 18214 17153 12990 12405 17120 13145 18167 11814 18800 17147 12332 17819 14997 19084 14920 10648 15090 10424 16115 11787 12872 17020 18019 17256 15270 14188 15547 13085 11151 999999
999999 999999 0 999999 999999 999999 999999 999999 999999 999999 999999 999999 999999 999999 999999 999999 999999 999999 999999 999999 999999 999999 999999 999999 999999 999999 999999 999999 999999 999999 999999 999999 999999 999999 999999 999999 999999 999999 999999 999999 999999 999999 999999 999999 999999 999999 999999 999999 999999 999999 999999 999999 999999 999999 999999 999999 999999 999999 999999 999999 999999 15165 19752 17285 11884 13799 16123 14783 19829 17095 14393 18115 10569 12474 15635 17340 12231 13229 11535 16441 10418 18176 14938 15581 15110 16928 16027 14506 10187 10016 12138 14535 12979 10839 13554 12953 16834 19957 19432 19970 19037 14063 13663 10985 13960 13877 15827 10004 19409 10596 19222 12029 12013 10413 19249 10239 10315 14445 19838 19920 14852 999999
999999 999999 999999 0 999999 999999 999999 999999 999999 999999 999999 999999 999999 999999 999999 999999 999999 999999 999999 999999 999999 999999 999999 999999 999999 999999 999999 999999 999999 999999 999999 999999 999999 999999 999999 999999 999999 999999 999999 999999 999999 999999 999999 999999 999999 999999 999999 999999 999999 999999 999999 999999 999999 999999 999999 999999 999999 999999 999999 999999 999999 12956 15510 13325 11913 18404 15599 18132 13870 19030 15347 17219 14369 18165 19629 16143 11414 18656 13164 14993 19465 10878 15291 19888 11579 14001 17188 13616 17970 15973 12016 14986 10928 12078 15244 13046 17898 13416 16090 17090 18338 18594 16169 17140 10964 17376 12062 13135 11629 10015 17706 12621 14984 12646 11819 12038 14255 16194 18546 13304 13669 999999
999999 999999 999999 999999 0 999999 999999 999999 999999 999999 999999 999999 999999 999999 999999 999999 999999 999999 999999 999999 999999 999999 999999 999999 999999 999999 999999 999999 999999 999999 999999 999999 999999 999999 999999 999999 999999 999999 999999 999999 999999 999999 999999 999999 999999 999999 999999 999999 999999 999999 999999 999999 999999 999999 999999 999999 999999 999999 999999 999999 999999 12972 12422 11909 14598 11245 15433 16436 14778 19004 16134 17944 12694 12820 10387 12043 11467 11373 10497 15605 11984 11941 19178 13326 18828 18512 18817 15361 14552 16481 14540 11062 12407 14176 13843 10751 14215 19083 11083 14685 16844 17488 12485 19388 18680 14608 18067 17433 10525 16230 14255 16751 13767 12571 14124 15662 17334 15682 13763 14023 16785 999999
999999 999999 999999 999999 999999 0 999999 999999 999999 999999 999999 999999 999999 999999 999999 999999 999999 999999 999999 999999 999999 999999 999999 999999 999999 999999 999999 999999 999999 999999 999999 999999 999999 999999 999999 999999 999999 999999 999999 999999 999999 999999 999999 999999 999999 999999 999999 999999 999999 999999 999999 999999 999999 999999 999999 999999 999999 999999 999999 999999 999999 17990 17985 11266 16934 12149 17424 11435 18727 10301 19547 19350 15506 15928 12565 18603 10852 10944 11144 15501 13026 16110 12317 17638 18803 15810 11549 10019 15017 13784 12824 11651 10936 15044 13827 14165 16714 13726 16480 16011 10900 10158 10155 11717 15268 10627 15512 17855 11298 11882 13163 11310 12407 11046 15892 15345 19624 10256 13486 14395 10253 999999
999999 999999 999999 999999 999999 999999 0 999999 999999 999999 999999 999999 999999 999999 999999 999999 999999 999999 999999 999999 999999 999999 999999 999999 999999 999999 999999 999999 999999 999999 999999 999999 999999 999999 999999 999999 999999 999999 999999 999999 999999 999999 999999 999999 999999 999999 999999 999999 999999 999999 999999 999999 999999 999999 999999 999999 999999 999999 999999 999999 999999 17246 14044 13867 11234 15002 13017 15833 12378 16282 19711 12256 13327 19291 10731 11937 10929 14631 17824 14945 16861 16812 15714 16074 11905 19896 10198 17041 12744 18503 13133 19288 19144 16201 13621 16987 15777 11187 14938 19182 14268 17961 18078 17935 14130 12793 15017 18136 17461 17957 10927 19498 18567 14233 17907 10253 11658 17161 19130 12489 12731 999999
999999 999999 999999 999999 999999 999999 999999 0 999999 999999 999999 999999 999999 999999 999999 999999 999999 999999 999999 999999 999999 999999 999999 999999 999999 999999 999999 999999 999999 999999 999999 999999 999999 999999 999999 999999 999999 999999 999999 999999 999999 999999 999999 999999 999999 999999 999999 999999 999999 999999 999999 999999 999999 999999 999999 999999 999999 999999 999999 999999 999999 17659 17640 16521 14646 10546 13501 10654 19896 16028 13206 18864 17656 11311 17725 17631 17242 17115 15528 15449 18691 13154 11484 18455 11341 14090 16067 12340 18679 13314 16567 19642 14102 13013 15258 13605 17761 18392 11738 17696 10600 13986 14088 11922 16926 13535 11168 17758 13076 16527 19755 10291 19883 18740 17709 10147 12843 13749 18857 19099 10937 999999
999999 999999 999999 999999 999999 999999 999999 999999 0 999999 999999 999999 999999 999999 999999 999999 999999 999999 999999 999999 999999 999999 999999 999999 999999 999999 999999 999999 999999 999999 999999 999999 999999 999999 999999 999999 999999 999999 999999 999999 999999 999999 999999 999999 999999 999999 999999 999999 999999 999999 999999 999999 999999 999999 999999 999999 999999 999999 999999 999999 999999 19752 19573 10030 10335 12890 10220 11990 19839 13105 17958 10681 16791 17419 11897 17360 18085 12582 13020 16807 19428 17282 18293 10384 11396 11410 12243 17439 12325 12795 13391 12718 14801 10907 14197 10995 15000 19554 15353 13014 12191 16652 16761 10518 18554 10664 17423 10492 16904 16759 10824 19561 15053 18061 16312 19377 11914 17415 13899 16158 10517 999999
999999 999999 999999 999999 999999 999999 999999 999999 999999 0 999999 999999 999999 999999 999999 999999 999999 999999 999999 999999 999999 999999 999999 999999 999999 999999 999999 999999 999999 999999 999999 999999 999999 999999 999999 999999 999999 999999 999999 999999 999999 999999 999999 999999 999999 999999 999999 999999 999999 999999 999999 999999 999999 999999 999999 999999 999999 999999 999999 999999 999999 19416 14801 10561 10466 16740 19387 17458 12315 19191 16955 15594 19920 10467 13185 10603 11813 15033 16438 11656 14674 15578 19593 13569 14193 10148 17946 10884 17179 13720 13439 17820 18013 10906 15037 10028 13486 18181 18611 19332 10251 18111 14430 14215 16186 19537 11330 15402 16414 15294 17743 18408 10012 14366 19430 12543 14428 13677 17012 12440 14717 999999
999999 999999 999999 999999 999999 999999 999999 999999 999999 999999 0 999999 999999 999999 999999 999999 999999 999999 999999 999999 999999 999999 999999 999999 999999 999999 999999 999999 999999 999999 999999 999999 999999 999999 999999 999999 999999 999999 999999 999999 999999 999999 999999 999999 999999 999999 999999 999999 999999 999999 999999 999999 999999 999999 999999 999999 999999 999999 999999 999999 999999 18913 13293 16907 18643 17091 19445 14762 16878 14976 18701 19282 17033 18295 15702 18443 17329 15204 13611 11386 11331 14043 16897 12208 10529 13479 15543 12997 10799 10284 12245 12000 19131 15682 17182 10126 13104 15976 14492 16352 19444 15716 12099 13460 19814 13696 12392 11138 15816 15177 16537 16493 15646 19449 16232 13802 15827 13965 17678 18108 13796 999999
999999 999999 999999 999999 999999 999999 999999 999999 999999 999999 999999 0 999999 999999 999999 999999 999999 999999 999999 999999 999999 999999 999999 999999 999999 999999 999999 999999 999999 999999 999999 999999 999999 999999 999999 999999 999999 999999 999999 999999 999999 999999 999999 999999 999999 999999 999999 999999 999999 999999 999999 999999 999999 999999 999999 999999 999999 999999 999999 999999 999999 17710 19531 15766 12772 15116 12830 10491 15327 10339 19860 13200 12726 12951 12005 15316 15363 18633 11408 13204 11438 18751 12603 15720 12137 10306 10498 10477 18802 11376 10655 18566 10369 15441 14318 13681 18547 16756 19654 18108 19382 15527 19103 12229 16902 10510 15040 18062 18876 12278 16674 10546 10150 13272 11029 12145 11194 12292 12761 18784 18920 999999
999999 999999 999999 999999 999999 999999 999999 999999 999999 999999 999999 999999 0 999999 999999 999999 999999 999999 999999 999999 999999 999999 999999 999999 999999 999999 999999 999999 999999 999999 999999 999999 999999 999999 999999 999999 999999 999999 999999 999999 999999 999999 999999 999999 999999 999999 999999 999999 999999 999999 999999 999999 999999 999999 999999 999999 999999 999999 999999 999999 999999 17347 19764 14817 12322 13683 13708 14845 16348 17784 13660 15225 14179 16546 19490 18588 19704 14753 11480 15812 18199 11789 12534 18697 10325 12119 11826 15783 16170 14278 14255 17090 12765 16288 17130 18544 19313 19195 15648 11948 11162 10115 19588 12793 19295 16314 18843 10497 12893 18723 14285 12899 10794 10263 13717 15051 11469 18626 17011 17204 17128 999999
999999 999999 999999 999999 999999 999999 999999 999999 999999 999999 999999 999999 999999 0 999999 999999 999999 999999 999999 999999 999999 999999 999999 999999 999999 999999 999999 999999 999999 999999 999999 999999 999999 999999 999999 999999 999999 999999 999999 999999 999999 999999 999999 999999 999999 999999 999999 999999 999999 999999 999999 999999 999999 999999 999999 999999 999999 999999 999999 999999 999999 15758 13347 14092 13037 17615 17728 11507 17980 13281 15335 11505 13486 12953 14496 13000 12325 10108 17408 11900 12751 19047 17468 12737 16326 12928 18695 11224 12269 13242 19857 13494 19181 19487 16643 12412 10761 12731 10383 13485 13413 11353 12176 19146 17191 16919 11153 14917 17857 17772 12521 14721 14162 14174 18684 11020 12849 16236 16351 14285 14681 999999
999999 999999 999999 999999 999999 999999 999999 999999 999999 999999 999999 999999 999999 999999 0 999999 999999 999999 999999 999999 999999 999999 999999 999999 999999 999999 999999 999999 999999 999999 999999 999999 999999 999999 999999 999999 999999 999999 999999 999999 999999 999999 999999 999999 999999 999999 999999 999999 999999 999999 999999 999999 999999 999999 999999 999999 999999 999999 999999 999999 999999 13734 16895 15828 19450 14656 10562 18339 10905 18839 17829 12602 10623 18478 13476 12702 15707 15324 17619 16268 12249 19292 10771 11301 11393 15826 15734 16927 17307 12979 19263 18780 13461 15726 18036 17578 16645 11934 15317 10819 11655 10244 15674 10081 17515 11742 17632 16539 11048 17399 14685 17115 16077 19011 12534 15059 19923 14029 18612 16619 18693 999999
999999 999999 999999 999999 999999 999999 999999 999999 999999 999999 999999 999999 999999 999999 999999 0 999999 999999 999999 999999 999999 999999 999999 999999 999999 999999 999999 999999 999999 999999 999999 999999 999999 999999 999999 999999 999999 999999 999999 999999 999999 999999 999999 999999 999999 999999 999999 999999 999999 999999 999999 999999 999999 999999 999999 999999 999999 999999 999999 999999 999999 12694 10012 14947 16051 17511 13931 14199 15756 16856 11959 16927 12838 12394 16502 11390 19366 14212 15367 13945 13565 15046 16158 12263 10530 16785 18567 10698 15547 16389 15981 14972 11426 16018 15122 19945 16747 10804 10601 10707 18699 13803 18020 11484 15669 15668 18292 17033 12258 17726 18062 17847 18166 16701 14118 10740 15656 12447 11571 11478 10381 999999
999999 999999 999999 999999 999999 999999 999999 999999 999999 999999 999999 999999 999999 999999 999999 999999 0 999999 999999 999999 999999 999999 999999 999999 999999 999999 999999 999999 999999 999999 999999 999999 999999 999999 999999 999999 999999 999999 999999 999999 999999 999999 999999 999999 999999 999999 999999 999999 999999 999999 999999 999999 999999 999999 999999 999999 999999 999999 999999 999999 999999 17317 11504 12908 16945 17592 12156 16210 19347 14231 10940 16091 10584 10494 15937 18845 10745 10566 15683 13109 14742 15511 19136 11918 12607 19873 16772 18628 10532 15539 19166 16366 15891 11680 11411 16455 10782 10705 11834 18106 12663 14603 16837 10963 15114 13663 15368 14894 11344 12932 12756 17981 11174 15170 10406 19312 11346 11919 16780 12575 12186 999999
999999 999999 999999 999999 999999 999999 999999 999999 999999 999999 999999 999999 999999 999999 999999 999999 999999 0 999999 999999 999999 999999 999999 999999 999999 999999 999999 999999 999999 999999 999999 999999 999999 999999 999999 999999 999999 999999 999999 999999 999999 999999 999999 999999 999999 999999 999999 999999 999999 999999 999999 999999 999999 999999 999999 999999 999999 999999 999999 999999 999999 10322 15339 18829 15659 13743 11522 18395 19932 17504 10980 19932 12023 14143 12052 12395 11602 14190 11471 19793 10789 13086 15921 14782 16873 16448 14413 18261 16137 14667 11200 13655 12163 14447 16051 13628 14895 19299 18223 10143 17460 18419 18418 11926 12679 17249 13697 13912 13959 15662 18707 10399 13546 11119 14909 11629 18935 15015 11653 19547 17509 999999
999999 999999 999999 999999 999999 999999 999999 999999 999999 999999 999999 999999 999999 999999 999999 999999 999999 999999 0 999999 999999 999999 999999 999999 999999 999999 999999 999999 999999 999999 999999 999999 999999 999999 999999 999999 999999 999999 999999 999999 999999 999999 999999 999999 999999 999999 999999 999999 999999 999999 999999 999999 999999 999999 999999 999999 999999 999999 999999 999999 999999 13206 18656 19083 12918 18795 11626 14656 15275 19999 10359 10875 12044 11946 14557 15807 14001 12967 15274 14366 16151 19983 13610 11606 17506 11873 14885 12251 19821 17343 15176 12220 13239 10367 10657 14382 15292 11349 11156 14123 13831 12030 15439 18750 17741 15510 12173 18584 13995 18230 14614 11918 13183 17005 15183 18598 16527 18462 11271 18323 11466 999999
999999 999999 999999 999999 999999 999999 999999 999999 999999 999999 999999 999999 999999 999999 999999 999999 999999 999999 999999 0 999999 999999 999999 999999 999999 999999 999999 999999 999999 999999 999999 999999 999999 999999 999999 999999 999999 999999 999999 999999 999999 999999 999999 999999 999999 999999 999999 999999 999999 999999 999999 999999 999999 999999 999999 999999 999999 999999 999999 999999 999999 18828 16687 17974 11416 14696 17183 14658 17698 18685 17388 11369 12015 18471 14963 15018 18642 18873 18121 17101 16784 11072 19250 17076 10407 12378 16310 13593 17830 18186 12507 19482 10466 15021 13632 19575 15666 14458 16590 19552 12349 14889 19297 11905 19098 12590 19511 12008 10403 18272 16978 11896 10807 15567 14667 10465 11349 18514 11214 12695 18963 999999
999999 999999 999999 999999 999999 999999 999999 999999 999999 999999 999999 999999 999999 999999 999999 999999 999999 999999 999999 999999 0 999999 999999 999999 999999 999999 999999 999999 999999 999999 999999 999999 999999 999999 999999 999999 999999 999999 999999 999999 999999 999999 999999 999999 999999 999999 999999 999999 999999 999999 999999 999999 999999 999999 999999 999999 999999 999999 999999 999999 999999 17889 13360 14362 12667 11036 11222 15277 18559 19362 12302 15186 15380 13278 15878 13233 12866 17608 18873 16878 18042 10112 15738 18370 18227 12143 17303 15512 17259 15404 19252 11575 11350 17240 10251 10059 14960 19129 12314 12007 10356 18817 18609 19807 14311 18100 13818 17353 10473 13187 17271 14199 18421 13011 13011 13912 12191 15371 12073 16738 16707 999999
999999 999999 999999 999999 999999 999999 999999 999999 999999 999999 999999 999999 999999 999999 999999 999999 999999 999999 999999 999999 999999 0 999999 999999 999999 999999 999999 999999 999999 999999 999999 999999 999999 999999 999999 999999 999999 999999 999999 999999 999999 999999 999999 999999 999999 999999 999999 999999 999999 999999 999999 999999 999999 999999 999999 999999 999999 999999 999999 999999 999999 10782 10959 13847 14572 17997 18848 13912 19845 18629 19613 11582 19298 10725 10004 14275 18004 19305 17854 13533 10141 16870 11307 16412 19605 14461 16354 18768 18526 15935 13406 17763 13111 17178 13128 17813 13985 16880 15229 16664 14641 12538 16493 14411 16203 10235 16165 16029 11916 12795 11052 13988 14758 10565 12817 18623 15382 13307 16056 12872 15939 999999
999999 999999 999999 999999 999999 999999 999999 999999 999999 999999 999999 999999 999999 999999 999999 999999 999999 999999 999999 999999 999999 999999 0 999999 999999 999999 999999 999999 999999 999999 999999 999999 999999 999999 999999 999999 999999 999999 999999 999999 999999 999999 999999 999999 999999 999999 999999 999999 999999 999999 999999 999999 999999 999999 999999 999999 999999 999999 999999 999999 999999 13286 10822 17842 17048 16092 16729 15094 18721 17561 16409 17489 16700 16620 10119 17406 17497 13117 19831 12559 11023 12798 18726 19297 14921 12471 12624 19033 18567 13940 10299 14252 15508 15543 10589 11359 14203 14705 18749 18061 10327 10666 17905 18752 12622 14522 11930 10232 11507 13152 15425 13179 15314 12655 17882 16596 18139 12312 14268 17522 13145 999999
999999 999999 999999 999999 999999 999999 999999 999999 999999 999999 999999 999999 999999 999999 999999 999999 999999 999999 999999 999999 999999 999999 999999 0 999999 999999 999999 999999 999999 999999 999999 999999 999999 999999 999999 999999 999999 999999 999999 999999 999999 999999 999999 999999 999999 999999 999999 999999 999999 999999 999999 999999 999999 999999 999999 999999 999999 999999 999999 999999 999999 13331 19987 17276 15628 11092 12280 16601 10893 17450 15598 15238 14897 13415 12184 19533 11679 17755 12549 16479 15418 18706 10534 11749 16136 16298 18466 18965 16482 19217 11772 15951 18874 11038 14550 19716 16279 17556 11743 17396 16757 12933 13632 11739 13342 14531 13712 18163 12836 10436 18624 17280 17588 10205 11096 13833 17620 13906 17716 19379 18466 999999
999999 999999 999999 999999 999999 999999 999999 999999 999999 999999 999999 999999 999999 999999 999999 999999 999999 999999 999999 999999 999999 999999 999999 999999 0 999999 999999 999999 999999 999999 999999 999999 999999 999999 999999 999999 999999 999999 999999 999999 999999 999999 999999 999999 999999 999999 999999 999999 999999 999999 999999 999999 999999 999999 999999 999999 999999 999999 999999 999999 999999 19113 19838 10250 10522 17700 10070 12702 14897 15667 15499 11720 18516 13476 10632 14373 11781 19914 17049 15621 18007 14827 10255 17787 18041 13111 16107 17570 13428 15335 15582 12138 10346 13350 10712 10747 10814 15918 10484 16301 10079 12984 17646 11573 11286 11147 12424 16193 16214 15442 13310 14169 10694 14478 13086 13235 17527 17520 14475 12111 11968 999999
999999 999999 999999 999999 999999 999999 999999 999999 999999 999999 999999 999999 999999 999999 999999 999999 999999 999999 999999 999999 999999 999999 999999 999999 999999 0 999999 999999 999999 999999 999999 999999 999999 999999 999999 999999 999999 999999 999999 999999 999999 999999 999999 999999 999999 999999 999999 999999 999999 999999 999999 999999 999999 999999 999999 999999 999999 999999 999999 999999 999999 18993 10737 16168 16314 12108 18087 10535 19381 12159 10346 10097 13447 12847 16895 15632 18319 10081 16605 10282 16308 18807 13247 18807 15143 19146 11947 19473 12829 17313 18557 16157 14108 18180 10722 15204 17399 11024 18315 18690 15853 17587 15923 16245 16870 14061 19165 11652 13612 19712 11474 14426 19645 17953 14560 11401 19582 10804 16975 10575 12098 999999
999999 999999 999999 999999 999999 999999 999999 999999 999999 999999 999999 999999 999999 999999 999999 999999 999999 999999 999999 999999 999999 999999 999999 999999 999999 999999 0 999999 999999 999999 999999 999999 999999 999999 999999 999999 999999 999999 999999 999999 999999 999999 999999 999999 999999 999999 999999 999999 999999 999999 999999 999999 999999 999999 999999 999999 999999 999999 999999 999999 999999 10565 13551 13796 19078 19539 19670 17735 19291 16264 19791 17841 19012 13600 18580 12501 14298 10940 10773 14525 15555 17900 14537 17637 12339 15543 16465 15506 13769 16760 19330 18404 11605 11925 16659 13087 18347 18124 13069 17112 12820 17131 19127 13188 11210 14398 13548 19972 11469 11682 18772 10157 18041 12821 15666 18017 10112 14771 18625 16489 11274 999999
999999 999999 999999 999999 999999 999999 999999 999999 999999 999999 999999 999999 999999 999999 999999 999999 999999 999999 999999 999999 999999 999999 999999 999999 999999 999999 999999 0 999999 999999 999999 999999 999999 999999 999999 999999 999999 999999 999999 999999 999999 999999 999999 999999 999999 999999 999999 999999 999999 999999 999999 999999 999999 999999 999999 999999 999999 999999 999999 999999 999999 10874 13818 16109 16810 15387 15889 12401 12110 19146 16203 19156 17172 13978 18785 19453 12472 13581 18164 17382 11507 19510 11438 10743 14082 15089 12931 17853 11250 18341 18697 14192 12378 11519 12756 12987 14083 19162 15391 16624 11248 16343 19560 10094 17449 17616 15177 18707 10799 17468 13562 15981 17746 14460 19815 15202 12497 10692 15311 13829 10207 999999
999999 999999 999999 999999 999999 999999 999999 999999 999999 999999 999999 999999 999999 999999 999999 999999 999999 999999 999999 999999 999999 999999 999999 999999 999999 999999 999999 999999 0 999999 999999 999999 999999 999999 999999 999999 999999 999999 999999 999999 999999 999999 999999 999999 999999 999999 999999 999999 999999 999999 999999 999999 999999 999999 999999 999999 999999 999999 999999 999999 999999 11227 12461 19067 12818 17632 12486 12598 13336 13117 15183 10909 16952 14751 11896 10534 17186 17541 12286 13408 14249 12382 16647 16728 18862 11879 13334 15553 11570 15811 18905 17585 19120 13976 13175 14989 19059 12080 13377 12500 11681 11934 16626 11579 16602 15403 13611 16535 11133 13402 16679 13364 17897 16352 14361 11889 15761 14397 17276 10766 19028 999999
999999 999999 999999 999999 999999 999999 999999 999999 999999 999999 999999 999999 999999 999999 999999 999999 999999 999999 999999 999999 999999 999999 999999 999999 999999 999999 999999 999999 999999 0 999999 999999 999999 999999 999999 999999 999999 999999 999999 999999 999999 999999 999999 999999 999999 999999 999999 999999 999999 999999 999999 999999 999999 999999 999999 999999 999999 999999 999999 999999 999999 15578 13716 14349 16834 10492 17907 10576 13831 10856 18411 15003 11950 17046 11237 16504 10018 14117 10408 19602 14835 16687 15276 14556 15894 19913 16869 18625 13982 11339 17779 15264 11587 19676 11218 14370 14407 14423 10574 16144 15893 16247 16776 16437 14088 14621 12433 10350 10716 16448 11704 16250 10484 16166 15276 12510 10810 18426 17917 16141 11429 999999
999999 999999 999999 999999 999999 999999 999999 999999 999999 999999 999999 999999 999999 999999 999999 999999 999999 999999 999999 999999 999999 999999 999999 999999 999999 999999 999999 999999 999999 999999 0 999999 999999 999999 999999 999999 999999 999999 999999 999999 999999 999999 999999 999999 999999 999999 999999 999999 999999 999999 999999 999999 999999 999999 999999 999999 999999 999999 999999 999999 999999 16373 18629 11161 14284 15014 19374 11395 19571 17617 16019 10654 15439 19143 15159 12802 18956 15631 17308 11758 11456 10352 14441 10925 18892 17474 12166 18095 16472 15535 10013 15832 14862 11910 11690 13217 17321 15743 13211 11126 10815 18244 17682 18971 14278 18047 15953 18237 12451 12080 11418 15393 15888 11416 19035 15511 18324 17016 15270 14583 17118 999999
999999 999999 999999 999999 999999 999999 999999 999999 999999 999999 999999 999999 999999 999999 999999 999999 999999 999999 999999 999999 999999 999999 999999 999999 999999 999999 999999 999999 999999 999999 999999 0 999999 999999 999999 999999 999999 999999 999999 999999 999999 999999 999999 999999 999999 999999 999999 999999 999999 999999 999999 999999 999999 999999 999999 999999 999999 999999 999999 999999 999999 17939 13129 14467 11215 15785 14857 14245 14751 18662 17594 14285 13084 19151 14407 15880 16995 11485 13283 10342 11990 18091 12668 14425 16119 11202 18010 16270 10755 10240 13201 15882 15953 12101 15771 17113 12549 11941 14679 17650 10663 15138 13015 12930 18989 15432 16377 15092 10987 19252 12257 19678 10601 10091 19746 13407 12331 10790 16919 10163 15310 999999
999999 999999 999999 999999 999999 999999 999999 999999 999999 999999 999999 999999 999999 999999 999999 999999 999999 999999 999999 999999 999999 999999 999999 999999 999999 999999 999999 999999 999999 999999 999999 999999 0 999999 999999 999999 999999 999999 999999 999999 999999 999999 999999 999999 999999 999999 999999 999999 999999 999999 999999 999999 999999 999999 999999 999999 999999 999999 999999 999999 999999 10325 11301 11265 14335 11946 10845 10754 14890 18294 19196 16060 17865 12714 18092 13900 17318 13346 14976 13916 11585 16041 18968 12494 17077 13212 15808 13173 11313 18933 11290 18911 18648 19458 16667 17960 15899 13560 16582 11372 16873 12808 17581 11769 17538 16289 16570 10634 11557 17256 14405 18291 13023 14340 14870 10366 12643 17585 13462 10602 16055 999999
999999 999999 999999 999999 999999 999999 999999 999999 999999 999999 999999 999999 999999 999999 999999 999999 999999 999999 999999 999999 999999 999999 999999 999999 999999 999999 999999 999999 999999 999999 999999 999999 999999 0 999999 999999 999999 999999 999999 999999 999999 999999 999999 999999 999999 999999 999999 999999 999999 999999 999999 999999 999999 999999 999999 999999 999999 999999 999999 999999 999999 16688 15822 19382 15543 14784 19357 17031 13880 14233 16139 14726 13349 16076 13169 10696 17502 16349 14494 16552 10640 18429 16271 19576 15093 14050 19645 12479 11078 10568 18753 14419 16913 17942 15201 14930 18215 18969 18047 16466 12091 19850 11987 13166 14976 11047 10864 18656 19935 17693 15891 18573 12335 11628 14224 12244 13436 15972 13693 18545 19846 999999
999999 999999 999999 999999 999999 999999 999999 999999 999999 999999 999999 999999 999999 999999 999999 999999 999999 999999 999999 999999 999999 999999 999999 999999 999999 999999 999999 999999 999999 999999 999999 999999 999999 999999 0 999999 999999 999999 999999 999999 999999 999999 999999 999999 999999 999999 999999 999999 999999 999999 999999 999999 999999 999999 999999 999999 999999 999999 999999 999999 999999 10934 16436 13985 11083 12498 16698 13273 17041 17722 11402 19474 12941 16932 18340 10417 16251 18327 10650 15186 10694 19076 13882 13878 12452 14623 16775 18811 14489 14097 16863 15985 16081 18805 14360 11485 13845 15505 16589 14238 16176 19018 12450 14319 17259 10385 18631 17100 15127 13582 12346 16512 14547 11621 11114 14368 15188 13160 18248 14938 11003 999999
999999 999999 999999 999999 999999 999999 999999 999999 999999 999999 999999 999999 999999 999999 999999 999999 999999 999999 999999 999999 999999 999999 999999 999999 999999 999999 999999 999999 999999 999999 999999 999999 999999 999999 999999 0 999999 999999 999999 999999 999999 999999 999999 999999 999999 999999 999999 999999 999999 999999 999999 999999 999999 999999 999999 999999 999999 999999 999999 999999 999999 17182 12999 14857 10388 18082 16113 15993 14747 11605 10712 11564 15521 19821 12263 12690 16661 15713 10475 10955 13257 12195 14225 12058 18446 16633 14249 13202 19252 19582 16729 12470 18994 12403 13928 16482 14834 10004 13367 11694 17828 13551 11915 11674 14842 10208 17194 19084 12716 13278 15202 15424 11412 17413 13493 12478 18098 15252 12965 12577 14001 999999
999999 999999 999999 999999 999999 999999 999999 999999 999999 999999 999999 999999 999999 999999 999999 999999 999999 999999 999999 999999 999999 999999 999999 999999 999999 999999 999999 999999 999999 999999 999999 999999 999999 999999 999999 999999 0 999999 999999 999999 999999 999999 999999 999999 999999 999999 999999 999999 999999 999999 999999 999999 999999 999999 999999 999999 999999 999999 999999 999999 999999 17012 13226 18731 11666 19051 19825 14713 12431 15274 13441 13827 13718 11462 16555 14051 18883 14668 13398 17415 12996 15874 12313 10158 11023 11358 16683 11875 15449 17829 19294 11146 18977 19936 10275 15492 12107 15180 13372 17058 16504 11211 18988 15092 19095 15741 11591 18964 11264 13067 14921 19394 11110 19272 13765 13316 11223 13444 11083 18946 13443 999999
999999 999999 999999 999999 999999 999999 999999 999999 999999 999999 999999 999999 999999 999999 999999 999999 999999 999999 999999 999999 999999 999999 999999 999999 999999 999999 999999 999999 999999 999999 999999 999999 999999 999999 999999 999999 999999 0 999999 999999 999999 999999 999999 999999 999999 999999 999999 999999 999999 999999 999999 999999 999999 999999 999999 999999 999999 999999 999999 999999 999999 18273 14466 19461 12667 16582 17660 17489 18421 14893 15167 11692 19418 11981 12719 13097 10540 14829 17257 14683 17899 15494 10052 10814 19023 18336 11683 17209 16992 19066 14938 15024 14101 17105 12351 12293 19899 14119 10740 17804 15796 13448 11336 18172 14014 11227 11212 15441 18052 13909 11869 13350 14267 19459 19768 17406 15575 14714 16433 12714 13027 999999
999999 999999 999999 999999 999999 999999 999999 999999 999999 999999 999999 999999 999999 999999 999999 999999 999999 999999 999999 999999 999999 999999 999999 999999 999999 999999 999999 999999 999999 999999 999999 999999 999999 999999 999999 999999 999999 999999 0 999999 999999 999999 999999 999999 999999 999999 999999 999999 999999 999999 999999 999999 999999 999999 999999 999999 999999 999999 999999 999999 999999 19554 16538 16929 11442 16118 17240 15513 16490 13702 16221 19221 10245 17517 12642 15428 10457 17633 15702 14622 13540 16452 10889 18263 10811 12821 11040 10482 19591 15366 17804 16802 11172 10098 13587 16714 10751 13416 10679 14934 19152 15367 19931 13558 12018 13225 18607 14248 16440 16131 15849 13752 11158 10697 19472 11884 16294 10663 13587 16129 17264 999999
999999 999999 999999 999999 999999 999999 999999 999999 999999 999999 999999 999999 999999 999999 999999 999999 999999 999999 999999 999999 999999 999999 999999 999999 999999 999999 999999 999999 999999 999999 999999 999999 999999 999999 999999 999999 999999 999999 999999 0 999999 999999 999999 999999 999999 999999 999999 999999 999999 999999 999999 999999 999999 999999 999999 999999 999999 999999 999999 999999 999999 14498 16480 10623 13487 18601 17585 11961 11890 18678 11068 18836 13132 16170 10252 15276 14848 10925 14558 16087 19651 14291 11065 17787 15025 15426 17210 15177 11100 13411 19389 13203 17751 10787 11639 11107 16343 16501 17684 12740 11469 18708 17752 15266 12929 15605 18269 12946 19325 16011 17784 14566 10152 19407 14695 16638 12392 15276 17343 11891 13545 999999
999999 999999 999999 999999 999999 999999 999999 999999 999999 999999 999999 999999 999999 999999 999999 999999 999999 999999 999999 999999 999999 999999 999999 999999 999999 999999 999999 999999 999999 999999 999999 999999 999999 999999 999999 999999 999999 999999 999999 999999 0 999999 999999 999999 999999 999999 999999 999999 999999 999999 999999 999999 999999 999999 999999 999999 999999 999999 999999 999999 999999 17510 11352 14497 12821 10817 12706 13043 16219 10406 17359 14665 16667 18628 19079 12631 16247 16498 14823 10458 10651 12104 16915 11735 17660 17645 18216 18076 17188 10187 11224 13489 16157 17033 17454 16006 14503 19190 19892 10885 19956 16743 11579 12214 16313 15608 16865 16296 17494 16251 18290 19810 18873 14925 12668 15852 10866 18319 10684 11704 16538 999999
999999 999999 999999 999999 999999 999999 999999 999999 999999 999999 999999 999999 999999 999999 999999 999999 999999 999999 999999 999999 999999 999999 999999 999999 999999 999999 999999 999999 999999 999999 999999 999999 999999 999999 999999 999999 999999 999999 999999 999999 999999 0 999999 999999 999999 999999 999999 999999 999999 999999 999999 999999 999999 999999 999999 999999 999999 999999 999999 999999 999999 11263 19467 15692 14272 13782 15304 12579 15924 12153 16827 19708 12570 18523 12932 10884 13518 19163 10219 16129 11984 19873 14490 12652 11743 14851 10290 16903 14478 17410 13777 15703 13899 19711 18957 19967 10324 18117 10344 17651 18272 12956 15904 15046 15460 16026 13619 13894 14049 19928 19961 17880 16232 17151 12961 19360 19575 17741 16659 13718 19517 999999
999999 999999 999999 999999 999999 999999 999999 999999 999999 999999 999999 999999 999999 999999 999999 999999 999999 999999 999999 999999 999999 999999 999999 999999 999999 999999 999999 999999 999999 999999 999999 999999 999999 999999 999999 999999 999999 999999 999999 999999 999999 999999 0 999999 999999 999999 999999 999999 999999 999999 999999 999999 999999 999999 999999 999999 999999 999999 999999 999999 999999 12381 15488 14080 12091 10402 14084 13287 12142 12024 17173 15305 10233 19334 13911 11451 14817 10081 16000 17854 13849 10674 13728 14546 16506 12370 19521 13023 17014 17377 12714 10132 16532 17415 11452 18135 19382 14297 19499 19393 12855 12628 13770 12945 18625 12320 11034 15277 17568 12411 13657 17618 18010 15747 16340 19598 17171 17473 18950 11310 13294 999999
999999 999999 999999 999999 999999 999999 999999 999999 999999 999999 999999 999999 999999 999999 999999 999999 999999 999999 999999 999999 999999 999999 999999 999999 999999 999999 999999 999999 999999 999999 999999 999999 999999 999999 999999 999999 999999 999999 999999 999999 999999 999999 999999 0 999999 999999 999999 999999 999999 999999 999999 999999 999999 999999 999999 999999 999999 999999 999999 999999 999999 19396 18409 12257 14994 14416 17740 10535 16833 19522 12891 19905 14153 10935 19798 15936 19365 11341 12752 16567 19489 16941 10569 19639 17783 12291 16872 15854 15077 14578 12402 10709 19837 12309 13874 15456 16052 12475 14441 19123 18338 10147 13653 15797 11293 16960 10200 19118 13563 15538 13371 13208 15495 12363 18152 10470 10616 10727 11876 14331 17822 999999
999999 999999 999999 999999 999999 999999 999999 999999 999999 999999 999999 999999 999999 999999 999999 999999 999999 999999 999999 999999 999999 999999 999999 999999 999999 999999 999999 999999 999999 999999 999999 999999 999999 999999 999999 999999 999999 999999 999999 999999 999999 999999 999999 999999 0 999999 999999 999999 999999 999999 999999 999999 999999 999999 999999 999999 999999 999999 999999 999999 999999 13039 11814 14163 12199 13986 14296 12176 14632 12019 19941 19701 15825 17363 11006 11143 12239 14858 15171 17545 11869 17859 11530 17678 17329 14913 10909 17604 10702 18064 13173 11863 18691 13488 12072 19006 17459 18590 18170 11985 17033 17376 19955 13447 16334 18730 10903 16364 18587 16311 19801 16312 13009 11283 15195 16585 15859 11650 19856 15113 16460 999999
999999 999999 999999 999999 999999 999999 999999 999999 999999 999999 999999 999999 999999 999999 999999 999999 999999 999999 999999 999999 999999 999999 999999 999999 999999 999999 999999 999999 999999 999999 999999 999999 999999 999999 999999 999999 999999 999999 999999 999999 999999 999999 999999 999999 999999 0 999999 999999 999999 999999 999999 999999 999999 999999 999999 999999 999999 999999 999999 999999 999999 18510 16131 18421 10202 18124 19662 10051 12304 19716 10933 11087 17761 18126 12101 18083 15976 13183 18212 12312 18889 16366 19668 10334 17332 16420 15106 19586 19930 15156 11822 13775 10244 16344 18592 10900 18995 19322 14219 15661 11222 19208 13664 10427 13688 17608 12722 12228 13028 11830 12700 14890 16439 12801 19255 13113 14301 18576 14292 19547 14557 999999
999999 999999 999999 999999 999999 999999 999999 999999 999999 999999 999999 999999 999999 999999 999999 999999 999999 999999 999999 999999 999999 999999 999999 999999 999999 999999 999999 999999 999999 999999 999999 999999 999999 999999 999999 999999 999999 999999 999999 999999 999999 999999 999999 999999 999999 999999 0 999999 999999 999999 999999 999999 999999 999999 999999 999999 999999 999999 999999 999999 999999 15349 18559 18583 11268 11149 17180 13474 15055 19630 12532 18576 17615 17294 17406 10321 17206 16964 12814 10848 16955 17456 15677 15715 15499 19583 16204 13847 10643 15056 14150 17943 16270 12644 11298 18911 10161 16880 10875 19106 12095 15093 16376 16185 15023 12301 14405 12607 19697 14996 17024 19114 15399 12513 10413 17935 17277 12957 18484 12860 15115 999999
999999 999999 999999 999999 999999 999999 999999 999999 999999 999999 999999 999999 999999 999999 999999 999999 999999 999999 999999 999999 999999 999999 999999 999999 999999 999999 999999 999999 999999 999999 999999 999999 999999 999999 999999 999999 999999 999999 999999 999999 999999 999999 999999 999999 999999 999999 999999 0 999999 999999 999999 999999 999999 999999 999999 999999 999999 999999 999999 999999 999999 19699 11833 11965 19567 10552 14392 15707 18884 17616 10523 16376 14412 16632 14288 11614 12709 13429 12933 19514 11299 16409 15572 16799 15933 14483 13204 16443 11618 16324 17783 13148 19447 18660 15776 16513 11952 11146 18395 16165 13952 15426 18533 17534 12336 18772 18850 12535 12044 18587 14019 14558 15263 10525 13626 12016 15373 14311 19953 12086 16185 999999
999999 999999 999999 999999 999999 999999 999999 999999 999999 999999 999999 999999 999999 999999 999999 999999 999999 999999 999999 999999 999999 999999 999999 999999 999999 999999 999999 999999 999999 999999 999999 999999 999999 999999 999999 999999 999999 999999 999999 999999 999999 999999 999999 999999 999999 999999 999999 999999 0 999999 999999 999999 999999 999999 999999 999999 999999 999999 999999 999999 999999 14893 18143 14384 13928 18613 13688 18737 16630 16410 12979 15013 13446 12663 11496 11631 15971 16081 16670 15551 16661 11073 11063 18209 15218 10992 12598 10349 11659 17236 18710 17529 12109 13188 11916 15430 15978 16627 13412 11117 16293 15794 10233 14425 17586 16855 14899 19284 11686 14027 19324 16779 14918 17511 11573 16111 19009 10410 14090 12225 19275 999999
999999 999999 999999 999999 999999 999999 999999 999999 999999 999999 999999 999999 999999 999999 999999 999999 999999 999999 999999 999999 999999 999999 999999 999999 999999 999999 999999 999999 999999 999999 999999 999999 999999 999999 999999 999999 999999 999999 999999 999999 999999 999999 999999 999999 999999 999999 999999 999999 999999 0 999999 999999 999999 999999 999999 999999 999999 999999 999999 999999 999999 15357 11026 18089 11199 18709 10780 15437 17897 14526 11157 11527 16363 18821 12120 14214 18113 15257 17494 17490 18014 10761 11231 18803 18638 12954 16926 11203 18805 18672 16298 14449 10699 10756 15011 15396 18355 16014 17311 18662 13056 12605 14583 19847 11759 16941 15939 17256 19399 10325 19874 13187 19156 19639 15352 10510 11139 14770 18181 15484 17961 999999
999999 999999 999999 999999 999999 999999 999999 999999 999999 999999 999999 999999 999999 999999 999999 999999 999999 999999 999999 999999 999999 999999 999999 999999 999999 999999 999999 999999 999999 999999 999999 999999 999999 999999 999999 999999 999999 999999 999999 999999 999999 999999 999999 999999 999999 999999 999999 999999 999999 999999 0 999999 999999 999999 999999 999999 999999 999999 999999 999999 999999 12786 18205 15073 15822 19136 17411 16798 10209 16829 11455 14604 16487 10351 10905 10759 15946 14534 19691 16047 12105 16126 10897 13141 17229 17706 14984 18094 14961 17315 16093 13509 11193 19856 10807 17623 14564 14485 18409 15719 12455 19712 13467 19502 16961 12729 11114 14457 12588 18154 17635 16452 13337 11185 13556 15654 14782 13091 11144 15545 15394 999999
999999 999999 999999 999999 999999 999999 999999 999999 999999 999999 999999 999999 999999 999999 999999 999999 999999 999999 999999 999999 999999 999999 999999 999999 999999 999999 999999 999999 999999 999999 999999 999999 999999 999999 999999 999999 999999 999999 999999 999999 999999 999999 999999 999999 999999 999999 999999 999999 999999 999999 999999 0 999999 999999 999999 999999 999999 999999 999999 999999 999999 13351 18475 11584 12772 17418 13194 10023 17731 18631 10662 10578 18744 15403 19226 14731 15896 13661 18108 17369 11031 19352 18611 15389 11020 14899 19926 10575 19457 14266 10460 11907 14776 15773 19637 14426 12133 14928 10919 10746 17972 14131 18812 12888 11107 10041 16183 11269 13697 17606 14529 13738 11025 19204 14006 18821 17853 17878 10569 14109 17709 999999
999999 999999 999999 999999 999999 999999 999999 999999 999999 999999 999999 999999 999999 999999 999999 999999 999999 999999 999999 999999 999999 999999 999999 999999 999999 999999 999999 999999 999999 999999 999999 999999 999999 999999 999999 999999 999999 999999 999999 999999 999999 999999 999999 999999 999999 999999 999999 999999 999999 999999 999999 999999 0 999999 999999 999999 999999 999999 999999 999999 999999 17253 19886 19289 10181 16490 19570 11058 14589 13404 16237 14724 10915 18081 12753 14634 15757 13753 19718 15364 15590 18625 11280 17915 13383 14717 16790 18826 13555 11478 10872 10346 11633 15239 10142 10463 15954 15150 19311 14245 19033 19578 11003 19243 12179 12822 14016 17103 14551 15633 19940 10893 11310 15344 18342 13820 18587 16241 15875 18619 16247 999999
999999 999999 999999 999999 999999 999999 999999 999999 999999 999999 999999 999999 999999 999999 999999 999999 999999 999999 999999 999999 999999 999999 999999 999999 999999 999999 999999 999999 999999 999999 999999 999999 999999 999999 999999 999999 999999 999999 999999 999999 999999 999999 999999 999999 999999 999999 999999 999999 999999 999999 999999 999999 999999 0 999999 999999 999999 999999 999999 999999 999999 14244 12948 15766 14027 10945 17072 11248 13225 14195 13682 17378 14856 13935 10151 16603 19460 16518 11267 10875 14855 17097 16857 10613 18475 13680 11491 15490 16291 14777 19218 13128 12976 14164 18877 18403 13622 13882 13751 16413 10136 17457 19766 17592 15755 10570 11256 12971 12687 13714 16750 12606 17770 12897 14739 13762 16095 19020 18750 14393 18359 999999
999999 999999 999999 999999 999999 999999 999999 999999 999999 999999 999999 999999 999999 999999 999999 999999 999999 999999 999999 999999 999999 999999 999999 999999 999999 999999 999999 999999 999999 999999 999999 999999 999999 999999 999999 999999 999999 999999 999999 999999 999999 999999 999999 999999 999999 999999 999999 999999 999999 999999 999999 999999 999999 999999 0 999999 999999 999999 999999 999999 999999 11056 14619 14876 18847 10480 10970 18011 15607 13630 11249 12404 18032 16273 13538 14377 14639 12933 19416 15515 10707 10558 17550 14094 16376 12365 17833 17845 16506 15980 14239 13751 18638 19188 18712 19547 19220 11425 11798 13056 15671 16455 19711 11660 13810 12911 12924 16699 17322 12619 13171 10982 19736 17626 11503 11587 17603 13224 11607 18474 17567 999999
999999 999999 999999 999999 999999 999999 999999 999999 999999 999999 999999 999999 999999 999999 999999 999999 999999 999999 999999 999999 999999 999999 999999 999999 999999 999999 999999 999999 999999 999999 999999 999999 999999 999999 999999 999999 999999 999999 999999 999999 999999 999999 999999 999999 999999 999999 999999 999999 999999 999999 999999 999999 999999 999999 999999 0 999999 999999 999999 999999 999999 19087 18053 15705 16036 12348 11708 10693 13690 15351 16841 12914 14243 18622 18204 13658 10152 19506 12402 13856 14161 17364 15869 13473 13948 15246 16086 15521 11570 17364 18012 19204 13783 16183 13111 17337 14232 11246 13776 11243 17574 13300 12896 10631 11338 13046 12816 15161 18388 18311 16293 16900 19391 12821 16785 18377 14540 14169 12135 10203 16800 999999
999999 999999 999999 999999 999999 999999 999999 999999 999999 999999 999999 999999 999999 999999 999999 999999 999999 999999 999999 999999 999999 999999 999999 999999 999999 999999 999999 999999 999999 999999 999999 999999 999999 999999 999999 999999 999999 999999 999999 999999 999999 999999 999999 999999 999999 999999 999999 999999 999999 999999 999999 999999 999999 999999 999999 999999 0 999999 999999 999999 999999 19753 14438 12384 16535 17620 19566 18790 15865 11493 12361 11285 12191 14966 16775 17942 14036 15123 17077 18255 14780 14656 15769 16901 17843 19867 17689 13758 18297 19287 17799 14506 18850 14719 11004 12909 14911 16084 10808 17295 13051 10747 15285 11458 13511 18133 18402 14651 18184 13967 10422 17117 11598 17728 14910 15918 15438 14969 12943 13625 19562 999999
999999 999999 999999 999999 999999 999999 999999 999999 999999 999999 999999 999999 999999 999999 999999 999999 999999 999999 999999 999999 999999 999999 999999 999999 999999 999999 999999 999999 999999 999999 999999 999999 999999 999999 999999 999999 999999 999999 999999 999999 999999 999999 999999 999999 999999 999999 999999 999999 999999 999999 999999 999999 999999 999999 999999 999999 999999 0 999999 999999 999999 14509 16626 10632 17074 11610 18382 15642 12891 10889 12813 12226 19764 12039 14340 13473 11757 17391 16653 16514 14458 12758 13247 10961 19139 10581 11618 10065 12968 12336 18513 13371 18977 17314 11813 19281 14589 18272 19582 16104 18382 12546 10105 12390 18673 12405 18571 12408 14494 15525 14168 15414 15828 10114 10780 15112 19358 18645 18543 10998 16526 999999
999999 999999 999999 999999 999999 999999 999999 999999 999999 999999 999999 999999 999999 999999 999999 999999 999999 999999 999999 999999 999999 999999 999999 999999 999999 999999 999999 999999 999999 999999 999999 999999 999999 999999 999999 999999 999999 999999 999999 999999 999999 999999 999999 999999 999999 999999 999999 999999 999999 999999 999999 999999 999999 999999 999999 999999 999999 999999 0 999999 999999 17485 15311 11850 18205 12316 13762 13920 11036 11453 17000 19176 18474 17675 19907 17395 19990 17654 14035 14394 12353 10007 10761 10389 15190 10390 13179 18227 16617 11455 16283 10787 18744 12859 13357 19788 16377 13147 15481 10291 18537 13671 17255 17337 12995 10113 10621 15665 11782 12976 14093 11146 15753 13310 19567 17066 10607 16667 10888 15772 18710 999999
999999 999999 999999 999999 999999 999999 999999 999999 999999 999999 999999 999999 999999 999999 999999 999999 999999 999999 999999 999999 999999 999999 999999 999999 999999 999999 999999 999999 999999 999999 999999 999999 999999 999999 999999 999999 999999 999999 999999 999999 999999 999999 999999 999999 999999 999999 999999 999999 999999 999999 999999 999999 999999 999999 999999 999999 999999 999999 999999 0 999999 15685 18283 17432 15292 14458 15214 17775 15168 14564 12145 10305 14204 15408 18563 13425 18636 13433 10768 18094 19072 19360 11865 11517 13429 19324 17466 15439 16881 13142 15998 19360 12045 10153 15386 19256 13905 14754 11235 11787 18755 13010 11402 16730 11487 10370 10147 11169 19506 11811 14031 15015 12026 19606 16147 12427 10586 10196 19701 17457 16315 999999
999999 999999 999999 999999 999999 999999 999999 999999 999999 999999 999999 999999 999999 999999 999999 999999 999999 999999 999999 999999 999999 999999 999999 999999 999999 999999 999999 999999 999999 999999 999999 999999 999999 999999 999999 999999 999999 999999 999999 999999 999999 999999 999999 999999 999999 999999 999999 999999 999999 999999 999999 999999 999999 999999 999999 999999 999999 999999 999999 999999 0 11839 17764 18472 15830 15864 19674 17214 13511 17890 18772 17284 19802 18935 14015 16345 12736 16052 11002 16369 16044 16299 10581 12016 11036 16235 17028 18920 19208 12027 12967 15910 11463 17766 15549 14853 17281 18752 10354 10236 10585 12532 14023 13905 14165 13290 15419 17296 19785 12153 15419 14647 13680 16141 12242 17177 15353 13669 17315 13445 18577 999999
999999 15347 15165 12956 12972 17990 17246 17659 19752 19416 18913 17710 17347 15758 13734 12694 17317 10322 13206 18828 17889 10782 13286 13331 19113 18993 10565 10874 11227 15578 16373 17939 10325 16688 10934 17182 17012 18273 19554 14498 17510 11263 12381 19396 13039 18510 15349 19699 14893 15357 12786 13351 17253 14244 11056 19087 19753 14509 17485 15685 11839 0 999999 999999 999999 999999 999999 999999 999999 999999 999999 999999 999999 999999 999999 999999 999999 999999 999999 999999 999999 999999 999999 999999 999999 999999 999999 999999 999999 999999 999999 999999 999999 999999 999999 999999 999999 999999 999999 999999 999999 999999 999999 999999 999999 999999 999999 999999 999999 999999 999999 999999 999999 999999 999999 999999 999999 999999 999999 999999 999999 10028
999999 16621 19752 15510 12422 17985 14044 17640 19573 14801 13293 19531 19764 13347 16895 10012 11504 15339 18656 16687 13360 10959 10822 19987 19838 10737 13551 13818 12461 13716 18629 13129 11301 15822 16436 12999 13226 14466 16538 16480 11352 19467 15488 18409 11814 16131 18559 11833 18143 11026 18205 18475 19886 12948 14619 18053 14438 16626 15311 18283 17764 999999 0 999999 999999 999999 999999 999999 999999 999999 999999 999999 999999 999999 999999 999999 999999 999999 999999 999999 999999 999999 999999 999999 999999 999999 999999 999999 999999 999999 999999 999999 999999 999999 999999 999999 999999 999999 999999 999999 999999 999999 999999 999999 999999 999999 999999 999999 999999 999999 999999 999999 999999 999999 999999 999999 999999 999999 999999 999999 999999 9602
999999 17405 17285 13325 11909 11266 13867 16521 10030 10561 16907 15766 14817 14092 15828 14947 12908 18829 19083 17974 14362 13847 17842 17276 10250 16168 13796 16109 19067 14349 11161 14467 11265 19382 13985 14857 18731 19461 16929 10623 14497 15692 14080 12257 14163 18421 18583 11965 14384 18089 15073 11584 19289 15766 14876 15705 12384 10632 11850 17432 18472 999999 999999 0 999999 999999 999999 999999 999999 999999 999999 999999 999999 999999 999999 999999 999999 999999 999999 999999 999999 999999 999999 999999 999999 999999 999999 999999 999999 999999 999999 999999 999999 999999 999999 999999 999999 999999 999999 999999 999999 999999 999999 999999 999999 999999 999999 999999 999999 999999 999999 999999 999999 999999 999999 999999 999999 999999 999999 999999 999999 14775
999999 16434 11884 11913 14598 16934 11234 14646 10335 10466 18643 12772 12322 13037 19450 16051 16945 15659 12918 11416 12667 14572 17048 15628 10522 16314 19078 16810 12818 16834 14284 11215 14335 15543 11083 10388 11666 12667 11442 13487 12821 14272 12091 14994 12199 10202 11268 19567 13928 11199 15822 12772 10181 14027 18847 16036 16535 17074 18205 15292 15830 999999 999999 999999 0 999999 999999 999999 999999 999999 999999 999999 999999 999999 999999 999999 999999 999999 999999 999999 999999 999999 999999 999999 999999 999999 999999 999999 999999 999999 999999 999999 999999 999999 999999 999999 999999 999999 999999 999999 999999 999999 999999 999999 999999 999999 999999 999999 999999 999999 999999 999999 999999 999999 999999 999999 999999 999999 999999 999999 999999 6859
999999 12911 13799 18404 11245 12149 15002 10546 12890 16740 17091 15116 13683 17615 14656 17511 17592 13743 18795 14696 11036 17997 16092 11092 17700 12108 19539 15387 17632 10492 15014 15785 11946 14784 12498 18082 19051 16582 16118 18601 10817 13782 10402 14416 13986 18124 11149 10552 18613 18709 19136 17418 16490 10945 10480 12348 17620 11610 12316 14458 15864 999999 999999 999999 999999 0 999999 999999 999999 999999 999999 999999 999999 999999 999999 999999 999999 999999 999999 999999 999999 999999 999999 999999 999999 999999 999999 999999 999999 999999 999999 999999 999999 999999 999999 999999 999999 999999 999999 999999 999999 999999 999999 999999 999999 999999 999999 999999 999999 999999 999999 999999 999999 999999 999999 999999 999999 999999 999999 999999 999999 13902
999999 19125 16123 15599 15433 17424 13017 13501 10220 19387 19445 12830 13708 17728 10562 13931 12156 11522 11626 17183 11222 18848 16729 12280 10070 18087 19670 15889 12486 17907 19374 14857 10845 19357 16698 16113 19825 17660 17240 17585 12706 15304 14084 17740 14296 19662 17180 14392 13688 10780 17411 13194 19570 17072 10970 11708 19566 18382 13762 15214 19674 999999 999999 999999 999999 999999 0 999999 999999 999999 999999 999999 999999 999999 999999 999999 999999 999999 999999 999999 999999 999999 999999 999999 999999 999999 999999 999999 999999 999999 999999 999999 999999 999999 999999 999999 999999 999999 999999 999999 999999 999999 999999 999999 999999 999999 999999 999999 999999 999999 999999 999999 999999 999999 999999 999999 999999 999999 999999 999999 999999 7288
999999 18702 14783 18132 16436 11435 15833 10654 11990 17458 14762 10491 14845 11507 18339 14199 16210 18395 14656 14658 15277 13912 15094 16601 12702 10535 17735 12401 12598 10576 11395 14245 10754 17031 13273 15993 14713 17489 15513 11961 13043 12579 13287 10535 12176 10051 13474 15707 18737 15437 16798 10023 11058 11248 18011 10693 18790 15642 13920 17775 17214 999999 999999 999999 999999 999999 999999 0 999999 999999 999999 999999 999999 999999 999999 999999 999999 999999 999999 999999 999999 999999 999999 999999 999999 999999 999999 999999 999999 999999 999999 999999 999999 999999 999999 999999 999999 999999 999999 999999 999999 999999 999999 999999 999999 999999 999999 999999 999999 999999 999999 999999 999999 999999 999999 999999 999999 999999 999999 999999 999999 10860
999999 10617 19829 13870 14778 18727 12378 19896 19839 12315 16878 15327 16348 17980 10905 15756 19347 19932 15275 17698 18559 19845 18721 10893 14897 19381 19291 12110 13336 13831 19571 14751 14890 13880 17041 14747 12431 18421 16490 11890 16219 15924 12142 16833 14632 12304 15055 18884 16630 17897 10209 17731 14589 13225 15607 13690 15865 12891 11036 15168 13511 999999 999999 999999 999999 999999 999999 999999 0 999999 999999 999999 999999 999999 999999 999999 999999 999999 999999 999999 999999 999999 999999 999999 999999 999999 999999 999999 999999 999999 999999 999999 999999 999999 999999 999999 999999 999999 999999 999999 999999 999999 999999 999999 999999 999999 999999 999999 999999 999999 999999 999999 999999 999999 999999 999999 999999 999999 999999 999999 999999 14961
999999 15195 17095 19030 19004 10301 16282 16028 13105 19191 14976 10339 17784 13281 18839 16856 14231 17504 19999 18685 19362 18629 17561 17450 15667 12159 16264 19146 13117 10856 17617 18662 18294 14233 17722 11605 15274 14893 13702 18678 10406 12153 12024 19522 12019 19716 19630 17616 16410 14526 16829 18631 13404 14195 13630 15351 11493 10889 11453 14564 17890 999999 999999 999999 999999 999999 999999 999999 999999 0 999999 999999 999999 999999 999999 999999 999999 999999 999999 999999 999999 999999 999999 999999 999999 999999 999999 999999 999999 999999 999999 999999 999999 999999 999999 999999 999999 999999 999999 999999 999999 999999 999999 999999 999999 999999 999999 999999 999999 999999 999999 999999 999999 999999 999999 999999 999999 999999 999999 999999 999999 7845
999999 10391 14393 15347 16134 19547 19711 13206 17958 16955 18701 19860 13660 15335 17829 11959 10940 10980 10359 17388 12302 19613 16409 15598 15499 10346 19791 16203 15183 18411 16019 17594 19196 16139 11402 10712 13441 15167 16221 11068 17359 16827 17173 12891 19941 10933 12532 10523 12979 11157 11455 10662 16237 13682 11249 16841 12361 12813 17000 12145 18772 999999 999999 999999 999999 999999 999999 999999 999999 999999 0 999999 999999 999999 999999 999999 999999 999999 999999 999999 999999 999999 999999 999999 999999 999999 999999 999999 999999 999999 999999 999999 999999 999999 999999 999999 999999 999999 999999 999999 999999 999999 999999 999999 999999 999999 999999 999999 999999 999999 999999 999999 999999 999999 999999 999999 999999 999999 999999 999999 999999 8887
999999 17342 18115 17219 17944 19350 12256 18864 10681 15594 19282 13200 15225 11505 12602 16927 16091 19932 10875 11369 15186 11582 17489 15238 11720 10097 17841 19156 10909 15003 10654 14285 16060 14726 19474 11564 13827 11692 19221 18836 14665 19708 15305 19905 19701 11087 18576 16376 15013 11527 14604 10578 14724 17378 12404 12914 11285 12226 19176 10305 17284 999999 999999 999999 999999 999999 999999 999999 999999 999999 999999 0 999999 999999 999999 999999 999999 999999 999999 999999 999999 999999 999999 999999 999999 999999 999999 999999 999999 999999 999999 999999 999999 999999 999999 999999 999999 999999 999999 999999 999999 999999 999999 999999 999999 999999 999999 999999 999999 999999 999999 999999 999999 999999 999999 999999 999999 999999 999999 999999 999999 6571
999999 12420 10569 14369 12694 15506 13327 17656 16791 19920 17033 12726 14179 13486 10623 12838 10584 12023 12044 12015 15380 19298 16700 14897 18516 13447 19012 17172 16952 11950 15439 13084 17865 13349 12941 15521 13718 19418 10245 13132 16667 12570 10233 14153 15825 17761 17615 14412 13446 16363 16487 18744 10915 14856 18032 14243 12191 19764 18474 14204 19802 999999 999999 999999 999999 999999 999999 999999 999999 999999 999999 999999 0 999999 999999 999999 999999 999999 999999 999999 999999 999999 999999 999999 999999 999999 999999 999999 999999 999999 999999 999999 999999 999999 999999 999999 999999 999999 999999 999999 999999 999999 999999 999999 999999 999999 999999 999999 999999 999999 999999 999999 999999 999999 999999 999999 999999 999999 999999 999999 999999 9562
999999 14017 12474 18165 12820 15928 19291 11311 17419 10467 18295 12951 16546 12953 18478 12394 10494 14143 11946 18471 13278 10725 16620 13415 13476 12847 13600 13978 14751 17046 19143 19151 12714 16076 16932 19821 11462 11981 17517 16170 18628 18523 19334 10935 17363 18126 17294 16632 12663 18821 10351 15403 18081 13935 16273 18622 14966 12039 17675 15408 18935 999999 999999 999999 999999 999999 999999 999999 999999 999999 999999 999999 999999 0 999999 999999 999999 999999 999999 999999 999999 999999 999999 999999 999999 999999 999999 999999 999999 999999 999999 999999 999999 999999 999999 999999 999999 999999 999999 999999 999999 999999 999999 999999 999999 999999 999999 999999 999999 999999 999999 999999 999999 999999 999999 999999 999999 999999 999999 999999 999999 14970
999999 15173 15635 19629 10387 12565 10731 17725 11897 13185 15702 12005 19490 14496 13476 16502 15937 12052 14557 14963 15878 10004 10119 12184 10632 16895 18580 18785 11896 11237 15159 14407 18092 13169 18340 12263 16555 12719 12642 10252 19079 12932 13911 19798 11006 12101 17406 14288 11496 12120 10905 19226 12753 10151 13538 18204 16775 14340 19907 18563 14015 999999 999999 999999 999999 999999 999999 999999 999999 999999 999999 999999 999999 999999 0 999999 999999 999999 999999 999999 999999 999999 999999 999999 999999 999999 999999 999999 999999 999999 999999 999999 999999 999999 999999 999999 999999 999999 999999 999999 999999 999999 999999 999999 999999 999999 999999 999999 999999 999999 999999 999999 999999 999999 999999 999999 999999 999999 999999 999999 999999 6613
999999 18649 17340 16143 12043 18603 11937 17631 17360 10603 18443 15316 18588 13000 12702 11390 18845 12395 15807 15018 13233 14275 17406 19533 14373 15632 12501 19453 10534 16504 12802 15880 13900 10696 10417 12690 14051 13097 15428 15276 12631 10884 11451 15936 11143 18083 10321 11614 11631 14214 10759 14731 14634 16603 14377 13658 17942 13473 17395 13425 16345 999999 999999 999999 999999 999999 999999 999999 999999 999999 999999 999999 999999 999999 999999 0 999999 999999 999999 999999 999999 999999 999999 999999 999999 999999 999999 999999 999999 999999 999999 999999 999999 999999 999999 999999 999999 999999 999999 999999 999999 999999 999999 999999 999999 999999 999999 999999 999999 999999 999999 999999 999999 999999 999999 999999 999999 999999 999999 999999 999999 5877
999999 11422 12231 11414 11467 10852 10929 17242 18085 11813 17329 15363 19704 12325 15707 19366 10745 11602 14001 18642 12866 18004 17497 11679 11781 18319 14298 12472 17186 10018 18956 16995 17318 17502 16251 16661 18883 10540 10457 14848 16247 13518 14817 19365 12239 15976 17206 12709 15971 18113 15946 15896 15757 19460 14639 10152 14036 11757 19990 18636 12736 999999 999999 999999 999999 999999 999999 999999 999999 999999 999999 999999 999999 999999 999999 999999 0 999999 999999 999999 999999 999999 999999 999999 999999 999999 999999 999999 999999 999999 999999 999999 999999 999999 999999 999999 999999 999999 999999 999999 999999 999999 999999 999999 999999 999999 999999 999999 999999 999999 999999 999999 999999 999999 999999 999999 999999 999999 999999 999999 999999 12561
999999 13218 13229 18656 11373 10944 14631 17115 12582 15033 15204 18633 14753 10108 15324 14212 10566 14190 12967 18873 17608 19305 13117 17755 19914 10081 10940 13581 17541 14117 15631 11485 13346 16349 18327 15713 14668 14829 17633 10925 16498 19163 10081 11341 14858 13183 16964 13429 16081 15257 14534 13661 13753 16518 12933 19506 15123 17391 17654 13433 16052 999999 999999 999999 999999 999999 999999 999999 999999 999999 999999 999999 999999 999999 999999 999999 999999 0 999999 999999 999999 999999 999999 999999 999999 999999 999999 999999 999999 999999 999999 999999 999999 999999 999999 999999 999999 999999 999999 999999 999999 999999 999999 999999 999999 999999 999999 999999 999999 999999 999999 999999 999999 999999 999999 999999 999999 999999 999999 999999 999999 10644
999999 17125 11535 13164 10497 11144 17824 15528 13020 16438 13611 11408 11480 17408 17619 15367 15683 11471 15274 18121 18873 17854 19831 12549 17049 16605 10773 18164 12286 10408 17308 13283 14976 14494 10650 10475 13398 17257 15702 14558 14823 10219 16000 12752 15171 18212 12814 12933 16670 17494 19691 18108 19718 11267 19416 12402 17077 16653 14035 10768 11002 999999 999999 999999 999999 999999 999999 999999 999999 999999 999999 999999 999999 999999 999999 999999 999999 999999 0 999999 999999 999999 999999 999999 999999 999999 999999 999999 999999 999999 999999 999999 999999 999999 999999 999999 999999 999999 999999 999999 999999 999999 999999 999999 999999 999999 999999 999999 999999 999999 999999 999999 999999 999999 999999 999999 999999 999999 999999 999999 999999 6149
999999 15893 16441 14993 15605 15501 14945 15449 16807 11656 11386 13204 15812 11900 16268 13945 13109 19793 14366 17101 16878 13533 12559 16479 15621 10282 14525 17382 13408 19602 11758 10342 13916 16552 15186 10955 17415 14683 14622 16087 10458 16129 17854 16567 17545 12312 10848 19514 15551 17490 16047 17369 15364 10875 15515 13856 18255 16514 14394 18094 16369 999999 999999 999999 999999 999999 999999 999999 999999 999999 999999 999999 999999 999999 999999 999999 999999 999999 999999 0 999999 999999 999999 999999 999999 999999 999999 999999 999999 999999 999999 999999 999999 999999 999999 999999 999999 999999 999999 999999 999999 999999 999999 999999 999999 999999 999999 999999 999999 999999 999999 999999 999999 999999 999999 999999 999999 999999 999999 999999 999999 9801
999999 18659 10418 19465 11984 13026 16861 18691 19428 14674 11331 11438 18199 12751 12249 13565 14742 10789 16151 16784 18042 10141 11023 15418 18007 16308 15555 11507 14249 14835 11456 11990 11585 10640 10694 13257 12996 17899 13540 19651 10651 11984 13849 19489 11869 18889 16955 11299 16661 18014 12105 11031 15590 14855 10707 14161 14780 14458 12353 19072 16044 999999 999999 999999 999999 999999 999999 999999 999999 999999 999999 999999 999999 999999 999999 999999 999999 999999 999999 999999 0 999999 999999 999999 999999 999999 999999 999999 999999 999999 999999 999999 999999 999999 999999 999999 999999 999999 999999 999999 999999 999999 999999 999999 999999 999999 999999 999999 999999 999999 999999 999999 999999 999999 999999 999999 999999 999999 999999 999999 999999 5571
999999 11679 18176 10878 11941 16110 16812 13154 17282 15578 14043 18751 11789 19047 19292 15046 15511 13086 19983 11072 10112 16870 12798 18706 14827 18807 17900 19510 12382 16687 10352 18091 16041 18429 19076 12195 15874 15494 16452 14291 12104 19873 10674 16941 17859 16366 17456 16409 11073 10761 16126 19352 18625 17097 10558 17364 14656 12758 10007 19360 16299 999999 999999 999999 999999 999999 999999 999999 999999 999999 999999 999999 999999 999999 999999 999999 999999 999999 999999 999999 999999 0 999999 999999 999999 999999 999999 999999 999999 999999 999999 999999 999999 999999 999999 999999 999999 999999 999999 999999 999999 999999 999999 999999 999999 999999 999999 999999 999999 999999 999999 999999 999999 999999 999999 999999 999999 999999 999999 999999 999999 12360
999999 14628 14938 15291 19178 12317 15714 11484 18293 19593 16897 12603 12534 17468 10771 16158 19136 15921 13610 19250 15738 11307 18726 10534 10255 13247 14537 11438 16647 15276 14441 12668 18968 16271 13882 14225 12313 10052 10889 11065 16915 14490 13728 10569 11530 19668 15677 15572 11063 11231 10897 18611 11280 16857 17550 15869 15769 13247 10761 11865 10581 999999 999999 999999 999999 999999 999999 999999 999999 999999 999999 999999 999999 999999 999999 999999 999999 999999 999999 999999 999999 999999 0 999999 999999 999999 999999 999999 999999 999999 999999 999999 999999 999999 999999 999999 999999 999999 999999 999999 999999 999999 999999 999999 999999 999999 999999 999999 999999 999999 999999 999999 999999 999999 999999 999999 999999 999999 999999 999999 999999 7911
999999 11034 15581 19888 13326 17638 16074 18455 10384 13569 12208 15720 18697 12737 11301 12263 11918 14782 11606 17076 18370 16412 19297 11749 17787 18807 17637 10743 16728 14556 10925 14425 12494 19576 13878 12058 10158 10814 18263 17787 11735 12652 14546 19639 17678 10334 15715 16799 18209 18803 13141 15389 17915 10613 14094 13473 16901 10961 10389 11517 12016 999999 999999 999999 999999 999999 999999 999999 999999 999999 999999 999999 999999 999999 999999 999999 999999 999999 999999 999999 999999 999999 999999 0 999999 999999 999999 999999 999999 999999 999999 999999 999999 999999 999999 999999 999999 999999 999999 999999 999999 999999 999999 999999 999999 999999 999999 999999 999999 999999 999999 999999 999999 999999 999999 999999 999999 999999 999999 999999 999999 8093
999999 12141 15110 11579 18828 18803 11905 11341 11396 14193 10529 12137 10325 16326 11393 10530 12607 16873 17506 10407 18227 19605 14921 16136 18041 15143 12339 14082 18862 15894 18892 16119 17077 15093 12452 18446 11023 19023 10811 15025 17660 11743 16506 17783 17329 17332 15499 15933 15218 18638 17229 11020 13383 18475 16376 13948 17843 19139 15190 13429 11036 999999 999999 999999 999999 999999 999999 999999 999999 999999 999999 999999 999999 999999 999999 999999 999999 999999 999999 999999 999999 999999 999999 999999 0 999999 999999 999999 999999 999999 999999 999999 999999 999999 999999 999999 999999 999999 999999 999999 999999 999999 999999 999999 999999 999999 999999 999999 999999 999999 999999 999999 999999 999999 999999 999999 999999 999999 999999 999999 999999 13119
999999 11394 16928 14001 18512 15810 19896 14090 11410 10148 13479 10306 12119 12928 15826 16785 19873 16448 11873 12378 12143 14461 12471 16298 13111 19146 15543 15089 11879 19913 17474 11202 13212 14050 14623 16633 11358 18336 12821 15426 17645 14851 12370 12291 14913 16420 19583 14483 10992 12954 17706 14899 14717 13680 12365 15246 19867 10581 10390 19324 16235 999999 999999 999999 999999 999999 999999 999999 999999 999999 999999 999999 999999 999999 999999 999999 999999 999999 999999 999999 999999 999999 999999 999999 999999 0 999999 999999 999999 999999 999999 999999 999999 999999 999999 999999 999999 999999 999999 999999 999999 999999 999999 999999 999999 999999 999999 999999 999999 999999 999999 999999 999999 999999 999999 999999 999999 999999 999999 999999 999999 13600
999999 15171 16027 17188 18817 11549 10198 16067 12243 17946 15543 10498 11826 18695 15734 18567 16772 14413 14885 16310 17303 16354 12624 18466 16107 11947 16465 12931 13334 16869 12166 18010 15808 19645 16775 14249 16683 11683 11040 17210 18216 10290 19521 16872 10909 15106 16204 13204 12598 16926 14984 19926 16790 11491 17833 16086 17689 11618 13179 17466 17028 999999 999999 999999 999999 999999 999999 999999 999999 999999 999999 999999 999999 999999 999999 999999 999999 999999 999999 999999 999999 999999 999999 999999 999999 999999 0 999999 999999 999999 999999 999999 999999 999999 999999 999999 999999 999999 999999 999999 999999 999999 999999 999999 999999 999999 999999 999999 999999 999999 999999 999999 999999 999999 999999 999999 999999 999999 999999 999999 999999 13071
999999 10193 14506 13616 15361 10019 17041 12340 17439 10884 12997 10477 15783 11224 16927 10698 18628 18261 12251 13593 15512 18768 19033 18965 17570 19473 15506 17853 15553 18625 18095 16270 13173 12479 18811 13202 11875 17209 10482 15177 18076 16903 13023 15854 17604 19586 13847 16443 10349 11203 18094 10575 18826 15490 17845 15521 13758 10065 18227 15439 18920 999999 999999 999999 999999 999999 999999 999999 999999 999999 999999 999999 999999 999999 999999 999999 999999 999999 999999 999999 999999 999999 999999 999999 999999 999999 999999 0 999999 999999 999999 999999 999999 999999 999999 999999 999999 999999 999999 999999 999999 999999 999999 999999 999999 999999 999999 999999 999999 999999 999999 999999 999999 999999 999999 999999 999999 999999 999999 999999 999999 14335
999999 18591 10187 17970 14552 15017 12744 18679 12325 17179 10799 18802 16170 12269 17307 15547 10532 16137 19821 17830 17259 18526 18567 16482 13428 12829 13769 11250 11570 13982 16472 10755 11313 11078 14489 19252 15449 16992 19591 11100 17188 14478 17014 15077 10702 19930 10643 11618 11659 18805 14961 19457 13555 16291 16506 11570 18297 12968 16617 16881 19208 999999 999999 999999 999999 999999 999999 999999 999999 999999 999999 999999 999999 999999 999999 999999 999999 999999 999999 999999 999999 999999 999999 999999 999999 999999 999999 999999 0 999999 999999 999999 999999 999999 999999 999999 999999 999999 999999 999999 999999 999999 999999 999999 999999 999999 999999 999999 999999 999999 999999 999999 999999 999999 999999 999999 999999 999999 999999 999999 999999 9687
999999 19672 10016 15973 16481 13784 18503 13314 12795 13720 10284 11376 14278 13242 12979 16389 15539 14667 17343 18186 15404 15935 13940 19217 15335 17313 16760 18341 15811 11339 15535 10240 18933 10568 14097 19582 17829 19066 15366 13411 10187 17410 17377 14578 18064 15156 15056 16324 17236 18672 17315 14266 11478 14777 15980 17364 19287 12336 11455 13142 12027 999999 999999 999999 999999 999999 999999 999999 999999 999999 999999 999999 999999 999999 999999 999999 999999 999999 999999 999999 999999 999999 999999 999999 999999 999999 999999 999999 999999 0 999999 999999 999999 999999 999999 999999 999999 999999 999999 999999 999999 999999 999999 999999 999999 999999 999999 999999 999999 999999 999999 999999 999999 999999 999999 999999 999999 999999 999999 999999 999999 13053
999999 10662 12138 12016 14540 12824 13133 16567 13391 13439 12245 10655 14255 19857 19263 15981 19166 11200 15176 12507 19252 13406 10299 11772 15582 18557 19330 18697 18905 17779 10013 13201 11290 18753 16863 16729 19294 14938 17804 19389 11224 13777 12714 12402 13173 11822 14150 17783 18710 16298 16093 10460 10872 19218 14239 18012 17799 18513 16283 15998 12967 999999 999999 999999 999999 999999 999999 999999 999999 999999 999999 999999 999999 999999 999999 999999 999999 999999 999999 999999 999999 999999 999999 999999 999999 999999 999999 999999 999999 999999 0 999999 999999 999999 999999 999999 999999 999999 999999 999999 999999 999999 999999 999999 999999 999999 999999 999999 999999 999999 999999 999999 999999 999999 999999 999999 999999 999999 999999 999999 999999 5432
999999 10146 14535 14986 11062 11651 19288 19642 12718 17820 12000 18566 17090 13494 18780 14972 16366 13655 12220 19482 11575 17763 14252 15951 12138 16157 18404 14192 17585 15264 15832 15882 18911 14419 15985 12470 11146 15024 16802 13203 13489 15703 10132 10709 11863 13775 17943 13148 17529 14449 13509 11907 10346 13128 13751 19204 14506 13371 10787 19360 15910 999999 999999 999999 999999 999999 999999 999999 999999 999999 999999 999999 999999 999999 999999 999999 999999 999999 999999 999999 999999 999999 999999 999999 999999 999999 999999 999999 999999 999999 999999 0 999999 999999 999999 999999 999999 999999 999999 999999 999999 999999 999999 999999 999999 999999 999999 999999 999999 999999 999999 999999 999999 999999 999999 999999 999999 999999 999999 999999 999999 12764
999999 18214 12979 10928 12407 10936 19144 14102 14801 18013 19131 10369 12765 19181 13461 11426 15891 12163 13239 10466 11350 13111 15508 18874 10346 14108 11605 12378 19120 11587 14862 15953 18648 16913 16081 18994 18977 14101 11172 17751 16157 13899 16532 19837 18691 10244 16270 19447 12109 10699 11193 14776 11633 12976 18638 13783 18850 18977 18744 12045 11463 999999 999999 999999 999999 999999 999999 999999 999999 999999 999999 999999 999999 999999 999999 999999 999999 999999 999999 999999 999999 999999 999999 999999 999999 999999 999999 999999 999999 999999 999999 999999 0 999999 999999 999999 999999 999999 999999 999999 999999 999999 999999 999999 999999 999999 999999 999999 999999 999999 999999 999999 999999 999999 999999 999999 999999 999999 999999 999999 999999 9929
999999 17153 10839 12078 14176 15044 16201 13013 10907 10906 15682 15441 16288 19487 15726 16018 11680 14447 10367 15021 17240 17178 15543 11038 13350 18180 11925 11519 13976 19676 11910 12101 19458 17942 18805 12403 19936 17105 10098 10787 17033 19711 17415 12309 13488 16344 12644 18660 13188 10756 19856 15773 15239 14164 19188 16183 14719 17314 12859 10153 17766 999999 999999 999999 999999 999999 999999 999999 999999 999999 999999 999999 999999 999999 999999 999999 999999 999999 999999 999999 999999 999999 999999 999999 999999 999999 999999 999999 999999 999999 999999 999999 999999 0 999999 999999 999999 999999 999999 999999 999999 999999 999999 999999 999999 999999 999999 999999 999999 999999 999999 999999 999999 999999 999999 999999 999999 999999 999999 999999 999999 11549
999999 12990 13554 15244 13843 13827 13621 15258 14197 15037 17182 14318 17130 16643 18036 15122 11411 16051 10657 13632 10251 13128 10589 14550 10712 10722 16659 12756 13175 11218 11690 15771 16667 15201 14360 13928 10275 12351 13587 11639 17454 18957 11452 13874 12072 18592 11298 15776 11916 15011 10807 19637 10142 18877 18712 13111 11004 11813 13357 15386 15549 999999 999999 999999 999999 999999 999999 999999 999999 999999 999999 999999 999999 999999 999999 999999 999999 999999 999999 999999 999999 999999 999999 999999 999999 999999 999999 999999 999999 999999 999999 999999 999999 999999 0 999999 999999 999999 999999 999999 999999 999999 999999 999999 999999 999999 999999 999999 999999 999999 999999 999999 999999 999999 999999 999999 999999 999999 999999 999999 999999 14527
999999 12405 12953 13046 10751 14165 16987 13605 10995 10028 10126 13681 18544 12412 17578 19945 16455 13628 14382 19575 10059 17813 11359 19716 10747 15204 13087 12987 14989 14370 13217 17113 17960 14930 11485 16482 15492 12293 16714 11107 16006 19967 18135 15456 19006 10900 18911 16513 15430 15396 17623 14426 10463 18403 19547 17337 12909 19281 19788 19256 14853 999999 999999 999999 999999 999999 999999 999999 999999 999999 999999 999999 999999 999999 999999 999999 999999 999999 999999 999999 999999 999999 999999 999999 999999 999999 999999 999999 999999 999999 999999 999999 999999 999999 999999 0 999999 999999 999999 999999 999999 999999 999999 999999 999999 999999 999999 999999 999999 999999 999999 999999 999999 999999 999999 999999 999999 999999 999999 999999 999999 13132
999999 17120 16834 17898 14215 16714 15777 17761 15000 13486 13104 18547 19313 10761 16645 16747 10782 14895 15292 15666 14960 13985 14203 16279 10814 17399 18347 14083 19059 14407 17321 12549 15899 18215 13845 14834 12107 19899 10751 16343 14503 10324 19382 16052 17459 18995 10161 11952 15978 18355 14564 12133 15954 13622 19220 14232 14911 14589 16377 13905 17281 999999 999999 999999 999999 999999 999999 999999 999999 999999 999999 999999 999999 999999 999999 999999 999999 999999 999999 999999 999999 999999 999999 999999 999999 999999 999999 999999 999999 999999 999999 999999 999999 999999 999999 999999 0 999999 999999 999999 999999 999999 999999 999999 999999 999999 999999 999999 999999 999999 999999 999999 999999 999999 999999 999999 999999 999999 999999 999999 999999 11027
999999 13145 19957 13416 19083 13726 11187 18392 19554 18181 15976 16756 19195 12731 11934 10804 10705 19299 11349 14458 19129 16880 14705 17556 15918 11024 18124 19162 12080 14423 15743 11941 13560 18969 15505 10004 15180 14119 13416 16501 19190 18117 14297 12475 18590 19322 16880 11146 16627 16014 14485 14928 15150 13882 11425 11246 16084 18272 13147 14754 18752 999999 999999 999999 999999 999999 999999 999999 999999 999999 999999 999999 999999 999999 999999 999999 999999 999999 999999 999999 999999 999999 999999 999999 999999 999999 999999 999999 999999 999999 999999 999999 999999 999999 999999 999999 999999 0 999999 999999 999999 999999 999999 999999 999999 999999 999999 999999 999999 999999 999999 999999 999999 999999 999999 999999 999999 999999 999999 999999 999999 14522
999999 18167 19432 16090 11083 16480 14938 11738 15353 18611 14492 19654 15648 10383 15317 10601 11834 18223 11156 16590 12314 15229 18749 11743 10484 18315 13069 15391 13377 10574 13211 14679 16582 18047 16589 13367 13372 10740 10679 17684 19892 10344 19499 14441 18170 14219 10875 18395 13412 17311 18409 10919 19311 13751 11798 13776 10808 19582 15481 11235 10354 999999 999999 999999 999999 999999 999999 999999 999999 999999 999999 999999 999999 999999 999999 999999 999999 999999 999999 999999 999999 999999 999999 999999 999999 999999 999999 999999 999999 999999 999999 999999 999999 999999 999999 999999 999999 999999 0 999999 999999 999999 999999 999999 999999 999999 999999 999999 999999 999999 999999 999999 999999 999999 999999 999999 999999 999999 999999 999999 999999 6478
999999 11814 19970 17090 14685 16011 19182 17696 13014 19332 16352 18108 11948 13485 10819 10707 18106 10143 14123 19552 12007 16664 18061 17396 16301 18690 17112 16624 12500 16144 11126 17650 11372 16466 14238 11694 17058 17804 14934 12740 10885 17651 19393 19123 11985 15661 19106 16165 11117 18662 15719 10746 14245 16413 13056 11243 17295 16104 10291 11787 10236 999999 999999 999999 999999 999999 999999 999999 999999 999999 999999 999999 999999 999999 999999 999999 999999 999999 999999 999999 999999 999999 999999 999999 999999 999999 999999 999999 999999 999999 999999 999999 999999 999999 999999 999999 999999 999999 999999 0 999999 999999 999999 999999 999999 999999 999999 999999 999999 999999 999999 999999 999999 999999 999999 999999 999999 999999 999999 999999 999999 11690
999999 18800 19037 18338 16844 10900 14268 10600 12191 10251 19444 19382 11162 13413 11655 18699 12663 17460 13831 12349 10356 14641 10327 16757 10079 15853 12820 11248 11681 15893 10815 10663 16873 12091 16176 17828 16504 15796 19152 11469 19956 18272 12855 18338 17033 11222 12095 13952 16293 13056 12455 17972 19033 10136 15671 17574 13051 18382 18537 18755 10585 999999 999999 999999 999999 999999 999999 999999 999999 999999 999999 999999 999999 999999 999999 999999 999999 999999 999999 999999 999999 999999 999999 999999 999999 999999 999999 999999 999999 999999 999999 999999 999999 999999 999999 999999 999999 999999 999999 999999 0 999999 999999 999999 999999 999999 999999 999999 999999 999999 999999 999999 999999 999999 999999 999999 999999 999999 999999 999999 999999 9172
999999 17147 14063 18594 17488 10158 17961 13986 16652 18111 15716 15527 10115 11353 10244 13803 14603 18419 12030 14889 18817 12538 10666 12933 12984 17587 17131 16343 11934 16247 18244 15138 12808 19850 19018 13551 11211 13448 15367 18708 16743 12956 12628 10147 17376 19208 15093 15426 15794 12605 19712 14131 19578 17457 16455 13300 10747 12546 13671 13010 12532 999999 999999 999999 999999 999999 999999 999999 999999 999999 999999 999999 999999 999999 999999 999999 999999 999999 999999 999999 999999 999999 999999 999999 999999 999999 999999 999999 999999 999999 999999 999999 999999 999999 999999 999999 999999 999999 999999 999999 999999 0 999999 999999 999999 999999 999999 999999 999999 999999 999999 999999 999999 999999 999999 999999 999999 999999 999999 999999 999999 5749
999999 12332 13663 16169 12485 10155 18078 14088 16761 14430 12099 19103 19588 12176 15674 18020 16837 18418 15439 19297 18609 16493 17905 13632 17646 15923 19127 19560 16626 16776 17682 13015 17581 11987 12450 11915 18988 11336 19931 17752 11579 15904 13770 13653 19955 13664 16376 18533 10233 14583 13467 18812 11003 19766 19711 12896 15285 10105 17255 11402 14023 999999 999999 999999 999999 999999 999999 999999 999999 999999 999999 999999 999999 999999 999999 999999 999999 999999 999999 999999 999999 999999 999999 999999 999999 999999 999999 999999 999999 999999 999999 999999 999999 999999 999999 999999 999999 999999 999999 999999 999999 999999 0 999999 999999 999999 999999 999999 999999 999999 999999 999999 999999 999999 999999 999999 999999 999999 999999 999999 999999 11773
999999 17819 10985 17140 19388 11717 17935 11922 10518 14215 13460 12229 12793 19146 10081 11484 10963 11926 18750 11905 19807 14411 18752 11739 11573 16245 13188 10094 11579 16437 18971 12930 11769 13166 14319 11674 15092 18172 13558 15266 12214 15046 12945 15797 13447 10427 16185 17534 14425 19847 19502 12888 19243 17592 11660 10631 11458 12390 17337 16730 13905 999999 999999 999999 999999 999999 999999 999999 999999 999999 999999 999999 999999 999999 999999 999999 999999 999999 999999 999999 999999 999999 999999 999999 999999 999999 999999 999999 999999 999999 999999 999999 999999 999999 999999 999999 999999 999999 999999 999999 999999 999999 999999 0 999999 999999 999999 999999 999999 999999 999999 999999 999999 999999 999999 999999 999999 999999 999999 999999 999999 10381
999999 14997 13960 10964 18680 15268 14130 16926 18554 16186 19814 16902 19295 17191 17515 15669 15114 12679 17741 19098 14311 16203 12622 13342 11286 16870 11210 17449 16602 14088 14278 18989 17538 14976 17259 14842 19095 14014 12018 12929 16313 15460 18625 11293 16334 13688 15023 12336 17586 11759 16961 11107 12179 15755 13810 11338 13511 18673 12995 11487 14165 999999 999999 999999 999999 999999 999999 999999 999999 999999 999999 999999 999999 999999 999999 999999 999999 999999 999999 999999 999999 999999 999999 999999 999999 999999 999999 999999 999999 999999 999999 999999 999999 999999 999999 999999 999999 999999 999999 999999 999999 999999 999999 999999 0 999999 999999 999999 999999 999999 999999 999999 999999 999999 999999 999999 999999 999999 999999 999999 999999 6084
999999 19084 13877 17376 14608 10627 12793 13535 10664 19537 13696 10510 16314 16919 11742 15668 13663 17249 15510 12590 18100 10235 14522 14531 11147 14061 14398 17616 15403 14621 18047 15432 16289 11047 10385 10208 15741 11227 13225 15605 15608 16026 12320 16960 18730 17608 12301 18772 16855 16941 12729 10041 12822 10570 12911 13046 18133 12405 10113 10370 13290 999999 999999 999999 999999 999999 999999 999999 999999 999999 999999 999999 999999 999999 999999 999999 999999 999999 999999 999999 999999 999999 999999 999999 999999 999999 999999 999999 999999 999999 999999 999999 999999 999999 999999 999999 999999 999999 999999 999999 999999 999999 999999 999999 999999 0 999999 999999 999999 999999 999999 999999 999999 999999 999999 999999 999999 999999 999999 999999 999999 9086
999999 14920 15827 12062 18067 15512 15017 11168 17423 11330 12392 15040 18843 11153 17632 18292 15368 13697 12173 19511 13818 16165 11930 13712 12424 19165 13548 15177 13611 12433 15953 16377 16570 10864 18631 17194 11591 11212 18607 18269 16865 13619 11034 10200 10903 12722 14405 18850 14899 15939 11114 16183 14016 11256 12924 12816 18402 18571 10621 10147 15419 999999 999999 999999 999999 999999 999999 999999 999999 999999 999999 999999 999999 999999 999999 999999 999999 999999 999999 999999 999999 999999 999999 999999 999999 999999 999999 999999 999999 999999 999999 999999 999999 999999 999999 999999 999999 999999 999999 999999 999999 999999 999999 999999 999999 999999 0 999999 999999 999999 999999 999999 999999 999999 999999 999999 999999 999999 999999 999999 999999 10958
999999 10648 10004 13135 17433 17855 18136 17758 10492 15402 11138 18062 10497 14917 16539 17033 14894 13912 18584 12008 17353 16029 10232 18163 16193 11652 19972 18707 16535 10350 18237 15092 10634 18656 17100 19084 18964 15441 14248 12946 16296 13894 15277 19118 16364 12228 12607 12535 19284 17256 14457 11269 17103 12971 16699 15161 14651 12408 15665 11169 17296 999999 999999 999999 999999 999999 999999 999999 999999 999999 999999 999999 999999 999999 999999 999999 999999 999999 999999 999999 999999 999999 999999 999999 999999 999999 999999 999999 999999 999999 999999 999999 999999 999999 999999 999999 999999 999999 999999 999999 999999 999999 999999 999999 999999 999999 999999 0 999999 999999 999999 999999 999999 999999 999999 999999 999999 999999 999999 999999 999999 10977
999999 15090 19409 11629 10525 11298 17461 13076 16904 16414 15816 18876 12893 17857 11048 12258 11344 13959 13995 10403 10473 11916 11507 12836 16214 13612 11469 10799 11133 10716 12451 10987 11557 19935 15127 12716 11264 18052 16440 19325 17494 14049 17568 13563 18587 13028 19697 12044 11686 19399 12588 13697 14551 12687 17322 18388 18184 14494 11782 19506 19785 999999 999999 999999 999999 999999 999999 999999 999999 999999 999999 999999 999999 999999 999999 999999 999999 999999 999999 999999 999999 999999 999999 999999 999999 999999 999999 999999 999999 999999 999999 999999 999999 999999 999999 999999 999999 999999 999999 999999 999999 999999 999999 999999 999999 999999 999999 999999 0 999999 999999 999999 999999 999999 999999 999999 999999 999999 999999 999999 999999 10905
999999 10424 10596 10015 16230 11882 17957 16527 16759 15294 15177 12278 18723 17772 17399 17726 12932 15662 18230 18272 13187 12795 13152 10436 15442 19712 11682 17468 13402 16448 12080 19252 17256 17693 13582 13278 13067 13909 16131 16011 16251 19928 12411 15538 16311 11830 14996 18587 14027 10325 18154 17606 15633 13714 12619 18311 13967 15525 12976 11811 12153 999999 999999 999999 999999 999999 999999 999999 999999 999999 999999 999999 999999 999999 999999 999999 999999 999999 999999 999999 999999 999999 999999 999999 999999 999999 999999 999999 999999 999999 999999 999999 999999 999999 999999 999999 999999 999999 999999 999999 999999 999999 999999 999999 999999 999999 999999 999999 999999 0 999999 999999 999999 999999 999999 999999 999999 999999 999999 999999 999999 5643
999999 16115 19222 17706 14255 13163 10927 19755 10824 17743 16537 16674 14285 12521 14685 18062 12756 18707 14614 16978 17271 11052 15425 18624 13310 11474 18772 13562 16679 11704 11418 12257 14405 15891 12346 15202 14921 11869 15849 17784 18290 19961 13657 13371 19801 12700 17024 14019 19324 19874 17635 14529 19940 16750 13171 16293 10422 14168 14093 14031 15419 999999 999999 999999 999999 999999 999999 999999 999999 999999 999999 999999 999999 999999 999999 999999 999999 999999 999999 999999 999999 999999 999999 999999 999999 999999 999999 999999 999999 999999 999999 999999 999999 999999 999999 999999 999999 999999 999999 999999 999999 999999 999999 999999 999999 999999 999999 999999 999999 999999 0 999999 999999 999999 999999 999999 999999 999999 999999 999999 999999 5285
999999 11787 12029 12621 16751 11310 19498 10291 19561 18408 16493 10546 12899 14721 17115 17847 17981 10399 11918 11896 14199 13988 13179 17280 14169 14426 10157 15981 13364 16250 15393 19678 18291 18573 16512 15424 19394 13350 13752 14566 19810 17880 17618 13208 16312 14890 19114 14558 16779 13187 16452 13738 10893 12606 10982 16900 17117 15414 11146 15015 14647 999999 999999 999999 999999 999999 999999 999999 999999 999999 999999 999999 999999 999999 999999 999999 999999 999999 999999 999999 999999 999999 999999 999999 999999 999999 999999 999999 999999 999999 999999 999999 999999 999999 999999 999999 999999 999999 999999 999999 999999 999999 999999 999999 999999 999999 999999 999999 999999 999999 999999 0 999999 999999 999999 999999 999999 999999 999999 999999 999999 12660
999999 12872 12013 14984 13767 12407 18567 19883 15053 10012 15646 10150 10794 14162 16077 18166 11174 13546 13183 10807 18421 14758 15314 17588 10694 19645 18041 17746 17897 10484 15888 10601 13023 12335 14547 11412 11110 14267 11158 10152 18873 16232 18010 15495 13009 16439 15399 15263 14918 19156 13337 11025 11310 17770 19736 19391 11598 15828 15753 12026 13680 999999 999999 999999 999999 999999 999999 999999 999999 999999 999999 999999 999999 999999 999999 999999 999999 999999 999999 999999 999999 999999 999999 999999 999999 999999 999999 999999 999999 999999 999999 999999 999999 999999 999999 999999 999999 999999 999999 999999 999999 999999 999999 999999 999999 999999 999999 999999 999999 999999 999999 999999 0 999999 999999 999999 999999 999999 999999 999999 999999 9295
999999 17020 10413 12646 12571 11046 14233 18740 18061 14366 19449 13272 10263 14174 19011 16701 15170 11119 17005 15567 13011 10565 12655 10205 14478 17953 12821 14460 16352 16166 11416 10091 14340 11628 11621 17413 19272 19459 10697 19407 14925 17151 15747 12363 11283 12801 12513 10525 17511 19639 11185 19204 15344 12897 17626 12821 17728 10114 13310 19606 16141 999999 999999 999999 999999 999999 999999 999999 999999 999999 999999 999999 999999 999999 999999 999999 999999 999999 999999 999999 999999 999999 999999 999999 999999 999999 999999 999999 999999 999999 999999 999999 999999 999999 999999 999999 999999 999999 999999 999999 999999 999999 999999 999999 999999 999999 999999 999999 999999 999999 999999 999999 999999 0 999999 999999 999999 999999 999999 999999 999999 13650
999999 18019 19249 11819 14124 15892 17907 17709 16312 19430 16232 11029 13717 18684 12534 14118 10406 14909 15183 14667 13011 12817 17882 11096 13086 14560 15666 19815 14361 15276 19035 19746 14870 14224 11114 13493 13765 19768 19472 14695 12668 12961 16340 18152 15195 19255 10413 13626 11573 15352 13556 14006 18342 14739 11503 16785 14910 10780 19567 16147 12242 999999 999999 999999 999999 999999 999999 999999 999999 999999 999999 999999 999999 999999 999999 999999 999999 999999 999999 999999 999999 999999 999999 999999 999999 999999 999999 999999 999999 999999 999999 999999 999999 999999 999999 999999 999999 999999 999999 999999 999999 999999 999999 999999 999999 999999 999999 999999 999999 999999 999999 999999 999999 999999 0 999999 999999 999999 999999 999999 999999 13338
999999 17256 10239 12038 15662 15345 10253 10147 19377 12543 13802 12145 15051 11020 15059 10740 19312 11629 18598 10465 13912 18623 16596 13833 13235 11401 18017 15202 11889 12510 15511 13407 10366 12244 14368 12478 13316 17406 11884 16638 15852 19360 19598 10470 16585 13113 17935 12016 16111 10510 15654 18821 13820 13762 11587 18377 15918 15112 17066 12427 17177 999999 999999 999999 999999 999999 999999 999999 999999 999999 999999 999999 999999 999999 999999 999999 999999 999999 999999 999999 999999 999999 999999 999999 999999 999999 999999 999999 999999 999999 999999 999999 999999 999999 999999 999999 999999 999999 999999 999999 999999 999999 999999 999999 999999 999999 999999 999999 999999 999999 999999 999999 999999 999999 999999 0 999999 999999 999999 999999 999999 8856
999999 15270 10315 14255 17334 19624 11658 12843 11914 14428 15827 11194 11469 12849 19923 15656 11346 18935 16527 11349 12191 15382 18139 17620 17527 19582 10112 12497 15761 10810 18324 12331 12643 13436 15188 18098 11223 15575 16294 12392 10866 19575 17171 10616 15859 14301 17277 15373 19009 11139 14782 17853 18587 16095 17603 14540 15438 19358 10607 10586 15353 999999 999999 999999 999999 999999 999999 999999 999999 999999 999999 999999 999999 999999 999999 999999 999999 999999 999999 999999 999999 999999 999999 999999 999999 999999 999999 999999 999999 999999 999999 999999 999999 999999 999999 999999 999999 999999 999999 999999 999999 999999 999999 999999 999999 999999 999999 999999 999999 999999 999999 999999 999999 999999 999999 999999 0 999999 999999 999999 999999 10266
999999 14188 14445 16194 15682 10256 17161 13749 17415 13677 13965 12292 18626 16236 14029 12447 11919 15015 18462 18514 15371 13307 12312 13906 17520 10804 14771 10692 14397 18426 17016 10790 17585 15972 13160 15252 13444 14714 10663 15276 18319 17741 17473 10727 11650 18576 12957 14311 10410 14770 13091 17878 16241 19020 13224 14169 14969 18645 16667 10196 13669 999999 999999 999999 999999 999999 999999 999999 999999 999999 999999 999999 999999 999999 999999 999999 999999 999999 999999 999999 999999 999999 999999 999999 999999 999999 999999 999999 999999 999999 999999 999999 999999 999999 999999 999999 999999 999999 999999 999999 999999 999999 999999 999999 999999 999999 999999 999999 999999 999999 999999 999999 999999 999999 999999 999999 999999 0 999999 999999 999999 11090
999999 15547 19838 18546 13763 13486 19130 18857 13899 17012 17678 12761 17011 16351 18612 11571 16780 11653 11271 11214 12073 16056 14268 17716 14475 16975 18625 15311 17276 17917 15270 16919 13462 13693 18248 12965 11083 16433 13587 17343 10684 16659 18950 11876 19856 14292 18484 19953 14090 18181 11144 10569 15875 18750 11607 12135 12943 18543 10888 19701 17315 999999 999999 999999 999999 999999 999999 999999 999999 999999 999999 999999 999999 999999 999999 999999 999999 999999 999999 999999 999999 999999 999999 999999 999999 999999 999999 999999 999999 999999 999999 999999 999999 999999 999999 999999 999999 999999 999999 999999 999999 999999 999999 999999 999999 999999 999999 999999 999999 999999 999999 999999 999999 999999 999999 999999 999999 999999 0 999999 999999 14780
999999 13085 19920 13304 14023 14395 12489 19099 16158 12440 18108 18784 17204 14285 16619 11478 12575 19547 18323 12695 16738 12872 17522 19379 12111 10575 16489 13829 10766 16141 14583 10163 10602 18545 14938 12577 18946 12714 16129 11891 11704 13718 11310 14331 15113 19547 12860 12086 12225 15484 15545 14109 18619 14393 18474 10203 13625 10998 15772 17457 13445 999999 999999 999999 999999 999999 999999 999999 999999 999999 999999 999999 999999 999999 999999 999999 999999 999999 999999 999999 999999 999999 999999 999999 999999 999999 999999 999999 999999 999999 999999 999999 999999 999999 999999 999999 999999 999999 999999 999999 999999 999999 999999 999999 999999 999999 999999 999999 999999 999999 999999 999999 999999 999999 999999 999999 999999 999999 999999 0 999999 6335
999999 11151 14852 13669 16785 10253 12731 10937 10517 14717 13796 18920 17128 14681 18693 10381 12186 17509 11466 18963 16707 15939 13145 18466 11968 12098 11274 10207 19028 11429 17118 15310 16055 19846 11003 14001 13443 13027 17264 13545 16538 19517 13294 17822 16460 14557 15115 16185 19275 17961 15394 17709 16247 18359 17567 16800 19562 16526 18710 16315 18577 999999 999999 999999 999999 999999 999999 999999 999999 999999 999999 999999 999999 999999 999999 999999 999999 999999 999999 999999 999999 999999 999999 999999 999999 999999 999999 999999 999999 999999 999999 999999 999999 999999 999999 999999 999999 999999 999999 999999 999999 999999 999999 999999 999999 999999 999999 999999 999999 999999 999999 999999 999999 999999 999999 999999 999999 999999 999999 999999 0 14497
1 999999 999999 999999 999999 999999 999999 999999 999999 999999 999999 999999 999999 999999 999999 999999 999999 999999 999999 999999 999999 999999 999999 999999 999999 999999 999999 999999 999999 999999 999999 999999 999999 999999 999999 999999 999999 999999 999999 999999 999999 999999 999999 999999 999999 999999 999999 999999 999999 999999 999999 999999 999999 999999 999999 999999 999999 999999 999999 999999 999999 999999 999999 999999 999999 999999 999999 999999 999999 999999 999999 999999 999999 999999 999999 999999 999999 999999 999999 999999 999999 999999 999999 999999 999999 999999 999999 999999 999999 999999 999999 999999 999999 999999 999999 999999 999999 999999 999999 999999 999999 999999 999999 999999 999999 999999 999999 999999 999999 999999 999999 999999 999999 999999 999999 999999 999999 999999 999999 999999 999999 0
EOF