NAME: GR_1x2x30_KH_5x10_Run_3
TYPE: TSP
COMMENT: BTSP instance |A|=60 GR nodes |B|=50 KH nodes depot=0.0 end=0.0.0
DIMENSION: 112
EDGE_WEIGHT_TYPE: EXPLICIT
EDGE_WEIGHT_FORMAT: FULL_MATRIX
NODE_COORD_TYPE: NO_COORDS
EDGE_WEIGHT_SECTION
0 8194 6714 11795 13368 10068 13145 7978 9236 6967 13869 9989 12507 7171 9090 10423 12421 9685 7862 6734 7408 7794 7711 5464 5545 13992 13933 10349 6243 11214 8348 9869 6112 8900 6499 14971 8943 7167 12101 8403 8677 5932 13936 14723 10601 5573 7897 13004 12838 9846 13265 14490 8964 13694 5659 6997 10739 12322 6475 12200 8517 999999 999999 999999 999999 999999 999999 999999 999999 999999 999999 999999 999999 999999 999999 999999 999999 999999 999999 999999 999999 999999 999999 999999 999999 999999 999999 999999 999999 999999 999999 999999 999999 999999 999999 999999 999999 999999 999999 999999 999999 999999 999999 999999 999999 999999 999999 999999 999999 999999 999999 999999
999999 0 999999 999999 999999 999999 999999 999999 999999 999999 999999 999999 999999 999999 999999 999999 999999 999999 999999 999999 999999 999999 999999 999999 999999 999999 999999 999999 999999 999999 999999 999999 999999 999999 999999 999999 999999 999999 999999 999999 999999 999999 999999 999999 999999 999999 999999 999999 999999 999999 999999 999999 999999 999999 999999 999999 999999 999999 999999 999999 999999 17993 10459 15333 12220 13321 15442 14754 14616 12799 11982 12319 11068 19318 19033 17501 17171 10792 15130 17079 11278 17738 17777 18308 16593 10645 14921 11689 12158 14675 10840 16361 15476 16715 10884 13000 15008 19370 16786 17501 12515 15257 16148 17913 15263 13512 16394 17265 13375 10628 18418 999999
999999 999999 0 999999 999999 999999 999999 999999 999999 999999 999999 999999 999999 999999 999999 999999 999999 999999 999999 999999 999999 999999 999999 999999 999999 999999 999999 999999 999999 999999 999999 999999 999999 999999 999999 999999 999999 999999 999999 999999 999999 999999 999999 999999 999999 999999 999999 999999 999999 999999 999999 999999 999999 999999 999999 999999 999999 999999 999999 999999 999999 13814 10034 12269 12848 18583 11346 10531 11951 13699 14863 14245 18993 10754 13808 11756 16709 16890 14238 10572 16181 12802 11194 11415 12158 15022 12334 15786 17060 16596 14484 16017 13902 13871 12367 15203 15918 18281 19895 17890 12249 19439 11176 16947 12691 11915 18483 15155 13109 14397 18889 999999
999999 999999 999999 0 999999 999999 999999 999999 999999 999999 999999 999999 999999 999999 999999 999999 999999 999999 999999 999999 999999 999999 999999 999999 999999 999999 999999 999999 999999 999999 999999 999999 999999 999999 999999 999999 999999 999999 999999 999999 999999 999999 999999 999999 999999 999999 999999 999999 999999 999999 999999 999999 999999 999999 999999 999999 999999 999999 999999 999999 999999 19527 12923 15685 14269 10179 19912 19244 12379 11904 12000 16591 17547 13141 17002 15256 10391 16081 19025 18037 11081 10551 12528 15864 11063 17516 10130 19302 19821 10875 18999 11682 17899 18807 15288 14481 14571 14363 14736 10508 17269 13062 17901 19904 15203 11837 16571 15469 14058 18510 10194 999999
999999 999999 999999 999999 0 999999 999999 999999 999999 999999 999999 999999 999999 999999 999999 999999 999999 999999 999999 999999 999999 999999 999999 999999 999999 999999 999999 999999 999999 999999 999999 999999 999999 999999 999999 999999 999999 999999 999999 999999 999999 999999 999999 999999 999999 999999 999999 999999 999999 999999 999999 999999 999999 999999 999999 999999 999999 999999 999999 999999 999999 16632 18620 17296 15259 11037 10317 17537 19505 18264 17332 19729 18723 14094 15871 15346 18504 14534 12130 10049 10079 16650 16471 14291 17990 17211 11699 15497 11514 16627 13838 18518 12805 18844 15853 11688 18126 12970 18476 12957 12293 19175 14736 16522 10746 18545 10437 11859 19345 17283 14871 999999
999999 999999 999999 999999 999999 0 999999 999999 999999 999999 999999 999999 999999 999999 999999 999999 999999 999999 999999 999999 999999 999999 999999 999999 999999 999999 999999 999999 999999 999999 999999 999999 999999 999999 999999 999999 999999 999999 999999 999999 999999 999999 999999 999999 999999 999999 999999 999999 999999 999999 999999 999999 999999 999999 999999 999999 999999 999999 999999 999999 999999 18427 12079 16397 12398 15791 11091 10994 14563 12097 19744 16914 18631 19658 17493 14224 14253 13029 18545 13437 19775 10072 16409 13012 18552 18709 15333 18890 10656 13130 19007 12324 17133 10834 11824 13700 14189 16112 15372 14310 19977 19800 11133 14412 19652 17093 14107 11024 12009 13114 13319 999999
999999 999999 999999 999999 999999 999999 0 999999 999999 999999 999999 999999 999999 999999 999999 999999 999999 999999 999999 999999 999999 999999 999999 999999 999999 999999 999999 999999 999999 999999 999999 999999 999999 999999 999999 999999 999999 999999 999999 999999 999999 999999 999999 999999 999999 999999 999999 999999 999999 999999 999999 999999 999999 999999 999999 999999 999999 999999 999999 999999 999999 17134 13988 13864 15376 14739 14598 12356 13270 18587 15617 16998 17680 17018 11893 10975 19234 16791 17968 15295 19222 12903 15738 13146 13685 12139 12158 14859 10452 16312 13968 18100 11819 12372 12234 19532 17973 19623 19509 13958 14523 16055 18213 13282 17608 15054 16728 17115 10481 14638 14230 999999
999999 999999 999999 999999 999999 999999 999999 0 999999 999999 999999 999999 999999 999999 999999 999999 999999 999999 999999 999999 999999 999999 999999 999999 999999 999999 999999 999999 999999 999999 999999 999999 999999 999999 999999 999999 999999 999999 999999 999999 999999 999999 999999 999999 999999 999999 999999 999999 999999 999999 999999 999999 999999 999999 999999 999999 999999 999999 999999 999999 999999 17444 17164 11123 13308 15486 16667 10721 15908 17849 16877 16558 19432 18064 12775 16430 17331 12619 13407 17943 10029 17979 15482 17747 18901 13481 16797 18245 18881 19365 13882 14583 13937 11163 16690 14627 17094 17763 17184 16188 10499 18635 17765 12835 15243 13426 11756 16345 17546 16891 15893 999999
999999 999999 999999 999999 999999 999999 999999 999999 0 999999 999999 999999 999999 999999 999999 999999 999999 999999 999999 999999 999999 999999 999999 999999 999999 999999 999999 999999 999999 999999 999999 999999 999999 999999 999999 999999 999999 999999 999999 999999 999999 999999 999999 999999 999999 999999 999999 999999 999999 999999 999999 999999 999999 999999 999999 999999 999999 999999 999999 999999 999999 15252 15624 19633 19967 13414 16396 17141 13154 12705 17808 13312 13641 15887 16319 17521 17457 17635 15982 10991 10552 15691 14131 18754 19556 19717 10415 13739 15410 16669 10648 16666 18683 12605 19314 16535 11632 14388 14789 19499 11597 19761 12008 12849 10403 17890 18075 19385 12654 12943 14810 999999
999999 999999 999999 999999 999999 999999 999999 999999 999999 0 999999 999999 999999 999999 999999 999999 999999 999999 999999 999999 999999 999999 999999 999999 999999 999999 999999 999999 999999 999999 999999 999999 999999 999999 999999 999999 999999 999999 999999 999999 999999 999999 999999 999999 999999 999999 999999 999999 999999 999999 999999 999999 999999 999999 999999 999999 999999 999999 999999 999999 999999 15367 18056 14768 18052 15612 19984 10007 15430 13226 16678 11122 12402 16873 15903 12747 13717 19090 12758 17826 14714 15612 18775 14818 19002 12930 14227 12565 15631 12783 12875 15306 13085 13456 15861 16046 19335 15039 13386 14385 16198 11386 14818 16608 15393 12810 15540 11905 12717 18364 19166 999999
999999 999999 999999 999999 999999 999999 999999 999999 999999 999999 0 999999 999999 999999 999999 999999 999999 999999 999999 999999 999999 999999 999999 999999 999999 999999 999999 999999 999999 999999 999999 999999 999999 999999 999999 999999 999999 999999 999999 999999 999999 999999 999999 999999 999999 999999 999999 999999 999999 999999 999999 999999 999999 999999 999999 999999 999999 999999 999999 999999 999999 13636 18946 17936 11923 11061 14960 19013 16455 19604 14353 19149 14783 13972 18673 19099 17318 10025 18925 13737 13309 16439 18198 10599 14314 14011 12727 13363 19965 19286 19039 17080 10778 15244 19972 15082 15247 13196 12687 19410 10787 15530 17103 16839 15643 15382 16273 12445 17316 18925 11342 999999
999999 999999 999999 999999 999999 999999 999999 999999 999999 999999 999999 0 999999 999999 999999 999999 999999 999999 999999 999999 999999 999999 999999 999999 999999 999999 999999 999999 999999 999999 999999 999999 999999 999999 999999 999999 999999 999999 999999 999999 999999 999999 999999 999999 999999 999999 999999 999999 999999 999999 999999 999999 999999 999999 999999 999999 999999 999999 999999 999999 999999 18989 15806 13268 14573 15903 19956 15077 12599 15733 15526 10054 17296 11233 16200 11022 11590 13671 18744 19014 10784 13261 13814 12010 19795 17882 14795 13544 13947 19097 18047 10954 14354 11375 14171 10028 19645 19355 13817 13953 19168 14058 14687 17012 12106 16718 16785 16032 19674 12747 19536 999999
999999 999999 999999 999999 999999 999999 999999 999999 999999 999999 999999 999999 0 999999 999999 999999 999999 999999 999999 999999 999999 999999 999999 999999 999999 999999 999999 999999 999999 999999 999999 999999 999999 999999 999999 999999 999999 999999 999999 999999 999999 999999 999999 999999 999999 999999 999999 999999 999999 999999 999999 999999 999999 999999 999999 999999 999999 999999 999999 999999 999999 16800 17475 16094 13689 11648 14383 12230 16186 10331 11713 17611 14200 12042 19673 18449 18466 10119 18676 15063 15311 18655 15519 16608 14299 14330 11866 15597 19329 10782 13003 18715 15767 14865 15866 14826 18000 14816 14434 16775 14099 12760 19266 16086 12731 13891 15491 12501 11358 16279 17732 999999
999999 999999 999999 999999 999999 999999 999999 999999 999999 999999 999999 999999 999999 0 999999 999999 999999 999999 999999 999999 999999 999999 999999 999999 999999 999999 999999 999999 999999 999999 999999 999999 999999 999999 999999 999999 999999 999999 999999 999999 999999 999999 999999 999999 999999 999999 999999 999999 999999 999999 999999 999999 999999 999999 999999 999999 999999 999999 999999 999999 999999 15922 12811 11789 19730 12172 11077 14004 15605 15366 15276 18538 18553 18195 18288 19657 19809 12068 10137 16334 12991 14027 10097 11427 10740 15027 17140 11279 15289 18838 15593 10119 16276 12437 18591 13372 15676 19054 15793 16873 11688 10823 11814 16244 19831 12344 16140 19398 16561 14796 11252 999999
999999 999999 999999 999999 999999 999999 999999 999999 999999 999999 999999 999999 999999 999999 0 999999 999999 999999 999999 999999 999999 999999 999999 999999 999999 999999 999999 999999 999999 999999 999999 999999 999999 999999 999999 999999 999999 999999 999999 999999 999999 999999 999999 999999 999999 999999 999999 999999 999999 999999 999999 999999 999999 999999 999999 999999 999999 999999 999999 999999 999999 10604 14339 13205 13595 18833 18570 14482 13206 13208 12368 19761 14884 14186 19547 17471 11694 10274 16034 14399 17934 10366 11625 15641 15584 16152 13146 19030 12436 13283 14527 15566 19297 12722 16517 16383 18665 15785 18061 12635 12153 18126 10953 13802 12571 18315 19628 15521 14785 15976 16272 999999
999999 999999 999999 999999 999999 999999 999999 999999 999999 999999 999999 999999 999999 999999 999999 0 999999 999999 999999 999999 999999 999999 999999 999999 999999 999999 999999 999999 999999 999999 999999 999999 999999 999999 999999 999999 999999 999999 999999 999999 999999 999999 999999 999999 999999 999999 999999 999999 999999 999999 999999 999999 999999 999999 999999 999999 999999 999999 999999 999999 999999 16474 15130 10972 16965 19166 11024 16011 19415 15867 10898 18957 19491 19692 10896 17709 18990 16104 11154 19301 18340 15092 18024 14929 12559 12392 11813 15990 10383 15317 10688 18043 13908 19430 16974 11036 17589 17175 17937 14002 13364 17483 12322 11545 12225 14702 11641 11168 15992 19871 13351 999999
999999 999999 999999 999999 999999 999999 999999 999999 999999 999999 999999 999999 999999 999999 999999 999999 0 999999 999999 999999 999999 999999 999999 999999 999999 999999 999999 999999 999999 999999 999999 999999 999999 999999 999999 999999 999999 999999 999999 999999 999999 999999 999999 999999 999999 999999 999999 999999 999999 999999 999999 999999 999999 999999 999999 999999 999999 999999 999999 999999 999999 16779 10800 11460 19533 10964 19266 10912 15254 15193 17522 11157 18224 14806 12247 13476 17611 17505 12126 10676 17482 10347 17452 13847 15391 12656 13996 15722 12655 19488 18093 11977 16293 14029 19422 18201 10374 18883 13191 16977 17113 18451 17849 15123 16189 13364 16173 15794 13973 12815 19406 999999
999999 999999 999999 999999 999999 999999 999999 999999 999999 999999 999999 999999 999999 999999 999999 999999 999999 0 999999 999999 999999 999999 999999 999999 999999 999999 999999 999999 999999 999999 999999 999999 999999 999999 999999 999999 999999 999999 999999 999999 999999 999999 999999 999999 999999 999999 999999 999999 999999 999999 999999 999999 999999 999999 999999 999999 999999 999999 999999 999999 999999 10629 19226 16527 13481 13543 18608 10411 17667 19611 10593 18427 13096 11080 10423 18353 12721 13820 19095 18066 18570 13880 17463 11169 11700 12304 17868 13267 17678 19990 15377 10923 10286 11080 18549 19705 11737 14903 11072 19015 19578 12785 12121 12237 10767 10849 19544 13092 16660 11363 19750 999999
999999 999999 999999 999999 999999 999999 999999 999999 999999 999999 999999 999999 999999 999999 999999 999999 999999 999999 0 999999 999999 999999 999999 999999 999999 999999 999999 999999 999999 999999 999999 999999 999999 999999 999999 999999 999999 999999 999999 999999 999999 999999 999999 999999 999999 999999 999999 999999 999999 999999 999999 999999 999999 999999 999999 999999 999999 999999 999999 999999 999999 16381 13541 11046 10129 11959 18143 15242 15388 10937 13939 11257 18283 10597 12480 17007 14402 12944 18781 19379 18639 12275 18550 15481 11761 19180 12251 10195 15066 16489 12663 11115 18106 10968 10894 13773 10898 17600 12467 15639 14482 16047 10206 11082 16687 14590 18212 17008 10972 16312 17622 999999
999999 999999 999999 999999 999999 999999 999999 999999 999999 999999 999999 999999 999999 999999 999999 999999 999999 999999 999999 0 999999 999999 999999 999999 999999 999999 999999 999999 999999 999999 999999 999999 999999 999999 999999 999999 999999 999999 999999 999999 999999 999999 999999 999999 999999 999999 999999 999999 999999 999999 999999 999999 999999 999999 999999 999999 999999 999999 999999 999999 999999 11347 14983 12781 11265 13282 16411 14462 16787 11230 19634 19166 11609 11587 11023 16855 17803 15466 19688 19075 17333 16063 15144 10917 12406 10426 12730 17832 11254 14382 10479 15380 11645 17563 11866 17297 17417 12993 11611 16305 13823 18294 12972 19663 14097 12110 17185 13499 19358 17387 15238 999999
999999 999999 999999 999999 999999 999999 999999 999999 999999 999999 999999 999999 999999 999999 999999 999999 999999 999999 999999 999999 0 999999 999999 999999 999999 999999 999999 999999 999999 999999 999999 999999 999999 999999 999999 999999 999999 999999 999999 999999 999999 999999 999999 999999 999999 999999 999999 999999 999999 999999 999999 999999 999999 999999 999999 999999 999999 999999 999999 999999 999999 17986 14142 19612 13687 14278 18127 17759 14633 19498 10769 16836 13807 18540 11480 15742 15114 11479 19628 14146 12658 14829 12160 14899 11771 13616 16285 15020 12341 16033 15131 10856 16601 10897 15460 15430 12719 13633 14836 11201 10448 14740 10671 14400 12299 15459 14406 17291 17254 17867 13747 999999
999999 999999 999999 999999 999999 999999 999999 999999 999999 999999 999999 999999 999999 999999 999999 999999 999999 999999 999999 999999 999999 0 999999 999999 999999 999999 999999 999999 999999 999999 999999 999999 999999 999999 999999 999999 999999 999999 999999 999999 999999 999999 999999 999999 999999 999999 999999 999999 999999 999999 999999 999999 999999 999999 999999 999999 999999 999999 999999 999999 999999 13817 13421 16374 11164 18394 15540 17185 14842 16234 12316 10723 12731 17710 16513 19985 15529 12040 19974 16445 16619 11830 13575 15390 18028 12493 15128 12140 19882 10738 16570 12186 16300 17705 15518 10759 12009 14911 10504 16969 17520 15016 14720 19464 17730 16373 17871 18105 18861 19250 11232 999999
999999 999999 999999 999999 999999 999999 999999 999999 999999 999999 999999 999999 999999 999999 999999 999999 999999 999999 999999 999999 999999 999999 0 999999 999999 999999 999999 999999 999999 999999 999999 999999 999999 999999 999999 999999 999999 999999 999999 999999 999999 999999 999999 999999 999999 999999 999999 999999 999999 999999 999999 999999 999999 999999 999999 999999 999999 999999 999999 999999 999999 17183 10175 18634 10677 13299 10161 13297 16291 15058 12605 15828 19183 13512 17683 17272 11031 16352 12977 14713 18772 13959 10472 11134 15080 19398 17900 15756 14376 16069 19353 11036 17839 13985 17406 12992 10956 18466 16434 13274 17006 13953 13701 12339 15747 19299 18803 16665 17082 17912 13367 999999
999999 999999 999999 999999 999999 999999 999999 999999 999999 999999 999999 999999 999999 999999 999999 999999 999999 999999 999999 999999 999999 999999 999999 0 999999 999999 999999 999999 999999 999999 999999 999999 999999 999999 999999 999999 999999 999999 999999 999999 999999 999999 999999 999999 999999 999999 999999 999999 999999 999999 999999 999999 999999 999999 999999 999999 999999 999999 999999 999999 999999 17885 15988 17790 18883 12961 18847 11993 12559 15699 14494 14151 14106 15750 15936 14215 16678 14344 15413 18131 13917 11327 16567 18511 11754 11369 15075 14274 11921 14259 19608 19656 11518 16982 19468 10581 10291 17423 10407 15085 10785 13946 15077 17331 12213 12917 12211 11610 11846 18619 18619 999999
999999 999999 999999 999999 999999 999999 999999 999999 999999 999999 999999 999999 999999 999999 999999 999999 999999 999999 999999 999999 999999 999999 999999 999999 0 999999 999999 999999 999999 999999 999999 999999 999999 999999 999999 999999 999999 999999 999999 999999 999999 999999 999999 999999 999999 999999 999999 999999 999999 999999 999999 999999 999999 999999 999999 999999 999999 999999 999999 999999 999999 16885 12823 13724 19580 13207 11904 16935 13287 15048 11445 11621 12635 10554 12168 13453 10881 10492 15803 11108 13949 17982 15260 18267 11163 19444 13379 15377 13440 19300 10446 12993 19700 14603 11294 13982 11068 13776 13714 11604 12509 10637 13856 15330 19553 17111 18169 11925 18840 13164 19624 999999
999999 999999 999999 999999 999999 999999 999999 999999 999999 999999 999999 999999 999999 999999 999999 999999 999999 999999 999999 999999 999999 999999 999999 999999 999999 0 999999 999999 999999 999999 999999 999999 999999 999999 999999 999999 999999 999999 999999 999999 999999 999999 999999 999999 999999 999999 999999 999999 999999 999999 999999 999999 999999 999999 999999 999999 999999 999999 999999 999999 999999 19442 13579 11188 12453 13674 13717 18614 15337 17608 14387 16554 18703 12616 13262 14205 18365 14096 12550 19871 13686 13732 14187 12497 17927 16549 14613 13757 15304 10570 19847 14460 14172 17474 18173 14270 15635 12909 13287 19930 17333 16642 17877 13887 14249 10799 18756 14981 19261 10556 17323 999999
999999 999999 999999 999999 999999 999999 999999 999999 999999 999999 999999 999999 999999 999999 999999 999999 999999 999999 999999 999999 999999 999999 999999 999999 999999 999999 0 999999 999999 999999 999999 999999 999999 999999 999999 999999 999999 999999 999999 999999 999999 999999 999999 999999 999999 999999 999999 999999 999999 999999 999999 999999 999999 999999 999999 999999 999999 999999 999999 999999 999999 18246 19951 12334 10569 17512 12860 18454 16925 12052 14773 11186 16319 16762 14968 15548 14848 11228 12047 19157 17265 10352 17322 12206 12602 11232 15825 16286 16120 14092 10984 12353 11194 12599 15611 12975 13025 18423 18083 13339 14412 14785 16840 16097 10842 19723 16090 10849 11242 15672 13086 999999
999999 999999 999999 999999 999999 999999 999999 999999 999999 999999 999999 999999 999999 999999 999999 999999 999999 999999 999999 999999 999999 999999 999999 999999 999999 999999 999999 0 999999 999999 999999 999999 999999 999999 999999 999999 999999 999999 999999 999999 999999 999999 999999 999999 999999 999999 999999 999999 999999 999999 999999 999999 999999 999999 999999 999999 999999 999999 999999 999999 999999 11509 17044 10296 12747 12156 11095 17125 17759 19555 10656 17167 13637 15227 19461 13261 15172 11874 19567 16456 11577 17611 16253 17371 15173 14755 19992 17222 16301 10021 14591 18026 18722 16278 16112 11907 10598 15579 15229 12829 18775 13605 14742 18070 15181 19895 10766 17598 12491 19463 17669 999999
999999 999999 999999 999999 999999 999999 999999 999999 999999 999999 999999 999999 999999 999999 999999 999999 999999 999999 999999 999999 999999 999999 999999 999999 999999 999999 999999 999999 0 999999 999999 999999 999999 999999 999999 999999 999999 999999 999999 999999 999999 999999 999999 999999 999999 999999 999999 999999 999999 999999 999999 999999 999999 999999 999999 999999 999999 999999 999999 999999 999999 11261 13888 13201 12468 10303 13393 19114 18312 10987 18902 17019 14085 10433 12947 15700 17368 10361 16701 12431 16811 11227 19241 15303 14312 10000 18376 10787 17107 15613 12383 15534 16779 12251 16853 16265 11576 17883 19297 17880 13981 17519 19365 16819 14636 19448 18500 10445 18099 14139 13098 999999
999999 999999 999999 999999 999999 999999 999999 999999 999999 999999 999999 999999 999999 999999 999999 999999 999999 999999 999999 999999 999999 999999 999999 999999 999999 999999 999999 999999 999999 0 999999 999999 999999 999999 999999 999999 999999 999999 999999 999999 999999 999999 999999 999999 999999 999999 999999 999999 999999 999999 999999 999999 999999 999999 999999 999999 999999 999999 999999 999999 999999 12779 12067 19743 15069 17473 11661 13097 13502 15516 15841 18454 18795 10388 19336 19971 17903 11977 16083 17222 16332 10806 14544 18126 14071 10900 10933 12220 11893 10338 17974 18603 18105 12503 16234 13341 13005 10582 12410 13901 15509 18078 10605 12112 18429 17054 17281 19179 12765 14703 17124 999999
999999 999999 999999 999999 999999 999999 999999 999999 999999 999999 999999 999999 999999 999999 999999 999999 999999 999999 999999 999999 999999 999999 999999 999999 999999 999999 999999 999999 999999 999999 0 999999 999999 999999 999999 999999 999999 999999 999999 999999 999999 999999 999999 999999 999999 999999 999999 999999 999999 999999 999999 999999 999999 999999 999999 999999 999999 999999 999999 999999 999999 13240 10608 11062 14277 15218 14432 14902 10919 10185 11880 10135 14411 10736 11465 10988 12394 11958 19067 12936 12629 11238 15013 19093 13795 14847 11622 17540 14505 11643 18062 17866 13139 11195 19927 15037 14620 16224 11469 18897 19281 16571 13620 11171 19718 14150 10457 14998 19057 19630 12814 999999
999999 999999 999999 999999 999999 999999 999999 999999 999999 999999 999999 999999 999999 999999 999999 999999 999999 999999 999999 999999 999999 999999 999999 999999 999999 999999 999999 999999 999999 999999 999999 0 999999 999999 999999 999999 999999 999999 999999 999999 999999 999999 999999 999999 999999 999999 999999 999999 999999 999999 999999 999999 999999 999999 999999 999999 999999 999999 999999 999999 999999 19990 18333 16331 15035 17190 18702 16606 13997 17689 19903 13387 15975 15675 13980 14771 14241 16035 19799 13086 18026 14562 16614 15426 15801 14711 10273 16067 11144 10282 10969 14252 10144 11699 13021 16573 14387 14464 19641 13104 10000 12701 15194 17126 17973 12109 17814 13729 10941 18675 14765 999999
999999 999999 999999 999999 999999 999999 999999 999999 999999 999999 999999 999999 999999 999999 999999 999999 999999 999999 999999 999999 999999 999999 999999 999999 999999 999999 999999 999999 999999 999999 999999 999999 0 999999 999999 999999 999999 999999 999999 999999 999999 999999 999999 999999 999999 999999 999999 999999 999999 999999 999999 999999 999999 999999 999999 999999 999999 999999 999999 999999 999999 19249 10154 17385 14170 16863 18394 16014 17723 12612 15203 12925 13545 16859 12849 18259 16067 14707 16714 11302 17255 13863 15191 12787 12380 10868 16294 14593 15668 15694 10027 11127 18659 13588 16941 17592 15523 19424 14085 10243 17805 19082 17066 16669 19991 12312 13909 16712 19396 12177 18619 999999
999999 999999 999999 999999 999999 999999 999999 999999 999999 999999 999999 999999 999999 999999 999999 999999 999999 999999 999999 999999 999999 999999 999999 999999 999999 999999 999999 999999 999999 999999 999999 999999 999999 0 999999 999999 999999 999999 999999 999999 999999 999999 999999 999999 999999 999999 999999 999999 999999 999999 999999 999999 999999 999999 999999 999999 999999 999999 999999 999999 999999 14525 12112 16520 10912 12000 15297 19809 10707 17714 15921 15417 11046 11294 15386 16446 16123 10510 14846 15346 13561 10807 10666 16284 15911 10280 13775 10498 15502 18543 19361 18729 18768 17141 18683 19439 18100 12518 18330 16381 13358 18234 17032 12786 15367 13247 16551 13712 13059 16604 14031 999999
999999 999999 999999 999999 999999 999999 999999 999999 999999 999999 999999 999999 999999 999999 999999 999999 999999 999999 999999 999999 999999 999999 999999 999999 999999 999999 999999 999999 999999 999999 999999 999999 999999 999999 0 999999 999999 999999 999999 999999 999999 999999 999999 999999 999999 999999 999999 999999 999999 999999 999999 999999 999999 999999 999999 999999 999999 999999 999999 999999 999999 13261 14677 10485 17318 15539 17054 13809 18593 15166 11317 19310 10453 15522 12295 11039 17338 13771 14174 15639 13073 14620 15427 10705 16438 16791 12117 13998 19149 12540 12998 10780 17734 12108 13813 15382 19547 17110 16125 11689 15929 15199 19671 10231 18658 10760 19460 12658 18136 16484 14382 999999
999999 999999 999999 999999 999999 999999 999999 999999 999999 999999 999999 999999 999999 999999 999999 999999 999999 999999 999999 999999 999999 999999 999999 999999 999999 999999 999999 999999 999999 999999 999999 999999 999999 999999 999999 0 999999 999999 999999 999999 999999 999999 999999 999999 999999 999999 999999 999999 999999 999999 999999 999999 999999 999999 999999 999999 999999 999999 999999 999999 999999 14537 17347 12325 17605 10653 17750 19270 19221 18785 11073 10275 16463 14658 16026 14385 14689 17047 13840 18382 10482 12482 14228 10380 13353 15149 18204 18638 17676 17239 14390 13927 13543 15851 18674 17104 18437 18386 14060 17075 18767 17588 14738 10755 19021 11700 12456 19160 19918 13187 10036 999999
999999 999999 999999 999999 999999 999999 999999 999999 999999 999999 999999 999999 999999 999999 999999 999999 999999 999999 999999 999999 999999 999999 999999 999999 999999 999999 999999 999999 999999 999999 999999 999999 999999 999999 999999 999999 0 999999 999999 999999 999999 999999 999999 999999 999999 999999 999999 999999 999999 999999 999999 999999 999999 999999 999999 999999 999999 999999 999999 999999 999999 15116 12481 10326 16336 10105 10243 13047 18557 16002 17708 16104 15625 16614 10528 19337 17538 13874 11164 15017 17806 18147 11881 10079 16848 16893 17372 18549 17164 13175 16883 17243 16723 17196 19670 16825 12278 13762 13650 17975 10339 15403 18790 10278 12303 17147 13436 11070 19900 13676 10958 999999
999999 999999 999999 999999 999999 999999 999999 999999 999999 999999 999999 999999 999999 999999 999999 999999 999999 999999 999999 999999 999999 999999 999999 999999 999999 999999 999999 999999 999999 999999 999999 999999 999999 999999 999999 999999 999999 0 999999 999999 999999 999999 999999 999999 999999 999999 999999 999999 999999 999999 999999 999999 999999 999999 999999 999999 999999 999999 999999 999999 999999 18720 19872 13984 13462 15912 12019 11799 10668 16262 17899 12408 11254 14561 11711 14723 13698 10387 13349 13158 10924 16315 10975 12045 12908 13715 14514 12994 10779 15785 17294 12471 12545 14170 14752 15634 18678 10122 14378 19115 10470 20000 12851 11099 11814 12907 10558 15554 13305 12644 13628 999999
999999 999999 999999 999999 999999 999999 999999 999999 999999 999999 999999 999999 999999 999999 999999 999999 999999 999999 999999 999999 999999 999999 999999 999999 999999 999999 999999 999999 999999 999999 999999 999999 999999 999999 999999 999999 999999 999999 0 999999 999999 999999 999999 999999 999999 999999 999999 999999 999999 999999 999999 999999 999999 999999 999999 999999 999999 999999 999999 999999 999999 15975 19960 19389 19073 19200 16762 16413 14924 18314 15905 10721 11674 15539 11296 19139 13878 12308 16665 13576 18544 19296 11416 12941 11042 13027 16842 19143 19876 17831 13772 19696 19736 16422 19579 18608 17514 15720 14617 10485 12764 18098 16773 10944 18885 17483 13998 13247 13158 16654 14257 999999
999999 999999 999999 999999 999999 999999 999999 999999 999999 999999 999999 999999 999999 999999 999999 999999 999999 999999 999999 999999 999999 999999 999999 999999 999999 999999 999999 999999 999999 999999 999999 999999 999999 999999 999999 999999 999999 999999 999999 0 999999 999999 999999 999999 999999 999999 999999 999999 999999 999999 999999 999999 999999 999999 999999 999999 999999 999999 999999 999999 999999 12579 15988 11292 15061 15857 17684 11262 15743 18804 11394 14150 15271 11240 17616 15698 19871 11595 18080 13122 10250 11763 17933 17969 18899 14088 16257 13665 12211 14506 11534 11008 10853 11552 12737 16676 12421 14278 15737 13701 19850 16332 18929 11671 15829 14231 15188 15915 14985 19284 10827 999999
999999 999999 999999 999999 999999 999999 999999 999999 999999 999999 999999 999999 999999 999999 999999 999999 999999 999999 999999 999999 999999 999999 999999 999999 999999 999999 999999 999999 999999 999999 999999 999999 999999 999999 999999 999999 999999 999999 999999 999999 0 999999 999999 999999 999999 999999 999999 999999 999999 999999 999999 999999 999999 999999 999999 999999 999999 999999 999999 999999 999999 18384 13179 17230 16126 10359 19254 15613 18726 14714 18145 13362 19482 10727 12355 16616 13528 16789 12570 11018 18314 18710 18927 12775 17729 14210 11160 10569 12695 12398 13155 13699 11360 17949 19425 19327 18074 13114 11274 12844 14867 19437 17283 16830 18595 14959 12426 12035 15472 17585 14857 999999
999999 999999 999999 999999 999999 999999 999999 999999 999999 999999 999999 999999 999999 999999 999999 999999 999999 999999 999999 999999 999999 999999 999999 999999 999999 999999 999999 999999 999999 999999 999999 999999 999999 999999 999999 999999 999999 999999 999999 999999 999999 0 999999 999999 999999 999999 999999 999999 999999 999999 999999 999999 999999 999999 999999 999999 999999 999999 999999 999999 999999 15140 17481 11488 12972 11279 13113 17710 12557 13633 10400 12454 13282 17471 12776 15729 11926 14595 16543 15698 16234 15219 10426 10807 17791 13857 10611 19206 16025 16612 18245 14064 13800 18209 10241 12981 11008 11658 14084 16799 13753 16350 15695 13358 16030 11929 19051 14172 11762 11253 16612 999999
999999 999999 999999 999999 999999 999999 999999 999999 999999 999999 999999 999999 999999 999999 999999 999999 999999 999999 999999 999999 999999 999999 999999 999999 999999 999999 999999 999999 999999 999999 999999 999999 999999 999999 999999 999999 999999 999999 999999 999999 999999 999999 0 999999 999999 999999 999999 999999 999999 999999 999999 999999 999999 999999 999999 999999 999999 999999 999999 999999 999999 11989 14232 16920 12915 19359 12759 19532 16681 15159 11282 11130 11936 11874 10115 14866 14566 16569 11358 11522 14309 17422 18506 11194 12411 10188 16668 13249 10015 12012 12729 17117 10245 11014 15149 12896 18444 18123 17588 10305 15223 14535 17006 11927 19719 13485 18125 18677 13761 12657 15627 999999
999999 999999 999999 999999 999999 999999 999999 999999 999999 999999 999999 999999 999999 999999 999999 999999 999999 999999 999999 999999 999999 999999 999999 999999 999999 999999 999999 999999 999999 999999 999999 999999 999999 999999 999999 999999 999999 999999 999999 999999 999999 999999 999999 0 999999 999999 999999 999999 999999 999999 999999 999999 999999 999999 999999 999999 999999 999999 999999 999999 999999 12962 14733 12390 10079 10739 17077 19496 15795 13915 15916 19521 18161 13853 10841 18738 19638 16419 16675 12041 19218 11346 10358 15005 13649 12590 15332 11581 11307 15143 13885 17080 11276 12503 16770 17934 13007 15539 16996 19954 19183 16218 15593 15979 12721 16774 10623 11194 19466 12349 13570 999999
999999 999999 999999 999999 999999 999999 999999 999999 999999 999999 999999 999999 999999 999999 999999 999999 999999 999999 999999 999999 999999 999999 999999 999999 999999 999999 999999 999999 999999 999999 999999 999999 999999 999999 999999 999999 999999 999999 999999 999999 999999 999999 999999 999999 0 999999 999999 999999 999999 999999 999999 999999 999999 999999 999999 999999 999999 999999 999999 999999 999999 11980 19044 14254 14991 19075 17797 14668 11877 14332 12454 16774 16660 16409 14609 17727 11052 13528 19963 18355 13672 16973 13206 15455 19327 13469 17713 10157 10715 15281 17130 12183 15095 18210 15747 12291 14894 16465 18005 10117 15909 12563 13202 13116 18035 11816 12280 15600 15643 19397 14734 999999
999999 999999 999999 999999 999999 999999 999999 999999 999999 999999 999999 999999 999999 999999 999999 999999 999999 999999 999999 999999 999999 999999 999999 999999 999999 999999 999999 999999 999999 999999 999999 999999 999999 999999 999999 999999 999999 999999 999999 999999 999999 999999 999999 999999 999999 0 999999 999999 999999 999999 999999 999999 999999 999999 999999 999999 999999 999999 999999 999999 999999 18337 14784 19631 10539 16224 17026 13989 10268 12907 18833 16811 15656 18025 14767 13046 15112 19106 18582 19497 14649 17332 14726 16898 17395 18472 15279 17673 17648 17649 13241 10945 15782 10053 10525 18317 19684 16932 10496 11828 17417 13661 14800 16950 19670 15563 16426 10151 10429 19943 15599 999999
999999 999999 999999 999999 999999 999999 999999 999999 999999 999999 999999 999999 999999 999999 999999 999999 999999 999999 999999 999999 999999 999999 999999 999999 999999 999999 999999 999999 999999 999999 999999 999999 999999 999999 999999 999999 999999 999999 999999 999999 999999 999999 999999 999999 999999 999999 0 999999 999999 999999 999999 999999 999999 999999 999999 999999 999999 999999 999999 999999 999999 13785 11354 18994 17996 18629 12537 13598 15896 12245 13071 13355 15491 18425 16147 17014 18338 12400 12309 17237 17434 11891 16372 11767 17923 11446 12903 17501 19119 13836 13756 17233 11068 15407 11458 17357 18058 16868 11008 14543 10108 18239 13081 12728 13696 13364 12592 16715 17615 14982 17887 999999
999999 999999 999999 999999 999999 999999 999999 999999 999999 999999 999999 999999 999999 999999 999999 999999 999999 999999 999999 999999 999999 999999 999999 999999 999999 999999 999999 999999 999999 999999 999999 999999 999999 999999 999999 999999 999999 999999 999999 999999 999999 999999 999999 999999 999999 999999 999999 0 999999 999999 999999 999999 999999 999999 999999 999999 999999 999999 999999 999999 999999 19765 17329 13345 17294 15363 18561 16563 16837 13306 13758 14003 13834 13425 14530 13702 18838 10141 18476 17090 13815 10068 13496 15916 14845 16851 16368 12180 11996 16328 16845 10756 16874 11199 17094 14853 18867 14382 11594 16158 10103 12097 18258 11486 17090 10390 17986 17527 18797 15044 17857 999999
999999 999999 999999 999999 999999 999999 999999 999999 999999 999999 999999 999999 999999 999999 999999 999999 999999 999999 999999 999999 999999 999999 999999 999999 999999 999999 999999 999999 999999 999999 999999 999999 999999 999999 999999 999999 999999 999999 999999 999999 999999 999999 999999 999999 999999 999999 999999 999999 0 999999 999999 999999 999999 999999 999999 999999 999999 999999 999999 999999 999999 13293 12966 10743 14675 12317 12929 14975 17189 10421 13455 19034 12981 10234 11429 13042 16105 16852 10420 17095 14331 12384 11822 14228 19791 13674 15714 16244 15892 15440 14741 18077 18946 12774 12120 17241 13230 16889 15052 19750 19560 12111 17720 13496 11697 16295 15846 14899 13720 16385 11149 999999
999999 999999 999999 999999 999999 999999 999999 999999 999999 999999 999999 999999 999999 999999 999999 999999 999999 999999 999999 999999 999999 999999 999999 999999 999999 999999 999999 999999 999999 999999 999999 999999 999999 999999 999999 999999 999999 999999 999999 999999 999999 999999 999999 999999 999999 999999 999999 999999 999999 0 999999 999999 999999 999999 999999 999999 999999 999999 999999 999999 999999 19759 18126 13457 10894 17735 16989 19738 13174 19425 18917 17288 17553 12285 12060 15967 12078 19804 17521 11514 12660 15808 11365 15168 14866 14057 19053 19535 16861 16910 15160 17632 14492 17426 18817 16317 18807 16744 15261 13623 11745 11503 16951 19710 10679 10778 17578 13979 15904 12156 13546 999999
999999 999999 999999 999999 999999 999999 999999 999999 999999 999999 999999 999999 999999 999999 999999 999999 999999 999999 999999 999999 999999 999999 999999 999999 999999 999999 999999 999999 999999 999999 999999 999999 999999 999999 999999 999999 999999 999999 999999 999999 999999 999999 999999 999999 999999 999999 999999 999999 999999 999999 0 999999 999999 999999 999999 999999 999999 999999 999999 999999 999999 11433 17151 19598 11527 11583 16226 17826 17094 10086 17742 13214 11089 17291 13618 15141 19673 12044 18252 15260 13857 18388 13043 14341 10971 11776 11218 17793 14743 15948 11750 15546 18704 12851 12463 11822 10564 18557 19109 15923 17732 13024 15516 18795 14930 18906 12401 11408 16195 15815 16076 999999
999999 999999 999999 999999 999999 999999 999999 999999 999999 999999 999999 999999 999999 999999 999999 999999 999999 999999 999999 999999 999999 999999 999999 999999 999999 999999 999999 999999 999999 999999 999999 999999 999999 999999 999999 999999 999999 999999 999999 999999 999999 999999 999999 999999 999999 999999 999999 999999 999999 999999 999999 0 999999 999999 999999 999999 999999 999999 999999 999999 999999 11857 14331 15795 16197 12540 13921 13884 14489 14569 15860 10087 18550 12096 14878 17958 13267 14077 14850 16750 13814 17884 12903 15992 17006 10486 19662 15138 14935 11340 16177 15192 16921 13016 13326 17978 11470 12805 16239 14262 19585 12937 11967 14158 18518 15879 12505 18776 14060 11705 12855 999999
999999 999999 999999 999999 999999 999999 999999 999999 999999 999999 999999 999999 999999 999999 999999 999999 999999 999999 999999 999999 999999 999999 999999 999999 999999 999999 999999 999999 999999 999999 999999 999999 999999 999999 999999 999999 999999 999999 999999 999999 999999 999999 999999 999999 999999 999999 999999 999999 999999 999999 999999 999999 0 999999 999999 999999 999999 999999 999999 999999 999999 10255 12985 18512 14376 10599 14212 15044 12240 18551 10989 18199 18335 15607 13758 10976 13375 12123 15635 12931 16296 15014 14268 16159 11065 17968 11889 12185 11652 13472 18936 13363 18302 11098 11187 11211 13518 12648 12103 14205 11893 16426 13753 13767 11375 10659 14690 17143 14699 18538 17424 999999
999999 999999 999999 999999 999999 999999 999999 999999 999999 999999 999999 999999 999999 999999 999999 999999 999999 999999 999999 999999 999999 999999 999999 999999 999999 999999 999999 999999 999999 999999 999999 999999 999999 999999 999999 999999 999999 999999 999999 999999 999999 999999 999999 999999 999999 999999 999999 999999 999999 999999 999999 999999 999999 0 999999 999999 999999 999999 999999 999999 999999 11160 13872 15448 14798 14543 13135 11460 18656 17631 15525 13871 11138 14108 17860 14218 16622 17976 16897 13314 12677 19696 11284 16669 10601 16314 13697 10465 16841 11297 10299 17794 10846 15128 14696 16635 16646 13264 11820 16467 18997 19136 18200 13235 19619 12525 19225 19932 16827 12925 12767 999999
999999 999999 999999 999999 999999 999999 999999 999999 999999 999999 999999 999999 999999 999999 999999 999999 999999 999999 999999 999999 999999 999999 999999 999999 999999 999999 999999 999999 999999 999999 999999 999999 999999 999999 999999 999999 999999 999999 999999 999999 999999 999999 999999 999999 999999 999999 999999 999999 999999 999999 999999 999999 999999 999999 0 999999 999999 999999 999999 999999 999999 11232 18439 11478 18928 19644 14944 17323 15099 19630 12554 10210 13549 13517 17975 17635 15867 11353 11282 14918 12940 13923 12486 18100 16770 12233 12849 18450 15219 11484 19681 15263 15321 12381 14773 17246 11404 11271 15708 19907 11599 15916 18707 17461 10117 15791 17293 13510 16284 18894 14679 999999
999999 999999 999999 999999 999999 999999 999999 999999 999999 999999 999999 999999 999999 999999 999999 999999 999999 999999 999999 999999 999999 999999 999999 999999 999999 999999 999999 999999 999999 999999 999999 999999 999999 999999 999999 999999 999999 999999 999999 999999 999999 999999 999999 999999 999999 999999 999999 999999 999999 999999 999999 999999 999999 999999 999999 0 999999 999999 999999 999999 999999 12211 14215 13763 16224 10991 16637 12487 15745 10380 16856 18797 15405 13122 15411 11967 11923 14270 13159 13655 15636 11681 18521 12986 12576 13041 15160 19303 19468 16608 18352 19115 17972 12406 19355 10527 11994 19165 19328 11373 16450 19214 19420 16769 15260 10347 19182 17085 15943 17058 15435 999999
999999 999999 999999 999999 999999 999999 999999 999999 999999 999999 999999 999999 999999 999999 999999 999999 999999 999999 999999 999999 999999 999999 999999 999999 999999 999999 999999 999999 999999 999999 999999 999999 999999 999999 999999 999999 999999 999999 999999 999999 999999 999999 999999 999999 999999 999999 999999 999999 999999 999999 999999 999999 999999 999999 999999 999999 0 999999 999999 999999 999999 18578 13516 10114 14616 13014 17175 17459 15773 19958 10670 11791 11196 19485 16244 18643 16675 14572 18521 15021 12137 11565 11872 18739 13280 16308 19600 16519 19670 10454 13140 16236 15468 19604 18045 11592 13883 19939 18104 14683 13166 17595 13843 12919 19497 19771 19389 11940 15294 16546 11980 999999
999999 999999 999999 999999 999999 999999 999999 999999 999999 999999 999999 999999 999999 999999 999999 999999 999999 999999 999999 999999 999999 999999 999999 999999 999999 999999 999999 999999 999999 999999 999999 999999 999999 999999 999999 999999 999999 999999 999999 999999 999999 999999 999999 999999 999999 999999 999999 999999 999999 999999 999999 999999 999999 999999 999999 999999 999999 0 999999 999999 999999 19950 17541 13761 16050 10634 15164 18357 12428 10780 16781 16203 10644 16593 16426 13115 13954 16221 15763 12269 16437 17250 18391 19445 10378 18835 16699 18969 14102 17099 18265 12678 13957 17421 17781 12914 14821 13299 14907 16647 19135 19777 11417 11262 19537 15978 17611 16295 11095 12702 18581 999999
999999 999999 999999 999999 999999 999999 999999 999999 999999 999999 999999 999999 999999 999999 999999 999999 999999 999999 999999 999999 999999 999999 999999 999999 999999 999999 999999 999999 999999 999999 999999 999999 999999 999999 999999 999999 999999 999999 999999 999999 999999 999999 999999 999999 999999 999999 999999 999999 999999 999999 999999 999999 999999 999999 999999 999999 999999 999999 0 999999 999999 13135 11697 11625 17768 18041 17855 11186 13281 13459 17884 19624 10982 15755 12081 10482 11496 12976 17735 18795 18139 11228 18507 17146 10877 16033 13927 10244 19816 19121 17040 15383 10113 19718 17212 14996 18590 10071 14513 19730 16743 19778 18602 14623 15894 15710 17407 19676 16692 10413 11810 999999
999999 999999 999999 999999 999999 999999 999999 999999 999999 999999 999999 999999 999999 999999 999999 999999 999999 999999 999999 999999 999999 999999 999999 999999 999999 999999 999999 999999 999999 999999 999999 999999 999999 999999 999999 999999 999999 999999 999999 999999 999999 999999 999999 999999 999999 999999 999999 999999 999999 999999 999999 999999 999999 999999 999999 999999 999999 999999 999999 0 999999 16145 13978 15965 10034 16499 16762 11658 13847 18222 14122 10644 16367 11149 18820 14231 11374 16812 15123 14964 10193 18889 10629 17246 19245 19685 15291 18855 14702 14331 17719 15102 19493 12055 18630 15408 11473 19749 15299 10542 16191 10043 12811 14609 15299 19881 16669 11362 15676 17763 11842 999999
999999 999999 999999 999999 999999 999999 999999 999999 999999 999999 999999 999999 999999 999999 999999 999999 999999 999999 999999 999999 999999 999999 999999 999999 999999 999999 999999 999999 999999 999999 999999 999999 999999 999999 999999 999999 999999 999999 999999 999999 999999 999999 999999 999999 999999 999999 999999 999999 999999 999999 999999 999999 999999 999999 999999 999999 999999 999999 999999 999999 0 17024 11796 10983 11536 13747 18173 10566 17683 11329 14611 10012 10373 16691 19226 14151 11980 17066 16363 16622 15865 14849 17959 14793 13244 19944 11738 18319 15234 15366 18159 19624 14019 13390 18659 11516 17327 16163 18825 14314 19123 14134 16951 15311 16243 10053 18699 15245 18328 19423 10937 999999
999999 17993 13814 19527 16632 18427 17134 17444 15252 15367 13636 18989 16800 15922 10604 16474 16779 10629 16381 11347 17986 13817 17183 17885 16885 19442 18246 11509 11261 12779 13240 19990 19249 14525 13261 14537 15116 18720 15975 12579 18384 15140 11989 12962 11980 18337 13785 19765 13293 19759 11433 11857 10255 11160 11232 12211 18578 19950 13135 16145 17024 0 999999 999999 999999 999999 999999 999999 999999 999999 999999 999999 999999 999999 999999 999999 999999 999999 999999 999999 999999 999999 999999 999999 999999 999999 999999 999999 999999 999999 999999 999999 999999 999999 999999 999999 999999 999999 999999 999999 999999 999999 999999 999999 999999 999999 999999 999999 999999 999999 999999 14160
999999 10459 10034 12923 18620 12079 13988 17164 15624 18056 18946 15806 17475 12811 14339 15130 10800 19226 13541 14983 14142 13421 10175 15988 12823 13579 19951 17044 13888 12067 10608 18333 10154 12112 14677 17347 12481 19872 19960 15988 13179 17481 14232 14733 19044 14784 11354 17329 12966 18126 17151 14331 12985 13872 18439 14215 13516 17541 11697 13978 11796 999999 0 999999 999999 999999 999999 999999 999999 999999 999999 999999 999999 999999 999999 999999 999999 999999 999999 999999 999999 999999 999999 999999 999999 999999 999999 999999 999999 999999 999999 999999 999999 999999 999999 999999 999999 999999 999999 999999 999999 999999 999999 999999 999999 999999 999999 999999 999999 999999 999999 6651
999999 15333 12269 15685 17296 16397 13864 11123 19633 14768 17936 13268 16094 11789 13205 10972 11460 16527 11046 12781 19612 16374 18634 17790 13724 11188 12334 10296 13201 19743 11062 16331 17385 16520 10485 12325 10326 13984 19389 11292 17230 11488 16920 12390 14254 19631 18994 13345 10743 13457 19598 15795 18512 15448 11478 13763 10114 13761 11625 15965 10983 999999 999999 0 999999 999999 999999 999999 999999 999999 999999 999999 999999 999999 999999 999999 999999 999999 999999 999999 999999 999999 999999 999999 999999 999999 999999 999999 999999 999999 999999 999999 999999 999999 999999 999999 999999 999999 999999 999999 999999 999999 999999 999999 999999 999999 999999 999999 999999 999999 999999 14773
999999 12220 12848 14269 15259 12398 15376 13308 19967 18052 11923 14573 13689 19730 13595 16965 19533 13481 10129 11265 13687 11164 10677 18883 19580 12453 10569 12747 12468 15069 14277 15035 14170 10912 17318 17605 16336 13462 19073 15061 16126 12972 12915 10079 14991 10539 17996 17294 14675 10894 11527 16197 14376 14798 18928 16224 14616 16050 17768 10034 11536 999999 999999 999999 0 999999 999999 999999 999999 999999 999999 999999 999999 999999 999999 999999 999999 999999 999999 999999 999999 999999 999999 999999 999999 999999 999999 999999 999999 999999 999999 999999 999999 999999 999999 999999 999999 999999 999999 999999 999999 999999 999999 999999 999999 999999 999999 999999 999999 999999 999999 5086
999999 13321 18583 10179 11037 15791 14739 15486 13414 15612 11061 15903 11648 12172 18833 19166 10964 13543 11959 13282 14278 18394 13299 12961 13207 13674 17512 12156 10303 17473 15218 17190 16863 12000 15539 10653 10105 15912 19200 15857 10359 11279 19359 10739 19075 16224 18629 15363 12317 17735 11583 12540 10599 14543 19644 10991 13014 10634 18041 16499 13747 999999 999999 999999 999999 0 999999 999999 999999 999999 999999 999999 999999 999999 999999 999999 999999 999999 999999 999999 999999 999999 999999 999999 999999 999999 999999 999999 999999 999999 999999 999999 999999 999999 999999 999999 999999 999999 999999 999999 999999 999999 999999 999999 999999 999999 999999 999999 999999 999999 999999 12516
999999 15442 11346 19912 10317 11091 14598 16667 16396 19984 14960 19956 14383 11077 18570 11024 19266 18608 18143 16411 18127 15540 10161 18847 11904 13717 12860 11095 13393 11661 14432 18702 18394 15297 17054 17750 10243 12019 16762 17684 19254 13113 12759 17077 17797 17026 12537 18561 12929 16989 16226 13921 14212 13135 14944 16637 17175 15164 17855 16762 18173 999999 999999 999999 999999 999999 0 999999 999999 999999 999999 999999 999999 999999 999999 999999 999999 999999 999999 999999 999999 999999 999999 999999 999999 999999 999999 999999 999999 999999 999999 999999 999999 999999 999999 999999 999999 999999 999999 999999 999999 999999 999999 999999 999999 999999 999999 999999 999999 999999 999999 5313
999999 14754 10531 19244 17537 10994 12356 10721 17141 10007 19013 15077 12230 14004 14482 16011 10912 10411 15242 14462 17759 17185 13297 11993 16935 18614 18454 17125 19114 13097 14902 16606 16014 19809 13809 19270 13047 11799 16413 11262 15613 17710 19532 19496 14668 13989 13598 16563 14975 19738 17826 13884 15044 11460 17323 12487 17459 18357 11186 11658 10566 999999 999999 999999 999999 999999 999999 0 999999 999999 999999 999999 999999 999999 999999 999999 999999 999999 999999 999999 999999 999999 999999 999999 999999 999999 999999 999999 999999 999999 999999 999999 999999 999999 999999 999999 999999 999999 999999 999999 999999 999999 999999 999999 999999 999999 999999 999999 999999 999999 999999 11751
999999 14616 11951 12379 19505 14563 13270 15908 13154 15430 16455 12599 16186 15605 13206 19415 15254 17667 15388 16787 14633 14842 16291 12559 13287 15337 16925 17759 18312 13502 10919 13997 17723 10707 18593 19221 18557 10668 14924 15743 18726 12557 16681 15795 11877 10268 15896 16837 17189 13174 17094 14489 12240 18656 15099 15745 15773 12428 13281 13847 17683 999999 999999 999999 999999 999999 999999 999999 0 999999 999999 999999 999999 999999 999999 999999 999999 999999 999999 999999 999999 999999 999999 999999 999999 999999 999999 999999 999999 999999 999999 999999 999999 999999 999999 999999 999999 999999 999999 999999 999999 999999 999999 999999 999999 999999 999999 999999 999999 999999 999999 13681
999999 12799 13699 11904 18264 12097 18587 17849 12705 13226 19604 15733 10331 15366 13208 15867 15193 19611 10937 11230 19498 16234 15058 15699 15048 17608 12052 19555 10987 15516 10185 17689 12612 17714 15166 18785 16002 16262 18314 18804 14714 13633 15159 13915 14332 12907 12245 13306 10421 19425 10086 14569 18551 17631 19630 10380 19958 10780 13459 18222 11329 999999 999999 999999 999999 999999 999999 999999 999999 0 999999 999999 999999 999999 999999 999999 999999 999999 999999 999999 999999 999999 999999 999999 999999 999999 999999 999999 999999 999999 999999 999999 999999 999999 999999 999999 999999 999999 999999 999999 999999 999999 999999 999999 999999 999999 999999 999999 999999 999999 999999 7235
999999 11982 14863 12000 17332 19744 15617 16877 17808 16678 14353 15526 11713 15276 12368 10898 17522 10593 13939 19634 10769 12316 12605 14494 11445 14387 14773 10656 18902 15841 11880 19903 15203 15921 11317 11073 17708 17899 15905 11394 18145 10400 11282 15916 12454 18833 13071 13758 13455 18917 17742 15860 10989 15525 12554 16856 10670 16781 17884 14122 14611 999999 999999 999999 999999 999999 999999 999999 999999 999999 0 999999 999999 999999 999999 999999 999999 999999 999999 999999 999999 999999 999999 999999 999999 999999 999999 999999 999999 999999 999999 999999 999999 999999 999999 999999 999999 999999 999999 999999 999999 999999 999999 999999 999999 999999 999999 999999 999999 999999 999999 11388
999999 12319 14245 16591 19729 16914 16998 16558 13312 11122 19149 10054 17611 18538 19761 18957 11157 18427 11257 19166 16836 10723 15828 14151 11621 16554 11186 17167 17019 18454 10135 13387 12925 15417 19310 10275 16104 12408 10721 14150 13362 12454 11130 19521 16774 16811 13355 14003 19034 17288 13214 10087 18199 13871 10210 18797 11791 16203 19624 10644 10012 999999 999999 999999 999999 999999 999999 999999 999999 999999 999999 0 999999 999999 999999 999999 999999 999999 999999 999999 999999 999999 999999 999999 999999 999999 999999 999999 999999 999999 999999 999999 999999 999999 999999 999999 999999 999999 999999 999999 999999 999999 999999 999999 999999 999999 999999 999999 999999 999999 999999 8638
999999 11068 18993 17547 18723 18631 17680 19432 13641 12402 14783 17296 14200 18553 14884 19491 18224 13096 18283 11609 13807 12731 19183 14106 12635 18703 16319 13637 14085 18795 14411 15975 13545 11046 10453 16463 15625 11254 11674 15271 19482 13282 11936 18161 16660 15656 15491 13834 12981 17553 11089 18550 18335 11138 13549 15405 11196 10644 10982 16367 10373 999999 999999 999999 999999 999999 999999 999999 999999 999999 999999 999999 0 999999 999999 999999 999999 999999 999999 999999 999999 999999 999999 999999 999999 999999 999999 999999 999999 999999 999999 999999 999999 999999 999999 999999 999999 999999 999999 999999 999999 999999 999999 999999 999999 999999 999999 999999 999999 999999 999999 13593
999999 19318 10754 13141 14094 19658 17018 18064 15887 16873 13972 11233 12042 18195 14186 19692 14806 11080 10597 11587 18540 17710 13512 15750 10554 12616 16762 15227 10433 10388 10736 15675 16859 11294 15522 14658 16614 14561 15539 11240 10727 17471 11874 13853 16409 18025 18425 13425 10234 12285 17291 12096 15607 14108 13517 13122 19485 16593 15755 11149 16691 999999 999999 999999 999999 999999 999999 999999 999999 999999 999999 999999 999999 0 999999 999999 999999 999999 999999 999999 999999 999999 999999 999999 999999 999999 999999 999999 999999 999999 999999 999999 999999 999999 999999 999999 999999 999999 999999 999999 999999 999999 999999 999999 999999 999999 999999 999999 999999 999999 999999 9474
999999 19033 13808 17002 15871 17493 11893 12775 16319 15903 18673 16200 19673 18288 19547 10896 12247 10423 12480 11023 11480 16513 17683 15936 12168 13262 14968 19461 12947 19336 11465 13980 12849 15386 12295 16026 10528 11711 11296 17616 12355 12776 10115 10841 14609 14767 16147 14530 11429 12060 13618 14878 13758 17860 17975 15411 16244 16426 12081 18820 19226 999999 999999 999999 999999 999999 999999 999999 999999 999999 999999 999999 999999 999999 0 999999 999999 999999 999999 999999 999999 999999 999999 999999 999999 999999 999999 999999 999999 999999 999999 999999 999999 999999 999999 999999 999999 999999 999999 999999 999999 999999 999999 999999 999999 999999 999999 999999 999999 999999 999999 6641
999999 17501 11756 15256 15346 14224 10975 16430 17521 12747 19099 11022 18449 19657 17471 17709 13476 18353 17007 16855 15742 19985 17272 14215 13453 14205 15548 13261 15700 19971 10988 14771 18259 16446 11039 14385 19337 14723 19139 15698 16616 15729 14866 18738 17727 13046 17014 13702 13042 15967 15141 17958 10976 14218 17635 11967 18643 13115 10482 14231 14151 999999 999999 999999 999999 999999 999999 999999 999999 999999 999999 999999 999999 999999 999999 0 999999 999999 999999 999999 999999 999999 999999 999999 999999 999999 999999 999999 999999 999999 999999 999999 999999 999999 999999 999999 999999 999999 999999 999999 999999 999999 999999 999999 999999 999999 999999 999999 999999 999999 999999 14193
999999 17171 16709 10391 18504 14253 19234 17331 17457 13717 17318 11590 18466 19809 11694 18990 17611 12721 14402 17803 15114 15529 11031 16678 10881 18365 14848 15172 17368 17903 12394 14241 16067 16123 17338 14689 17538 13698 13878 19871 13528 11926 14566 19638 11052 15112 18338 18838 16105 12078 19673 13267 13375 16622 15867 11923 16675 13954 11496 11374 11980 999999 999999 999999 999999 999999 999999 999999 999999 999999 999999 999999 999999 999999 999999 999999 0 999999 999999 999999 999999 999999 999999 999999 999999 999999 999999 999999 999999 999999 999999 999999 999999 999999 999999 999999 999999 999999 999999 999999 999999 999999 999999 999999 999999 999999 999999 999999 999999 999999 999999 11225
999999 10792 16890 16081 14534 13029 16791 12619 17635 19090 10025 13671 10119 12068 10274 16104 17505 13820 12944 15466 11479 12040 16352 14344 10492 14096 11228 11874 10361 11977 11958 16035 14707 10510 13771 17047 13874 10387 12308 11595 16789 14595 16569 16419 13528 19106 12400 10141 16852 19804 12044 14077 12123 17976 11353 14270 14572 16221 12976 16812 17066 999999 999999 999999 999999 999999 999999 999999 999999 999999 999999 999999 999999 999999 999999 999999 999999 0 999999 999999 999999 999999 999999 999999 999999 999999 999999 999999 999999 999999 999999 999999 999999 999999 999999 999999 999999 999999 999999 999999 999999 999999 999999 999999 999999 999999 999999 999999 999999 999999 999999 5262
999999 15130 14238 19025 12130 18545 17968 13407 15982 12758 18925 18744 18676 10137 16034 11154 12126 19095 18781 19688 19628 19974 12977 15413 15803 12550 12047 19567 16701 16083 19067 19799 16714 14846 14174 13840 11164 13349 16665 18080 12570 16543 11358 16675 19963 18582 12309 18476 10420 17521 18252 14850 15635 16897 11282 13159 18521 15763 17735 15123 16363 999999 999999 999999 999999 999999 999999 999999 999999 999999 999999 999999 999999 999999 999999 999999 999999 999999 0 999999 999999 999999 999999 999999 999999 999999 999999 999999 999999 999999 999999 999999 999999 999999 999999 999999 999999 999999 999999 999999 999999 999999 999999 999999 999999 999999 999999 999999 999999 999999 999999 8002
999999 17079 10572 18037 10049 13437 15295 17943 10991 17826 13737 19014 15063 16334 14399 19301 10676 18066 19379 19075 14146 16445 14713 18131 11108 19871 19157 16456 12431 17222 12936 13086 11302 15346 15639 18382 15017 13158 13576 13122 11018 15698 11522 12041 18355 19497 17237 17090 17095 11514 15260 16750 12931 13314 14918 13655 15021 12269 18795 14964 16622 999999 999999 999999 999999 999999 999999 999999 999999 999999 999999 999999 999999 999999 999999 999999 999999 999999 999999 0 999999 999999 999999 999999 999999 999999 999999 999999 999999 999999 999999 999999 999999 999999 999999 999999 999999 999999 999999 999999 999999 999999 999999 999999 999999 999999 999999 999999 999999 999999 999999 5996
999999 11278 16181 11081 10079 19775 19222 10029 10552 14714 13309 10784 15311 12991 17934 18340 17482 18570 18639 17333 12658 16619 18772 13917 13949 13686 17265 11577 16811 16332 12629 18026 17255 13561 13073 10482 17806 10924 18544 10250 18314 16234 14309 19218 13672 14649 17434 13815 14331 12660 13857 13814 16296 12677 12940 15636 12137 16437 18139 10193 15865 999999 999999 999999 999999 999999 999999 999999 999999 999999 999999 999999 999999 999999 999999 999999 999999 999999 999999 999999 0 999999 999999 999999 999999 999999 999999 999999 999999 999999 999999 999999 999999 999999 999999 999999 999999 999999 999999 999999 999999 999999 999999 999999 999999 999999 999999 999999 999999 999999 999999 13002
999999 17738 12802 10551 16650 10072 12903 17979 15691 15612 16439 13261 18655 14027 10366 15092 10347 13880 12275 16063 14829 11830 13959 11327 17982 13732 10352 17611 11227 10806 11238 14562 13863 10807 14620 12482 18147 16315 19296 11763 18710 15219 17422 11346 16973 17332 11891 10068 12384 15808 18388 17884 15014 19696 13923 11681 11565 17250 11228 18889 14849 999999 999999 999999 999999 999999 999999 999999 999999 999999 999999 999999 999999 999999 999999 999999 999999 999999 999999 999999 999999 0 999999 999999 999999 999999 999999 999999 999999 999999 999999 999999 999999 999999 999999 999999 999999 999999 999999 999999 999999 999999 999999 999999 999999 999999 999999 999999 999999 999999 999999 11180
999999 17777 11194 12528 16471 16409 15738 15482 14131 18775 18198 13814 15519 10097 11625 18024 17452 17463 18550 15144 12160 13575 10472 16567 15260 14187 17322 16253 19241 14544 15013 16614 15191 10666 15427 14228 11881 10975 11416 17933 18927 10426 18506 10358 13206 14726 16372 13496 11822 11365 13043 12903 14268 11284 12486 18521 11872 18391 18507 10629 17959 999999 999999 999999 999999 999999 999999 999999 999999 999999 999999 999999 999999 999999 999999 999999 999999 999999 999999 999999 999999 999999 0 999999 999999 999999 999999 999999 999999 999999 999999 999999 999999 999999 999999 999999 999999 999999 999999 999999 999999 999999 999999 999999 999999 999999 999999 999999 999999 999999 999999 7934
999999 18308 11415 15864 14291 13012 13146 17747 18754 14818 10599 12010 16608 11427 15641 14929 13847 11169 15481 10917 14899 15390 11134 18511 18267 12497 12206 17371 15303 18126 19093 15426 12787 16284 10705 10380 10079 12045 12941 17969 12775 10807 11194 15005 15455 16898 11767 15916 14228 15168 14341 15992 16159 16669 18100 12986 18739 19445 17146 17246 14793 999999 999999 999999 999999 999999 999999 999999 999999 999999 999999 999999 999999 999999 999999 999999 999999 999999 999999 999999 999999 999999 999999 0 999999 999999 999999 999999 999999 999999 999999 999999 999999 999999 999999 999999 999999 999999 999999 999999 999999 999999 999999 999999 999999 999999 999999 999999 999999 999999 999999 10315
999999 16593 12158 11063 17990 18552 13685 18901 19556 19002 14314 19795 14299 10740 15584 12559 15391 11700 11761 12406 11771 18028 15080 11754 11163 17927 12602 15173 14312 14071 13795 15801 12380 15911 16438 13353 16848 12908 11042 18899 17729 17791 12411 13649 19327 17395 17923 14845 19791 14866 10971 17006 11065 10601 16770 12576 13280 10378 10877 19245 13244 999999 999999 999999 999999 999999 999999 999999 999999 999999 999999 999999 999999 999999 999999 999999 999999 999999 999999 999999 999999 999999 999999 999999 0 999999 999999 999999 999999 999999 999999 999999 999999 999999 999999 999999 999999 999999 999999 999999 999999 999999 999999 999999 999999 999999 999999 999999 999999 999999 999999 14233
999999 10645 15022 17516 17211 18709 12139 13481 19717 12930 14011 17882 14330 15027 16152 12392 12656 12304 19180 10426 13616 12493 19398 11369 19444 16549 11232 14755 10000 10900 14847 14711 10868 10280 16791 15149 16893 13715 13027 14088 14210 13857 10188 12590 13469 18472 11446 16851 13674 14057 11776 10486 17968 16314 12233 13041 16308 18835 16033 19685 19944 999999 999999 999999 999999 999999 999999 999999 999999 999999 999999 999999 999999 999999 999999 999999 999999 999999 999999 999999 999999 999999 999999 999999 999999 0 999999 999999 999999 999999 999999 999999 999999 999999 999999 999999 999999 999999 999999 999999 999999 999999 999999 999999 999999 999999 999999 999999 999999 999999 999999 5145
999999 14921 12334 10130 11699 15333 12158 16797 10415 14227 12727 14795 11866 17140 13146 11813 13996 17868 12251 12730 16285 15128 17900 15075 13379 14613 15825 19992 18376 10933 11622 10273 16294 13775 12117 18204 17372 14514 16842 16257 11160 10611 16668 15332 17713 15279 12903 16368 15714 19053 11218 19662 11889 13697 12849 15160 19600 16699 13927 15291 11738 999999 999999 999999 999999 999999 999999 999999 999999 999999 999999 999999 999999 999999 999999 999999 999999 999999 999999 999999 999999 999999 999999 999999 999999 999999 0 999999 999999 999999 999999 999999 999999 999999 999999 999999 999999 999999 999999 999999 999999 999999 999999 999999 999999 999999 999999 999999 999999 999999 999999 8342
999999 11689 15786 19302 15497 18890 14859 18245 13739 12565 13363 13544 15597 11279 19030 15990 15722 13267 10195 17832 15020 12140 15756 14274 15377 13757 16286 17222 10787 12220 17540 16067 14593 10498 13998 18638 18549 12994 19143 13665 10569 19206 13249 11581 10157 17673 17501 12180 16244 19535 17793 15138 12185 10465 18450 19303 16519 18969 10244 18855 18319 999999 999999 999999 999999 999999 999999 999999 999999 999999 999999 999999 999999 999999 999999 999999 999999 999999 999999 999999 999999 999999 999999 999999 999999 999999 999999 0 999999 999999 999999 999999 999999 999999 999999 999999 999999 999999 999999 999999 999999 999999 999999 999999 999999 999999 999999 999999 999999 999999 999999 10919
999999 12158 17060 19821 11514 10656 10452 18881 15410 15631 19965 13947 19329 15289 12436 10383 12655 17678 15066 11254 12341 19882 14376 11921 13440 15304 16120 16301 17107 11893 14505 11144 15668 15502 19149 17676 17164 10779 19876 12211 12695 16025 10015 11307 10715 17648 19119 11996 15892 16861 14743 14935 11652 16841 15219 19468 19670 14102 19816 14702 15234 999999 999999 999999 999999 999999 999999 999999 999999 999999 999999 999999 999999 999999 999999 999999 999999 999999 999999 999999 999999 999999 999999 999999 999999 999999 999999 999999 0 999999 999999 999999 999999 999999 999999 999999 999999 999999 999999 999999 999999 999999 999999 999999 999999 999999 999999 999999 999999 999999 999999 9982
999999 14675 16596 10875 16627 13130 16312 19365 16669 12783 19286 19097 10782 18838 13283 15317 19488 19990 16489 14382 16033 10738 16069 14259 19300 10570 14092 10021 15613 10338 11643 10282 15694 18543 12540 17239 13175 15785 17831 14506 12398 16612 12012 15143 15281 17649 13836 16328 15440 16910 15948 11340 13472 11297 11484 16608 10454 17099 19121 14331 15366 999999 999999 999999 999999 999999 999999 999999 999999 999999 999999 999999 999999 999999 999999 999999 999999 999999 999999 999999 999999 999999 999999 999999 999999 999999 999999 999999 999999 0 999999 999999 999999 999999 999999 999999 999999 999999 999999 999999 999999 999999 999999 999999 999999 999999 999999 999999 999999 999999 999999 9655
999999 10840 14484 18999 13838 19007 13968 13882 10648 12875 19039 18047 13003 15593 14527 10688 18093 15377 12663 10479 15131 16570 19353 19608 10446 19847 10984 14591 12383 17974 18062 10969 10027 19361 12998 14390 16883 17294 13772 11534 13155 18245 12729 13885 17130 13241 13756 16845 14741 15160 11750 16177 18936 10299 19681 18352 13140 18265 17040 17719 18159 999999 999999 999999 999999 999999 999999 999999 999999 999999 999999 999999 999999 999999 999999 999999 999999 999999 999999 999999 999999 999999 999999 999999 999999 999999 999999 999999 999999 999999 0 999999 999999 999999 999999 999999 999999 999999 999999 999999 999999 999999 999999 999999 999999 999999 999999 999999 999999 999999 999999 5042
999999 16361 16017 11682 18518 12324 18100 14583 16666 15306 17080 10954 18715 10119 15566 18043 11977 10923 11115 15380 10856 12186 11036 19656 12993 14460 12353 18026 15534 18603 17866 14252 11127 18729 10780 13927 17243 12471 19696 11008 13699 14064 17117 17080 12183 10945 17233 10756 18077 17632 15546 15192 13363 17794 15263 19115 16236 12678 15383 15102 19624 999999 999999 999999 999999 999999 999999 999999 999999 999999 999999 999999 999999 999999 999999 999999 999999 999999 999999 999999 999999 999999 999999 999999 999999 999999 999999 999999 999999 999999 999999 0 999999 999999 999999 999999 999999 999999 999999 999999 999999 999999 999999 999999 999999 999999 999999 999999 999999 999999 999999 5014
999999 15476 13902 17899 12805 17133 11819 13937 18683 13085 10778 14354 15767 16276 19297 13908 16293 10286 18106 11645 16601 16300 17839 11518 19700 14172 11194 18722 16779 18105 13139 10144 18659 18768 17734 13543 16723 12545 19736 10853 11360 13800 10245 11276 15095 15782 11068 16874 18946 14492 18704 16921 18302 10846 15321 17972 15468 13957 10113 19493 14019 999999 999999 999999 999999 999999 999999 999999 999999 999999 999999 999999 999999 999999 999999 999999 999999 999999 999999 999999 999999 999999 999999 999999 999999 999999 999999 999999 999999 999999 999999 999999 0 999999 999999 999999 999999 999999 999999 999999 999999 999999 999999 999999 999999 999999 999999 999999 999999 999999 999999 10190
999999 16715 13871 18807 18844 10834 12372 11163 12605 13456 15244 11375 14865 12437 12722 19430 14029 11080 10968 17563 10897 17705 13985 16982 14603 17474 12599 16278 12251 12503 11195 11699 13588 17141 12108 15851 17196 14170 16422 11552 17949 18209 11014 12503 18210 10053 15407 11199 12774 17426 12851 13016 11098 15128 12381 12406 19604 17421 19718 12055 13390 999999 999999 999999 999999 999999 999999 999999 999999 999999 999999 999999 999999 999999 999999 999999 999999 999999 999999 999999 999999 999999 999999 999999 999999 999999 999999 999999 999999 999999 999999 999999 999999 0 999999 999999 999999 999999 999999 999999 999999 999999 999999 999999 999999 999999 999999 999999 999999 999999 999999 11073
999999 10884 12367 15288 15853 11824 12234 16690 19314 15861 19972 14171 15866 18591 16517 16974 19422 18549 10894 11866 15460 15518 17406 19468 11294 18173 15611 16112 16853 16234 19927 13021 16941 18683 13813 18674 19670 14752 19579 12737 19425 10241 15149 16770 15747 10525 11458 17094 12120 18817 12463 13326 11187 14696 14773 19355 18045 17781 17212 18630 18659 999999 999999 999999 999999 999999 999999 999999 999999 999999 999999 999999 999999 999999 999999 999999 999999 999999 999999 999999 999999 999999 999999 999999 999999 999999 999999 999999 999999 999999 999999 999999 999999 999999 0 999999 999999 999999 999999 999999 999999 999999 999999 999999 999999 999999 999999 999999 999999 999999 999999 8350
999999 13000 15203 14481 11688 13700 19532 14627 16535 16046 15082 10028 14826 13372 16383 11036 18201 19705 13773 17297 15430 10759 12992 10581 13982 14270 12975 11907 16265 13341 15037 16573 17592 19439 15382 17104 16825 15634 18608 16676 19327 12981 12896 17934 12291 18317 17357 14853 17241 16317 11822 17978 11211 16635 17246 10527 11592 12914 14996 15408 11516 999999 999999 999999 999999 999999 999999 999999 999999 999999 999999 999999 999999 999999 999999 999999 999999 999999 999999 999999 999999 999999 999999 999999 999999 999999 999999 999999 999999 999999 999999 999999 999999 999999 999999 0 999999 999999 999999 999999 999999 999999 999999 999999 999999 999999 999999 999999 999999 999999 999999 5870
999999 15008 15918 14571 18126 14189 17973 17094 11632 19335 15247 19645 18000 15676 18665 17589 10374 11737 10898 17417 12719 12009 10956 10291 11068 15635 13025 10598 11576 13005 14620 14387 15523 18100 19547 18437 12278 18678 17514 12421 18074 11008 18444 13007 14894 19684 18058 18867 13230 18807 10564 11470 13518 16646 11404 11994 13883 14821 18590 11473 17327 999999 999999 999999 999999 999999 999999 999999 999999 999999 999999 999999 999999 999999 999999 999999 999999 999999 999999 999999 999999 999999 999999 999999 999999 999999 999999 999999 999999 999999 999999 999999 999999 999999 999999 999999 0 999999 999999 999999 999999 999999 999999 999999 999999 999999 999999 999999 999999 999999 999999 6150
999999 19370 18281 14363 12970 16112 19623 17763 14388 15039 13196 19355 14816 19054 15785 17175 18883 14903 17600 12993 13633 14911 18466 17423 13776 12909 18423 15579 17883 10582 16224 14464 19424 12518 17110 18386 13762 10122 15720 14278 13114 11658 18123 15539 16465 16932 16868 14382 16889 16744 18557 12805 12648 13264 11271 19165 19939 13299 10071 19749 16163 999999 999999 999999 999999 999999 999999 999999 999999 999999 999999 999999 999999 999999 999999 999999 999999 999999 999999 999999 999999 999999 999999 999999 999999 999999 999999 999999 999999 999999 999999 999999 999999 999999 999999 999999 999999 0 999999 999999 999999 999999 999999 999999 999999 999999 999999 999999 999999 999999 999999 7863
999999 16786 19895 14736 18476 15372 19509 17184 14789 13386 12687 13817 14434 15793 18061 17937 13191 11072 12467 11611 14836 10504 16434 10407 13714 13287 18083 15229 19297 12410 11469 19641 14085 18330 16125 14060 13650 14378 14617 15737 11274 14084 17588 16996 18005 10496 11008 11594 15052 15261 19109 16239 12103 11820 15708 19328 18104 14907 14513 15299 18825 999999 999999 999999 999999 999999 999999 999999 999999 999999 999999 999999 999999 999999 999999 999999 999999 999999 999999 999999 999999 999999 999999 999999 999999 999999 999999 999999 999999 999999 999999 999999 999999 999999 999999 999999 999999 999999 0 999999 999999 999999 999999 999999 999999 999999 999999 999999 999999 999999 999999 9039
999999 17501 17890 10508 12957 14310 13958 16188 19499 14385 19410 13953 16775 16873 12635 14002 16977 19015 15639 16305 11201 16969 13274 15085 11604 19930 13339 12829 17880 13901 18897 13104 10243 16381 11689 17075 17975 19115 10485 13701 12844 16799 10305 19954 10117 11828 14543 16158 19750 13623 15923 14262 14205 16467 19907 11373 14683 16647 19730 10542 14314 999999 999999 999999 999999 999999 999999 999999 999999 999999 999999 999999 999999 999999 999999 999999 999999 999999 999999 999999 999999 999999 999999 999999 999999 999999 999999 999999 999999 999999 999999 999999 999999 999999 999999 999999 999999 999999 999999 0 999999 999999 999999 999999 999999 999999 999999 999999 999999 999999 999999 11843
999999 12515 12249 17269 12293 19977 14523 10499 11597 16198 10787 19168 14099 11688 12153 13364 17113 19578 14482 13823 10448 17520 17006 10785 12509 17333 14412 18775 13981 15509 19281 10000 17805 13358 15929 18767 10339 10470 12764 19850 14867 13753 15223 19183 15909 17417 10108 10103 19560 11745 17732 19585 11893 18997 11599 16450 13166 19135 16743 16191 19123 999999 999999 999999 999999 999999 999999 999999 999999 999999 999999 999999 999999 999999 999999 999999 999999 999999 999999 999999 999999 999999 999999 999999 999999 999999 999999 999999 999999 999999 999999 999999 999999 999999 999999 999999 999999 999999 999999 999999 0 999999 999999 999999 999999 999999 999999 999999 999999 999999 999999 13279
999999 15257 19439 13062 19175 19800 16055 18635 19761 11386 15530 14058 12760 10823 18126 17483 18451 12785 16047 18294 14740 15016 13953 13946 10637 16642 14785 13605 17519 18078 16571 12701 19082 18234 15199 17588 15403 20000 18098 16332 19437 16350 14535 16218 12563 13661 18239 12097 12111 11503 13024 12937 16426 19136 15916 19214 17595 19777 19778 10043 14134 999999 999999 999999 999999 999999 999999 999999 999999 999999 999999 999999 999999 999999 999999 999999 999999 999999 999999 999999 999999 999999 999999 999999 999999 999999 999999 999999 999999 999999 999999 999999 999999 999999 999999 999999 999999 999999 999999 999999 999999 0 999999 999999 999999 999999 999999 999999 999999 999999 999999 11694
999999 16148 11176 17901 14736 11133 18213 17765 12008 14818 17103 14687 19266 11814 10953 12322 17849 12121 10206 12972 10671 14720 13701 15077 13856 17877 16840 14742 19365 10605 13620 15194 17066 17032 19671 14738 18790 12851 16773 18929 17283 15695 17006 15593 13202 14800 13081 18258 17720 16951 15516 11967 13753 18200 18707 19420 13843 11417 18602 12811 16951 999999 999999 999999 999999 999999 999999 999999 999999 999999 999999 999999 999999 999999 999999 999999 999999 999999 999999 999999 999999 999999 999999 999999 999999 999999 999999 999999 999999 999999 999999 999999 999999 999999 999999 999999 999999 999999 999999 999999 999999 999999 0 999999 999999 999999 999999 999999 999999 999999 999999 12586
999999 17913 16947 19904 16522 14412 13282 12835 12849 16608 16839 17012 16086 16244 13802 11545 15123 12237 11082 19663 14400 19464 12339 17331 15330 13887 16097 18070 16819 12112 11171 17126 16669 12786 10231 10755 10278 11099 10944 11671 16830 13358 11927 15979 13116 16950 12728 11486 13496 19710 18795 14158 13767 13235 17461 16769 12919 11262 14623 14609 15311 999999 999999 999999 999999 999999 999999 999999 999999 999999 999999 999999 999999 999999 999999 999999 999999 999999 999999 999999 999999 999999 999999 999999 999999 999999 999999 999999 999999 999999 999999 999999 999999 999999 999999 999999 999999 999999 999999 999999 999999 999999 999999 0 999999 999999 999999 999999 999999 999999 999999 8315
999999 15263 12691 15203 10746 19652 17608 15243 10403 15393 15643 12106 12731 19831 12571 12225 16189 10767 16687 14097 12299 17730 15747 12213 19553 14249 10842 15181 14636 18429 19718 17973 19991 15367 18658 19021 12303 11814 18885 15829 18595 16030 19719 12721 18035 19670 13696 17090 11697 10679 14930 18518 11375 19619 10117 15260 19497 19537 15894 15299 16243 999999 999999 999999 999999 999999 999999 999999 999999 999999 999999 999999 999999 999999 999999 999999 999999 999999 999999 999999 999999 999999 999999 999999 999999 999999 999999 999999 999999 999999 999999 999999 999999 999999 999999 999999 999999 999999 999999 999999 999999 999999 999999 999999 0 999999 999999 999999 999999 999999 999999 8566
999999 13512 11915 11837 18545 17093 15054 13426 17890 12810 15382 16718 13891 12344 18315 14702 13364 10849 14590 12110 15459 16373 19299 12917 17111 10799 19723 19895 19448 17054 14150 12109 12312 13247 10760 11700 17147 12907 17483 14231 14959 11929 13485 16774 11816 15563 13364 10390 16295 10778 18906 15879 10659 12525 15791 10347 19771 15978 15710 19881 10053 999999 999999 999999 999999 999999 999999 999999 999999 999999 999999 999999 999999 999999 999999 999999 999999 999999 999999 999999 999999 999999 999999 999999 999999 999999 999999 999999 999999 999999 999999 999999 999999 999999 999999 999999 999999 999999 999999 999999 999999 999999 999999 999999 999999 0 999999 999999 999999 999999 999999 7592
999999 16394 18483 16571 10437 14107 16728 11756 18075 15540 16273 16785 15491 16140 19628 11641 16173 19544 18212 17185 14406 17871 18803 12211 18169 18756 16090 10766 18500 17281 10457 17814 13909 16551 19460 12456 13436 10558 13998 15188 12426 19051 18125 10623 12280 16426 12592 17986 15846 17578 12401 12505 14690 19225 17293 19182 19389 17611 17407 16669 18699 999999 999999 999999 999999 999999 999999 999999 999999 999999 999999 999999 999999 999999 999999 999999 999999 999999 999999 999999 999999 999999 999999 999999 999999 999999 999999 999999 999999 999999 999999 999999 999999 999999 999999 999999 999999 999999 999999 999999 999999 999999 999999 999999 999999 999999 0 999999 999999 999999 999999 12837
999999 17265 15155 15469 11859 11024 17115 16345 19385 11905 12445 16032 12501 19398 15521 11168 15794 13092 17008 13499 17291 18105 16665 11610 11925 14981 10849 17598 10445 19179 14998 13729 16712 13712 12658 19160 11070 15554 13247 15915 12035 14172 18677 11194 15600 10151 16715 17527 14899 13979 11408 18776 17143 19932 13510 17085 11940 16295 19676 11362 15245 999999 999999 999999 999999 999999 999999 999999 999999 999999 999999 999999 999999 999999 999999 999999 999999 999999 999999 999999 999999 999999 999999 999999 999999 999999 999999 999999 999999 999999 999999 999999 999999 999999 999999 999999 999999 999999 999999 999999 999999 999999 999999 999999 999999 999999 999999 0 999999 999999 999999 13973
999999 13375 13109 14058 19345 12009 10481 17546 12654 12717 17316 19674 11358 16561 14785 15992 13973 16660 10972 19358 17254 18861 17082 11846 18840 19261 11242 12491 18099 12765 19057 10941 19396 13059 18136 19918 19900 13305 13158 14985 15472 11762 13761 19466 15643 10429 17615 18797 13720 15904 16195 14060 14699 16827 16284 15943 15294 11095 16692 15676 18328 999999 999999 999999 999999 999999 999999 999999 999999 999999 999999 999999 999999 999999 999999 999999 999999 999999 999999 999999 999999 999999 999999 999999 999999 999999 999999 999999 999999 999999 999999 999999 999999 999999 999999 999999 999999 999999 999999 999999 999999 999999 999999 999999 999999 999999 999999 999999 0 999999 999999 8575
999999 10628 14397 18510 17283 13114 14638 16891 12943 18364 18925 12747 16279 14796 15976 19871 12815 11363 16312 17387 17867 19250 17912 18619 13164 10556 15672 19463 14139 14703 19630 18675 12177 16604 16484 13187 13676 12644 16654 19284 17585 11253 12657 12349 19397 19943 14982 15044 16385 12156 15815 11705 18538 12925 18894 17058 16546 12702 10413 17763 19423 999999 999999 999999 999999 999999 999999 999999 999999 999999 999999 999999 999999 999999 999999 999999 999999 999999 999999 999999 999999 999999 999999 999999 999999 999999 999999 999999 999999 999999 999999 999999 999999 999999 999999 999999 999999 999999 999999 999999 999999 999999 999999 999999 999999 999999 999999 999999 999999 0 999999 11937
999999 18418 18889 10194 14871 13319 14230 15893 14810 19166 11342 19536 17732 11252 16272 13351 19406 19750 17622 15238 13747 11232 13367 18619 19624 17323 13086 17669 13098 17124 12814 14765 18619 14031 14382 10036 10958 13628 14257 10827 14857 16612 15627 13570 14734 15599 17887 17857 11149 13546 16076 12855 17424 12767 14679 15435 11980 18581 11810 11842 10937 999999 999999 999999 999999 999999 999999 999999 999999 999999 999999 999999 999999 999999 999999 999999 999999 999999 999999 999999 999999 999999 999999 999999 999999 999999 999999 999999 999999 999999 999999 999999 999999 999999 999999 999999 999999 999999 999999 999999 999999 999999 999999 999999 999999 999999 999999 999999 999999 999999 0 7141
1 999999 999999 999999 999999 999999 999999 999999 999999 999999 999999 999999 999999 999999 999999 999999 999999 999999 999999 999999 999999 999999 999999 999999 999999 999999 999999 999999 999999 999999 999999 999999 999999 999999 999999 999999 999999 999999 999999 999999 999999 999999 999999 999999 999999 999999 999999 999999 999999 999999 999999 999999 999999 999999 999999 999999 999999 999999 999999 999999 999999 999999 999999 999999 999999 999999 999999 999999 999999 999999 999999 999999 999999 999999 999999 999999 999999 999999 999999 999999 999999 999999 999999 999999 999999 999999 999999 999999 999999 999999 999999 999999 999999 999999 999999 999999 999999 999999 999999 999999 999999 999999 999999 999999 999999 999999 999999 999999 999999 999999 999999 0
EOF