NAME: GR_1x5x12_KH_5x12_Run_2
TYPE: TSP
COMMENT: BTSP instance |A|=60 GR nodes |B|=60 KH nodes depot=0.0 end=0.0.0
DIMENSION: 122
EDGE_WEIGHT_TYPE: EXPLICIT
EDGE_WEIGHT_FORMAT: FULL_MATRIX
NODE_COORD_TYPE: NO_COORDS
EDGE_WEIGHT_SECTION
0 10777 9009 7492 14220 12791 7044 10879 13950 10149 11788 8687 7241 12308 7411 5247 13768 11901 10492 5299 7828 10715 5947 8770 6626 6189 9572 5234 13433 13396 9869 13499 6940 6603 8556 8270 14625 8893 6347 11420 14521 8874 12528 14037 9572 5425 13164 13802 8956 9049 5467 11771 7362 12032 7756 8225 5061 5784 5788 6735 13261 999999 999999 999999 999999 999999 999999 999999 999999 999999 999999 999999 999999 999999 999999 999999 999999 999999 999999 999999 999999 999999 999999 999999 999999 999999 999999 999999 999999 999999 999999 999999 999999 999999 999999 999999 999999 999999 999999 999999 999999 999999 999999 999999 999999 999999 999999 999999 999999 999999 999999 999999 999999 999999 999999 999999 999999 999999 999999 999999 999999 999999
999999 0 999999 999999 999999 999999 999999 999999 999999 999999 999999 999999 999999 999999 999999 999999 999999 999999 999999 999999 999999 999999 999999 999999 999999 999999 999999 999999 999999 999999 999999 999999 999999 999999 999999 999999 999999 999999 999999 999999 999999 999999 999999 999999 999999 999999 999999 999999 999999 999999 999999 999999 999999 999999 999999 999999 999999 999999 999999 999999 999999 14229 12240 10834 17423 12376 19054 13480 10701 17114 11740 12530 10205 11740 14970 11865 18199 16905 15714 11797 19503 12555 11552 15972 14895 18842 15305 12425 15407 17173 14859 17238 16700 15571 16628 10685 17276 19904 11991 12236 16818 10076 12951 13890 19703 18728 12177 12452 16106 16758 17683 10189 14786 15688 11226 12673 12204 13250 10523 14816 15205 999999
999999 999999 0 999999 999999 999999 999999 999999 999999 999999 999999 999999 999999 999999 999999 999999 999999 999999 999999 999999 999999 999999 999999 999999 999999 999999 999999 999999 999999 999999 999999 999999 999999 999999 999999 999999 999999 999999 999999 999999 999999 999999 999999 999999 999999 999999 999999 999999 999999 999999 999999 999999 999999 999999 999999 999999 999999 999999 999999 999999 999999 12984 19083 17186 10765 19451 12716 16612 13419 15718 13548 17669 13236 15892 19167 11280 13450 14023 10711 17401 11387 11199 16416 11453 17490 17625 13471 17365 18515 11578 11028 11185 15611 15100 14964 15162 16234 19505 15353 11382 11687 15828 17149 18723 14567 11180 19071 14179 10542 19086 13808 19825 15447 12024 12285 10410 16421 17423 13499 19418 12606 999999
999999 999999 999999 0 999999 999999 999999 999999 999999 999999 999999 999999 999999 999999 999999 999999 999999 999999 999999 999999 999999 999999 999999 999999 999999 999999 999999 999999 999999 999999 999999 999999 999999 999999 999999 999999 999999 999999 999999 999999 999999 999999 999999 999999 999999 999999 999999 999999 999999 999999 999999 999999 999999 999999 999999 999999 999999 999999 999999 999999 999999 13949 15022 19771 13673 13430 17472 14177 15688 17184 11091 12485 16346 12185 12753 14921 18110 11427 18902 19978 18258 12626 16789 11356 19783 12133 15092 17594 19177 15367 10868 18006 18706 15729 16666 12837 18282 17157 14457 17081 10286 11874 18824 14232 14398 10716 11562 13306 10681 11090 15997 11173 10380 10924 16256 13672 11506 15540 11414 10091 18127 999999
999999 999999 999999 999999 0 999999 999999 999999 999999 999999 999999 999999 999999 999999 999999 999999 999999 999999 999999 999999 999999 999999 999999 999999 999999 999999 999999 999999 999999 999999 999999 999999 999999 999999 999999 999999 999999 999999 999999 999999 999999 999999 999999 999999 999999 999999 999999 999999 999999 999999 999999 999999 999999 999999 999999 999999 999999 999999 999999 999999 999999 16679 12388 17737 14187 13065 15668 13333 14656 19939 15570 16367 10208 13957 11328 10638 17166 13487 14335 11748 15671 18463 18076 13189 15386 18231 10826 15164 13322 15129 17884 16926 19751 14631 14961 13029 12191 12590 11396 16497 15840 14387 10502 15869 12722 12272 11973 16258 18222 15699 12269 11737 14581 15230 14061 15180 17830 15519 18992 14899 11575 999999
999999 999999 999999 999999 999999 0 999999 999999 999999 999999 999999 999999 999999 999999 999999 999999 999999 999999 999999 999999 999999 999999 999999 999999 999999 999999 999999 999999 999999 999999 999999 999999 999999 999999 999999 999999 999999 999999 999999 999999 999999 999999 999999 999999 999999 999999 999999 999999 999999 999999 999999 999999 999999 999999 999999 999999 999999 999999 999999 999999 999999 11598 16925 10087 17520 16880 14999 13264 11769 12449 17312 19946 18438 16868 11472 18111 18886 14031 19623 12597 11046 13915 19788 11400 19761 19259 11762 11434 18909 17736 11484 17372 11746 17761 13984 19318 15436 15701 18708 10185 10410 16799 17283 13269 17049 17151 10723 15210 10504 17124 19487 13222 17523 18098 19303 14926 11404 12824 15757 11556 14191 999999
999999 999999 999999 999999 999999 999999 0 999999 999999 999999 999999 999999 999999 999999 999999 999999 999999 999999 999999 999999 999999 999999 999999 999999 999999 999999 999999 999999 999999 999999 999999 999999 999999 999999 999999 999999 999999 999999 999999 999999 999999 999999 999999 999999 999999 999999 999999 999999 999999 999999 999999 999999 999999 999999 999999 999999 999999 999999 999999 999999 999999 12207 16315 13001 18132 18612 16917 11319 13400 17587 15013 19615 19952 16343 19844 12616 10198 13356 13977 13008 17657 12434 14905 19181 12892 15769 18816 15862 12931 13084 19966 19614 10675 16182 11876 14093 16883 15436 11919 14115 19704 12819 14370 10416 14190 12459 11740 14004 15681 17314 15406 13292 14803 14621 11445 12993 15612 16096 11818 13365 18899 999999
999999 999999 999999 999999 999999 999999 999999 0 999999 999999 999999 999999 999999 999999 999999 999999 999999 999999 999999 999999 999999 999999 999999 999999 999999 999999 999999 999999 999999 999999 999999 999999 999999 999999 999999 999999 999999 999999 999999 999999 999999 999999 999999 999999 999999 999999 999999 999999 999999 999999 999999 999999 999999 999999 999999 999999 999999 999999 999999 999999 999999 12022 15901 11120 18035 13156 11047 16454 16489 12331 12414 11817 10056 16184 11808 18434 14971 16074 14514 12372 11864 16970 12309 19394 19015 16005 16171 18603 17066 10070 19859 19807 10734 19533 18685 11355 15965 13639 16576 13640 18319 16972 16189 11644 11185 12977 16670 11480 17472 11610 10254 11057 19403 14557 18935 19553 19155 11927 17621 19451 16218 999999
999999 999999 999999 999999 999999 999999 999999 999999 0 999999 999999 999999 999999 999999 999999 999999 999999 999999 999999 999999 999999 999999 999999 999999 999999 999999 999999 999999 999999 999999 999999 999999 999999 999999 999999 999999 999999 999999 999999 999999 999999 999999 999999 999999 999999 999999 999999 999999 999999 999999 999999 999999 999999 999999 999999 999999 999999 999999 999999 999999 999999 15451 11544 17340 16493 15090 13525 12619 18670 13307 15102 12097 18018 13038 13027 16260 18777 12069 19143 15176 13157 16921 12108 14061 15301 18064 13324 19796 11365 14457 14278 15952 12123 13533 16151 15121 17731 15216 12119 18842 10674 18930 17664 10361 17363 10170 13970 17086 19710 11913 10429 16181 16169 16056 11694 18244 11763 15928 16291 15192 11981 999999
999999 999999 999999 999999 999999 999999 999999 999999 999999 0 999999 999999 999999 999999 999999 999999 999999 999999 999999 999999 999999 999999 999999 999999 999999 999999 999999 999999 999999 999999 999999 999999 999999 999999 999999 999999 999999 999999 999999 999999 999999 999999 999999 999999 999999 999999 999999 999999 999999 999999 999999 999999 999999 999999 999999 999999 999999 999999 999999 999999 999999 16737 12968 16660 13643 16097 14749 19003 19587 15259 18239 16519 10284 16900 13887 13005 10625 16994 17897 12169 19648 12759 19272 17278 13664 16650 17756 15987 11010 14641 16732 16598 13628 14619 15335 15254 15191 19875 17692 15799 10186 15849 13011 14523 18033 18570 12752 10789 18673 11859 12303 17527 13043 13031 18779 19479 15968 12406 10497 19253 16146 999999
999999 999999 999999 999999 999999 999999 999999 999999 999999 999999 0 999999 999999 999999 999999 999999 999999 999999 999999 999999 999999 999999 999999 999999 999999 999999 999999 999999 999999 999999 999999 999999 999999 999999 999999 999999 999999 999999 999999 999999 999999 999999 999999 999999 999999 999999 999999 999999 999999 999999 999999 999999 999999 999999 999999 999999 999999 999999 999999 999999 999999 18714 18836 18543 12651 11434 16507 16195 14859 17468 14782 16324 19651 19489 16280 15581 17631 17858 10122 11017 17822 16481 15677 12985 13313 16797 10981 13657 15595 13906 14999 18306 16174 10575 11381 17199 18591 11952 19806 11593 18832 10137 19846 12227 15468 14738 14722 18255 17445 16389 17900 11879 15437 16098 10525 13052 15750 18693 18094 19362 11456 999999
999999 999999 999999 999999 999999 999999 999999 999999 999999 999999 999999 0 999999 999999 999999 999999 999999 999999 999999 999999 999999 999999 999999 999999 999999 999999 999999 999999 999999 999999 999999 999999 999999 999999 999999 999999 999999 999999 999999 999999 999999 999999 999999 999999 999999 999999 999999 999999 999999 999999 999999 999999 999999 999999 999999 999999 999999 999999 999999 999999 999999 17793 12534 19054 13566 11019 11688 15118 16571 19211 12699 16529 14730 11964 15602 11457 18814 13965 12676 15884 17591 11444 13230 15997 17232 18460 12899 19741 14804 11002 14914 12762 10308 12700 13622 14844 12261 16312 16823 19486 19591 18890 17714 17353 19471 18705 13017 10322 17949 11834 11292 13266 12062 17106 11247 16242 14972 12764 11553 16551 12415 999999
999999 999999 999999 999999 999999 999999 999999 999999 999999 999999 999999 999999 0 999999 999999 999999 999999 999999 999999 999999 999999 999999 999999 999999 999999 999999 999999 999999 999999 999999 999999 999999 999999 999999 999999 999999 999999 999999 999999 999999 999999 999999 999999 999999 999999 999999 999999 999999 999999 999999 999999 999999 999999 999999 999999 999999 999999 999999 999999 999999 999999 11381 19520 16224 12410 16928 12083 16889 18954 13040 12387 15089 14318 14005 19258 10056 14080 18407 18857 19574 16662 11947 13090 14527 16903 15856 15584 10029 17710 15909 17405 15081 15916 19470 17442 18761 16280 15465 14780 18982 18406 17820 11373 11653 11687 11337 10743 11025 19757 10236 13085 16807 11738 11752 19975 16183 17921 12816 11405 10412 16319 999999
999999 999999 999999 999999 999999 999999 999999 999999 999999 999999 999999 999999 999999 0 999999 999999 999999 999999 999999 999999 999999 999999 999999 999999 999999 999999 999999 999999 999999 999999 999999 999999 999999 999999 999999 999999 999999 999999 999999 999999 999999 999999 999999 999999 999999 999999 999999 999999 999999 999999 999999 999999 999999 999999 999999 999999 999999 999999 999999 999999 999999 12016 16470 13502 15050 10862 11999 11599 10249 13383 18944 16185 17329 17331 18720 18248 15798 17886 18979 12585 17300 10773 13319 16108 13424 18625 14983 18839 19251 18380 19527 13625 14527 17134 13065 18604 17184 11197 17709 12529 16958 13743 13592 18013 18098 12465 19154 13132 17772 16076 10274 19248 13403 15778 15682 19717 18153 17333 12121 10463 16922 999999
999999 999999 999999 999999 999999 999999 999999 999999 999999 999999 999999 999999 999999 999999 0 999999 999999 999999 999999 999999 999999 999999 999999 999999 999999 999999 999999 999999 999999 999999 999999 999999 999999 999999 999999 999999 999999 999999 999999 999999 999999 999999 999999 999999 999999 999999 999999 999999 999999 999999 999999 999999 999999 999999 999999 999999 999999 999999 999999 999999 999999 19816 14145 12830 11579 13158 12839 11870 10610 19445 18487 17180 17407 16927 17827 17083 19251 17540 11176 17660 10804 17120 18854 18850 16869 11822 17311 11255 14992 17547 13236 19662 17369 16119 17890 15079 10258 19939 15281 10089 12871 15375 16195 15719 16812 13557 16369 19972 19506 11754 12675 16505 17782 17811 14063 14920 16191 18830 11987 14566 13387 999999
999999 999999 999999 999999 999999 999999 999999 999999 999999 999999 999999 999999 999999 999999 999999 0 999999 999999 999999 999999 999999 999999 999999 999999 999999 999999 999999 999999 999999 999999 999999 999999 999999 999999 999999 999999 999999 999999 999999 999999 999999 999999 999999 999999 999999 999999 999999 999999 999999 999999 999999 999999 999999 999999 999999 999999 999999 999999 999999 999999 999999 19470 12963 13199 19364 13267 16981 13718 10051 12994 13178 12240 17641 16310 14595 16494 14977 10168 11699 11489 11122 15851 12447 17539 18518 18413 10720 16134 19922 11754 18018 10052 13904 13813 19079 18427 13438 12412 13734 13506 11184 12164 14618 18186 13801 15205 12171 19306 17332 19035 12529 15234 10647 14838 10874 18256 10336 15302 15129 13807 15921 999999
999999 999999 999999 999999 999999 999999 999999 999999 999999 999999 999999 999999 999999 999999 999999 999999 0 999999 999999 999999 999999 999999 999999 999999 999999 999999 999999 999999 999999 999999 999999 999999 999999 999999 999999 999999 999999 999999 999999 999999 999999 999999 999999 999999 999999 999999 999999 999999 999999 999999 999999 999999 999999 999999 999999 999999 999999 999999 999999 999999 999999 18562 11137 19209 18392 19500 17045 16615 11266 16528 13740 13485 14336 16613 18610 12575 17077 13054 15835 12890 19256 19540 12634 18356 16812 12148 18378 10352 13841 11362 11909 10282 17461 12902 14792 12400 18206 19455 11586 18601 14689 11744 17695 14051 11305 11129 12791 14852 13022 15183 16604 12812 14512 14509 11673 10838 10308 11280 19376 15043 18373 999999
999999 999999 999999 999999 999999 999999 999999 999999 999999 999999 999999 999999 999999 999999 999999 999999 999999 0 999999 999999 999999 999999 999999 999999 999999 999999 999999 999999 999999 999999 999999 999999 999999 999999 999999 999999 999999 999999 999999 999999 999999 999999 999999 999999 999999 999999 999999 999999 999999 999999 999999 999999 999999 999999 999999 999999 999999 999999 999999 999999 999999 11083 18723 15667 13569 19044 16955 16341 11828 18516 18728 19283 12340 16256 11405 17029 11981 15533 16863 17227 18011 13907 14551 12138 11886 10748 15818 17780 15082 12876 15045 19007 16155 12008 13643 13784 11880 13380 14837 17208 14323 17369 15403 18869 11703 15964 11709 14196 11543 16263 16687 19669 17917 18162 16049 10935 10246 16262 15241 13010 11506 999999
999999 999999 999999 999999 999999 999999 999999 999999 999999 999999 999999 999999 999999 999999 999999 999999 999999 999999 0 999999 999999 999999 999999 999999 999999 999999 999999 999999 999999 999999 999999 999999 999999 999999 999999 999999 999999 999999 999999 999999 999999 999999 999999 999999 999999 999999 999999 999999 999999 999999 999999 999999 999999 999999 999999 999999 999999 999999 999999 999999 999999 18644 17188 15614 18876 14806 11411 16217 12178 13503 16170 16369 18974 18964 17341 14882 19403 15979 15413 14906 13925 17556 11892 10214 10428 12983 18094 17790 11624 11400 18273 15838 17272 16077 12077 17646 18693 14941 15892 13112 14094 11603 18304 17336 12922 14513 10329 17397 16986 13595 18088 14661 15460 16603 17815 15489 14344 14438 12847 10045 11785 999999
999999 999999 999999 999999 999999 999999 999999 999999 999999 999999 999999 999999 999999 999999 999999 999999 999999 999999 999999 0 999999 999999 999999 999999 999999 999999 999999 999999 999999 999999 999999 999999 999999 999999 999999 999999 999999 999999 999999 999999 999999 999999 999999 999999 999999 999999 999999 999999 999999 999999 999999 999999 999999 999999 999999 999999 999999 999999 999999 999999 999999 13016 15346 15535 16452 17727 17862 13547 12362 19998 10790 12514 15742 10906 10900 11285 10949 12787 12478 11305 12981 19162 17609 12788 13488 18531 12982 12549 19576 11959 18738 14132 11909 11712 14825 11439 14239 10634 10629 10748 18469 12699 12510 15340 18408 10816 13981 12363 15273 15307 16304 13245 16106 19961 14502 16828 12424 15160 14873 15941 14185 999999
999999 999999 999999 999999 999999 999999 999999 999999 999999 999999 999999 999999 999999 999999 999999 999999 999999 999999 999999 999999 0 999999 999999 999999 999999 999999 999999 999999 999999 999999 999999 999999 999999 999999 999999 999999 999999 999999 999999 999999 999999 999999 999999 999999 999999 999999 999999 999999 999999 999999 999999 999999 999999 999999 999999 999999 999999 999999 999999 999999 999999 13493 17348 14813 15823 13633 13464 18888 15242 19933 11691 11069 10957 13949 12231 12906 10707 11228 10976 10182 15605 13086 10579 16288 11751 12158 12148 17094 13035 13640 11994 17917 10377 13256 13013 18307 12273 15764 16418 19994 16915 18008 18467 17695 11947 10054 13217 18949 12333 16277 14544 13209 17301 13981 13771 18503 19072 10039 11714 10772 13937 999999
999999 999999 999999 999999 999999 999999 999999 999999 999999 999999 999999 999999 999999 999999 999999 999999 999999 999999 999999 999999 999999 0 999999 999999 999999 999999 999999 999999 999999 999999 999999 999999 999999 999999 999999 999999 999999 999999 999999 999999 999999 999999 999999 999999 999999 999999 999999 999999 999999 999999 999999 999999 999999 999999 999999 999999 999999 999999 999999 999999 999999 12410 12800 12443 18371 17770 14959 15670 11580 17809 14146 13616 12142 12914 11329 14527 15605 10877 19883 10100 18878 16991 18302 16198 15133 18636 14292 14484 13096 16377 16894 17533 19616 12655 12808 14327 13296 18858 19219 17589 13751 17143 12014 12169 14800 14518 19631 13844 12558 10514 18443 12529 11251 16458 16770 11539 16186 15889 13924 15505 14715 999999
999999 999999 999999 999999 999999 999999 999999 999999 999999 999999 999999 999999 999999 999999 999999 999999 999999 999999 999999 999999 999999 999999 0 999999 999999 999999 999999 999999 999999 999999 999999 999999 999999 999999 999999 999999 999999 999999 999999 999999 999999 999999 999999 999999 999999 999999 999999 999999 999999 999999 999999 999999 999999 999999 999999 999999 999999 999999 999999 999999 999999 17026 19453 18971 16314 15261 19976 10085 13181 15994 15369 10862 11600 12767 14721 13827 16042 11633 16098 10394 19218 16770 18883 10329 19173 15561 19430 12732 19946 18543 17607 19758 18649 15421 17672 12370 14429 18687 16147 12343 19547 14811 15019 15687 14421 13935 16281 14779 15111 15286 15643 12592 16558 14289 15756 14141 13216 14572 18970 18113 19723 999999
999999 999999 999999 999999 999999 999999 999999 999999 999999 999999 999999 999999 999999 999999 999999 999999 999999 999999 999999 999999 999999 999999 999999 0 999999 999999 999999 999999 999999 999999 999999 999999 999999 999999 999999 999999 999999 999999 999999 999999 999999 999999 999999 999999 999999 999999 999999 999999 999999 999999 999999 999999 999999 999999 999999 999999 999999 999999 999999 999999 999999 12658 16588 13390 17780 19990 18399 16432 12310 16924 18310 13460 13117 11787 19011 14054 10121 17738 17382 16302 12949 11719 18925 17914 13497 14961 16050 18215 11208 13218 18521 14807 14084 14091 13298 18225 14920 11947 13582 19594 13910 11157 14438 10606 19618 16760 14058 15493 12173 15592 16080 11152 17506 10975 18749 19844 19687 17336 12171 16767 18341 999999
999999 999999 999999 999999 999999 999999 999999 999999 999999 999999 999999 999999 999999 999999 999999 999999 999999 999999 999999 999999 999999 999999 999999 999999 0 999999 999999 999999 999999 999999 999999 999999 999999 999999 999999 999999 999999 999999 999999 999999 999999 999999 999999 999999 999999 999999 999999 999999 999999 999999 999999 999999 999999 999999 999999 999999 999999 999999 999999 999999 999999 14735 12009 17051 16118 12798 10354 12353 17211 11861 17171 19707 14667 18711 11627 10465 16212 12623 13734 11424 14307 14044 15819 18310 13802 12964 10813 15952 18731 11384 10188 14779 14224 13046 17407 10259 10460 10980 10524 14363 15251 15219 19608 18811 12139 15425 17543 10206 18789 12320 15355 11327 15626 16087 11250 19884 13534 19595 17485 15941 13401 999999
999999 999999 999999 999999 999999 999999 999999 999999 999999 999999 999999 999999 999999 999999 999999 999999 999999 999999 999999 999999 999999 999999 999999 999999 999999 0 999999 999999 999999 999999 999999 999999 999999 999999 999999 999999 999999 999999 999999 999999 999999 999999 999999 999999 999999 999999 999999 999999 999999 999999 999999 999999 999999 999999 999999 999999 999999 999999 999999 999999 999999 15267 10648 18844 13966 15872 14321 12376 18720 11708 16948 15655 14236 11609 13175 14983 11169 12861 19350 10451 17276 16598 13781 15835 15338 19481 11049 12405 10634 15514 17308 17179 18845 18308 14272 16885 11636 11719 19658 15306 11222 18852 14148 16085 19186 12286 13572 14591 14516 17876 10186 12516 19982 10417 14158 17453 14568 19143 10170 13629 13247 999999
999999 999999 999999 999999 999999 999999 999999 999999 999999 999999 999999 999999 999999 999999 999999 999999 999999 999999 999999 999999 999999 999999 999999 999999 999999 999999 0 999999 999999 999999 999999 999999 999999 999999 999999 999999 999999 999999 999999 999999 999999 999999 999999 999999 999999 999999 999999 999999 999999 999999 999999 999999 999999 999999 999999 999999 999999 999999 999999 999999 999999 14118 13817 11543 12026 10741 16905 19772 14124 16530 10073 13857 18510 19465 12546 11549 17539 12193 12329 11747 18333 11474 16509 13991 17092 10496 11501 14478 18960 10837 13927 12046 11335 13507 14492 12256 11744 19860 18336 15687 10623 11279 10485 12061 12937 15770 10525 11553 16778 10837 10452 10206 16061 14780 10747 11411 18933 16084 14117 15974 18628 999999
999999 999999 999999 999999 999999 999999 999999 999999 999999 999999 999999 999999 999999 999999 999999 999999 999999 999999 999999 999999 999999 999999 999999 999999 999999 999999 999999 0 999999 999999 999999 999999 999999 999999 999999 999999 999999 999999 999999 999999 999999 999999 999999 999999 999999 999999 999999 999999 999999 999999 999999 999999 999999 999999 999999 999999 999999 999999 999999 999999 999999 13421 12383 14603 16733 18895 19270 19707 14923 12787 19359 12036 10992 11258 11653 17800 16805 16700 12066 11187 10139 13671 15667 19357 19300 12629 18900 10011 19147 15301 10614 18285 15867 19961 10872 16986 17912 12308 16162 14913 14915 15631 10776 17735 10953 17237 15748 18525 16599 10841 15158 19996 18052 15870 11564 11326 16316 10293 19138 18076 10202 999999
999999 999999 999999 999999 999999 999999 999999 999999 999999 999999 999999 999999 999999 999999 999999 999999 999999 999999 999999 999999 999999 999999 999999 999999 999999 999999 999999 999999 0 999999 999999 999999 999999 999999 999999 999999 999999 999999 999999 999999 999999 999999 999999 999999 999999 999999 999999 999999 999999 999999 999999 999999 999999 999999 999999 999999 999999 999999 999999 999999 999999 14321 19054 18579 11419 17090 13289 17339 13262 13199 17475 15880 11218 11315 16358 11784 19598 14424 18940 17415 10877 18578 13602 14621 18782 11776 12215 10646 16835 16006 14948 12298 12982 17221 19701 14730 10666 17692 17249 15739 16695 19270 16828 18276 18937 14012 15835 13989 10822 13559 16474 13033 16408 12761 19657 12956 10470 11276 17866 10602 10878 999999
999999 999999 999999 999999 999999 999999 999999 999999 999999 999999 999999 999999 999999 999999 999999 999999 999999 999999 999999 999999 999999 999999 999999 999999 999999 999999 999999 999999 999999 0 999999 999999 999999 999999 999999 999999 999999 999999 999999 999999 999999 999999 999999 999999 999999 999999 999999 999999 999999 999999 999999 999999 999999 999999 999999 999999 999999 999999 999999 999999 999999 19575 17407 11442 15767 13462 11599 13668 17192 13215 17616 12367 10264 14248 18938 14085 16532 15707 13774 15368 17985 13806 15812 13343 10431 13164 13570 16461 18997 16397 19570 18666 19940 10775 11524 17059 13724 12621 18708 18748 18509 17740 13069 12746 19615 17270 14324 19564 12409 11911 11883 12231 17154 11418 18258 10629 18108 16667 12960 14330 10229 999999
999999 999999 999999 999999 999999 999999 999999 999999 999999 999999 999999 999999 999999 999999 999999 999999 999999 999999 999999 999999 999999 999999 999999 999999 999999 999999 999999 999999 999999 999999 0 999999 999999 999999 999999 999999 999999 999999 999999 999999 999999 999999 999999 999999 999999 999999 999999 999999 999999 999999 999999 999999 999999 999999 999999 999999 999999 999999 999999 999999 999999 16392 14686 12271 13191 10340 18473 18879 17240 13967 11789 17973 13423 16734 18822 13220 10452 11197 18117 15161 11033 11030 10988 19587 14545 18614 15575 16141 17930 18726 16121 15547 15297 12581 19061 18345 16946 15087 10081 14680 10376 14425 10491 17043 18311 15983 12280 10180 10968 17307 18054 15696 10895 13843 18056 15907 11562 19260 18151 16314 17728 999999
999999 999999 999999 999999 999999 999999 999999 999999 999999 999999 999999 999999 999999 999999 999999 999999 999999 999999 999999 999999 999999 999999 999999 999999 999999 999999 999999 999999 999999 999999 999999 0 999999 999999 999999 999999 999999 999999 999999 999999 999999 999999 999999 999999 999999 999999 999999 999999 999999 999999 999999 999999 999999 999999 999999 999999 999999 999999 999999 999999 999999 10005 15605 19229 18939 18430 15022 10710 13173 16611 11159 14451 14055 14450 12251 17177 13968 15894 17461 16518 16954 12236 10433 15257 11919 12975 13379 10142 18457 17228 12775 10003 18306 16231 19972 17096 19655 14894 10737 14326 10889 11094 14635 13117 18072 10709 11480 15449 12855 11658 16108 13574 19629 15087 17974 19658 15426 11307 12354 13458 16745 999999
999999 999999 999999 999999 999999 999999 999999 999999 999999 999999 999999 999999 999999 999999 999999 999999 999999 999999 999999 999999 999999 999999 999999 999999 999999 999999 999999 999999 999999 999999 999999 999999 0 999999 999999 999999 999999 999999 999999 999999 999999 999999 999999 999999 999999 999999 999999 999999 999999 999999 999999 999999 999999 999999 999999 999999 999999 999999 999999 999999 999999 16770 19133 10178 14239 11212 18328 12048 14116 14303 14112 15850 10999 14718 14496 16249 19146 15524 11839 17890 19393 13267 17320 16744 16816 11169 10352 11970 17064 13509 10896 16287 15238 12864 19464 17675 11127 12168 13310 17088 10126 17440 12411 12526 10835 13295 16434 10758 11717 18897 17507 14420 10046 14271 13245 11079 16467 14702 10739 17472 11588 999999
999999 999999 999999 999999 999999 999999 999999 999999 999999 999999 999999 999999 999999 999999 999999 999999 999999 999999 999999 999999 999999 999999 999999 999999 999999 999999 999999 999999 999999 999999 999999 999999 999999 0 999999 999999 999999 999999 999999 999999 999999 999999 999999 999999 999999 999999 999999 999999 999999 999999 999999 999999 999999 999999 999999 999999 999999 999999 999999 999999 999999 10177 11099 13881 16958 10578 17221 18821 11213 15608 11351 11376 18186 19934 11756 14133 15804 13599 17462 10137 13872 15679 11463 18067 14395 17176 18852 19773 16426 17964 19403 17589 13055 14911 12999 17724 16424 15894 14531 10603 10260 17290 17271 10600 15764 15959 15828 13482 14418 18012 13207 11391 17992 10633 15966 11793 16604 11834 11798 14641 14564 999999
999999 999999 999999 999999 999999 999999 999999 999999 999999 999999 999999 999999 999999 999999 999999 999999 999999 999999 999999 999999 999999 999999 999999 999999 999999 999999 999999 999999 999999 999999 999999 999999 999999 999999 0 999999 999999 999999 999999 999999 999999 999999 999999 999999 999999 999999 999999 999999 999999 999999 999999 999999 999999 999999 999999 999999 999999 999999 999999 999999 999999 15871 17413 12629 16872 19891 13459 13205 18568 11775 19639 14924 14157 14458 17300 13034 10614 16286 10453 12940 11145 10611 10787 10250 17486 17040 11047 10456 14979 11171 16640 16789 13977 14338 14132 11424 11811 12028 14848 14829 18584 13075 15283 10375 11018 17723 11811 15068 11927 10054 17496 19072 11576 15442 11074 17512 19847 18588 12326 11563 16598 999999
999999 999999 999999 999999 999999 999999 999999 999999 999999 999999 999999 999999 999999 999999 999999 999999 999999 999999 999999 999999 999999 999999 999999 999999 999999 999999 999999 999999 999999 999999 999999 999999 999999 999999 999999 0 999999 999999 999999 999999 999999 999999 999999 999999 999999 999999 999999 999999 999999 999999 999999 999999 999999 999999 999999 999999 999999 999999 999999 999999 999999 17948 10523 18733 10583 18103 15933 17000 17556 15876 13438 19188 19724 15662 13486 17844 10399 12988 10073 15477 12777 13988 19908 17335 15128 19223 15193 13638 12398 13625 12912 16929 13226 13553 12508 19453 19019 17205 10001 14518 17800 16838 16175 15277 17338 12922 16710 13790 10855 12634 11578 13018 14065 17529 17653 10186 16178 17671 19355 12771 15389 999999
999999 999999 999999 999999 999999 999999 999999 999999 999999 999999 999999 999999 999999 999999 999999 999999 999999 999999 999999 999999 999999 999999 999999 999999 999999 999999 999999 999999 999999 999999 999999 999999 999999 999999 999999 999999 0 999999 999999 999999 999999 999999 999999 999999 999999 999999 999999 999999 999999 999999 999999 999999 999999 999999 999999 999999 999999 999999 999999 999999 999999 18237 20000 10265 13715 18531 10074 12928 10010 11041 12992 17592 11448 17555 10008 16952 13221 12432 13031 11165 10155 18158 19978 12900 17578 18572 15741 17656 15212 13046 13576 14195 12696 11159 17470 16151 11689 11007 14259 12697 16399 12402 14720 16288 10066 16286 17348 12600 18387 12003 10639 16611 10933 13363 16102 17027 18382 19322 18333 17655 15788 999999
999999 999999 999999 999999 999999 999999 999999 999999 999999 999999 999999 999999 999999 999999 999999 999999 999999 999999 999999 999999 999999 999999 999999 999999 999999 999999 999999 999999 999999 999999 999999 999999 999999 999999 999999 999999 999999 0 999999 999999 999999 999999 999999 999999 999999 999999 999999 999999 999999 999999 999999 999999 999999 999999 999999 999999 999999 999999 999999 999999 999999 10346 19718 12832 14393 14885 15587 12324 18159 19426 17288 11102 12378 11175 13309 18752 16819 17041 16488 14836 19286 13617 11691 16533 12950 15363 14525 10109 15087 18311 13033 12799 12165 12068 16589 18593 10597 15755 10638 17457 13625 12112 17710 18317 13121 17892 13372 14282 17414 10759 17616 12723 10925 18368 11986 11539 14669 10291 11370 18463 17392 999999
999999 999999 999999 999999 999999 999999 999999 999999 999999 999999 999999 999999 999999 999999 999999 999999 999999 999999 999999 999999 999999 999999 999999 999999 999999 999999 999999 999999 999999 999999 999999 999999 999999 999999 999999 999999 999999 999999 0 999999 999999 999999 999999 999999 999999 999999 999999 999999 999999 999999 999999 999999 999999 999999 999999 999999 999999 999999 999999 999999 999999 12518 12223 14546 16620 12074 12625 10435 11525 19407 19819 15217 14041 17765 11902 13218 19490 16464 15150 16983 10230 15733 10679 13065 19109 10405 19061 17809 13356 10863 11141 14385 19097 11709 12964 11953 18771 12830 17344 16121 10355 17003 12294 18273 14854 16682 11667 12838 17470 11816 15046 14991 13098 18646 18284 19316 19766 16963 17639 18959 10223 999999
999999 999999 999999 999999 999999 999999 999999 999999 999999 999999 999999 999999 999999 999999 999999 999999 999999 999999 999999 999999 999999 999999 999999 999999 999999 999999 999999 999999 999999 999999 999999 999999 999999 999999 999999 999999 999999 999999 999999 0 999999 999999 999999 999999 999999 999999 999999 999999 999999 999999 999999 999999 999999 999999 999999 999999 999999 999999 999999 999999 999999 10837 14786 19620 15812 16389 10882 12499 12807 10438 16139 13218 13465 11786 12023 14646 14808 14519 16434 18735 15236 14619 17631 14862 15533 16421 11052 13758 15221 17026 10508 19729 15330 16585 14673 10871 14141 17145 12752 16310 14775 17493 11965 14980 16715 13238 15154 17446 18443 14124 10261 16027 18463 12637 19137 18188 14299 16820 17195 17688 17842 999999
999999 999999 999999 999999 999999 999999 999999 999999 999999 999999 999999 999999 999999 999999 999999 999999 999999 999999 999999 999999 999999 999999 999999 999999 999999 999999 999999 999999 999999 999999 999999 999999 999999 999999 999999 999999 999999 999999 999999 999999 0 999999 999999 999999 999999 999999 999999 999999 999999 999999 999999 999999 999999 999999 999999 999999 999999 999999 999999 999999 999999 18830 11956 15987 12686 18569 14669 12324 17268 17621 18356 14417 10394 15087 10373 17222 11626 13474 11329 13279 19873 10641 13809 17773 12047 14431 16127 19096 13404 15872 10437 10549 17076 11909 11959 13491 13662 17115 16416 10592 14981 13731 11242 16986 10890 18359 13845 15563 18356 16382 16148 14734 14861 13786 16796 15335 11500 14826 13541 12593 10538 999999
999999 999999 999999 999999 999999 999999 999999 999999 999999 999999 999999 999999 999999 999999 999999 999999 999999 999999 999999 999999 999999 999999 999999 999999 999999 999999 999999 999999 999999 999999 999999 999999 999999 999999 999999 999999 999999 999999 999999 999999 999999 0 999999 999999 999999 999999 999999 999999 999999 999999 999999 999999 999999 999999 999999 999999 999999 999999 999999 999999 999999 14054 10423 13896 13860 17907 16198 13358 11998 18540 19025 17334 17492 10261 15295 13862 12512 11324 17183 12495 11965 18269 14879 11204 10637 14142 14798 18267 10246 11931 15872 16517 10822 17586 16062 14235 19972 11519 16674 16916 16698 10470 13166 12769 15394 14977 11297 12098 14633 19396 11104 17012 13556 10272 11507 17340 17516 19582 11155 16917 16443 999999
999999 999999 999999 999999 999999 999999 999999 999999 999999 999999 999999 999999 999999 999999 999999 999999 999999 999999 999999 999999 999999 999999 999999 999999 999999 999999 999999 999999 999999 999999 999999 999999 999999 999999 999999 999999 999999 999999 999999 999999 999999 999999 0 999999 999999 999999 999999 999999 999999 999999 999999 999999 999999 999999 999999 999999 999999 999999 999999 999999 999999 10123 12969 14334 17874 18624 16859 13981 15898 16814 18191 17450 19622 13437 17377 17481 14875 15760 10910 19114 16821 11376 10947 18244 11530 17766 18648 17036 10005 17383 17235 16046 14254 18481 17330 17998 16351 17899 17403 14454 12330 19646 13196 15646 17103 11503 13883 10807 14866 11766 18377 17281 17452 14803 19897 17890 18818 10747 19251 18437 15016 999999
999999 999999 999999 999999 999999 999999 999999 999999 999999 999999 999999 999999 999999 999999 999999 999999 999999 999999 999999 999999 999999 999999 999999 999999 999999 999999 999999 999999 999999 999999 999999 999999 999999 999999 999999 999999 999999 999999 999999 999999 999999 999999 999999 0 999999 999999 999999 999999 999999 999999 999999 999999 999999 999999 999999 999999 999999 999999 999999 999999 999999 15818 19536 15589 18344 16967 11763 11552 10960 16337 10201 15584 11412 15850 16037 19448 15202 15883 16123 13359 14028 19564 17329 17339 17956 17386 16822 16310 16574 14107 17718 12004 10058 18525 19763 13354 10816 16132 16164 16294 10826 10682 16045 17774 15033 18212 18571 15848 17702 15631 18942 13012 10896 19057 14159 16154 11483 15610 14549 13246 15000 999999
999999 999999 999999 999999 999999 999999 999999 999999 999999 999999 999999 999999 999999 999999 999999 999999 999999 999999 999999 999999 999999 999999 999999 999999 999999 999999 999999 999999 999999 999999 999999 999999 999999 999999 999999 999999 999999 999999 999999 999999 999999 999999 999999 999999 0 999999 999999 999999 999999 999999 999999 999999 999999 999999 999999 999999 999999 999999 999999 999999 999999 13567 11883 12788 18548 17365 17050 18386 15416 14066 11794 19101 19949 19115 11503 13460 10948 14035 10618 17131 11893 14413 18296 13982 14635 12406 10846 10433 11356 12161 17881 15621 14297 12083 13599 18667 11675 19924 15715 16117 16002 16830 18022 10782 15241 18184 13865 17662 14299 14726 11159 18588 15787 13998 17242 10842 16373 14761 15467 12934 12165 999999
999999 999999 999999 999999 999999 999999 999999 999999 999999 999999 999999 999999 999999 999999 999999 999999 999999 999999 999999 999999 999999 999999 999999 999999 999999 999999 999999 999999 999999 999999 999999 999999 999999 999999 999999 999999 999999 999999 999999 999999 999999 999999 999999 999999 999999 0 999999 999999 999999 999999 999999 999999 999999 999999 999999 999999 999999 999999 999999 999999 999999 11025 14869 12904 18054 10010 10325 16235 18756 11120 10881 18514 12437 18049 14556 17505 11091 19297 15247 15955 18212 13236 13974 19210 15431 10124 19836 11189 12008 12601 14345 15406 11071 15946 19647 13151 18582 14334 18213 12723 18209 13506 12396 14443 14919 10809 11623 10877 10706 13472 14692 18552 17683 10470 12349 19954 11857 13452 19517 12100 19864 999999
999999 999999 999999 999999 999999 999999 999999 999999 999999 999999 999999 999999 999999 999999 999999 999999 999999 999999 999999 999999 999999 999999 999999 999999 999999 999999 999999 999999 999999 999999 999999 999999 999999 999999 999999 999999 999999 999999 999999 999999 999999 999999 999999 999999 999999 999999 0 999999 999999 999999 999999 999999 999999 999999 999999 999999 999999 999999 999999 999999 999999 18075 16991 12184 14875 12969 13363 19840 13549 15238 10919 11627 19096 12384 10208 13007 15695 18246 19563 18001 13816 12464 16899 10195 16007 12529 18506 12182 18550 16533 11206 19656 15142 19702 17737 16155 19137 15699 17811 19481 19174 16342 17033 18428 11471 14680 18987 19162 10588 18734 14598 14511 16242 11122 13481 18206 17059 10813 14073 10865 17923 999999
999999 999999 999999 999999 999999 999999 999999 999999 999999 999999 999999 999999 999999 999999 999999 999999 999999 999999 999999 999999 999999 999999 999999 999999 999999 999999 999999 999999 999999 999999 999999 999999 999999 999999 999999 999999 999999 999999 999999 999999 999999 999999 999999 999999 999999 999999 999999 0 999999 999999 999999 999999 999999 999999 999999 999999 999999 999999 999999 999999 999999 15045 16104 13035 18813 12364 15046 18455 15745 15943 14179 10605 17152 13557 14116 19385 11799 12664 15460 14535 17871 17013 10640 19073 14812 11791 16257 11605 15798 11101 12637 15999 10489 13638 11867 14168 17344 18069 16968 19373 17155 14551 19766 14182 11734 12849 11166 10018 17522 14278 17445 13735 19455 11190 13673 18998 11694 11299 10661 18376 14737 999999
999999 999999 999999 999999 999999 999999 999999 999999 999999 999999 999999 999999 999999 999999 999999 999999 999999 999999 999999 999999 999999 999999 999999 999999 999999 999999 999999 999999 999999 999999 999999 999999 999999 999999 999999 999999 999999 999999 999999 999999 999999 999999 999999 999999 999999 999999 999999 999999 0 999999 999999 999999 999999 999999 999999 999999 999999 999999 999999 999999 999999 11867 10589 11783 13274 13524 19299 13853 16327 11567 10429 11106 11588 12237 16799 11297 13364 19866 13286 13276 15455 17217 10211 17165 18535 15703 15823 15126 13312 10951 19502 17499 15218 13505 16757 10272 16377 18105 11540 15355 12112 19004 18803 15442 16309 13534 10806 11748 15338 10561 15039 10535 12995 13653 10958 15962 15156 17399 12782 16532 18626 999999
999999 999999 999999 999999 999999 999999 999999 999999 999999 999999 999999 999999 999999 999999 999999 999999 999999 999999 999999 999999 999999 999999 999999 999999 999999 999999 999999 999999 999999 999999 999999 999999 999999 999999 999999 999999 999999 999999 999999 999999 999999 999999 999999 999999 999999 999999 999999 999999 999999 0 999999 999999 999999 999999 999999 999999 999999 999999 999999 999999 999999 17109 18764 16772 15649 16549 10604 12012 11755 16152 19646 19589 15561 16650 13182 11126 12517 18447 18508 18902 15765 10696 19233 12017 10303 19360 10083 11057 11839 12774 12640 15009 15261 15288 14843 12571 11615 16530 19834 12483 11493 19506 16819 18054 15377 14773 18864 16690 16876 11016 11863 18187 16482 13584 12308 12314 10471 18994 10806 16195 18830 999999
999999 999999 999999 999999 999999 999999 999999 999999 999999 999999 999999 999999 999999 999999 999999 999999 999999 999999 999999 999999 999999 999999 999999 999999 999999 999999 999999 999999 999999 999999 999999 999999 999999 999999 999999 999999 999999 999999 999999 999999 999999 999999 999999 999999 999999 999999 999999 999999 999999 999999 0 999999 999999 999999 999999 999999 999999 999999 999999 999999 999999 11615 14022 11443 15209 13974 14761 17614 19258 17732 12140 12729 17593 13535 11669 10369 19256 12730 19268 14633 15891 13880 10847 15047 12646 15500 14016 14071 10569 14748 11834 19528 17181 16494 12239 17463 12994 15744 13377 11333 11298 18459 11117 15504 14493 10470 10626 17289 18132 17453 15869 14535 18747 19016 17796 17823 17051 10564 18469 15610 11433 999999
999999 999999 999999 999999 999999 999999 999999 999999 999999 999999 999999 999999 999999 999999 999999 999999 999999 999999 999999 999999 999999 999999 999999 999999 999999 999999 999999 999999 999999 999999 999999 999999 999999 999999 999999 999999 999999 999999 999999 999999 999999 999999 999999 999999 999999 999999 999999 999999 999999 999999 999999 0 999999 999999 999999 999999 999999 999999 999999 999999 999999 14202 13662 19726 17607 11007 15369 16954 14639 16168 18336 11612 17878 13689 12317 17023 12609 19708 14578 18717 17082 19199 14171 14932 12957 11252 18765 17623 15520 11504 12038 10849 13950 14396 12895 15349 10637 17110 15303 12888 13277 19236 14262 12538 12244 12762 10103 10688 15361 18086 13620 10926 14443 10217 16228 12607 16976 17121 16982 12813 12201 999999
999999 999999 999999 999999 999999 999999 999999 999999 999999 999999 999999 999999 999999 999999 999999 999999 999999 999999 999999 999999 999999 999999 999999 999999 999999 999999 999999 999999 999999 999999 999999 999999 999999 999999 999999 999999 999999 999999 999999 999999 999999 999999 999999 999999 999999 999999 999999 999999 999999 999999 999999 999999 0 999999 999999 999999 999999 999999 999999 999999 999999 14819 18016 17534 10620 10383 12885 12771 19231 10677 13217 17435 18878 10971 17094 15926 17905 12665 18390 14830 15204 18318 18597 15922 18307 12927 18414 11966 14458 11447 19448 11827 10193 10251 10759 18664 14075 11855 17385 14932 18839 12604 14749 15674 16321 13337 17341 14735 12213 19558 15880 10268 12374 12718 18235 14855 13537 10903 18482 13004 12792 999999
999999 999999 999999 999999 999999 999999 999999 999999 999999 999999 999999 999999 999999 999999 999999 999999 999999 999999 999999 999999 999999 999999 999999 999999 999999 999999 999999 999999 999999 999999 999999 999999 999999 999999 999999 999999 999999 999999 999999 999999 999999 999999 999999 999999 999999 999999 999999 999999 999999 999999 999999 999999 999999 0 999999 999999 999999 999999 999999 999999 999999 11588 10241 10168 14533 18740 12318 10662 17109 12634 12029 12069 11106 11659 14349 19116 16494 14567 13287 18379 13251 11559 15311 14630 17578 19192 13278 14825 13524 18411 18165 19189 14894 16647 14264 16287 17184 12564 16536 14555 19802 10663 13810 18021 13891 10630 12529 11383 10901 13510 15257 16635 16273 14650 19464 13544 14810 16727 18636 19935 10064 999999
999999 999999 999999 999999 999999 999999 999999 999999 999999 999999 999999 999999 999999 999999 999999 999999 999999 999999 999999 999999 999999 999999 999999 999999 999999 999999 999999 999999 999999 999999 999999 999999 999999 999999 999999 999999 999999 999999 999999 999999 999999 999999 999999 999999 999999 999999 999999 999999 999999 999999 999999 999999 999999 999999 0 999999 999999 999999 999999 999999 999999 16967 17452 10559 16276 15090 15955 18659 19478 13217 16324 12002 19115 11376 16037 15505 11540 17772 10135 17675 19373 14795 17412 15895 10261 14541 12312 17163 11444 12007 16847 12370 19475 16900 16510 18680 16424 11411 19562 11009 10572 19548 13756 10433 17432 11355 19194 14446 16258 11796 18124 13333 19038 17268 15928 15435 16295 19130 16949 11838 17105 999999
999999 999999 999999 999999 999999 999999 999999 999999 999999 999999 999999 999999 999999 999999 999999 999999 999999 999999 999999 999999 999999 999999 999999 999999 999999 999999 999999 999999 999999 999999 999999 999999 999999 999999 999999 999999 999999 999999 999999 999999 999999 999999 999999 999999 999999 999999 999999 999999 999999 999999 999999 999999 999999 999999 999999 0 999999 999999 999999 999999 999999 13264 16247 18689 16669 18382 15757 10085 19264 11983 11303 19645 11815 19234 11290 18400 12190 17692 12768 12904 14391 16029 17394 13565 18276 10452 13752 13750 12835 19429 10652 12681 14660 10835 19692 18978 10676 16356 18310 11054 14168 13073 13766 11670 18692 17222 10299 18869 16559 13433 15633 15393 18111 14342 17583 10842 15354 19384 15222 15961 11149 999999
999999 999999 999999 999999 999999 999999 999999 999999 999999 999999 999999 999999 999999 999999 999999 999999 999999 999999 999999 999999 999999 999999 999999 999999 999999 999999 999999 999999 999999 999999 999999 999999 999999 999999 999999 999999 999999 999999 999999 999999 999999 999999 999999 999999 999999 999999 999999 999999 999999 999999 999999 999999 999999 999999 999999 999999 0 999999 999999 999999 999999 10802 17936 11685 19699 14634 13322 11435 19196 14504 19050 10924 15953 13592 19488 16796 14796 14960 12654 17378 13449 19589 10453 12068 12187 17238 10236 14619 13017 10722 18691 12467 14280 10335 13116 15776 19342 11041 19948 18624 16961 19855 16274 14760 18107 13106 17838 15399 12647 18252 19083 13998 12240 17461 17888 13138 19857 17972 16784 10007 14955 999999
999999 999999 999999 999999 999999 999999 999999 999999 999999 999999 999999 999999 999999 999999 999999 999999 999999 999999 999999 999999 999999 999999 999999 999999 999999 999999 999999 999999 999999 999999 999999 999999 999999 999999 999999 999999 999999 999999 999999 999999 999999 999999 999999 999999 999999 999999 999999 999999 999999 999999 999999 999999 999999 999999 999999 999999 999999 0 999999 999999 999999 11116 18461 13600 11898 19125 11844 17623 19015 19922 11028 19007 19699 11107 11060 18499 18554 13749 19586 19807 19124 10993 13826 19638 17523 14129 12863 17229 15977 16651 14523 14215 15735 14074 18920 17570 14704 13326 13828 12636 11560 15581 16725 19712 17704 14880 18471 11236 18548 17987 11015 15497 13347 12479 17515 12018 16989 10714 16251 13149 12921 999999
999999 999999 999999 999999 999999 999999 999999 999999 999999 999999 999999 999999 999999 999999 999999 999999 999999 999999 999999 999999 999999 999999 999999 999999 999999 999999 999999 999999 999999 999999 999999 999999 999999 999999 999999 999999 999999 999999 999999 999999 999999 999999 999999 999999 999999 999999 999999 999999 999999 999999 999999 999999 999999 999999 999999 999999 999999 999999 0 999999 999999 17606 18577 11915 14651 12397 19124 11117 14470 12945 14505 15664 16883 16144 10226 10182 17039 16440 14686 10248 15135 16343 12700 12637 11845 11709 10154 11713 15211 15584 18981 15936 13688 12896 10921 17020 13512 13983 16680 13438 14082 17498 14724 18229 10008 13034 14374 13715 11150 17499 16817 12728 13249 18427 10006 12117 14158 14106 13552 16448 14673 999999
999999 999999 999999 999999 999999 999999 999999 999999 999999 999999 999999 999999 999999 999999 999999 999999 999999 999999 999999 999999 999999 999999 999999 999999 999999 999999 999999 999999 999999 999999 999999 999999 999999 999999 999999 999999 999999 999999 999999 999999 999999 999999 999999 999999 999999 999999 999999 999999 999999 999999 999999 999999 999999 999999 999999 999999 999999 999999 999999 0 999999 16888 16406 16447 17478 12329 14827 14386 17588 11400 18754 12824 18955 12669 15562 11662 12525 16872 10911 11648 13489 16455 16249 10746 10487 17213 12115 15166 10626 13249 11738 12091 18293 11680 14423 12499 18167 16314 12154 14454 18320 17766 11137 10449 12937 14224 15071 12706 17575 15320 15631 18833 14553 15483 10019 17924 14675 19912 14380 14655 16702 999999
999999 999999 999999 999999 999999 999999 999999 999999 999999 999999 999999 999999 999999 999999 999999 999999 999999 999999 999999 999999 999999 999999 999999 999999 999999 999999 999999 999999 999999 999999 999999 999999 999999 999999 999999 999999 999999 999999 999999 999999 999999 999999 999999 999999 999999 999999 999999 999999 999999 999999 999999 999999 999999 999999 999999 999999 999999 999999 999999 999999 0 17937 11011 17881 11385 18959 19606 19865 19195 16353 19157 17376 13782 19096 14942 15374 10932 11163 18373 15177 14152 14992 17209 12773 10051 11392 10824 10483 17850 13858 10779 16359 11950 18578 18680 11216 11209 12800 17086 13650 16316 14735 13364 19960 13968 15984 13700 16088 13681 16969 13601 17394 10316 16678 14456 17503 13151 19293 11187 19013 15152 999999
999999 14229 12984 13949 16679 11598 12207 12022 15451 16737 18714 17793 11381 12016 19816 19470 18562 11083 18644 13016 13493 12410 17026 12658 14735 15267 14118 13421 14321 19575 16392 10005 16770 10177 15871 17948 18237 10346 12518 10837 18830 14054 10123 15818 13567 11025 18075 15045 11867 17109 11615 14202 14819 11588 16967 13264 10802 11116 17606 16888 17937 0 999999 999999 999999 999999 999999 999999 999999 999999 999999 999999 999999 999999 999999 999999 999999 999999 999999 999999 999999 999999 999999 999999 999999 999999 999999 999999 999999 999999 999999 999999 999999 999999 999999 999999 999999 999999 999999 999999 999999 999999 999999 999999 999999 999999 999999 999999 999999 999999 999999 999999 999999 999999 999999 999999 999999 999999 999999 999999 999999 13880
999999 12240 19083 15022 12388 16925 16315 15901 11544 12968 18836 12534 19520 16470 14145 12963 11137 18723 17188 15346 17348 12800 19453 16588 12009 10648 13817 12383 19054 17407 14686 15605 19133 11099 17413 10523 20000 19718 12223 14786 11956 10423 12969 19536 11883 14869 16991 16104 10589 18764 14022 13662 18016 10241 17452 16247 17936 18461 18577 16406 11011 999999 0 999999 999999 999999 999999 999999 999999 999999 999999 999999 999999 999999 999999 999999 999999 999999 999999 999999 999999 999999 999999 999999 999999 999999 999999 999999 999999 999999 999999 999999 999999 999999 999999 999999 999999 999999 999999 999999 999999 999999 999999 999999 999999 999999 999999 999999 999999 999999 999999 999999 999999 999999 999999 999999 999999 999999 999999 999999 999999 12471
999999 10834 17186 19771 17737 10087 13001 11120 17340 16660 18543 19054 16224 13502 12830 13199 19209 15667 15614 15535 14813 12443 18971 13390 17051 18844 11543 14603 18579 11442 12271 19229 10178 13881 12629 18733 10265 12832 14546 19620 15987 13896 14334 15589 12788 12904 12184 13035 11783 16772 11443 19726 17534 10168 10559 18689 11685 13600 11915 16447 17881 999999 999999 0 999999 999999 999999 999999 999999 999999 999999 999999 999999 999999 999999 999999 999999 999999 999999 999999 999999 999999 999999 999999 999999 999999 999999 999999 999999 999999 999999 999999 999999 999999 999999 999999 999999 999999 999999 999999 999999 999999 999999 999999 999999 999999 999999 999999 999999 999999 999999 999999 999999 999999 999999 999999 999999 999999 999999 999999 999999 6415
999999 17423 10765 13673 14187 17520 18132 18035 16493 13643 12651 13566 12410 15050 11579 19364 18392 13569 18876 16452 15823 18371 16314 17780 16118 13966 12026 16733 11419 15767 13191 18939 14239 16958 16872 10583 13715 14393 16620 15812 12686 13860 17874 18344 18548 18054 14875 18813 13274 15649 15209 17607 10620 14533 16276 16669 19699 11898 14651 17478 11385 999999 999999 999999 0 999999 999999 999999 999999 999999 999999 999999 999999 999999 999999 999999 999999 999999 999999 999999 999999 999999 999999 999999 999999 999999 999999 999999 999999 999999 999999 999999 999999 999999 999999 999999 999999 999999 999999 999999 999999 999999 999999 999999 999999 999999 999999 999999 999999 999999 999999 999999 999999 999999 999999 999999 999999 999999 999999 999999 999999 12553
999999 12376 19451 13430 13065 16880 18612 13156 15090 16097 11434 11019 16928 10862 13158 13267 19500 19044 14806 17727 13633 17770 15261 19990 12798 15872 10741 18895 17090 13462 10340 18430 11212 10578 19891 18103 18531 14885 12074 16389 18569 17907 18624 16967 17365 10010 12969 12364 13524 16549 13974 11007 10383 18740 15090 18382 14634 19125 12397 12329 18959 999999 999999 999999 999999 0 999999 999999 999999 999999 999999 999999 999999 999999 999999 999999 999999 999999 999999 999999 999999 999999 999999 999999 999999 999999 999999 999999 999999 999999 999999 999999 999999 999999 999999 999999 999999 999999 999999 999999 999999 999999 999999 999999 999999 999999 999999 999999 999999 999999 999999 999999 999999 999999 999999 999999 999999 999999 999999 999999 999999 11367
999999 19054 12716 17472 15668 14999 16917 11047 13525 14749 16507 11688 12083 11999 12839 16981 17045 16955 11411 17862 13464 14959 19976 18399 10354 14321 16905 19270 13289 11599 18473 15022 18328 17221 13459 15933 10074 15587 12625 10882 14669 16198 16859 11763 17050 10325 13363 15046 19299 10604 14761 15369 12885 12318 15955 15757 13322 11844 19124 14827 19606 999999 999999 999999 999999 999999 0 999999 999999 999999 999999 999999 999999 999999 999999 999999 999999 999999 999999 999999 999999 999999 999999 999999 999999 999999 999999 999999 999999 999999 999999 999999 999999 999999 999999 999999 999999 999999 999999 999999 999999 999999 999999 999999 999999 999999 999999 999999 999999 999999 999999 999999 999999 999999 999999 999999 999999 999999 999999 999999 999999 13486
999999 13480 16612 14177 13333 13264 11319 16454 12619 19003 16195 15118 16889 11599 11870 13718 16615 16341 16217 13547 18888 15670 10085 16432 12353 12376 19772 19707 17339 13668 18879 10710 12048 18821 13205 17000 12928 12324 10435 12499 12324 13358 13981 11552 18386 16235 19840 18455 13853 12012 17614 16954 12771 10662 18659 10085 11435 17623 11117 14386 19865 999999 999999 999999 999999 999999 999999 0 999999 999999 999999 999999 999999 999999 999999 999999 999999 999999 999999 999999 999999 999999 999999 999999 999999 999999 999999 999999 999999 999999 999999 999999 999999 999999 999999 999999 999999 999999 999999 999999 999999 999999 999999 999999 999999 999999 999999 999999 999999 999999 999999 999999 999999 999999 999999 999999 999999 999999 999999 999999 999999 14881
999999 10701 13419 15688 14656 11769 13400 16489 18670 19587 14859 16571 18954 10249 10610 10051 11266 11828 12178 12362 15242 11580 13181 12310 17211 18720 14124 14923 13262 17192 17240 13173 14116 11213 18568 17556 10010 18159 11525 12807 17268 11998 15898 10960 15416 18756 13549 15745 16327 11755 19258 14639 19231 17109 19478 19264 19196 19015 14470 17588 19195 999999 999999 999999 999999 999999 999999 999999 0 999999 999999 999999 999999 999999 999999 999999 999999 999999 999999 999999 999999 999999 999999 999999 999999 999999 999999 999999 999999 999999 999999 999999 999999 999999 999999 999999 999999 999999 999999 999999 999999 999999 999999 999999 999999 999999 999999 999999 999999 999999 999999 999999 999999 999999 999999 999999 999999 999999 999999 999999 999999 13421
999999 17114 15718 17184 19939 12449 17587 12331 13307 15259 17468 19211 13040 13383 19445 12994 16528 18516 13503 19998 19933 17809 15994 16924 11861 11708 16530 12787 13199 13215 13967 16611 14303 15608 11775 15876 11041 19426 19407 10438 17621 18540 16814 16337 14066 11120 15238 15943 11567 16152 17732 16168 10677 12634 13217 11983 14504 19922 12945 11400 16353 999999 999999 999999 999999 999999 999999 999999 999999 0 999999 999999 999999 999999 999999 999999 999999 999999 999999 999999 999999 999999 999999 999999 999999 999999 999999 999999 999999 999999 999999 999999 999999 999999 999999 999999 999999 999999 999999 999999 999999 999999 999999 999999 999999 999999 999999 999999 999999 999999 999999 999999 999999 999999 999999 999999 999999 999999 999999 999999 999999 5831
999999 11740 13548 11091 15570 17312 15013 12414 15102 18239 14782 12699 12387 18944 18487 13178 13740 18728 16170 10790 11691 14146 15369 18310 17171 16948 10073 19359 17475 17616 11789 11159 14112 11351 19639 13438 12992 17288 19819 16139 18356 19025 18191 10201 11794 10881 10919 14179 10429 19646 12140 18336 13217 12029 16324 11303 19050 11028 14505 18754 19157 999999 999999 999999 999999 999999 999999 999999 999999 999999 0 999999 999999 999999 999999 999999 999999 999999 999999 999999 999999 999999 999999 999999 999999 999999 999999 999999 999999 999999 999999 999999 999999 999999 999999 999999 999999 999999 999999 999999 999999 999999 999999 999999 999999 999999 999999 999999 999999 999999 999999 999999 999999 999999 999999 999999 999999 999999 999999 999999 999999 8899
999999 12530 17669 12485 16367 19946 19615 11817 12097 16519 16324 16529 15089 16185 17180 12240 13485 19283 16369 12514 11069 13616 10862 13460 19707 15655 13857 12036 15880 12367 17973 14451 15850 11376 14924 19188 17592 11102 15217 13218 14417 17334 17450 15584 19101 18514 11627 10605 11106 19589 12729 11612 17435 12069 12002 19645 10924 19007 15664 12824 17376 999999 999999 999999 999999 999999 999999 999999 999999 999999 999999 0 999999 999999 999999 999999 999999 999999 999999 999999 999999 999999 999999 999999 999999 999999 999999 999999 999999 999999 999999 999999 999999 999999 999999 999999 999999 999999 999999 999999 999999 999999 999999 999999 999999 999999 999999 999999 999999 999999 999999 999999 999999 999999 999999 999999 999999 999999 999999 999999 999999 7294
999999 10205 13236 16346 10208 18438 19952 10056 18018 10284 19651 14730 14318 17329 17407 17641 14336 12340 18974 15742 10957 12142 11600 13117 14667 14236 18510 10992 11218 10264 13423 14055 10999 18186 14157 19724 11448 12378 14041 13465 10394 17492 19622 11412 19949 12437 19096 17152 11588 15561 17593 17878 18878 11106 19115 11815 15953 19699 16883 18955 13782 999999 999999 999999 999999 999999 999999 999999 999999 999999 999999 999999 0 999999 999999 999999 999999 999999 999999 999999 999999 999999 999999 999999 999999 999999 999999 999999 999999 999999 999999 999999 999999 999999 999999 999999 999999 999999 999999 999999 999999 999999 999999 999999 999999 999999 999999 999999 999999 999999 999999 999999 999999 999999 999999 999999 999999 999999 999999 999999 999999 5866
999999 11740 15892 12185 13957 16868 16343 16184 13038 16900 19489 11964 14005 17331 16927 16310 16613 16256 18964 10906 13949 12914 12767 11787 18711 11609 19465 11258 11315 14248 16734 14450 14718 19934 14458 15662 17555 11175 17765 11786 15087 10261 13437 15850 19115 18049 12384 13557 12237 16650 13535 13689 10971 11659 11376 19234 13592 11107 16144 12669 19096 999999 999999 999999 999999 999999 999999 999999 999999 999999 999999 999999 999999 0 999999 999999 999999 999999 999999 999999 999999 999999 999999 999999 999999 999999 999999 999999 999999 999999 999999 999999 999999 999999 999999 999999 999999 999999 999999 999999 999999 999999 999999 999999 999999 999999 999999 999999 999999 999999 999999 999999 999999 999999 999999 999999 999999 999999 999999 999999 999999 11168
999999 14970 19167 12753 11328 11472 19844 11808 13027 13887 16280 15602 19258 18720 17827 14595 18610 11405 17341 10900 12231 11329 14721 19011 11627 13175 12546 11653 16358 18938 18822 12251 14496 11756 17300 13486 10008 13309 11902 12023 10373 15295 17377 16037 11503 14556 10208 14116 16799 13182 11669 12317 17094 14349 16037 11290 19488 11060 10226 15562 14942 999999 999999 999999 999999 999999 999999 999999 999999 999999 999999 999999 999999 999999 0 999999 999999 999999 999999 999999 999999 999999 999999 999999 999999 999999 999999 999999 999999 999999 999999 999999 999999 999999 999999 999999 999999 999999 999999 999999 999999 999999 999999 999999 999999 999999 999999 999999 999999 999999 999999 999999 999999 999999 999999 999999 999999 999999 999999 999999 999999 5896
999999 11865 11280 14921 10638 18111 12616 18434 16260 13005 15581 11457 10056 18248 17083 16494 12575 17029 14882 11285 12906 14527 13827 14054 10465 14983 11549 17800 11784 14085 13220 17177 16249 14133 13034 17844 16952 18752 13218 14646 17222 13862 17481 19448 13460 17505 13007 19385 11297 11126 10369 17023 15926 19116 15505 18400 16796 18499 10182 11662 15374 999999 999999 999999 999999 999999 999999 999999 999999 999999 999999 999999 999999 999999 999999 0 999999 999999 999999 999999 999999 999999 999999 999999 999999 999999 999999 999999 999999 999999 999999 999999 999999 999999 999999 999999 999999 999999 999999 999999 999999 999999 999999 999999 999999 999999 999999 999999 999999 999999 999999 999999 999999 999999 999999 999999 999999 999999 999999 999999 999999 5466
999999 18199 13450 18110 17166 18886 10198 14971 18777 10625 17631 18814 14080 15798 19251 14977 17077 11981 19403 10949 10707 15605 16042 10121 16212 11169 17539 16805 19598 16532 10452 13968 19146 15804 10614 10399 13221 16819 19490 14808 11626 12512 14875 15202 10948 11091 15695 11799 13364 12517 19256 12609 17905 16494 11540 12190 14796 18554 17039 12525 10932 999999 999999 999999 999999 999999 999999 999999 999999 999999 999999 999999 999999 999999 999999 999999 0 999999 999999 999999 999999 999999 999999 999999 999999 999999 999999 999999 999999 999999 999999 999999 999999 999999 999999 999999 999999 999999 999999 999999 999999 999999 999999 999999 999999 999999 999999 999999 999999 999999 999999 999999 999999 999999 999999 999999 999999 999999 999999 999999 999999 10150
999999 16905 14023 11427 13487 14031 13356 16074 12069 16994 17858 13965 18407 17886 17540 10168 13054 15533 15979 12787 11228 10877 11633 17738 12623 12861 12193 16700 14424 15707 11197 15894 15524 13599 16286 12988 12432 17041 16464 14519 13474 11324 15760 15883 14035 19297 18246 12664 19866 18447 12730 19708 12665 14567 17772 17692 14960 13749 16440 16872 11163 999999 999999 999999 999999 999999 999999 999999 999999 999999 999999 999999 999999 999999 999999 999999 999999 0 999999 999999 999999 999999 999999 999999 999999 999999 999999 999999 999999 999999 999999 999999 999999 999999 999999 999999 999999 999999 999999 999999 999999 999999 999999 999999 999999 999999 999999 999999 999999 999999 999999 999999 999999 999999 999999 999999 999999 999999 999999 999999 999999 6280
999999 15714 10711 18902 14335 19623 13977 14514 19143 17897 10122 12676 18857 18979 11176 11699 15835 16863 15413 12478 10976 19883 16098 17382 13734 19350 12329 12066 18940 13774 18117 17461 11839 17462 10453 10073 13031 16488 15150 16434 11329 17183 10910 16123 10618 15247 19563 15460 13286 18508 19268 14578 18390 13287 10135 12768 12654 19586 14686 10911 18373 999999 999999 999999 999999 999999 999999 999999 999999 999999 999999 999999 999999 999999 999999 999999 999999 999999 0 999999 999999 999999 999999 999999 999999 999999 999999 999999 999999 999999 999999 999999 999999 999999 999999 999999 999999 999999 999999 999999 999999 999999 999999 999999 999999 999999 999999 999999 999999 999999 999999 999999 999999 999999 999999 999999 999999 999999 999999 999999 999999 6756
999999 11797 17401 19978 11748 12597 13008 12372 15176 12169 11017 15884 19574 12585 17660 11489 12890 17227 14906 11305 10182 10100 10394 16302 11424 10451 11747 11187 17415 15368 15161 16518 17890 10137 12940 15477 11165 14836 16983 18735 13279 12495 19114 13359 17131 15955 18001 14535 13276 18902 14633 18717 14830 18379 17675 12904 17378 19807 10248 11648 15177 999999 999999 999999 999999 999999 999999 999999 999999 999999 999999 999999 999999 999999 999999 999999 999999 999999 999999 0 999999 999999 999999 999999 999999 999999 999999 999999 999999 999999 999999 999999 999999 999999 999999 999999 999999 999999 999999 999999 999999 999999 999999 999999 999999 999999 999999 999999 999999 999999 999999 999999 999999 999999 999999 999999 999999 999999 999999 999999 999999 13600
999999 19503 11387 18258 15671 11046 17657 11864 13157 19648 17822 17591 16662 17300 10804 11122 19256 18011 13925 12981 15605 18878 19218 12949 14307 17276 18333 10139 10877 17985 11033 16954 19393 13872 11145 12777 10155 19286 10230 15236 19873 11965 16821 14028 11893 18212 13816 17871 15455 15765 15891 17082 15204 13251 19373 14391 13449 19124 15135 13489 14152 999999 999999 999999 999999 999999 999999 999999 999999 999999 999999 999999 999999 999999 999999 999999 999999 999999 999999 999999 0 999999 999999 999999 999999 999999 999999 999999 999999 999999 999999 999999 999999 999999 999999 999999 999999 999999 999999 999999 999999 999999 999999 999999 999999 999999 999999 999999 999999 999999 999999 999999 999999 999999 999999 999999 999999 999999 999999 999999 999999 10520
999999 12555 11199 12626 18463 13915 12434 16970 16921 12759 16481 11444 11947 10773 17120 15851 19540 13907 17556 19162 13086 16991 16770 11719 14044 16598 11474 13671 18578 13806 11030 12236 13267 15679 10611 13988 18158 13617 15733 14619 10641 18269 11376 19564 14413 13236 12464 17013 17217 10696 13880 19199 18318 11559 14795 16029 19589 10993 16343 16455 14992 999999 999999 999999 999999 999999 999999 999999 999999 999999 999999 999999 999999 999999 999999 999999 999999 999999 999999 999999 999999 0 999999 999999 999999 999999 999999 999999 999999 999999 999999 999999 999999 999999 999999 999999 999999 999999 999999 999999 999999 999999 999999 999999 999999 999999 999999 999999 999999 999999 999999 999999 999999 999999 999999 999999 999999 999999 999999 999999 999999 7239
999999 11552 16416 16789 18076 19788 14905 12309 12108 19272 15677 13230 13090 13319 18854 12447 12634 14551 11892 17609 10579 18302 18883 18925 15819 13781 16509 15667 13602 15812 10988 10433 17320 11463 10787 19908 19978 11691 10679 17631 13809 14879 10947 17329 18296 13974 16899 10640 10211 19233 10847 14171 18597 15311 17412 17394 10453 13826 12700 16249 17209 999999 999999 999999 999999 999999 999999 999999 999999 999999 999999 999999 999999 999999 999999 999999 999999 999999 999999 999999 999999 999999 0 999999 999999 999999 999999 999999 999999 999999 999999 999999 999999 999999 999999 999999 999999 999999 999999 999999 999999 999999 999999 999999 999999 999999 999999 999999 999999 999999 999999 999999 999999 999999 999999 999999 999999 999999 999999 999999 999999 6878
999999 15972 11453 11356 13189 11400 19181 19394 14061 17278 12985 15997 14527 16108 18850 17539 18356 12138 10214 12788 16288 16198 10329 17914 18310 15835 13991 19357 14621 13343 19587 15257 16744 18067 10250 17335 12900 16533 13065 14862 17773 11204 18244 17339 13982 19210 10195 19073 17165 12017 15047 14932 15922 14630 15895 13565 12068 19638 12637 10746 12773 999999 999999 999999 999999 999999 999999 999999 999999 999999 999999 999999 999999 999999 999999 999999 999999 999999 999999 999999 999999 999999 999999 0 999999 999999 999999 999999 999999 999999 999999 999999 999999 999999 999999 999999 999999 999999 999999 999999 999999 999999 999999 999999 999999 999999 999999 999999 999999 999999 999999 999999 999999 999999 999999 999999 999999 999999 999999 999999 999999 14864
999999 14895 17490 19783 15386 19761 12892 19015 15301 13664 13313 17232 16903 13424 16869 18518 16812 11886 10428 13488 11751 15133 19173 13497 13802 15338 17092 19300 18782 10431 14545 11919 16816 14395 17486 15128 17578 12950 19109 15533 12047 10637 11530 17956 14635 15431 16007 14812 18535 10303 12646 12957 18307 17578 10261 18276 12187 17523 11845 10487 10051 999999 999999 999999 999999 999999 999999 999999 999999 999999 999999 999999 999999 999999 999999 999999 999999 999999 999999 999999 999999 999999 999999 999999 0 999999 999999 999999 999999 999999 999999 999999 999999 999999 999999 999999 999999 999999 999999 999999 999999 999999 999999 999999 999999 999999 999999 999999 999999 999999 999999 999999 999999 999999 999999 999999 999999 999999 999999 999999 999999 6651
999999 18842 17625 12133 18231 19259 15769 16005 18064 16650 16797 18460 15856 18625 11822 18413 12148 10748 12983 18531 12158 18636 15561 14961 12964 19481 10496 12629 11776 13164 18614 12975 11169 17176 17040 19223 18572 15363 10405 16421 14431 14142 17766 17386 12406 10124 12529 11791 15703 19360 15500 11252 12927 19192 14541 10452 17238 14129 11709 17213 11392 999999 999999 999999 999999 999999 999999 999999 999999 999999 999999 999999 999999 999999 999999 999999 999999 999999 999999 999999 999999 999999 999999 999999 999999 0 999999 999999 999999 999999 999999 999999 999999 999999 999999 999999 999999 999999 999999 999999 999999 999999 999999 999999 999999 999999 999999 999999 999999 999999 999999 999999 999999 999999 999999 999999 999999 999999 999999 999999 999999 7030
999999 15305 13471 15092 10826 11762 18816 16171 13324 17756 10981 12899 15584 14983 17311 10720 18378 15818 18094 12982 12148 14292 19430 16050 10813 11049 11501 18900 12215 13570 15575 13379 10352 18852 11047 15193 15741 14525 19061 11052 16127 14798 18648 16822 10846 19836 18506 16257 15823 10083 14016 18765 18414 13278 12312 13752 10236 12863 10154 12115 10824 999999 999999 999999 999999 999999 999999 999999 999999 999999 999999 999999 999999 999999 999999 999999 999999 999999 999999 999999 999999 999999 999999 999999 999999 999999 0 999999 999999 999999 999999 999999 999999 999999 999999 999999 999999 999999 999999 999999 999999 999999 999999 999999 999999 999999 999999 999999 999999 999999 999999 999999 999999 999999 999999 999999 999999 999999 999999 999999 999999 14680
999999 12425 17365 17594 15164 11434 15862 18603 19796 15987 13657 19741 10029 18839 11255 16134 10352 17780 17790 12549 17094 14484 12732 18215 15952 12405 14478 10011 10646 16461 16141 10142 11970 19773 10456 13638 17656 10109 17809 13758 19096 18267 17036 16310 10433 11189 12182 11605 15126 11057 14071 17623 11966 14825 17163 13750 14619 17229 11713 15166 10483 999999 999999 999999 999999 999999 999999 999999 999999 999999 999999 999999 999999 999999 999999 999999 999999 999999 999999 999999 999999 999999 999999 999999 999999 999999 999999 0 999999 999999 999999 999999 999999 999999 999999 999999 999999 999999 999999 999999 999999 999999 999999 999999 999999 999999 999999 999999 999999 999999 999999 999999 999999 999999 999999 999999 999999 999999 999999 999999 999999 12046
999999 15407 18515 19177 13322 18909 12931 17066 11365 11010 15595 14804 17710 19251 14992 19922 13841 15082 11624 19576 13035 13096 19946 11208 18731 10634 18960 19147 16835 18997 17930 18457 17064 16426 14979 12398 15212 15087 13356 15221 13404 10246 10005 16574 11356 12008 18550 15798 13312 11839 10569 15520 14458 13524 11444 12835 13017 15977 15211 10626 17850 999999 999999 999999 999999 999999 999999 999999 999999 999999 999999 999999 999999 999999 999999 999999 999999 999999 999999 999999 999999 999999 999999 999999 999999 999999 999999 999999 0 999999 999999 999999 999999 999999 999999 999999 999999 999999 999999 999999 999999 999999 999999 999999 999999 999999 999999 999999 999999 999999 999999 999999 999999 999999 999999 999999 999999 999999 999999 999999 999999 13559
999999 17173 11578 15367 15129 17736 13084 10070 14457 14641 13906 11002 15909 18380 17547 11754 11362 12876 11400 11959 13640 16377 18543 13218 11384 15514 10837 15301 16006 16397 18726 17228 13509 17964 11171 13625 13046 18311 10863 17026 15872 11931 17383 14107 12161 12601 16533 11101 10951 12774 14748 11504 11447 18411 12007 19429 10722 16651 15584 13249 13858 999999 999999 999999 999999 999999 999999 999999 999999 999999 999999 999999 999999 999999 999999 999999 999999 999999 999999 999999 999999 999999 999999 999999 999999 999999 999999 999999 999999 0 999999 999999 999999 999999 999999 999999 999999 999999 999999 999999 999999 999999 999999 999999 999999 999999 999999 999999 999999 999999 999999 999999 999999 999999 999999 999999 999999 999999 999999 999999 999999 7695
999999 14859 11028 10868 17884 11484 19966 19859 14278 16732 14999 14914 17405 19527 13236 18018 11909 15045 18273 18738 11994 16894 17607 18521 10188 17308 13927 10614 14948 19570 16121 12775 10896 19403 16640 12912 13576 13033 11141 10508 10437 15872 17235 17718 17881 14345 11206 12637 19502 12640 11834 12038 19448 18165 16847 10652 18691 14523 18981 11738 10779 999999 999999 999999 999999 999999 999999 999999 999999 999999 999999 999999 999999 999999 999999 999999 999999 999999 999999 999999 999999 999999 999999 999999 999999 999999 999999 999999 999999 999999 0 999999 999999 999999 999999 999999 999999 999999 999999 999999 999999 999999 999999 999999 999999 999999 999999 999999 999999 999999 999999 999999 999999 999999 999999 999999 999999 999999 999999 999999 999999 14642
999999 17238 11185 18006 16926 17372 19614 19807 15952 16598 18306 12762 15081 13625 19662 10052 10282 19007 15838 14132 17917 17533 19758 14807 14779 17179 12046 18285 12298 18666 15547 10003 16287 17589 16789 16929 14195 12799 14385 19729 10549 16517 16046 12004 15621 15406 19656 15999 17499 15009 19528 10849 11827 19189 12370 12681 12467 14215 15936 12091 16359 999999 999999 999999 999999 999999 999999 999999 999999 999999 999999 999999 999999 999999 999999 999999 999999 999999 999999 999999 999999 999999 999999 999999 999999 999999 999999 999999 999999 999999 999999 0 999999 999999 999999 999999 999999 999999 999999 999999 999999 999999 999999 999999 999999 999999 999999 999999 999999 999999 999999 999999 999999 999999 999999 999999 999999 999999 999999 999999 999999 9263
999999 16700 15611 18706 19751 11746 10675 10734 12123 13628 16174 10308 15916 14527 17369 13904 17461 16155 17272 11909 10377 19616 18649 14084 14224 18845 11335 15867 12982 19940 15297 18306 15238 13055 13977 13226 12696 12165 19097 15330 17076 10822 14254 10058 14297 11071 15142 10489 15218 15261 17181 13950 10193 14894 19475 14660 14280 15735 13688 18293 11950 999999 999999 999999 999999 999999 999999 999999 999999 999999 999999 999999 999999 999999 999999 999999 999999 999999 999999 999999 999999 999999 999999 999999 999999 999999 999999 999999 999999 999999 999999 999999 0 999999 999999 999999 999999 999999 999999 999999 999999 999999 999999 999999 999999 999999 999999 999999 999999 999999 999999 999999 999999 999999 999999 999999 999999 999999 999999 999999 999999 10428
999999 15571 15100 15729 14631 17761 16182 19533 13533 14619 10575 12700 19470 17134 16119 13813 12902 12008 16077 11712 13256 12655 15421 14091 13046 18308 13507 19961 17221 10775 12581 16231 12864 14911 14338 13553 11159 12068 11709 16585 11909 17586 18481 18525 12083 15946 19702 13638 13505 15288 16494 14396 10251 16647 16900 10835 10335 14074 12896 11680 18578 999999 999999 999999 999999 999999 999999 999999 999999 999999 999999 999999 999999 999999 999999 999999 999999 999999 999999 999999 999999 999999 999999 999999 999999 999999 999999 999999 999999 999999 999999 999999 999999 0 999999 999999 999999 999999 999999 999999 999999 999999 999999 999999 999999 999999 999999 999999 999999 999999 999999 999999 999999 999999 999999 999999 999999 999999 999999 999999 999999 10436
999999 16628 14964 16666 14961 13984 11876 18685 16151 15335 11381 13622 17442 13065 17890 19079 14792 13643 12077 14825 13013 12808 17672 13298 17407 14272 14492 10872 19701 11524 19061 19972 19464 12999 14132 12508 17470 16589 12964 14673 11959 16062 17330 19763 13599 19647 17737 11867 16757 14843 12239 12895 10759 14264 16510 19692 13116 18920 10921 14423 18680 999999 999999 999999 999999 999999 999999 999999 999999 999999 999999 999999 999999 999999 999999 999999 999999 999999 999999 999999 999999 999999 999999 999999 999999 999999 999999 999999 999999 999999 999999 999999 999999 999999 0 999999 999999 999999 999999 999999 999999 999999 999999 999999 999999 999999 999999 999999 999999 999999 999999 999999 999999 999999 999999 999999 999999 999999 999999 999999 999999 6075
999999 10685 15162 12837 13029 19318 14093 11355 15121 15254 17199 14844 18761 18604 15079 18427 12400 13784 17646 11439 18307 14327 12370 18225 10259 16885 12256 16986 14730 17059 18345 17096 17675 17724 11424 19453 16151 18593 11953 10871 13491 14235 17998 13354 18667 13151 16155 14168 10272 12571 17463 15349 18664 16287 18680 18978 15776 17570 17020 12499 11216 999999 999999 999999 999999 999999 999999 999999 999999 999999 999999 999999 999999 999999 999999 999999 999999 999999 999999 999999 999999 999999 999999 999999 999999 999999 999999 999999 999999 999999 999999 999999 999999 999999 999999 0 999999 999999 999999 999999 999999 999999 999999 999999 999999 999999 999999 999999 999999 999999 999999 999999 999999 999999 999999 999999 999999 999999 999999 999999 999999 8634
999999 17276 16234 18282 12191 15436 16883 15965 17731 15191 18591 12261 16280 17184 10258 13438 18206 11880 18693 14239 12273 13296 14429 14920 10460 11636 11744 17912 10666 13724 16946 19655 11127 16424 11811 19019 11689 10597 18771 14141 13662 19972 16351 10816 11675 18582 19137 17344 16377 11615 12994 10637 14075 17184 16424 10676 19342 14704 13512 18167 11209 999999 999999 999999 999999 999999 999999 999999 999999 999999 999999 999999 999999 999999 999999 999999 999999 999999 999999 999999 999999 999999 999999 999999 999999 999999 999999 999999 999999 999999 999999 999999 999999 999999 999999 999999 0 999999 999999 999999 999999 999999 999999 999999 999999 999999 999999 999999 999999 999999 999999 999999 999999 999999 999999 999999 999999 999999 999999 999999 999999 14033
999999 19904 19505 17157 12590 15701 15436 13639 15216 19875 11952 16312 15465 11197 19939 12412 19455 13380 14941 10634 15764 18858 18687 11947 10980 11719 19860 12308 17692 12621 15087 14894 12168 15894 12028 17205 11007 15755 12830 17145 17115 11519 17899 16132 19924 14334 15699 18069 18105 16530 15744 17110 11855 12564 11411 16356 11041 13326 13983 16314 12800 999999 999999 999999 999999 999999 999999 999999 999999 999999 999999 999999 999999 999999 999999 999999 999999 999999 999999 999999 999999 999999 999999 999999 999999 999999 999999 999999 999999 999999 999999 999999 999999 999999 999999 999999 999999 0 999999 999999 999999 999999 999999 999999 999999 999999 999999 999999 999999 999999 999999 999999 999999 999999 999999 999999 999999 999999 999999 999999 999999 8569
999999 11991 15353 14457 11396 18708 11919 16576 12119 17692 19806 16823 14780 17709 15281 13734 11586 14837 15892 10629 16418 19219 16147 13582 10524 19658 18336 16162 17249 18708 10081 10737 13310 14531 14848 10001 14259 10638 17344 12752 16416 16674 17403 16164 15715 18213 17811 16968 11540 19834 13377 15303 17385 16536 19562 18310 19948 13828 16680 12154 17086 999999 999999 999999 999999 999999 999999 999999 999999 999999 999999 999999 999999 999999 999999 999999 999999 999999 999999 999999 999999 999999 999999 999999 999999 999999 999999 999999 999999 999999 999999 999999 999999 999999 999999 999999 999999 999999 0 999999 999999 999999 999999 999999 999999 999999 999999 999999 999999 999999 999999 999999 999999 999999 999999 999999 999999 999999 999999 999999 999999 13163
999999 12236 11382 17081 16497 10185 14115 13640 18842 15799 11593 19486 18982 12529 10089 13506 18601 17208 13112 10748 19994 17589 12343 19594 14363 15306 15687 14913 15739 18748 14680 14326 17088 10603 14829 14518 12697 17457 16121 16310 10592 16916 14454 16294 16117 12723 19481 19373 15355 12483 11333 12888 14932 14555 11009 11054 18624 12636 13438 14454 13650 999999 999999 999999 999999 999999 999999 999999 999999 999999 999999 999999 999999 999999 999999 999999 999999 999999 999999 999999 999999 999999 999999 999999 999999 999999 999999 999999 999999 999999 999999 999999 999999 999999 999999 999999 999999 999999 999999 0 999999 999999 999999 999999 999999 999999 999999 999999 999999 999999 999999 999999 999999 999999 999999 999999 999999 999999 999999 999999 999999 10643
999999 16818 11687 10286 15840 10410 19704 18319 10674 10186 18832 19591 18406 16958 12871 11184 14689 14323 14094 18469 16915 13751 19547 13910 15251 11222 10623 14915 16695 18509 10376 10889 10126 10260 18584 17800 16399 13625 10355 14775 14981 16698 12330 10826 16002 18209 19174 17155 12112 11493 11298 13277 18839 19802 10572 14168 16961 11560 14082 18320 16316 999999 999999 999999 999999 999999 999999 999999 999999 999999 999999 999999 999999 999999 999999 999999 999999 999999 999999 999999 999999 999999 999999 999999 999999 999999 999999 999999 999999 999999 999999 999999 999999 999999 999999 999999 999999 999999 999999 999999 0 999999 999999 999999 999999 999999 999999 999999 999999 999999 999999 999999 999999 999999 999999 999999 999999 999999 999999 999999 999999 9406
999999 10076 15828 11874 14387 16799 12819 16972 18930 15849 10137 18890 17820 13743 15375 12164 11744 17369 11603 12699 18008 17143 14811 11157 15219 18852 11279 15631 19270 17740 14425 11094 17440 17290 13075 16838 12402 12112 17003 17493 13731 10470 19646 10682 16830 13506 16342 14551 19004 19506 18459 19236 12604 10663 19548 13073 19855 15581 17498 17766 14735 999999 999999 999999 999999 999999 999999 999999 999999 999999 999999 999999 999999 999999 999999 999999 999999 999999 999999 999999 999999 999999 999999 999999 999999 999999 999999 999999 999999 999999 999999 999999 999999 999999 999999 999999 999999 999999 999999 999999 999999 0 999999 999999 999999 999999 999999 999999 999999 999999 999999 999999 999999 999999 999999 999999 999999 999999 999999 999999 999999 11742
999999 12951 17149 18824 10502 17283 14370 16189 17664 13011 19846 17714 11373 13592 16195 14618 17695 15403 18304 12510 18467 12014 15019 14438 19608 14148 10485 10776 16828 13069 10491 14635 12411 17271 15283 16175 14720 17710 12294 11965 11242 13166 13196 16045 18022 12396 17033 19766 18803 16819 11117 14262 14749 13810 13756 13766 16274 16725 14724 11137 13364 999999 999999 999999 999999 999999 999999 999999 999999 999999 999999 999999 999999 999999 999999 999999 999999 999999 999999 999999 999999 999999 999999 999999 999999 999999 999999 999999 999999 999999 999999 999999 999999 999999 999999 999999 999999 999999 999999 999999 999999 999999 0 999999 999999 999999 999999 999999 999999 999999 999999 999999 999999 999999 999999 999999 999999 999999 999999 999999 999999 9391
999999 13890 18723 14232 15869 13269 10416 11644 10361 14523 12227 17353 11653 18013 15719 18186 14051 18869 17336 15340 17695 12169 15687 10606 18811 16085 12061 17735 18276 12746 17043 13117 12526 10600 10375 15277 16288 18317 18273 14980 16986 12769 15646 17774 10782 14443 18428 14182 15442 18054 15504 12538 15674 18021 10433 11670 14760 19712 18229 10449 19960 999999 999999 999999 999999 999999 999999 999999 999999 999999 999999 999999 999999 999999 999999 999999 999999 999999 999999 999999 999999 999999 999999 999999 999999 999999 999999 999999 999999 999999 999999 999999 999999 999999 999999 999999 999999 999999 999999 999999 999999 999999 999999 0 999999 999999 999999 999999 999999 999999 999999 999999 999999 999999 999999 999999 999999 999999 999999 999999 999999 11580
999999 19703 14567 14398 12722 17049 14190 11185 17363 18033 15468 19471 11687 18098 16812 13801 11305 11703 12922 18408 11947 14800 14421 19618 12139 19186 12937 10953 18937 19615 18311 18072 10835 15764 11018 17338 10066 13121 14854 16715 10890 15394 17103 15033 15241 14919 11471 11734 16309 15377 14493 12244 16321 13891 17432 18692 18107 17704 10008 12937 13968 999999 999999 999999 999999 999999 999999 999999 999999 999999 999999 999999 999999 999999 999999 999999 999999 999999 999999 999999 999999 999999 999999 999999 999999 999999 999999 999999 999999 999999 999999 999999 999999 999999 999999 999999 999999 999999 999999 999999 999999 999999 999999 999999 0 999999 999999 999999 999999 999999 999999 999999 999999 999999 999999 999999 999999 999999 999999 999999 999999 12378
999999 18728 11180 10716 12272 17151 12459 12977 10170 18570 14738 18705 11337 12465 13557 15205 11129 15964 14513 10816 10054 14518 13935 16760 15425 12286 15770 17237 14012 17270 15983 10709 13295 15959 17723 12922 16286 17892 16682 13238 18359 14977 11503 18212 18184 10809 14680 12849 13534 14773 10470 12762 13337 10630 11355 17222 13106 14880 13034 14224 15984 999999 999999 999999 999999 999999 999999 999999 999999 999999 999999 999999 999999 999999 999999 999999 999999 999999 999999 999999 999999 999999 999999 999999 999999 999999 999999 999999 999999 999999 999999 999999 999999 999999 999999 999999 999999 999999 999999 999999 999999 999999 999999 999999 999999 0 999999 999999 999999 999999 999999 999999 999999 999999 999999 999999 999999 999999 999999 999999 999999 10078
999999 12177 19071 11562 11973 10723 11740 16670 13970 12752 14722 13017 10743 19154 16369 12171 12791 11709 10329 13981 13217 19631 16281 14058 17543 13572 10525 15748 15835 14324 12280 11480 16434 15828 11811 16710 17348 13372 11667 15154 13845 11297 13883 18571 13865 11623 18987 11166 10806 18864 10626 10103 17341 12529 19194 10299 17838 18471 14374 15071 13700 999999 999999 999999 999999 999999 999999 999999 999999 999999 999999 999999 999999 999999 999999 999999 999999 999999 999999 999999 999999 999999 999999 999999 999999 999999 999999 999999 999999 999999 999999 999999 999999 999999 999999 999999 999999 999999 999999 999999 999999 999999 999999 999999 999999 999999 0 999999 999999 999999 999999 999999 999999 999999 999999 999999 999999 999999 999999 999999 999999 6930
999999 12452 14179 13306 16258 15210 14004 11480 17086 10789 18255 10322 11025 13132 19972 19306 14852 14196 17397 12363 18949 13844 14779 15493 10206 14591 11553 18525 13989 19564 10180 15449 10758 13482 15068 13790 12600 14282 12838 17446 15563 12098 10807 15848 17662 10877 19162 10018 11748 16690 17289 10688 14735 11383 14446 18869 15399 11236 13715 12706 16088 999999 999999 999999 999999 999999 999999 999999 999999 999999 999999 999999 999999 999999 999999 999999 999999 999999 999999 999999 999999 999999 999999 999999 999999 999999 999999 999999 999999 999999 999999 999999 999999 999999 999999 999999 999999 999999 999999 999999 999999 999999 999999 999999 999999 999999 999999 0 999999 999999 999999 999999 999999 999999 999999 999999 999999 999999 999999 999999 999999 7381
999999 16106 10542 10681 18222 10504 15681 17472 19710 18673 17445 17949 19757 17772 19506 17332 13022 11543 16986 15273 12333 12558 15111 12173 18789 14516 16778 16599 10822 12409 10968 12855 11717 14418 11927 10855 18387 17414 17470 18443 18356 14633 14866 17702 14299 10706 10588 17522 15338 16876 18132 15361 12213 10901 16258 16559 12647 18548 11150 17575 13681 999999 999999 999999 999999 999999 999999 999999 999999 999999 999999 999999 999999 999999 999999 999999 999999 999999 999999 999999 999999 999999 999999 999999 999999 999999 999999 999999 999999 999999 999999 999999 999999 999999 999999 999999 999999 999999 999999 999999 999999 999999 999999 999999 999999 999999 999999 999999 0 999999 999999 999999 999999 999999 999999 999999 999999 999999 999999 999999 999999 13200
999999 16758 19086 11090 15699 17124 17314 11610 11913 11859 16389 11834 10236 16076 11754 19035 15183 16263 13595 15307 16277 10514 15286 15592 12320 17876 10837 10841 13559 11911 17307 11658 18897 18012 10054 12634 12003 10759 11816 14124 16382 19396 11766 15631 14726 13472 18734 14278 10561 11016 17453 18086 19558 13510 11796 13433 18252 17987 17499 15320 16969 999999 999999 999999 999999 999999 999999 999999 999999 999999 999999 999999 999999 999999 999999 999999 999999 999999 999999 999999 999999 999999 999999 999999 999999 999999 999999 999999 999999 999999 999999 999999 999999 999999 999999 999999 999999 999999 999999 999999 999999 999999 999999 999999 999999 999999 999999 999999 999999 0 999999 999999 999999 999999 999999 999999 999999 999999 999999 999999 999999 5159
999999 17683 13808 15997 12269 19487 15406 10254 10429 12303 17900 11292 13085 10274 12675 12529 16604 16687 18088 16304 14544 18443 15643 16080 15355 10186 10452 15158 16474 11883 18054 16108 17507 13207 17496 11578 10639 17616 15046 10261 16148 11104 18377 18942 11159 14692 14598 17445 15039 11863 15869 13620 15880 15257 18124 15633 19083 11015 16817 15631 13601 999999 999999 999999 999999 999999 999999 999999 999999 999999 999999 999999 999999 999999 999999 999999 999999 999999 999999 999999 999999 999999 999999 999999 999999 999999 999999 999999 999999 999999 999999 999999 999999 999999 999999 999999 999999 999999 999999 999999 999999 999999 999999 999999 999999 999999 999999 999999 999999 999999 0 999999 999999 999999 999999 999999 999999 999999 999999 999999 999999 5647
999999 10189 19825 11173 11737 13222 13292 11057 16181 17527 11879 13266 16807 19248 16505 15234 12812 19669 14661 13245 13209 12529 12592 11152 11327 12516 10206 19996 13033 12231 15696 13574 14420 11391 19072 13018 16611 12723 14991 16027 14734 17012 17281 13012 18588 18552 14511 13735 10535 18187 14535 10926 10268 16635 13333 15393 13998 15497 12728 18833 17394 999999 999999 999999 999999 999999 999999 999999 999999 999999 999999 999999 999999 999999 999999 999999 999999 999999 999999 999999 999999 999999 999999 999999 999999 999999 999999 999999 999999 999999 999999 999999 999999 999999 999999 999999 999999 999999 999999 999999 999999 999999 999999 999999 999999 999999 999999 999999 999999 999999 999999 0 999999 999999 999999 999999 999999 999999 999999 999999 999999 6606
999999 14786 15447 10380 14581 17523 14803 19403 16169 13043 15437 12062 11738 13403 17782 10647 14512 17917 15460 16106 17301 11251 16558 17506 15626 19982 16061 18052 16408 17154 10895 19629 10046 17992 11576 14065 10933 10925 13098 18463 14861 13556 17452 10896 15787 17683 16242 19455 12995 16482 18747 14443 12374 16273 19038 18111 12240 13347 13249 14553 10316 999999 999999 999999 999999 999999 999999 999999 999999 999999 999999 999999 999999 999999 999999 999999 999999 999999 999999 999999 999999 999999 999999 999999 999999 999999 999999 999999 999999 999999 999999 999999 999999 999999 999999 999999 999999 999999 999999 999999 999999 999999 999999 999999 999999 999999 999999 999999 999999 999999 999999 999999 0 999999 999999 999999 999999 999999 999999 999999 999999 13347
999999 15688 12024 10924 15230 18098 14621 14557 16056 13031 16098 17106 11752 15778 17811 14838 14509 18162 16603 19961 13981 16458 14289 10975 16087 10417 14780 15870 12761 11418 13843 15087 14271 10633 15442 17529 13363 18368 18646 12637 13786 10272 14803 19057 13998 10470 11122 11190 13653 13584 19016 10217 12718 14650 17268 14342 17461 12479 18427 15483 16678 999999 999999 999999 999999 999999 999999 999999 999999 999999 999999 999999 999999 999999 999999 999999 999999 999999 999999 999999 999999 999999 999999 999999 999999 999999 999999 999999 999999 999999 999999 999999 999999 999999 999999 999999 999999 999999 999999 999999 999999 999999 999999 999999 999999 999999 999999 999999 999999 999999 999999 999999 999999 0 999999 999999 999999 999999 999999 999999 999999 6926
999999 11226 12285 16256 14061 19303 11445 18935 11694 18779 10525 11247 19975 15682 14063 10874 11673 16049 17815 14502 13771 16770 15756 18749 11250 14158 10747 11564 19657 18258 18056 17974 13245 15966 11074 17653 16102 11986 18284 19137 16796 11507 19897 14159 17242 12349 13481 13673 10958 12308 17796 16228 18235 19464 15928 17583 17888 17515 10006 10019 14456 999999 999999 999999 999999 999999 999999 999999 999999 999999 999999 999999 999999 999999 999999 999999 999999 999999 999999 999999 999999 999999 999999 999999 999999 999999 999999 999999 999999 999999 999999 999999 999999 999999 999999 999999 999999 999999 999999 999999 999999 999999 999999 999999 999999 999999 999999 999999 999999 999999 999999 999999 999999 999999 0 999999 999999 999999 999999 999999 999999 7853
999999 12673 10410 13672 15180 14926 12993 19553 18244 19479 13052 16242 16183 19717 14920 18256 10838 10935 15489 16828 18503 11539 14141 19844 19884 17453 11411 11326 12956 10629 15907 19658 11079 11793 17512 10186 17027 11539 19316 18188 15335 17340 17890 16154 10842 19954 18206 18998 15962 12314 17823 12607 14855 13544 15435 10842 13138 12018 12117 17924 17503 999999 999999 999999 999999 999999 999999 999999 999999 999999 999999 999999 999999 999999 999999 999999 999999 999999 999999 999999 999999 999999 999999 999999 999999 999999 999999 999999 999999 999999 999999 999999 999999 999999 999999 999999 999999 999999 999999 999999 999999 999999 999999 999999 999999 999999 999999 999999 999999 999999 999999 999999 999999 999999 999999 0 999999 999999 999999 999999 999999 5493
999999 12204 16421 11506 17830 11404 15612 19155 11763 15968 15750 14972 17921 18153 16191 10336 10308 10246 14344 12424 19072 16186 13216 19687 13534 14568 18933 16316 10470 18108 11562 15426 16467 16604 19847 16178 18382 14669 19766 14299 11500 17516 18818 11483 16373 11857 17059 11694 15156 10471 17051 16976 13537 14810 16295 15354 19857 16989 14158 14675 13151 999999 999999 999999 999999 999999 999999 999999 999999 999999 999999 999999 999999 999999 999999 999999 999999 999999 999999 999999 999999 999999 999999 999999 999999 999999 999999 999999 999999 999999 999999 999999 999999 999999 999999 999999 999999 999999 999999 999999 999999 999999 999999 999999 999999 999999 999999 999999 999999 999999 999999 999999 999999 999999 999999 999999 0 999999 999999 999999 999999 7643
999999 13250 17423 15540 15519 12824 16096 11927 15928 12406 18693 12764 12816 17333 18830 15302 11280 16262 14438 15160 10039 15889 14572 17336 19595 19143 16084 10293 11276 16667 19260 11307 14702 11834 18588 17671 19322 10291 16963 16820 14826 19582 10747 15610 14761 13452 10813 11299 17399 18994 10564 17121 10903 16727 19130 19384 17972 10714 14106 19912 19293 999999 999999 999999 999999 999999 999999 999999 999999 999999 999999 999999 999999 999999 999999 999999 999999 999999 999999 999999 999999 999999 999999 999999 999999 999999 999999 999999 999999 999999 999999 999999 999999 999999 999999 999999 999999 999999 999999 999999 999999 999999 999999 999999 999999 999999 999999 999999 999999 999999 999999 999999 999999 999999 999999 999999 999999 0 999999 999999 999999 12591
999999 10523 13499 11414 18992 15757 11818 17621 16291 10497 18094 11553 11405 12121 11987 15129 19376 15241 12847 14873 11714 13924 18970 12171 17485 10170 14117 19138 17866 12960 18151 12354 10739 11798 12326 19355 18333 11370 17639 17195 13541 11155 19251 14549 15467 19517 14073 10661 12782 10806 18469 16982 18482 18636 16949 15222 16784 16251 13552 14380 11187 999999 999999 999999 999999 999999 999999 999999 999999 999999 999999 999999 999999 999999 999999 999999 999999 999999 999999 999999 999999 999999 999999 999999 999999 999999 999999 999999 999999 999999 999999 999999 999999 999999 999999 999999 999999 999999 999999 999999 999999 999999 999999 999999 999999 999999 999999 999999 999999 999999 999999 999999 999999 999999 999999 999999 999999 999999 0 999999 999999 13020
999999 14816 19418 10091 14899 11556 13365 19451 15192 19253 19362 16551 10412 10463 14566 13807 15043 13010 10045 15941 10772 15505 18113 16767 15941 13629 15974 18076 10602 14330 16314 13458 17472 14641 11563 12771 17655 18463 18959 17688 12593 16917 18437 13246 12934 12100 10865 18376 16532 16195 15610 12813 13004 19935 11838 15961 10007 13149 16448 14655 19013 999999 999999 999999 999999 999999 999999 999999 999999 999999 999999 999999 999999 999999 999999 999999 999999 999999 999999 999999 999999 999999 999999 999999 999999 999999 999999 999999 999999 999999 999999 999999 999999 999999 999999 999999 999999 999999 999999 999999 999999 999999 999999 999999 999999 999999 999999 999999 999999 999999 999999 999999 999999 999999 999999 999999 999999 999999 999999 0 999999 9647
999999 15205 12606 18127 11575 14191 18899 16218 11981 16146 11456 12415 16319 16922 13387 15921 18373 11506 11785 14185 13937 14715 19723 18341 13401 13247 18628 10202 10878 10229 17728 16745 11588 14564 16598 15389 15788 17392 10223 17842 10538 16443 15016 15000 12165 19864 17923 14737 18626 18830 11433 12201 12792 10064 17105 11149 14955 12921 14673 16702 15152 999999 999999 999999 999999 999999 999999 999999 999999 999999 999999 999999 999999 999999 999999 999999 999999 999999 999999 999999 999999 999999 999999 999999 999999 999999 999999 999999 999999 999999 999999 999999 999999 999999 999999 999999 999999 999999 999999 999999 999999 999999 999999 999999 999999 999999 999999 999999 999999 999999 999999 999999 999999 999999 999999 999999 999999 999999 999999 999999 0 10538
1 999999 999999 999999 999999 999999 999999 999999 999999 999999 999999 999999 999999 999999 999999 999999 999999 999999 999999 999999 999999 999999 999999 999999 999999 999999 999999 999999 999999 999999 999999 999999 999999 999999 999999 999999 999999 999999 999999 999999 999999 999999 999999 999999 999999 999999 999999 999999 999999 999999 999999 999999 999999 999999 999999 999999 999999 999999 999999 999999 999999 999999 999999 999999 999999 999999 999999 999999 999999 999999 999999 999999 999999 999999 999999 999999 999999 999999 999999 999999 999999 999999 999999 999999 999999 999999 999999 999999 999999 999999 999999 999999 999999 999999 999999 999999 999999 999999 999999 999999 999999 999999 999999 999999 999999 999999 999999 999999 999999 999999 999999 999999 999999 999999 999999 999999 999999 999999 999999 999999 999999 0
EOF