NAME: GR_1x2x10_KH_2x10_Run_8
TYPE: TSP
COMMENT: BTSP instance |A|=20 GR nodes |B|=20 KH nodes depot=0.0 end=0.0.0
DIMENSION: 42
EDGE_WEIGHT_TYPE: EXPLICIT
EDGE_WEIGHT_FORMAT: FULL_MATRIX
NODE_COORD_TYPE: NO_COORDS
EDGE_WEIGHT_SECTION
0 11054 12814 9286 6840 6847 7098 11037 7349 14961 9462 10712 9190 8735 11382 13918 14016 13325 13152 7856 14165 999999 999999 999999 999999 999999 999999 999999 999999 999999 999999 999999 999999 999999 999999 999999 999999 999999 999999 999999 999999 999999
999999 0 999999 999999 999999 999999 999999 999999 999999 999999 999999 999999 999999 999999 999999 999999 999999 999999 999999 999999 999999 14412 10758 13410 11372 14455 15348 10642 17267 14599 13748 18551 16534 12926 12990 13725 17329 10793 15590 13549 12933 999999
999999 999999 0 999999 999999 999999 999999 999999 999999 999999 999999 999999 999999 999999 999999 999999 999999 999999 999999 999999 999999 14900 10383 10216 10856 14625 16813 19541 14241 10860 17658 14257 14721 19185 19983 16527 13703 19002 12480 16252 18131 999999
999999 999999 999999 0 999999 999999 999999 999999 999999 999999 999999 999999 999999 999999 999999 999999 999999 999999 999999 999999 999999 11805 16285 12312 19171 15360 19880 11456 18176 15330 15640 19456 13151 13254 17839 17306 13627 16716 16944 14276 18192 999999
999999 999999 999999 999999 0 999999 999999 999999 999999 999999 999999 999999 999999 999999 999999 999999 999999 999999 999999 999999 999999 18262 18247 16282 18556 10766 14645 12609 16195 13658 10712 14618 15086 12622 19594 14593 11363 12300 18967 14279 12423 999999
999999 999999 999999 999999 999999 0 999999 999999 999999 999999 999999 999999 999999 999999 999999 999999 999999 999999 999999 999999 999999 13059 10834 19585 14727 10042 10738 19970 16894 16704 14343 15320 18051 19043 16235 12798 10131 14532 14945 12623 10105 999999
999999 999999 999999 999999 999999 999999 0 999999 999999 999999 999999 999999 999999 999999 999999 999999 999999 999999 999999 999999 999999 10459 13397 11763 19379 11246 16941 19965 15035 10387 19476 15492 18782 10446 16848 16021 13014 19566 10862 11877 14672 999999
999999 999999 999999 999999 999999 999999 999999 0 999999 999999 999999 999999 999999 999999 999999 999999 999999 999999 999999 999999 999999 19694 10879 16536 13240 16971 17347 10872 19635 17030 14352 15656 17532 13674 11863 18430 12367 15265 19480 14961 17865 999999
999999 999999 999999 999999 999999 999999 999999 999999 0 999999 999999 999999 999999 999999 999999 999999 999999 999999 999999 999999 999999 18104 16960 17466 17511 12723 16689 11126 17505 19957 10602 15379 11714 19060 16304 18408 15660 14846 13962 19805 14829 999999
999999 999999 999999 999999 999999 999999 999999 999999 999999 0 999999 999999 999999 999999 999999 999999 999999 999999 999999 999999 999999 13357 16424 16335 10231 16848 17631 15300 14752 15320 18003 15920 15093 11061 15664 10086 15092 17757 16098 12731 18343 999999
999999 999999 999999 999999 999999 999999 999999 999999 999999 999999 0 999999 999999 999999 999999 999999 999999 999999 999999 999999 999999 13411 15219 16878 18188 12793 11836 14988 17145 14712 11505 18378 18008 14873 19355 12488 13997 13959 19522 18500 17166 999999
999999 999999 999999 999999 999999 999999 999999 999999 999999 999999 999999 0 999999 999999 999999 999999 999999 999999 999999 999999 999999 19613 11933 11493 17326 15393 15231 19800 17388 15682 16796 16200 13223 16146 14226 13621 12937 16638 11545 16801 17925 999999
999999 999999 999999 999999 999999 999999 999999 999999 999999 999999 999999 999999 0 999999 999999 999999 999999 999999 999999 999999 999999 10026 12685 16564 11652 17835 19953 11250 15747 15736 15235 14359 16677 13702 11918 16966 10538 18239 11814 14563 10442 999999
999999 999999 999999 999999 999999 999999 999999 999999 999999 999999 999999 999999 999999 0 999999 999999 999999 999999 999999 999999 999999 18248 12294 14026 13317 12371 12922 11822 10392 10135 17456 16261 17214 12800 10396 18589 14955 13022 16742 17576 15850 999999
999999 999999 999999 999999 999999 999999 999999 999999 999999 999999 999999 999999 999999 999999 0 999999 999999 999999 999999 999999 999999 11660 17209 18266 14931 13815 16401 12706 10338 17585 19205 14889 16344 19032 11926 13874 15099 17779 19934 16808 18898 999999
999999 999999 999999 999999 999999 999999 999999 999999 999999 999999 999999 999999 999999 999999 999999 0 999999 999999 999999 999999 999999 18679 18498 13751 17299 13191 18427 17050 18717 11366 19385 19141 13235 16519 14345 16019 15376 11366 14882 14028 18479 999999
999999 999999 999999 999999 999999 999999 999999 999999 999999 999999 999999 999999 999999 999999 999999 999999 0 999999 999999 999999 999999 14701 14182 15057 10086 19478 12374 12666 18554 18076 18972 18110 12102 14656 11037 13037 15272 18584 15053 12149 18153 999999
999999 999999 999999 999999 999999 999999 999999 999999 999999 999999 999999 999999 999999 999999 999999 999999 999999 0 999999 999999 999999 10615 13948 13410 14196 14647 19120 13359 15687 14901 12221 15230 11190 19734 16714 10352 16447 14479 15549 10213 13972 999999
999999 999999 999999 999999 999999 999999 999999 999999 999999 999999 999999 999999 999999 999999 999999 999999 999999 999999 0 999999 999999 19204 19192 16223 18626 11766 16585 10183 19131 14772 10354 17775 15176 13276 14588 11274 17532 16931 10138 19069 18459 999999
999999 999999 999999 999999 999999 999999 999999 999999 999999 999999 999999 999999 999999 999999 999999 999999 999999 999999 999999 0 999999 18540 17715 13820 18093 19431 14309 17710 16969 14087 16861 19512 10572 10568 14860 18421 17189 19835 14169 16442 11346 999999
999999 999999 999999 999999 999999 999999 999999 999999 999999 999999 999999 999999 999999 999999 999999 999999 999999 999999 999999 999999 0 15830 18505 17489 15119 15372 17532 18602 13510 13187 17034 15785 17485 11406 11748 18908 19125 13431 18369 12984 14452 999999
999999 14412 14900 11805 18262 13059 10459 19694 18104 13357 13411 19613 10026 18248 11660 18679 14701 10615 19204 18540 15830 0 999999 999999 999999 999999 999999 999999 999999 999999 999999 999999 999999 999999 999999 999999 999999 999999 999999 999999 999999 8518
999999 10758 10383 16285 18247 10834 13397 10879 16960 16424 15219 11933 12685 12294 17209 18498 14182 13948 19192 17715 18505 999999 0 999999 999999 999999 999999 999999 999999 999999 999999 999999 999999 999999 999999 999999 999999 999999 999999 999999 999999 7040
999999 13410 10216 12312 16282 19585 11763 16536 17466 16335 16878 11493 16564 14026 18266 13751 15057 13410 16223 13820 17489 999999 999999 0 999999 999999 999999 999999 999999 999999 999999 999999 999999 999999 999999 999999 999999 999999 999999 999999 999999 8645
999999 11372 10856 19171 18556 14727 19379 13240 17511 10231 18188 17326 11652 13317 14931 17299 10086 14196 18626 18093 15119 999999 999999 999999 0 999999 999999 999999 999999 999999 999999 999999 999999 999999 999999 999999 999999 999999 999999 999999 999999 11922
999999 14455 14625 15360 10766 10042 11246 16971 12723 16848 12793 15393 17835 12371 13815 13191 19478 14647 11766 19431 15372 999999 999999 999999 999999 0 999999 999999 999999 999999 999999 999999 999999 999999 999999 999999 999999 999999 999999 999999 999999 10026
999999 15348 16813 19880 14645 10738 16941 17347 16689 17631 11836 15231 19953 12922 16401 18427 12374 19120 16585 14309 17532 999999 999999 999999 999999 999999 0 999999 999999 999999 999999 999999 999999 999999 999999 999999 999999 999999 999999 999999 999999 12404
999999 10642 19541 11456 12609 19970 19965 10872 11126 15300 14988 19800 11250 11822 12706 17050 12666 13359 10183 17710 18602 999999 999999 999999 999999 999999 999999 0 999999 999999 999999 999999 999999 999999 999999 999999 999999 999999 999999 999999 999999 11504
999999 17267 14241 18176 16195 16894 15035 19635 17505 14752 17145 17388 15747 10392 10338 18717 18554 15687 19131 16969 13510 999999 999999 999999 999999 999999 999999 999999 0 999999 999999 999999 999999 999999 999999 999999 999999 999999 999999 999999 999999 14616
999999 14599 10860 15330 13658 16704 10387 17030 19957 15320 14712 15682 15736 10135 17585 11366 18076 14901 14772 14087 13187 999999 999999 999999 999999 999999 999999 999999 999999 0 999999 999999 999999 999999 999999 999999 999999 999999 999999 999999 999999 12349
999999 13748 17658 15640 10712 14343 19476 14352 10602 18003 11505 16796 15235 17456 19205 19385 18972 12221 10354 16861 17034 999999 999999 999999 999999 999999 999999 999999 999999 999999 0 999999 999999 999999 999999 999999 999999 999999 999999 999999 999999 14116
999999 18551 14257 19456 14618 15320 15492 15656 15379 15920 18378 16200 14359 16261 14889 19141 18110 15230 17775 19512 15785 999999 999999 999999 999999 999999 999999 999999 999999 999999 999999 0 999999 999999 999999 999999 999999 999999 999999 999999 999999 11122
999999 16534 14721 13151 15086 18051 18782 17532 11714 15093 18008 13223 16677 17214 16344 13235 12102 11190 15176 10572 17485 999999 999999 999999 999999 999999 999999 999999 999999 999999 999999 999999 0 999999 999999 999999 999999 999999 999999 999999 999999 7363
999999 12926 19185 13254 12622 19043 10446 13674 19060 11061 14873 16146 13702 12800 19032 16519 14656 19734 13276 10568 11406 999999 999999 999999 999999 999999 999999 999999 999999 999999 999999 999999 999999 0 999999 999999 999999 999999 999999 999999 999999 5451
999999 12990 19983 17839 19594 16235 16848 11863 16304 15664 19355 14226 11918 10396 11926 14345 11037 16714 14588 14860 11748 999999 999999 999999 999999 999999 999999 999999 999999 999999 999999 999999 999999 999999 0 999999 999999 999999 999999 999999 999999 6956
999999 13725 16527 17306 14593 12798 16021 18430 18408 10086 12488 13621 16966 18589 13874 16019 13037 10352 11274 18421 18908 999999 999999 999999 999999 999999 999999 999999 999999 999999 999999 999999 999999 999999 999999 0 999999 999999 999999 999999 999999 7444
999999 17329 13703 13627 11363 10131 13014 12367 15660 15092 13997 12937 10538 14955 15099 15376 15272 16447 17532 17189 19125 999999 999999 999999 999999 999999 999999 999999 999999 999999 999999 999999 999999 999999 999999 999999 0 999999 999999 999999 999999 6718
999999 10793 19002 16716 12300 14532 19566 15265 14846 17757 13959 16638 18239 13022 17779 11366 18584 14479 16931 19835 13431 999999 999999 999999 999999 999999 999999 999999 999999 999999 999999 999999 999999 999999 999999 999999 999999 0 999999 999999 999999 11006
999999 15590 12480 16944 18967 14945 10862 19480 13962 16098 19522 11545 11814 16742 19934 14882 15053 15549 10138 14169 18369 999999 999999 999999 999999 999999 999999 999999 999999 999999 999999 999999 999999 999999 999999 999999 999999 999999 0 999999 999999 11947
999999 13549 16252 14276 14279 12623 11877 14961 19805 12731 18500 16801 14563 17576 16808 14028 12149 10213 19069 16442 12984 999999 999999 999999 999999 999999 999999 999999 999999 999999 999999 999999 999999 999999 999999 999999 999999 999999 999999 0 999999 10008
999999 12933 18131 18192 12423 10105 14672 17865 14829 18343 17166 17925 10442 15850 18898 18479 18153 13972 18459 11346 14452 999999 999999 999999 999999 999999 999999 999999 999999 999999 999999 999999 999999 999999 999999 999999 999999 999999 999999 999999 0 11604
1 999999 999999 999999 999999 999999 999999 999999 999999 999999 999999 999999 999999 999999 999999 999999 999999 999999 999999 999999 999999 999999 999999 999999 999999 999999 999999 999999 999999 999999 999999 999999 999999 999999 999999 999999 999999 999999 999999 999999 999999 0
EOF