NAME: GR_1x2x30_KH_5x10_Run_1
TYPE: TSP
COMMENT: BTSP instance |A|=60 GR nodes |B|=50 KH nodes depot=0.0 end=0.0.0
DIMENSION: 112
EDGE_WEIGHT_TYPE: EXPLICIT
EDGE_WEIGHT_FORMAT: FULL_MATRIX
NODE_COORD_TYPE: NO_COORDS
EDGE_WEIGHT_SECTION
0 13290 14610 6403 9430 11276 8603 14574 12118 14765 5446 5060 13164 6700 7050 7508 12371 7069 6329 14336 13017 12597 14054 12196 11389 6675 10755 7459 8513 9753 7686 14610 6643 12710 7264 14867 7581 6888 10558 8231 12842 8988 7262 6651 6470 5459 6285 12447 9982 6315 5506 10829 11858 6840 14370 9405 14442 14202 10882 9641 12496 999999 999999 999999 999999 999999 999999 999999 999999 999999 999999 999999 999999 999999 999999 999999 999999 999999 999999 999999 999999 999999 999999 999999 999999 999999 999999 999999 999999 999999 999999 999999 999999 999999 999999 999999 999999 999999 999999 999999 999999 999999 999999 999999 999999 999999 999999 999999 999999 999999 999999 999999
999999 0 999999 999999 999999 999999 999999 999999 999999 999999 999999 999999 999999 999999 999999 999999 999999 999999 999999 999999 999999 999999 999999 999999 999999 999999 999999 999999 999999 999999 999999 999999 999999 999999 999999 999999 999999 999999 999999 999999 999999 999999 999999 999999 999999 999999 999999 999999 999999 999999 999999 999999 999999 999999 999999 999999 999999 999999 999999 999999 999999 15259 10075 16633 19419 19005 16729 13231 15829 12494 13372 13432 19973 14738 13463 13563 19936 15107 17841 14163 10205 11071 11258 19614 13066 17405 14429 18717 13857 14055 19133 16607 10652 17869 18546 14994 19410 11274 14384 14368 13507 16395 13145 15461 11561 12863 14038 15847 17055 19890 13333 999999
999999 999999 0 999999 999999 999999 999999 999999 999999 999999 999999 999999 999999 999999 999999 999999 999999 999999 999999 999999 999999 999999 999999 999999 999999 999999 999999 999999 999999 999999 999999 999999 999999 999999 999999 999999 999999 999999 999999 999999 999999 999999 999999 999999 999999 999999 999999 999999 999999 999999 999999 999999 999999 999999 999999 999999 999999 999999 999999 999999 999999 14304 17856 17287 10441 10764 19807 12723 18497 19998 18324 16907 13035 16922 17332 12377 14675 17586 13744 17017 17306 11752 15033 19333 12418 12068 11630 11529 16639 12393 16073 18722 16670 15709 10508 13421 15806 14215 19276 13572 17843 15939 12751 18358 12779 15997 17776 11770 18447 16932 15597 999999
999999 999999 999999 0 999999 999999 999999 999999 999999 999999 999999 999999 999999 999999 999999 999999 999999 999999 999999 999999 999999 999999 999999 999999 999999 999999 999999 999999 999999 999999 999999 999999 999999 999999 999999 999999 999999 999999 999999 999999 999999 999999 999999 999999 999999 999999 999999 999999 999999 999999 999999 999999 999999 999999 999999 999999 999999 999999 999999 999999 999999 15837 19114 19659 11596 19374 18817 13550 14497 15076 13513 12719 15146 19595 19695 16422 13846 14358 13467 13917 15000 18916 15217 10653 15866 13754 19502 10509 19365 12999 17072 15029 13535 13327 11336 18835 12627 15650 19521 18079 19212 14602 16094 13551 19432 19448 10532 17836 11950 18112 15900 999999
999999 999999 999999 999999 0 999999 999999 999999 999999 999999 999999 999999 999999 999999 999999 999999 999999 999999 999999 999999 999999 999999 999999 999999 999999 999999 999999 999999 999999 999999 999999 999999 999999 999999 999999 999999 999999 999999 999999 999999 999999 999999 999999 999999 999999 999999 999999 999999 999999 999999 999999 999999 999999 999999 999999 999999 999999 999999 999999 999999 999999 17233 13801 10896 12674 13526 13048 16328 13567 16392 16515 11497 16774 18037 13508 11435 14917 15729 15693 16693 10440 19374 15870 14138 10609 14620 17280 14984 19830 19202 17232 12741 15538 19338 19948 10339 18223 16530 14368 18561 18023 17364 11705 14329 10452 17560 10263 12496 17147 10055 19368 999999
999999 999999 999999 999999 999999 0 999999 999999 999999 999999 999999 999999 999999 999999 999999 999999 999999 999999 999999 999999 999999 999999 999999 999999 999999 999999 999999 999999 999999 999999 999999 999999 999999 999999 999999 999999 999999 999999 999999 999999 999999 999999 999999 999999 999999 999999 999999 999999 999999 999999 999999 999999 999999 999999 999999 999999 999999 999999 999999 999999 999999 10731 19544 18888 17211 11819 14952 12797 17457 12342 14583 11276 13480 12234 17575 15942 19638 13464 19007 16355 17359 18479 10646 17658 18701 10048 14150 17381 10817 11269 13427 18289 16895 15566 17987 17564 15993 14115 12890 18083 11170 16132 12648 19288 13075 17715 12881 17898 16354 14501 12418 999999
999999 999999 999999 999999 999999 999999 0 999999 999999 999999 999999 999999 999999 999999 999999 999999 999999 999999 999999 999999 999999 999999 999999 999999 999999 999999 999999 999999 999999 999999 999999 999999 999999 999999 999999 999999 999999 999999 999999 999999 999999 999999 999999 999999 999999 999999 999999 999999 999999 999999 999999 999999 999999 999999 999999 999999 999999 999999 999999 999999 999999 10527 15040 10947 16236 16296 14085 13737 12811 10930 18680 12941 17631 19009 17629 12012 10836 14654 14470 10256 10851 14458 18566 15122 17417 19004 11705 12156 17405 15013 11036 15478 13498 18237 13635 15072 12275 13598 16310 19199 17948 13710 10048 18121 19261 10172 17142 19348 13112 16397 17069 999999
999999 999999 999999 999999 999999 999999 999999 0 999999 999999 999999 999999 999999 999999 999999 999999 999999 999999 999999 999999 999999 999999 999999 999999 999999 999999 999999 999999 999999 999999 999999 999999 999999 999999 999999 999999 999999 999999 999999 999999 999999 999999 999999 999999 999999 999999 999999 999999 999999 999999 999999 999999 999999 999999 999999 999999 999999 999999 999999 999999 999999 12964 16729 16375 13095 14464 11526 16866 12122 19740 11598 14087 16621 13564 17470 16707 17001 14240 14798 10189 12817 18710 17604 16678 16885 11362 11414 10786 11723 11844 16040 12397 13538 17730 19624 18590 15610 14824 19460 18072 10699 12099 16949 17914 13424 17718 15445 11670 10114 18576 17481 999999
999999 999999 999999 999999 999999 999999 999999 999999 0 999999 999999 999999 999999 999999 999999 999999 999999 999999 999999 999999 999999 999999 999999 999999 999999 999999 999999 999999 999999 999999 999999 999999 999999 999999 999999 999999 999999 999999 999999 999999 999999 999999 999999 999999 999999 999999 999999 999999 999999 999999 999999 999999 999999 999999 999999 999999 999999 999999 999999 999999 999999 18014 12342 15545 11735 15968 11483 17832 15017 12626 15012 15795 16573 19605 14290 16008 12229 19798 12200 18315 16458 12454 10480 18581 14023 17006 19690 10803 15956 10892 11139 15548 13261 12314 17575 14260 14000 13875 19341 13369 17328 10085 16144 17671 16479 18354 18155 12559 14670 11405 11244 999999
999999 999999 999999 999999 999999 999999 999999 999999 999999 0 999999 999999 999999 999999 999999 999999 999999 999999 999999 999999 999999 999999 999999 999999 999999 999999 999999 999999 999999 999999 999999 999999 999999 999999 999999 999999 999999 999999 999999 999999 999999 999999 999999 999999 999999 999999 999999 999999 999999 999999 999999 999999 999999 999999 999999 999999 999999 999999 999999 999999 999999 16437 14374 15636 11228 17943 15971 11907 16014 12786 16008 11326 15922 13695 11654 13064 16626 13087 11197 10502 10808 13967 11414 16873 19565 14290 12096 17104 18964 13779 10198 19673 10341 13778 14775 11616 15586 10307 16086 18811 17217 14387 14727 14889 15686 13945 10558 12173 13261 19843 14144 999999
999999 999999 999999 999999 999999 999999 999999 999999 999999 999999 0 999999 999999 999999 999999 999999 999999 999999 999999 999999 999999 999999 999999 999999 999999 999999 999999 999999 999999 999999 999999 999999 999999 999999 999999 999999 999999 999999 999999 999999 999999 999999 999999 999999 999999 999999 999999 999999 999999 999999 999999 999999 999999 999999 999999 999999 999999 999999 999999 999999 999999 17856 12904 15288 16317 17604 18423 13183 11513 14523 11486 10267 17274 13827 10171 17167 13321 15949 11128 12572 11321 13647 17171 13523 17432 18329 15639 10011 18617 18757 17773 14767 19687 13387 12553 10499 13800 10182 19502 11497 14081 15902 16128 16939 18289 16345 19902 14072 15957 17585 12613 999999
999999 999999 999999 999999 999999 999999 999999 999999 999999 999999 999999 0 999999 999999 999999 999999 999999 999999 999999 999999 999999 999999 999999 999999 999999 999999 999999 999999 999999 999999 999999 999999 999999 999999 999999 999999 999999 999999 999999 999999 999999 999999 999999 999999 999999 999999 999999 999999 999999 999999 999999 999999 999999 999999 999999 999999 999999 999999 999999 999999 999999 14525 11622 15145 11515 15714 18600 15529 10052 10542 17488 19344 19390 17011 15623 19304 13134 17373 11230 11628 16585 19146 15534 19677 17289 18862 14828 12714 13104 12672 14721 10809 18595 16743 11775 14550 12451 16656 16551 10809 17132 17563 10971 15329 11301 10077 16533 12586 10879 10494 10245 999999
999999 999999 999999 999999 999999 999999 999999 999999 999999 999999 999999 999999 0 999999 999999 999999 999999 999999 999999 999999 999999 999999 999999 999999 999999 999999 999999 999999 999999 999999 999999 999999 999999 999999 999999 999999 999999 999999 999999 999999 999999 999999 999999 999999 999999 999999 999999 999999 999999 999999 999999 999999 999999 999999 999999 999999 999999 999999 999999 999999 999999 18736 11119 15609 12368 12809 10438 10418 18622 19630 15488 11840 10858 18959 15566 17210 13528 14176 18595 12500 19199 18715 15245 18085 12131 19525 11035 17493 10178 18758 16250 13610 19628 11267 14620 12246 10332 14216 13470 14711 13948 11370 18865 15009 18199 11064 13828 17558 17334 12795 12168 999999
999999 999999 999999 999999 999999 999999 999999 999999 999999 999999 999999 999999 999999 0 999999 999999 999999 999999 999999 999999 999999 999999 999999 999999 999999 999999 999999 999999 999999 999999 999999 999999 999999 999999 999999 999999 999999 999999 999999 999999 999999 999999 999999 999999 999999 999999 999999 999999 999999 999999 999999 999999 999999 999999 999999 999999 999999 999999 999999 999999 999999 17673 16920 16537 11644 13857 14524 14046 17441 15924 16820 15204 12181 18315 19581 17403 14275 16442 17927 19465 15738 18093 12263 11591 11554 16895 13006 10726 14167 10321 17874 11875 16695 16736 10684 17677 16604 18146 15081 15134 17417 15160 10224 14419 12913 18873 13106 14556 18370 10203 11184 999999
999999 999999 999999 999999 999999 999999 999999 999999 999999 999999 999999 999999 999999 999999 0 999999 999999 999999 999999 999999 999999 999999 999999 999999 999999 999999 999999 999999 999999 999999 999999 999999 999999 999999 999999 999999 999999 999999 999999 999999 999999 999999 999999 999999 999999 999999 999999 999999 999999 999999 999999 999999 999999 999999 999999 999999 999999 999999 999999 999999 999999 13159 13677 16081 16114 13153 19485 17479 16914 17610 18352 16489 12635 17249 12623 15357 10785 12432 14257 19600 17098 14465 17872 13929 11853 11482 10163 16218 18129 17009 12099 17277 10305 13799 10300 14444 17363 16105 19392 17126 10500 17739 15415 17182 17957 16780 15501 16834 12225 11126 16899 999999
999999 999999 999999 999999 999999 999999 999999 999999 999999 999999 999999 999999 999999 999999 999999 0 999999 999999 999999 999999 999999 999999 999999 999999 999999 999999 999999 999999 999999 999999 999999 999999 999999 999999 999999 999999 999999 999999 999999 999999 999999 999999 999999 999999 999999 999999 999999 999999 999999 999999 999999 999999 999999 999999 999999 999999 999999 999999 999999 999999 999999 10647 13079 11367 16113 14332 12525 18818 10832 19683 12816 16574 18254 17897 17605 13953 14535 13747 10682 11135 13715 18309 15334 13680 11607 19637 17940 11101 11687 15310 12208 13725 11777 11589 11128 10324 19108 18019 15005 19050 14153 14379 12179 10331 15876 10338 13329 13103 12025 17726 19895 999999
999999 999999 999999 999999 999999 999999 999999 999999 999999 999999 999999 999999 999999 999999 999999 999999 0 999999 999999 999999 999999 999999 999999 999999 999999 999999 999999 999999 999999 999999 999999 999999 999999 999999 999999 999999 999999 999999 999999 999999 999999 999999 999999 999999 999999 999999 999999 999999 999999 999999 999999 999999 999999 999999 999999 999999 999999 999999 999999 999999 999999 11913 16396 12419 13551 19070 13768 16150 16346 16174 13086 14556 17036 11291 17232 14843 19852 12431 17725 19846 14622 16042 13685 12069 13395 19938 14917 13711 19728 14727 10670 18612 18842 15828 11330 16208 10985 14914 13797 14392 15300 12830 14392 13625 12336 19810 16278 11781 11201 10701 13526 999999
999999 999999 999999 999999 999999 999999 999999 999999 999999 999999 999999 999999 999999 999999 999999 999999 999999 0 999999 999999 999999 999999 999999 999999 999999 999999 999999 999999 999999 999999 999999 999999 999999 999999 999999 999999 999999 999999 999999 999999 999999 999999 999999 999999 999999 999999 999999 999999 999999 999999 999999 999999 999999 999999 999999 999999 999999 999999 999999 999999 999999 12935 11454 13184 15485 11557 17715 10251 16534 16068 11828 18692 13755 13017 17057 10733 13527 18923 12404 16003 11741 12424 12920 12642 12569 13029 19368 14015 17087 14717 15080 13241 11531 16931 15613 14056 18082 13469 14214 10613 19202 16247 11640 17156 10761 19706 11582 14311 14441 12426 10469 999999
999999 999999 999999 999999 999999 999999 999999 999999 999999 999999 999999 999999 999999 999999 999999 999999 999999 999999 0 999999 999999 999999 999999 999999 999999 999999 999999 999999 999999 999999 999999 999999 999999 999999 999999 999999 999999 999999 999999 999999 999999 999999 999999 999999 999999 999999 999999 999999 999999 999999 999999 999999 999999 999999 999999 999999 999999 999999 999999 999999 999999 17837 10346 18229 14717 15746 13436 19838 15269 18001 10633 14072 12965 14863 14492 19679 11494 18466 10745 13261 15313 12038 16685 13725 11667 12753 10491 13922 10567 14598 14021 17628 13545 10660 19684 12166 16932 11097 18344 10658 11446 17932 11915 19494 17631 18449 19986 13758 16039 19379 11699 999999
999999 999999 999999 999999 999999 999999 999999 999999 999999 999999 999999 999999 999999 999999 999999 999999 999999 999999 999999 0 999999 999999 999999 999999 999999 999999 999999 999999 999999 999999 999999 999999 999999 999999 999999 999999 999999 999999 999999 999999 999999 999999 999999 999999 999999 999999 999999 999999 999999 999999 999999 999999 999999 999999 999999 999999 999999 999999 999999 999999 999999 12771 10227 17538 15815 11795 18651 13049 19505 16592 14590 14397 15689 14069 18194 16215 13415 15676 19275 13245 16935 19671 10294 16246 15226 12054 18214 10701 15098 12599 11961 19587 10745 19063 17097 12608 11524 19260 10054 11367 19581 18597 18121 10981 19881 19960 15019 14483 16548 14338 15039 999999
999999 999999 999999 999999 999999 999999 999999 999999 999999 999999 999999 999999 999999 999999 999999 999999 999999 999999 999999 999999 0 999999 999999 999999 999999 999999 999999 999999 999999 999999 999999 999999 999999 999999 999999 999999 999999 999999 999999 999999 999999 999999 999999 999999 999999 999999 999999 999999 999999 999999 999999 999999 999999 999999 999999 999999 999999 999999 999999 999999 999999 19198 19577 12109 16226 16807 11981 10767 19052 15561 11896 12832 18767 15510 13142 10094 19557 19636 14137 12131 16104 13972 15953 14184 16196 13596 15193 14891 14246 16486 19114 10606 17381 16306 14456 12405 16796 17138 15442 19258 13013 11926 13272 17973 17743 10154 17193 16183 10529 16032 15050 999999
999999 999999 999999 999999 999999 999999 999999 999999 999999 999999 999999 999999 999999 999999 999999 999999 999999 999999 999999 999999 999999 0 999999 999999 999999 999999 999999 999999 999999 999999 999999 999999 999999 999999 999999 999999 999999 999999 999999 999999 999999 999999 999999 999999 999999 999999 999999 999999 999999 999999 999999 999999 999999 999999 999999 999999 999999 999999 999999 999999 999999 19197 11396 12246 15985 17537 11374 18447 10463 18727 11534 19995 19420 19656 12771 12777 11339 16464 18962 17337 16757 13033 17053 14818 13125 11028 11510 13975 15660 16868 10596 16403 11429 17265 13725 13935 16358 18156 13187 17452 10052 13037 15032 17600 14203 16311 11938 14611 11661 11914 10284 999999
999999 999999 999999 999999 999999 999999 999999 999999 999999 999999 999999 999999 999999 999999 999999 999999 999999 999999 999999 999999 999999 999999 0 999999 999999 999999 999999 999999 999999 999999 999999 999999 999999 999999 999999 999999 999999 999999 999999 999999 999999 999999 999999 999999 999999 999999 999999 999999 999999 999999 999999 999999 999999 999999 999999 999999 999999 999999 999999 999999 999999 17249 17713 18888 15534 12437 17771 16193 16398 16905 18481 19003 10883 16568 15497 10972 11130 16541 11397 12400 10453 14275 15361 15994 11509 10585 12904 19778 17154 10747 18465 11979 19416 13792 10569 18806 13474 12336 11459 18243 19527 18992 19601 10758 17185 14250 19219 14889 17381 17480 11155 999999
999999 999999 999999 999999 999999 999999 999999 999999 999999 999999 999999 999999 999999 999999 999999 999999 999999 999999 999999 999999 999999 999999 999999 0 999999 999999 999999 999999 999999 999999 999999 999999 999999 999999 999999 999999 999999 999999 999999 999999 999999 999999 999999 999999 999999 999999 999999 999999 999999 999999 999999 999999 999999 999999 999999 999999 999999 999999 999999 999999 999999 16124 15438 12567 16416 16317 16276 11525 14080 11311 19888 14217 10858 19058 14659 13214 19607 12598 11780 12537 18723 18321 13022 14358 19996 10541 12027 14936 10558 15685 17462 17171 12195 10284 16825 12357 17835 19827 19952 15061 17852 15099 16354 11364 10906 19396 14400 16231 12420 19533 14119 999999
999999 999999 999999 999999 999999 999999 999999 999999 999999 999999 999999 999999 999999 999999 999999 999999 999999 999999 999999 999999 999999 999999 999999 999999 0 999999 999999 999999 999999 999999 999999 999999 999999 999999 999999 999999 999999 999999 999999 999999 999999 999999 999999 999999 999999 999999 999999 999999 999999 999999 999999 999999 999999 999999 999999 999999 999999 999999 999999 999999 999999 13620 13446 10259 19896 14727 12960 14936 19176 12323 14256 11898 10001 16937 10601 12943 19261 14309 14669 19746 11871 10726 19177 14455 12918 11303 13325 20000 10145 14126 19201 15360 15154 10480 11882 17073 18114 10741 17143 10800 16573 11277 19685 12974 19847 11617 11061 17464 18501 13245 18600 999999
999999 999999 999999 999999 999999 999999 999999 999999 999999 999999 999999 999999 999999 999999 999999 999999 999999 999999 999999 999999 999999 999999 999999 999999 999999 0 999999 999999 999999 999999 999999 999999 999999 999999 999999 999999 999999 999999 999999 999999 999999 999999 999999 999999 999999 999999 999999 999999 999999 999999 999999 999999 999999 999999 999999 999999 999999 999999 999999 999999 999999 19785 12683 16959 19258 16739 14773 12222 14364 17174 18808 12015 17398 18578 18758 14661 18014 13568 16522 12654 16593 16713 18602 15623 17579 16682 12033 19186 12931 10797 10431 11595 17214 14261 15694 18918 13117 16145 13149 12755 16471 15970 16195 19301 19613 18013 10658 18466 18151 14320 18201 999999
999999 999999 999999 999999 999999 999999 999999 999999 999999 999999 999999 999999 999999 999999 999999 999999 999999 999999 999999 999999 999999 999999 999999 999999 999999 999999 0 999999 999999 999999 999999 999999 999999 999999 999999 999999 999999 999999 999999 999999 999999 999999 999999 999999 999999 999999 999999 999999 999999 999999 999999 999999 999999 999999 999999 999999 999999 999999 999999 999999 999999 13826 16510 14595 17014 19180 15877 18148 17122 12552 18001 18315 18244 19428 14060 13058 14481 10074 12892 10705 11222 18772 19485 17087 19516 16779 12868 17329 10424 11980 14367 12378 11258 13381 11267 17646 10518 13115 11836 10641 15422 12798 13227 15032 17973 17429 13166 18695 18012 19726 15509 999999
999999 999999 999999 999999 999999 999999 999999 999999 999999 999999 999999 999999 999999 999999 999999 999999 999999 999999 999999 999999 999999 999999 999999 999999 999999 999999 999999 0 999999 999999 999999 999999 999999 999999 999999 999999 999999 999999 999999 999999 999999 999999 999999 999999 999999 999999 999999 999999 999999 999999 999999 999999 999999 999999 999999 999999 999999 999999 999999 999999 999999 11042 10133 12193 16041 14281 18697 18949 16022 16743 12631 16380 13004 19344 12028 17364 19126 15614 12385 10667 18247 11634 16306 11174 19574 15966 17139 10227 11894 19863 15009 13565 11059 17690 10853 12871 17959 16448 15501 11509 14882 11355 11029 11044 17929 17699 13996 15395 18617 11336 16933 999999
999999 999999 999999 999999 999999 999999 999999 999999 999999 999999 999999 999999 999999 999999 999999 999999 999999 999999 999999 999999 999999 999999 999999 999999 999999 999999 999999 999999 0 999999 999999 999999 999999 999999 999999 999999 999999 999999 999999 999999 999999 999999 999999 999999 999999 999999 999999 999999 999999 999999 999999 999999 999999 999999 999999 999999 999999 999999 999999 999999 999999 19649 12880 15204 11088 13311 19539 19591 10574 18837 11267 14821 17361 14636 19148 13731 18400 13238 16313 11366 19166 18854 16921 17537 15621 17839 11704 10289 11236 14685 11378 19259 12682 18289 16369 14443 10501 15304 12668 10445 17586 15367 14889 12044 17659 11161 19144 15174 15465 13939 16772 999999
999999 999999 999999 999999 999999 999999 999999 999999 999999 999999 999999 999999 999999 999999 999999 999999 999999 999999 999999 999999 999999 999999 999999 999999 999999 999999 999999 999999 999999 0 999999 999999 999999 999999 999999 999999 999999 999999 999999 999999 999999 999999 999999 999999 999999 999999 999999 999999 999999 999999 999999 999999 999999 999999 999999 999999 999999 999999 999999 999999 999999 19329 16813 15775 18480 10629 13554 15170 17774 19470 13434 19773 17467 17941 15277 19711 14275 15381 13892 10086 17359 17485 19395 13958 12883 13402 12510 10595 18927 10711 13961 11493 14233 10968 14439 10343 10471 14135 11812 16018 16200 19821 16449 14073 18920 16223 15116 15193 16451 15241 12719 999999
999999 999999 999999 999999 999999 999999 999999 999999 999999 999999 999999 999999 999999 999999 999999 999999 999999 999999 999999 999999 999999 999999 999999 999999 999999 999999 999999 999999 999999 999999 0 999999 999999 999999 999999 999999 999999 999999 999999 999999 999999 999999 999999 999999 999999 999999 999999 999999 999999 999999 999999 999999 999999 999999 999999 999999 999999 999999 999999 999999 999999 18143 13942 11240 14493 15096 18596 19317 12014 11587 12301 16332 14273 12005 16490 11774 19572 13898 14672 16022 15400 16611 18201 10149 14315 16995 19718 19216 19524 16491 11155 10445 19347 15849 17840 19209 10356 12044 18107 15147 11288 19258 19360 19196 19153 19006 16896 14417 16104 14289 17220 999999
999999 999999 999999 999999 999999 999999 999999 999999 999999 999999 999999 999999 999999 999999 999999 999999 999999 999999 999999 999999 999999 999999 999999 999999 999999 999999 999999 999999 999999 999999 999999 0 999999 999999 999999 999999 999999 999999 999999 999999 999999 999999 999999 999999 999999 999999 999999 999999 999999 999999 999999 999999 999999 999999 999999 999999 999999 999999 999999 999999 999999 11398 18862 10142 17402 16562 16167 12392 14285 17377 14433 16307 19849 12565 10810 16670 10626 10674 19890 12361 16487 18581 19577 15179 10309 14521 12095 19460 11754 19981 19628 17938 16290 18622 16466 12404 14864 18322 17749 12572 10156 17123 10342 10607 13598 14706 19927 15850 13456 14735 19728 999999
999999 999999 999999 999999 999999 999999 999999 999999 999999 999999 999999 999999 999999 999999 999999 999999 999999 999999 999999 999999 999999 999999 999999 999999 999999 999999 999999 999999 999999 999999 999999 999999 0 999999 999999 999999 999999 999999 999999 999999 999999 999999 999999 999999 999999 999999 999999 999999 999999 999999 999999 999999 999999 999999 999999 999999 999999 999999 999999 999999 999999 10527 10621 11902 13702 18048 16335 11457 10180 14423 18215 14421 18431 19479 15271 14996 14136 15378 15193 14436 16941 12975 16567 16264 16393 13277 19624 18736 19953 11321 13684 15412 18428 19774 13944 16204 13258 15866 11942 11721 19772 17149 16514 13637 15421 13798 13459 13552 13112 13247 14446 999999
999999 999999 999999 999999 999999 999999 999999 999999 999999 999999 999999 999999 999999 999999 999999 999999 999999 999999 999999 999999 999999 999999 999999 999999 999999 999999 999999 999999 999999 999999 999999 999999 999999 0 999999 999999 999999 999999 999999 999999 999999 999999 999999 999999 999999 999999 999999 999999 999999 999999 999999 999999 999999 999999 999999 999999 999999 999999 999999 999999 999999 16221 14486 10587 12498 18990 17976 13536 17480 16037 18745 18855 15895 16391 10472 11041 15120 18952 12644 13620 16646 14430 13370 13260 14159 10029 17751 14533 16598 16254 11719 10702 18786 13934 18719 11180 13426 11228 17400 10809 14678 18561 16815 16701 11575 12350 19601 12447 13639 12596 17341 999999
999999 999999 999999 999999 999999 999999 999999 999999 999999 999999 999999 999999 999999 999999 999999 999999 999999 999999 999999 999999 999999 999999 999999 999999 999999 999999 999999 999999 999999 999999 999999 999999 999999 999999 0 999999 999999 999999 999999 999999 999999 999999 999999 999999 999999 999999 999999 999999 999999 999999 999999 999999 999999 999999 999999 999999 999999 999999 999999 999999 999999 10828 15590 14534 14287 18595 12849 15154 17186 15256 14573 12709 15142 17354 16892 18004 14310 16135 18546 10568 14971 12706 17440 17470 11392 15380 17606 14328 16315 19645 16817 16823 11094 10513 15763 11589 17798 14239 11287 11773 12167 10287 19387 14932 18943 10786 10942 13792 19030 17935 10790 999999
999999 999999 999999 999999 999999 999999 999999 999999 999999 999999 999999 999999 999999 999999 999999 999999 999999 999999 999999 999999 999999 999999 999999 999999 999999 999999 999999 999999 999999 999999 999999 999999 999999 999999 999999 0 999999 999999 999999 999999 999999 999999 999999 999999 999999 999999 999999 999999 999999 999999 999999 999999 999999 999999 999999 999999 999999 999999 999999 999999 999999 12904 19184 17347 18033 10866 16773 11487 17113 11305 18557 12903 12122 16057 10494 18255 15442 10413 10758 14213 13782 17755 12378 18264 11935 12561 17834 18978 11746 18230 14345 12474 14737 10284 11629 12444 14538 19962 18241 19865 17255 19066 15471 13090 19773 17171 18696 14041 16840 10500 18935 999999
999999 999999 999999 999999 999999 999999 999999 999999 999999 999999 999999 999999 999999 999999 999999 999999 999999 999999 999999 999999 999999 999999 999999 999999 999999 999999 999999 999999 999999 999999 999999 999999 999999 999999 999999 999999 0 999999 999999 999999 999999 999999 999999 999999 999999 999999 999999 999999 999999 999999 999999 999999 999999 999999 999999 999999 999999 999999 999999 999999 999999 17011 10519 14437 12647 10672 11608 12077 13662 18192 17599 17046 18801 17223 13193 12490 13619 15919 14457 14546 18839 18689 13813 19336 19600 17244 12536 18736 14978 13037 15760 10307 14483 18826 17349 11182 12051 11176 12821 16851 13608 18122 16300 18516 17397 10331 12068 19785 19015 18287 13515 999999
999999 999999 999999 999999 999999 999999 999999 999999 999999 999999 999999 999999 999999 999999 999999 999999 999999 999999 999999 999999 999999 999999 999999 999999 999999 999999 999999 999999 999999 999999 999999 999999 999999 999999 999999 999999 999999 0 999999 999999 999999 999999 999999 999999 999999 999999 999999 999999 999999 999999 999999 999999 999999 999999 999999 999999 999999 999999 999999 999999 999999 15245 19996 19412 10678 12691 15151 16367 10399 16847 19764 13120 15422 16166 17653 13090 19449 12426 15866 14265 17579 11101 15188 15283 13299 17283 16584 18271 13743 11215 14696 18874 19950 19297 17941 14459 11359 12645 10576 19239 13309 13245 14304 18206 18981 15984 16984 14983 15956 14430 10858 999999
999999 999999 999999 999999 999999 999999 999999 999999 999999 999999 999999 999999 999999 999999 999999 999999 999999 999999 999999 999999 999999 999999 999999 999999 999999 999999 999999 999999 999999 999999 999999 999999 999999 999999 999999 999999 999999 999999 0 999999 999999 999999 999999 999999 999999 999999 999999 999999 999999 999999 999999 999999 999999 999999 999999 999999 999999 999999 999999 999999 999999 12217 13732 17109 17817 16678 18251 11208 14065 16793 14485 10063 13899 15068 11482 15462 15593 10028 19381 12484 17191 11833 12184 17143 10850 10377 11833 12452 13468 11444 18813 15616 19249 13476 18843 14382 10328 18262 15024 12387 17999 13741 12775 13159 18738 18609 15592 10643 13703 18827 19111 999999
999999 999999 999999 999999 999999 999999 999999 999999 999999 999999 999999 999999 999999 999999 999999 999999 999999 999999 999999 999999 999999 999999 999999 999999 999999 999999 999999 999999 999999 999999 999999 999999 999999 999999 999999 999999 999999 999999 999999 0 999999 999999 999999 999999 999999 999999 999999 999999 999999 999999 999999 999999 999999 999999 999999 999999 999999 999999 999999 999999 999999 14796 12081 17316 14222 14854 15945 13667 19715 15541 13392 10101 18454 15542 16550 19570 17054 18684 14323 12124 17272 13870 17545 18815 13381 13419 14069 13064 19423 15699 14750 10841 15876 17571 15816 14475 18681 11616 18921 13707 12632 19707 11552 13651 14432 15774 10606 12329 18842 11426 19834 999999
999999 999999 999999 999999 999999 999999 999999 999999 999999 999999 999999 999999 999999 999999 999999 999999 999999 999999 999999 999999 999999 999999 999999 999999 999999 999999 999999 999999 999999 999999 999999 999999 999999 999999 999999 999999 999999 999999 999999 999999 0 999999 999999 999999 999999 999999 999999 999999 999999 999999 999999 999999 999999 999999 999999 999999 999999 999999 999999 999999 999999 11081 18653 14597 18408 19585 12361 17429 12045 15997 14085 15485 15829 19061 16178 17601 10812 11658 12291 16761 13424 18312 13048 12131 15134 12572 17013 16491 11124 17640 14919 18299 18630 16607 13190 19158 11696 11277 18833 14230 15962 11277 17310 12236 16744 17468 11343 17090 12319 17559 18707 999999
999999 999999 999999 999999 999999 999999 999999 999999 999999 999999 999999 999999 999999 999999 999999 999999 999999 999999 999999 999999 999999 999999 999999 999999 999999 999999 999999 999999 999999 999999 999999 999999 999999 999999 999999 999999 999999 999999 999999 999999 999999 0 999999 999999 999999 999999 999999 999999 999999 999999 999999 999999 999999 999999 999999 999999 999999 999999 999999 999999 999999 17295 10151 14650 15172 18750 17744 19494 14003 12251 10821 11594 11195 14442 14873 17141 11551 16591 18037 11861 13196 13586 17827 18009 16990 11336 10573 18598 17955 14394 11019 18662 11779 15110 15043 10307 15809 18457 15704 16122 13910 17061 16428 13457 10412 13696 10461 14569 14796 16531 16594 999999
999999 999999 999999 999999 999999 999999 999999 999999 999999 999999 999999 999999 999999 999999 999999 999999 999999 999999 999999 999999 999999 999999 999999 999999 999999 999999 999999 999999 999999 999999 999999 999999 999999 999999 999999 999999 999999 999999 999999 999999 999999 999999 0 999999 999999 999999 999999 999999 999999 999999 999999 999999 999999 999999 999999 999999 999999 999999 999999 999999 999999 17503 12733 19510 10332 10832 19739 17178 13616 18558 14528 11664 12489 12589 12620 10771 19209 18136 18861 15726 13479 14478 12914 19853 15275 16327 19345 13652 14194 11177 12801 15999 11746 11031 19524 15818 13548 17188 13013 14343 11262 11639 14232 11232 16811 12846 17063 18230 16154 16880 16270 999999
999999 999999 999999 999999 999999 999999 999999 999999 999999 999999 999999 999999 999999 999999 999999 999999 999999 999999 999999 999999 999999 999999 999999 999999 999999 999999 999999 999999 999999 999999 999999 999999 999999 999999 999999 999999 999999 999999 999999 999999 999999 999999 999999 0 999999 999999 999999 999999 999999 999999 999999 999999 999999 999999 999999 999999 999999 999999 999999 999999 999999 15115 10882 12682 13574 19009 16181 17530 17527 12793 17373 12822 12068 14260 16402 17965 17652 11444 12899 13195 17267 11745 18577 16796 17406 17048 13710 15920 13243 10328 11079 17305 16894 17129 18212 13051 15091 18063 11084 19332 15560 13621 14940 17976 14004 12909 11486 14802 10055 12886 18679 999999
999999 999999 999999 999999 999999 999999 999999 999999 999999 999999 999999 999999 999999 999999 999999 999999 999999 999999 999999 999999 999999 999999 999999 999999 999999 999999 999999 999999 999999 999999 999999 999999 999999 999999 999999 999999 999999 999999 999999 999999 999999 999999 999999 999999 0 999999 999999 999999 999999 999999 999999 999999 999999 999999 999999 999999 999999 999999 999999 999999 999999 10188 10795 16591 17025 18218 10320 10924 16007 13767 16760 19541 19383 11134 10881 13760 15921 11943 16621 12039 19266 15381 16651 10884 18436 12138 12781 14806 15989 12399 14605 14441 18808 16118 16087 12104 11062 15408 13624 13305 14415 17084 10308 13598 10521 18426 11192 18324 18043 11028 14916 999999
999999 999999 999999 999999 999999 999999 999999 999999 999999 999999 999999 999999 999999 999999 999999 999999 999999 999999 999999 999999 999999 999999 999999 999999 999999 999999 999999 999999 999999 999999 999999 999999 999999 999999 999999 999999 999999 999999 999999 999999 999999 999999 999999 999999 999999 0 999999 999999 999999 999999 999999 999999 999999 999999 999999 999999 999999 999999 999999 999999 999999 17148 19509 12779 15726 13022 15143 12885 15341 18654 14221 16215 15906 19727 13764 17272 16292 14747 12613 16647 18494 18341 13069 17640 13949 17059 12888 14117 10201 10620 13589 15308 12085 14728 12564 11413 19735 17288 15943 14918 13049 14041 11331 14628 19288 11780 13638 18342 11618 14087 13771 999999
999999 999999 999999 999999 999999 999999 999999 999999 999999 999999 999999 999999 999999 999999 999999 999999 999999 999999 999999 999999 999999 999999 999999 999999 999999 999999 999999 999999 999999 999999 999999 999999 999999 999999 999999 999999 999999 999999 999999 999999 999999 999999 999999 999999 999999 999999 0 999999 999999 999999 999999 999999 999999 999999 999999 999999 999999 999999 999999 999999 999999 16007 10106 12736 11988 18049 14896 11127 13325 19583 10415 14894 15683 14325 19892 19662 15146 19195 16292 19674 10276 17211 17984 12909 19703 15528 19855 17960 10702 14248 19571 16787 16698 17428 13280 13368 15455 16037 15179 13939 10368 16619 15663 13034 15945 18493 14805 10731 15918 17187 10163 999999
999999 999999 999999 999999 999999 999999 999999 999999 999999 999999 999999 999999 999999 999999 999999 999999 999999 999999 999999 999999 999999 999999 999999 999999 999999 999999 999999 999999 999999 999999 999999 999999 999999 999999 999999 999999 999999 999999 999999 999999 999999 999999 999999 999999 999999 999999 999999 0 999999 999999 999999 999999 999999 999999 999999 999999 999999 999999 999999 999999 999999 13492 10802 11360 13987 14538 19905 19331 15021 10722 12054 17196 11169 14988 13709 13358 10100 19213 14484 18807 19003 17082 18348 12881 11902 15252 17826 17359 11915 17033 17571 18694 12561 14061 19864 18748 18017 17073 14313 11949 14564 12611 18020 16976 12210 18916 12214 18942 16567 11917 18692 999999
999999 999999 999999 999999 999999 999999 999999 999999 999999 999999 999999 999999 999999 999999 999999 999999 999999 999999 999999 999999 999999 999999 999999 999999 999999 999999 999999 999999 999999 999999 999999 999999 999999 999999 999999 999999 999999 999999 999999 999999 999999 999999 999999 999999 999999 999999 999999 999999 0 999999 999999 999999 999999 999999 999999 999999 999999 999999 999999 999999 999999 11092 12435 10895 16195 19425 17001 17452 17786 10253 19823 14985 12952 10823 19583 17892 17852 15722 10884 12891 11468 10074 12953 19242 18853 11117 14378 10634 10004 10089 11448 12524 12812 15374 15737 19149 11863 12261 14506 12651 10354 10217 10448 11383 17177 10596 11858 12819 17526 10253 12114 999999
999999 999999 999999 999999 999999 999999 999999 999999 999999 999999 999999 999999 999999 999999 999999 999999 999999 999999 999999 999999 999999 999999 999999 999999 999999 999999 999999 999999 999999 999999 999999 999999 999999 999999 999999 999999 999999 999999 999999 999999 999999 999999 999999 999999 999999 999999 999999 999999 999999 0 999999 999999 999999 999999 999999 999999 999999 999999 999999 999999 999999 13239 13537 16558 11271 17059 12943 12324 18268 18769 15094 17398 11064 14245 19426 18943 17402 12625 11174 17728 11348 17443 10761 19898 14050 10537 15969 17763 19873 19421 10602 13689 13988 15220 15606 14428 15042 12895 14376 15679 15913 19269 16620 11788 18126 11407 19379 10018 17153 15929 11522 999999
999999 999999 999999 999999 999999 999999 999999 999999 999999 999999 999999 999999 999999 999999 999999 999999 999999 999999 999999 999999 999999 999999 999999 999999 999999 999999 999999 999999 999999 999999 999999 999999 999999 999999 999999 999999 999999 999999 999999 999999 999999 999999 999999 999999 999999 999999 999999 999999 999999 999999 0 999999 999999 999999 999999 999999 999999 999999 999999 999999 999999 14904 15713 13173 15725 19267 13505 11743 19968 12992 15307 18202 17327 18833 15340 18978 19069 14983 18059 10118 12554 13202 18160 19930 13657 17724 17829 12141 16626 11155 13711 16041 16761 13960 17780 16458 14794 16995 14044 14363 16248 12793 19840 12205 17072 15838 16848 19547 15810 17784 11679 999999
999999 999999 999999 999999 999999 999999 999999 999999 999999 999999 999999 999999 999999 999999 999999 999999 999999 999999 999999 999999 999999 999999 999999 999999 999999 999999 999999 999999 999999 999999 999999 999999 999999 999999 999999 999999 999999 999999 999999 999999 999999 999999 999999 999999 999999 999999 999999 999999 999999 999999 999999 0 999999 999999 999999 999999 999999 999999 999999 999999 999999 10848 14053 14706 19615 18169 16898 18205 12261 18551 17219 16873 19681 18876 14486 11115 18641 18435 12809 10512 19941 13906 15621 15856 14581 12242 17111 17504 16337 11392 17146 15228 11719 19143 13887 14753 17339 16356 14907 11391 17152 15906 11732 13823 10029 15917 10649 17914 18413 19916 11631 999999
999999 999999 999999 999999 999999 999999 999999 999999 999999 999999 999999 999999 999999 999999 999999 999999 999999 999999 999999 999999 999999 999999 999999 999999 999999 999999 999999 999999 999999 999999 999999 999999 999999 999999 999999 999999 999999 999999 999999 999999 999999 999999 999999 999999 999999 999999 999999 999999 999999 999999 999999 999999 0 999999 999999 999999 999999 999999 999999 999999 999999 17977 14902 15130 19847 18094 16506 10139 17939 19912 17694 18110 12794 15584 19590 15917 14941 13004 18379 17263 14836 16659 10394 11547 19115 16136 10464 13359 16925 12127 12078 11101 17416 15288 16063 11353 15927 18438 19606 16205 16625 16609 14408 15303 19216 19405 12649 17987 19263 15890 18619 999999
999999 999999 999999 999999 999999 999999 999999 999999 999999 999999 999999 999999 999999 999999 999999 999999 999999 999999 999999 999999 999999 999999 999999 999999 999999 999999 999999 999999 999999 999999 999999 999999 999999 999999 999999 999999 999999 999999 999999 999999 999999 999999 999999 999999 999999 999999 999999 999999 999999 999999 999999 999999 999999 0 999999 999999 999999 999999 999999 999999 999999 10975 18400 17497 16005 19258 16021 17128 11633 15768 11563 19826 15701 16731 16323 12227 12173 13474 10388 12717 15774 17700 19175 13089 11836 16376 10041 13594 11499 12718 12369 16008 19687 11493 15341 19650 17813 16494 13556 15496 16982 16983 15202 18403 14210 14857 15543 15922 10455 10892 10274 999999
999999 999999 999999 999999 999999 999999 999999 999999 999999 999999 999999 999999 999999 999999 999999 999999 999999 999999 999999 999999 999999 999999 999999 999999 999999 999999 999999 999999 999999 999999 999999 999999 999999 999999 999999 999999 999999 999999 999999 999999 999999 999999 999999 999999 999999 999999 999999 999999 999999 999999 999999 999999 999999 999999 0 999999 999999 999999 999999 999999 999999 11330 17757 14841 12611 17516 11280 14705 11252 11519 18771 15309 18380 11290 15785 15499 17371 12694 11845 14216 10800 17713 12383 13469 19448 10782 10974 14522 17794 16355 14969 19944 16877 14755 10982 16060 10691 15279 15207 16115 15857 15397 16630 14484 12165 12918 10405 15182 16493 10446 15761 999999
999999 999999 999999 999999 999999 999999 999999 999999 999999 999999 999999 999999 999999 999999 999999 999999 999999 999999 999999 999999 999999 999999 999999 999999 999999 999999 999999 999999 999999 999999 999999 999999 999999 999999 999999 999999 999999 999999 999999 999999 999999 999999 999999 999999 999999 999999 999999 999999 999999 999999 999999 999999 999999 999999 999999 0 999999 999999 999999 999999 999999 12860 10910 13244 19632 13281 18436 13281 15084 17165 15472 15260 16518 16242 15791 16654 19055 15502 13485 17741 12796 12596 18914 12577 14873 14354 15046 19170 12269 17777 13947 11188 16699 14860 19433 11407 13537 11463 12356 14598 17737 12765 17164 18366 18509 18663 14155 11515 14726 12872 14938 999999
999999 999999 999999 999999 999999 999999 999999 999999 999999 999999 999999 999999 999999 999999 999999 999999 999999 999999 999999 999999 999999 999999 999999 999999 999999 999999 999999 999999 999999 999999 999999 999999 999999 999999 999999 999999 999999 999999 999999 999999 999999 999999 999999 999999 999999 999999 999999 999999 999999 999999 999999 999999 999999 999999 999999 999999 0 999999 999999 999999 999999 17312 15069 14163 17949 18505 13039 17258 16387 14185 15731 10854 18998 16554 18688 11392 11762 10874 16209 11528 19628 19557 18377 20000 11347 14072 18241 16766 13971 14814 17806 16071 12893 11788 12915 11173 13836 19678 19815 18487 12128 13010 15420 17419 11821 14482 13141 12225 15569 16163 19908 999999
999999 999999 999999 999999 999999 999999 999999 999999 999999 999999 999999 999999 999999 999999 999999 999999 999999 999999 999999 999999 999999 999999 999999 999999 999999 999999 999999 999999 999999 999999 999999 999999 999999 999999 999999 999999 999999 999999 999999 999999 999999 999999 999999 999999 999999 999999 999999 999999 999999 999999 999999 999999 999999 999999 999999 999999 999999 0 999999 999999 999999 13847 14690 13122 10175 17782 15830 14325 15179 12874 18553 19142 10844 17013 13281 10291 14542 17946 12448 18056 14849 12506 10517 14406 19904 18319 12711 12817 14464 15266 18878 11379 13759 11886 14555 12152 10653 13006 17973 14684 15420 14202 14765 17561 17043 11969 10750 12180 11771 11618 11480 999999
999999 999999 999999 999999 999999 999999 999999 999999 999999 999999 999999 999999 999999 999999 999999 999999 999999 999999 999999 999999 999999 999999 999999 999999 999999 999999 999999 999999 999999 999999 999999 999999 999999 999999 999999 999999 999999 999999 999999 999999 999999 999999 999999 999999 999999 999999 999999 999999 999999 999999 999999 999999 999999 999999 999999 999999 999999 999999 0 999999 999999 16981 11485 10398 12145 13862 11111 13609 16572 16231 18952 15249 13813 19862 17513 13519 12344 18200 13000 14076 16310 14037 19366 10394 14126 10368 16249 17704 16641 18140 19205 15334 10670 10619 16388 14218 15912 13908 18122 12699 12180 17983 19681 13325 15464 14561 16624 18095 13807 10432 10896 999999
999999 999999 999999 999999 999999 999999 999999 999999 999999 999999 999999 999999 999999 999999 999999 999999 999999 999999 999999 999999 999999 999999 999999 999999 999999 999999 999999 999999 999999 999999 999999 999999 999999 999999 999999 999999 999999 999999 999999 999999 999999 999999 999999 999999 999999 999999 999999 999999 999999 999999 999999 999999 999999 999999 999999 999999 999999 999999 999999 0 999999 19422 17909 15271 16590 11425 10237 11049 18883 14591 14177 18055 16514 18114 15570 16453 15321 15540 16544 19148 10612 18157 16633 17898 10025 15129 18756 18687 10541 19502 17079 12935 13141 12581 11546 11605 16032 13915 10337 18602 17459 14693 14156 19853 13830 19117 16147 19206 19728 17342 18849 999999
999999 999999 999999 999999 999999 999999 999999 999999 999999 999999 999999 999999 999999 999999 999999 999999 999999 999999 999999 999999 999999 999999 999999 999999 999999 999999 999999 999999 999999 999999 999999 999999 999999 999999 999999 999999 999999 999999 999999 999999 999999 999999 999999 999999 999999 999999 999999 999999 999999 999999 999999 999999 999999 999999 999999 999999 999999 999999 999999 999999 0 17258 18829 19254 15995 16658 18633 10274 10348 18954 11706 16341 12699 19705 15709 11470 19602 17326 10992 15000 16463 10378 17627 13812 10361 13687 19203 14382 13232 18174 15359 17676 10894 14361 16697 19613 19692 16907 13822 16888 18722 12245 12410 11787 13962 13603 17047 11621 18301 16735 15591 999999
999999 15259 14304 15837 17233 10731 10527 12964 18014 16437 17856 14525 18736 17673 13159 10647 11913 12935 17837 12771 19198 19197 17249 16124 13620 19785 13826 11042 19649 19329 18143 11398 10527 16221 10828 12904 17011 15245 12217 14796 11081 17295 17503 15115 10188 17148 16007 13492 11092 13239 14904 10848 17977 10975 11330 12860 17312 13847 16981 19422 17258 0 999999 999999 999999 999999 999999 999999 999999 999999 999999 999999 999999 999999 999999 999999 999999 999999 999999 999999 999999 999999 999999 999999 999999 999999 999999 999999 999999 999999 999999 999999 999999 999999 999999 999999 999999 999999 999999 999999 999999 999999 999999 999999 999999 999999 999999 999999 999999 999999 999999 8146
999999 10075 17856 19114 13801 19544 15040 16729 12342 14374 12904 11622 11119 16920 13677 13079 16396 11454 10346 10227 19577 11396 17713 15438 13446 12683 16510 10133 12880 16813 13942 18862 10621 14486 15590 19184 10519 19996 13732 12081 18653 10151 12733 10882 10795 19509 10106 10802 12435 13537 15713 14053 14902 18400 17757 10910 15069 14690 11485 17909 18829 999999 0 999999 999999 999999 999999 999999 999999 999999 999999 999999 999999 999999 999999 999999 999999 999999 999999 999999 999999 999999 999999 999999 999999 999999 999999 999999 999999 999999 999999 999999 999999 999999 999999 999999 999999 999999 999999 999999 999999 999999 999999 999999 999999 999999 999999 999999 999999 999999 999999 10809
999999 16633 17287 19659 10896 18888 10947 16375 15545 15636 15288 15145 15609 16537 16081 11367 12419 13184 18229 17538 12109 12246 18888 12567 10259 16959 14595 12193 15204 15775 11240 10142 11902 10587 14534 17347 14437 19412 17109 17316 14597 14650 19510 12682 16591 12779 12736 11360 10895 16558 13173 14706 15130 17497 14841 13244 14163 13122 10398 15271 19254 999999 999999 0 999999 999999 999999 999999 999999 999999 999999 999999 999999 999999 999999 999999 999999 999999 999999 999999 999999 999999 999999 999999 999999 999999 999999 999999 999999 999999 999999 999999 999999 999999 999999 999999 999999 999999 999999 999999 999999 999999 999999 999999 999999 999999 999999 999999 999999 999999 999999 13669
999999 19419 10441 11596 12674 17211 16236 13095 11735 11228 16317 11515 12368 11644 16114 16113 13551 15485 14717 15815 16226 15985 15534 16416 19896 19258 17014 16041 11088 18480 14493 17402 13702 12498 14287 18033 12647 10678 17817 14222 18408 15172 10332 13574 17025 15726 11988 13987 16195 11271 15725 19615 19847 16005 12611 19632 17949 10175 12145 16590 15995 999999 999999 999999 0 999999 999999 999999 999999 999999 999999 999999 999999 999999 999999 999999 999999 999999 999999 999999 999999 999999 999999 999999 999999 999999 999999 999999 999999 999999 999999 999999 999999 999999 999999 999999 999999 999999 999999 999999 999999 999999 999999 999999 999999 999999 999999 999999 999999 999999 999999 6841
999999 19005 10764 19374 13526 11819 16296 14464 15968 17943 17604 15714 12809 13857 13153 14332 19070 11557 15746 11795 16807 17537 12437 16317 14727 16739 19180 14281 13311 10629 15096 16562 18048 18990 18595 10866 10672 12691 16678 14854 19585 18750 10832 19009 18218 13022 18049 14538 19425 17059 19267 18169 18094 19258 17516 13281 18505 17782 13862 11425 16658 999999 999999 999999 999999 0 999999 999999 999999 999999 999999 999999 999999 999999 999999 999999 999999 999999 999999 999999 999999 999999 999999 999999 999999 999999 999999 999999 999999 999999 999999 999999 999999 999999 999999 999999 999999 999999 999999 999999 999999 999999 999999 999999 999999 999999 999999 999999 999999 999999 999999 11851
999999 16729 19807 18817 13048 14952 14085 11526 11483 15971 18423 18600 10438 14524 19485 12525 13768 17715 13436 18651 11981 11374 17771 16276 12960 14773 15877 18697 19539 13554 18596 16167 16335 17976 12849 16773 11608 15151 18251 15945 12361 17744 19739 16181 10320 15143 14896 19905 17001 12943 13505 16898 16506 16021 11280 18436 13039 15830 11111 10237 18633 999999 999999 999999 999999 999999 0 999999 999999 999999 999999 999999 999999 999999 999999 999999 999999 999999 999999 999999 999999 999999 999999 999999 999999 999999 999999 999999 999999 999999 999999 999999 999999 999999 999999 999999 999999 999999 999999 999999 999999 999999 999999 999999 999999 999999 999999 999999 999999 999999 999999 5001
999999 13231 12723 13550 16328 12797 13737 16866 17832 11907 13183 15529 10418 14046 17479 18818 16150 10251 19838 13049 10767 18447 16193 11525 14936 12222 18148 18949 19591 15170 19317 12392 11457 13536 15154 11487 12077 16367 11208 13667 17429 19494 17178 17530 10924 12885 11127 19331 17452 12324 11743 18205 10139 17128 14705 13281 17258 14325 13609 11049 10274 999999 999999 999999 999999 999999 999999 0 999999 999999 999999 999999 999999 999999 999999 999999 999999 999999 999999 999999 999999 999999 999999 999999 999999 999999 999999 999999 999999 999999 999999 999999 999999 999999 999999 999999 999999 999999 999999 999999 999999 999999 999999 999999 999999 999999 999999 999999 999999 999999 999999 13370
999999 15829 18497 14497 13567 17457 12811 12122 15017 16014 11513 10052 18622 17441 16914 10832 16346 16534 15269 19505 19052 10463 16398 14080 19176 14364 17122 16022 10574 17774 12014 14285 10180 17480 17186 17113 13662 10399 14065 19715 12045 14003 13616 17527 16007 15341 13325 15021 17786 18268 19968 12261 17939 11633 11252 15084 16387 15179 16572 18883 10348 999999 999999 999999 999999 999999 999999 999999 0 999999 999999 999999 999999 999999 999999 999999 999999 999999 999999 999999 999999 999999 999999 999999 999999 999999 999999 999999 999999 999999 999999 999999 999999 999999 999999 999999 999999 999999 999999 999999 999999 999999 999999 999999 999999 999999 999999 999999 999999 999999 999999 10502
999999 12494 19998 15076 16392 12342 10930 19740 12626 12786 14523 10542 19630 15924 17610 19683 16174 16068 18001 16592 15561 18727 16905 11311 12323 17174 12552 16743 18837 19470 11587 17377 14423 16037 15256 11305 18192 16847 16793 15541 15997 12251 18558 12793 13767 18654 19583 10722 10253 18769 12992 18551 19912 15768 11519 17165 14185 12874 16231 14591 18954 999999 999999 999999 999999 999999 999999 999999 999999 0 999999 999999 999999 999999 999999 999999 999999 999999 999999 999999 999999 999999 999999 999999 999999 999999 999999 999999 999999 999999 999999 999999 999999 999999 999999 999999 999999 999999 999999 999999 999999 999999 999999 999999 999999 999999 999999 999999 999999 999999 999999 9785
999999 13372 18324 13513 16515 14583 18680 11598 15012 16008 11486 17488 15488 16820 18352 12816 13086 11828 10633 14590 11896 11534 18481 19888 14256 18808 18001 12631 11267 13434 12301 14433 18215 18745 14573 18557 17599 19764 14485 13392 14085 10821 14528 17373 16760 14221 10415 12054 19823 15094 15307 17219 17694 11563 18771 15472 15731 18553 18952 14177 11706 999999 999999 999999 999999 999999 999999 999999 999999 999999 0 999999 999999 999999 999999 999999 999999 999999 999999 999999 999999 999999 999999 999999 999999 999999 999999 999999 999999 999999 999999 999999 999999 999999 999999 999999 999999 999999 999999 999999 999999 999999 999999 999999 999999 999999 999999 999999 999999 999999 999999 13804
999999 13432 16907 12719 11497 11276 12941 14087 15795 11326 10267 19344 11840 15204 16489 16574 14556 18692 14072 14397 12832 19995 19003 14217 11898 12015 18315 16380 14821 19773 16332 16307 14421 18855 12709 12903 17046 13120 10063 10101 15485 11594 11664 12822 19541 16215 14894 17196 14985 17398 18202 16873 18110 19826 15309 15260 10854 19142 15249 18055 16341 999999 999999 999999 999999 999999 999999 999999 999999 999999 999999 0 999999 999999 999999 999999 999999 999999 999999 999999 999999 999999 999999 999999 999999 999999 999999 999999 999999 999999 999999 999999 999999 999999 999999 999999 999999 999999 999999 999999 999999 999999 999999 999999 999999 999999 999999 999999 999999 999999 999999 5711
999999 19973 13035 15146 16774 13480 17631 16621 16573 15922 17274 19390 10858 12181 12635 18254 17036 13755 12965 15689 18767 19420 10883 10858 10001 17398 18244 13004 17361 17467 14273 19849 18431 15895 15142 12122 18801 15422 13899 18454 15829 11195 12489 12068 19383 15906 15683 11169 12952 11064 17327 19681 12794 15701 18380 16518 18998 10844 13813 16514 12699 999999 999999 999999 999999 999999 999999 999999 999999 999999 999999 999999 0 999999 999999 999999 999999 999999 999999 999999 999999 999999 999999 999999 999999 999999 999999 999999 999999 999999 999999 999999 999999 999999 999999 999999 999999 999999 999999 999999 999999 999999 999999 999999 999999 999999 999999 999999 999999 999999 999999 12199
999999 14738 16922 19595 18037 12234 19009 13564 19605 13695 13827 17011 18959 18315 17249 17897 11291 13017 14863 14069 15510 19656 16568 19058 16937 18578 19428 19344 14636 17941 12005 12565 19479 16391 17354 16057 17223 16166 15068 15542 19061 14442 12589 14260 11134 19727 14325 14988 10823 14245 18833 18876 15584 16731 11290 16242 16554 17013 19862 18114 19705 999999 999999 999999 999999 999999 999999 999999 999999 999999 999999 999999 999999 0 999999 999999 999999 999999 999999 999999 999999 999999 999999 999999 999999 999999 999999 999999 999999 999999 999999 999999 999999 999999 999999 999999 999999 999999 999999 999999 999999 999999 999999 999999 999999 999999 999999 999999 999999 999999 999999 12373
999999 13463 17332 19695 13508 17575 17629 17470 14290 11654 10171 15623 15566 19581 12623 17605 17232 17057 14492 18194 13142 12771 15497 14659 10601 18758 14060 12028 19148 15277 16490 10810 15271 10472 16892 10494 13193 17653 11482 16550 16178 14873 12620 16402 10881 13764 19892 13709 19583 19426 15340 14486 19590 16323 15785 15791 18688 13281 17513 15570 15709 999999 999999 999999 999999 999999 999999 999999 999999 999999 999999 999999 999999 999999 0 999999 999999 999999 999999 999999 999999 999999 999999 999999 999999 999999 999999 999999 999999 999999 999999 999999 999999 999999 999999 999999 999999 999999 999999 999999 999999 999999 999999 999999 999999 999999 999999 999999 999999 999999 999999 12829
999999 13563 12377 16422 11435 15942 12012 16707 16008 13064 17167 19304 17210 17403 15357 13953 14843 10733 19679 16215 10094 12777 10972 13214 12943 14661 13058 17364 13731 19711 11774 16670 14996 11041 18004 18255 12490 13090 15462 19570 17601 17141 10771 17965 13760 17272 19662 13358 17892 18943 18978 11115 15917 12227 15499 16654 11392 10291 13519 16453 11470 999999 999999 999999 999999 999999 999999 999999 999999 999999 999999 999999 999999 999999 999999 0 999999 999999 999999 999999 999999 999999 999999 999999 999999 999999 999999 999999 999999 999999 999999 999999 999999 999999 999999 999999 999999 999999 999999 999999 999999 999999 999999 999999 999999 999999 999999 999999 999999 999999 999999 7744
999999 19936 14675 13846 14917 19638 10836 17001 12229 16626 13321 13134 13528 14275 10785 14535 19852 13527 11494 13415 19557 11339 11130 19607 19261 18014 14481 19126 18400 14275 19572 10626 14136 15120 14310 15442 13619 19449 15593 17054 10812 11551 19209 17652 15921 16292 15146 10100 17852 17402 19069 18641 14941 12173 17371 19055 11762 14542 12344 15321 19602 999999 999999 999999 999999 999999 999999 999999 999999 999999 999999 999999 999999 999999 999999 999999 0 999999 999999 999999 999999 999999 999999 999999 999999 999999 999999 999999 999999 999999 999999 999999 999999 999999 999999 999999 999999 999999 999999 999999 999999 999999 999999 999999 999999 999999 999999 999999 999999 999999 999999 5785
999999 15107 17586 14358 15729 13464 14654 14240 19798 13087 15949 17373 14176 16442 12432 13747 12431 18923 18466 15676 19636 16464 16541 12598 14309 13568 10074 15614 13238 15381 13898 10674 15378 18952 16135 10413 15919 12426 10028 18684 11658 16591 18136 11444 11943 14747 19195 19213 15722 12625 14983 18435 13004 13474 12694 15502 10874 17946 18200 15540 17326 999999 999999 999999 999999 999999 999999 999999 999999 999999 999999 999999 999999 999999 999999 999999 999999 0 999999 999999 999999 999999 999999 999999 999999 999999 999999 999999 999999 999999 999999 999999 999999 999999 999999 999999 999999 999999 999999 999999 999999 999999 999999 999999 999999 999999 999999 999999 999999 999999 999999 13267
999999 17841 13744 13467 15693 19007 14470 14798 12200 11197 11128 11230 18595 17927 14257 10682 17725 12404 10745 19275 14137 18962 11397 11780 14669 16522 12892 12385 16313 13892 14672 19890 15193 12644 18546 10758 14457 15866 19381 14323 12291 18037 18861 12899 16621 12613 16292 14484 10884 11174 18059 12809 18379 10388 11845 13485 16209 12448 13000 16544 10992 999999 999999 999999 999999 999999 999999 999999 999999 999999 999999 999999 999999 999999 999999 999999 999999 999999 0 999999 999999 999999 999999 999999 999999 999999 999999 999999 999999 999999 999999 999999 999999 999999 999999 999999 999999 999999 999999 999999 999999 999999 999999 999999 999999 999999 999999 999999 999999 999999 999999 12832
999999 14163 17017 13917 16693 16355 10256 10189 18315 10502 12572 11628 12500 19465 19600 11135 19846 16003 13261 13245 12131 17337 12400 12537 19746 12654 10705 10667 11366 10086 16022 12361 14436 13620 10568 14213 14546 14265 12484 12124 16761 11861 15726 13195 12039 16647 19674 18807 12891 17728 10118 10512 17263 12717 14216 17741 11528 18056 14076 19148 15000 999999 999999 999999 999999 999999 999999 999999 999999 999999 999999 999999 999999 999999 999999 999999 999999 999999 999999 0 999999 999999 999999 999999 999999 999999 999999 999999 999999 999999 999999 999999 999999 999999 999999 999999 999999 999999 999999 999999 999999 999999 999999 999999 999999 999999 999999 999999 999999 999999 999999 13159
999999 10205 17306 15000 10440 17359 10851 12817 16458 10808 11321 16585 19199 15738 17098 13715 14622 11741 15313 16935 16104 16757 10453 18723 11871 16593 11222 18247 19166 17359 15400 16487 16941 16646 14971 13782 18839 17579 17191 17272 13424 13196 13479 17267 19266 18494 10276 19003 11468 11348 12554 19941 14836 15774 10800 12796 19628 14849 16310 10612 16463 999999 999999 999999 999999 999999 999999 999999 999999 999999 999999 999999 999999 999999 999999 999999 999999 999999 999999 999999 0 999999 999999 999999 999999 999999 999999 999999 999999 999999 999999 999999 999999 999999 999999 999999 999999 999999 999999 999999 999999 999999 999999 999999 999999 999999 999999 999999 999999 999999 999999 10845
999999 11071 11752 18916 19374 18479 14458 18710 12454 13967 13647 19146 18715 18093 14465 18309 16042 12424 12038 19671 13972 13033 14275 18321 10726 16713 18772 11634 18854 17485 16611 18581 12975 14430 12706 17755 18689 11101 11833 13870 18312 13586 14478 11745 15381 18341 17211 17082 10074 17443 13202 13906 16659 17700 17713 12596 19557 12506 14037 18157 10378 999999 999999 999999 999999 999999 999999 999999 999999 999999 999999 999999 999999 999999 999999 999999 999999 999999 999999 999999 999999 0 999999 999999 999999 999999 999999 999999 999999 999999 999999 999999 999999 999999 999999 999999 999999 999999 999999 999999 999999 999999 999999 999999 999999 999999 999999 999999 999999 999999 999999 14857
999999 11258 15033 15217 15870 10646 18566 17604 10480 11414 17171 15534 15245 12263 17872 15334 13685 12920 16685 10294 15953 17053 15361 13022 19177 18602 19485 16306 16921 19395 18201 19577 16567 13370 17440 12378 13813 15188 12184 17545 13048 17827 12914 18577 16651 13069 17984 18348 12953 10761 18160 15621 10394 19175 12383 18914 18377 10517 19366 16633 17627 999999 999999 999999 999999 999999 999999 999999 999999 999999 999999 999999 999999 999999 999999 999999 999999 999999 999999 999999 999999 999999 0 999999 999999 999999 999999 999999 999999 999999 999999 999999 999999 999999 999999 999999 999999 999999 999999 999999 999999 999999 999999 999999 999999 999999 999999 999999 999999 999999 999999 12196
999999 19614 19333 10653 14138 17658 15122 16678 18581 16873 13523 19677 18085 11591 13929 13680 12069 12642 13725 16246 14184 14818 15994 14358 14455 15623 17087 11174 17537 13958 10149 15179 16264 13260 17470 18264 19336 15283 17143 18815 12131 18009 19853 16796 10884 17640 12909 12881 19242 19898 19930 15856 11547 13089 13469 12577 20000 14406 10394 17898 13812 999999 999999 999999 999999 999999 999999 999999 999999 999999 999999 999999 999999 999999 999999 999999 999999 999999 999999 999999 999999 999999 999999 0 999999 999999 999999 999999 999999 999999 999999 999999 999999 999999 999999 999999 999999 999999 999999 999999 999999 999999 999999 999999 999999 999999 999999 999999 999999 999999 999999 12528
999999 13066 12418 15866 10609 18701 17417 16885 14023 19565 17432 17289 12131 11554 11853 11607 13395 12569 11667 15226 16196 13125 11509 19996 12918 17579 19516 19574 15621 12883 14315 10309 16393 14159 11392 11935 19600 13299 10850 13381 15134 16990 15275 17406 18436 13949 19703 11902 18853 14050 13657 14581 19115 11836 19448 14873 11347 19904 14126 10025 10361 999999 999999 999999 999999 999999 999999 999999 999999 999999 999999 999999 999999 999999 999999 999999 999999 999999 999999 999999 999999 999999 999999 999999 0 999999 999999 999999 999999 999999 999999 999999 999999 999999 999999 999999 999999 999999 999999 999999 999999 999999 999999 999999 999999 999999 999999 999999 999999 999999 999999 12387
999999 17405 12068 13754 14620 10048 19004 11362 17006 14290 18329 18862 19525 16895 11482 19637 19938 13029 12753 12054 13596 11028 10585 10541 11303 16682 16779 15966 17839 13402 16995 14521 13277 10029 15380 12561 17244 17283 10377 13419 12572 11336 16327 17048 12138 17059 15528 15252 11117 10537 17724 12242 16136 16376 10782 14354 14072 18319 10368 15129 13687 999999 999999 999999 999999 999999 999999 999999 999999 999999 999999 999999 999999 999999 999999 999999 999999 999999 999999 999999 999999 999999 999999 999999 999999 0 999999 999999 999999 999999 999999 999999 999999 999999 999999 999999 999999 999999 999999 999999 999999 999999 999999 999999 999999 999999 999999 999999 999999 999999 999999 14070
999999 14429 11630 19502 17280 14150 11705 11414 19690 12096 15639 14828 11035 13006 10163 17940 14917 19368 10491 18214 15193 11510 12904 12027 13325 12033 12868 17139 11704 12510 19718 12095 19624 17751 17606 17834 12536 16584 11833 14069 17013 10573 19345 13710 12781 12888 19855 17826 14378 15969 17829 17111 10464 10041 10974 15046 18241 12711 16249 18756 19203 999999 999999 999999 999999 999999 999999 999999 999999 999999 999999 999999 999999 999999 999999 999999 999999 999999 999999 999999 999999 999999 999999 999999 999999 999999 0 999999 999999 999999 999999 999999 999999 999999 999999 999999 999999 999999 999999 999999 999999 999999 999999 999999 999999 999999 999999 999999 999999 999999 999999 11081
999999 18717 11529 10509 14984 17381 12156 10786 10803 17104 10011 12714 17493 10726 16218 11101 13711 14015 13922 10701 14891 13975 19778 14936 20000 19186 17329 10227 10289 10595 19216 19460 18736 14533 14328 18978 18736 18271 12452 13064 16491 18598 13652 15920 14806 14117 17960 17359 10634 17763 12141 17504 13359 13594 14522 19170 16766 12817 17704 18687 14382 999999 999999 999999 999999 999999 999999 999999 999999 999999 999999 999999 999999 999999 999999 999999 999999 999999 999999 999999 999999 999999 999999 999999 999999 999999 999999 0 999999 999999 999999 999999 999999 999999 999999 999999 999999 999999 999999 999999 999999 999999 999999 999999 999999 999999 999999 999999 999999 999999 999999 9971
999999 13857 16639 19365 19830 10817 17405 11723 15956 18964 18617 13104 10178 14167 18129 11687 19728 17087 10567 15098 14246 15660 17154 10558 10145 12931 10424 11894 11236 18927 19524 11754 19953 16598 16315 11746 14978 13743 13468 19423 11124 17955 14194 13243 15989 10201 10702 11915 10004 19873 16626 16337 16925 11499 17794 12269 13971 14464 16641 10541 13232 999999 999999 999999 999999 999999 999999 999999 999999 999999 999999 999999 999999 999999 999999 999999 999999 999999 999999 999999 999999 999999 999999 999999 999999 999999 999999 999999 0 999999 999999 999999 999999 999999 999999 999999 999999 999999 999999 999999 999999 999999 999999 999999 999999 999999 999999 999999 999999 999999 999999 9187
999999 14055 12393 12999 19202 11269 15013 11844 10892 13779 18757 12672 18758 10321 17009 15310 14727 14717 14598 12599 16486 16868 10747 15685 14126 10797 11980 19863 14685 10711 16491 19981 11321 16254 19645 18230 13037 11215 11444 15699 17640 14394 11177 10328 12399 10620 14248 17033 10089 19421 11155 11392 12127 12718 16355 17777 14814 15266 18140 19502 18174 999999 999999 999999 999999 999999 999999 999999 999999 999999 999999 999999 999999 999999 999999 999999 999999 999999 999999 999999 999999 999999 999999 999999 999999 999999 999999 999999 999999 0 999999 999999 999999 999999 999999 999999 999999 999999 999999 999999 999999 999999 999999 999999 999999 999999 999999 999999 999999 999999 999999 6259
999999 19133 16073 17072 17232 13427 11036 16040 11139 10198 17773 14721 16250 17874 12099 12208 10670 15080 14021 11961 19114 10596 18465 17462 19201 10431 14367 15009 11378 13961 11155 19628 13684 11719 16817 14345 15760 14696 18813 14750 14919 11019 12801 11079 14605 13589 19571 17571 11448 10602 13711 17146 12078 12369 14969 13947 17806 18878 19205 17079 15359 999999 999999 999999 999999 999999 999999 999999 999999 999999 999999 999999 999999 999999 999999 999999 999999 999999 999999 999999 999999 999999 999999 999999 999999 999999 999999 999999 999999 999999 0 999999 999999 999999 999999 999999 999999 999999 999999 999999 999999 999999 999999 999999 999999 999999 999999 999999 999999 999999 999999 7739
999999 16607 18722 15029 12741 18289 15478 12397 15548 19673 14767 10809 13610 11875 17277 13725 18612 13241 17628 19587 10606 16403 11979 17171 15360 11595 12378 13565 19259 11493 10445 17938 15412 10702 16823 12474 10307 18874 15616 10841 18299 18662 15999 17305 14441 15308 16787 18694 12524 13689 16041 15228 11101 16008 19944 11188 16071 11379 15334 12935 17676 999999 999999 999999 999999 999999 999999 999999 999999 999999 999999 999999 999999 999999 999999 999999 999999 999999 999999 999999 999999 999999 999999 999999 999999 999999 999999 999999 999999 999999 999999 0 999999 999999 999999 999999 999999 999999 999999 999999 999999 999999 999999 999999 999999 999999 999999 999999 999999 999999 999999 7142
999999 10652 16670 13535 15538 16895 13498 13538 13261 10341 19687 18595 19628 16695 10305 11777 18842 11531 13545 10745 17381 11429 19416 12195 15154 17214 11258 11059 12682 14233 19347 16290 18428 18786 11094 14737 14483 19950 19249 15876 18630 11779 11746 16894 18808 12085 16698 12561 12812 13988 16761 11719 17416 19687 16877 16699 12893 13759 10670 13141 10894 999999 999999 999999 999999 999999 999999 999999 999999 999999 999999 999999 999999 999999 999999 999999 999999 999999 999999 999999 999999 999999 999999 999999 999999 999999 999999 999999 999999 999999 999999 999999 0 999999 999999 999999 999999 999999 999999 999999 999999 999999 999999 999999 999999 999999 999999 999999 999999 999999 999999 11032
999999 17869 15709 13327 19338 15566 18237 17730 12314 13778 13387 16743 11267 16736 13799 11589 15828 16931 10660 19063 16306 17265 13792 10284 10480 14261 13381 17690 18289 10968 15849 18622 19774 13934 10513 10284 18826 19297 13476 17571 16607 15110 11031 17129 16118 14728 17428 14061 15374 15220 13960 19143 15288 11493 14755 14860 11788 11886 10619 12581 14361 999999 999999 999999 999999 999999 999999 999999 999999 999999 999999 999999 999999 999999 999999 999999 999999 999999 999999 999999 999999 999999 999999 999999 999999 999999 999999 999999 999999 999999 999999 999999 999999 0 999999 999999 999999 999999 999999 999999 999999 999999 999999 999999 999999 999999 999999 999999 999999 999999 999999 9430
999999 18546 10508 11336 19948 17987 13635 19624 17575 14775 12553 11775 14620 10684 10300 11128 11330 15613 19684 17097 14456 13725 10569 16825 11882 15694 11267 10853 16369 14439 17840 16466 13944 18719 15763 11629 17349 17941 18843 15816 13190 15043 19524 18212 16087 12564 13280 19864 15737 15606 17780 13887 16063 15341 10982 19433 12915 14555 16388 11546 16697 999999 999999 999999 999999 999999 999999 999999 999999 999999 999999 999999 999999 999999 999999 999999 999999 999999 999999 999999 999999 999999 999999 999999 999999 999999 999999 999999 999999 999999 999999 999999 999999 999999 0 999999 999999 999999 999999 999999 999999 999999 999999 999999 999999 999999 999999 999999 999999 999999 999999 5865
999999 14994 13421 18835 10339 17564 15072 18590 14260 11616 10499 14550 12246 17677 14444 10324 16208 14056 12166 12608 12405 13935 18806 12357 17073 18918 17646 12871 14443 10343 19209 12404 16204 11180 11589 12444 11182 14459 14382 14475 19158 10307 15818 13051 12104 11413 13368 18748 19149 14428 16458 14753 11353 19650 16060 11407 11173 12152 14218 11605 19613 999999 999999 999999 999999 999999 999999 999999 999999 999999 999999 999999 999999 999999 999999 999999 999999 999999 999999 999999 999999 999999 999999 999999 999999 999999 999999 999999 999999 999999 999999 999999 999999 999999 999999 0 999999 999999 999999 999999 999999 999999 999999 999999 999999 999999 999999 999999 999999 999999 999999 5617
999999 19410 15806 12627 18223 15993 12275 15610 14000 15586 13800 12451 10332 16604 17363 19108 10985 18082 16932 11524 16796 16358 13474 17835 18114 13117 10518 17959 10501 10471 10356 14864 13258 13426 17798 14538 12051 11359 10328 18681 11696 15809 13548 15091 11062 19735 15455 18017 11863 15042 14794 17339 15927 17813 10691 13537 13836 10653 15912 16032 19692 999999 999999 999999 999999 999999 999999 999999 999999 999999 999999 999999 999999 999999 999999 999999 999999 999999 999999 999999 999999 999999 999999 999999 999999 999999 999999 999999 999999 999999 999999 999999 999999 999999 999999 999999 0 999999 999999 999999 999999 999999 999999 999999 999999 999999 999999 999999 999999 999999 999999 9891
999999 11274 14215 15650 16530 14115 13598 14824 13875 10307 10182 16656 14216 18146 16105 18019 14914 13469 11097 19260 17138 18156 12336 19827 10741 16145 13115 16448 15304 14135 12044 18322 15866 11228 14239 19962 11176 12645 18262 11616 11277 18457 17188 18063 15408 17288 16037 17073 12261 12895 16995 16356 18438 16494 15279 11463 19678 13006 13908 13915 16907 999999 999999 999999 999999 999999 999999 999999 999999 999999 999999 999999 999999 999999 999999 999999 999999 999999 999999 999999 999999 999999 999999 999999 999999 999999 999999 999999 999999 999999 999999 999999 999999 999999 999999 999999 999999 0 999999 999999 999999 999999 999999 999999 999999 999999 999999 999999 999999 999999 999999 13373
999999 14384 19276 19521 14368 12890 16310 19460 19341 16086 19502 16551 13470 15081 19392 15005 13797 14214 18344 10054 15442 13187 11459 19952 17143 13149 11836 15501 12668 11812 18107 17749 11942 17400 11287 18241 12821 10576 15024 18921 18833 15704 13013 11084 13624 15943 15179 14313 14506 14376 14044 14907 19606 13556 15207 12356 19815 17973 18122 10337 13822 999999 999999 999999 999999 999999 999999 999999 999999 999999 999999 999999 999999 999999 999999 999999 999999 999999 999999 999999 999999 999999 999999 999999 999999 999999 999999 999999 999999 999999 999999 999999 999999 999999 999999 999999 999999 999999 0 999999 999999 999999 999999 999999 999999 999999 999999 999999 999999 999999 999999 7405
999999 14368 13572 18079 18561 18083 19199 18072 13369 18811 11497 10809 14711 15134 17126 19050 14392 10613 10658 11367 19258 17452 18243 15061 10800 12755 10641 11509 10445 16018 15147 12572 11721 10809 11773 19865 16851 19239 12387 13707 14230 16122 14343 19332 13305 14918 13939 11949 12651 15679 14363 11391 16205 15496 16115 14598 18487 14684 12699 18602 16888 999999 999999 999999 999999 999999 999999 999999 999999 999999 999999 999999 999999 999999 999999 999999 999999 999999 999999 999999 999999 999999 999999 999999 999999 999999 999999 999999 999999 999999 999999 999999 999999 999999 999999 999999 999999 999999 999999 0 999999 999999 999999 999999 999999 999999 999999 999999 999999 999999 999999 6899
999999 13507 17843 19212 18023 11170 17948 10699 17328 17217 14081 17132 13948 17417 10500 14153 15300 19202 11446 19581 13013 10052 19527 17852 16573 16471 15422 14882 17586 16200 11288 10156 19772 14678 12167 17255 13608 13309 17999 12632 15962 13910 11262 15560 14415 13049 10368 14564 10354 15913 16248 17152 16625 16982 15857 17737 12128 15420 12180 17459 18722 999999 999999 999999 999999 999999 999999 999999 999999 999999 999999 999999 999999 999999 999999 999999 999999 999999 999999 999999 999999 999999 999999 999999 999999 999999 999999 999999 999999 999999 999999 999999 999999 999999 999999 999999 999999 999999 999999 999999 0 999999 999999 999999 999999 999999 999999 999999 999999 999999 999999 10238
999999 16395 15939 14602 17364 16132 13710 12099 10085 14387 15902 17563 11370 15160 17739 14379 12830 16247 17932 18597 11926 13037 18992 15099 11277 15970 12798 11355 15367 19821 19258 17123 17149 18561 10287 19066 18122 13245 13741 19707 11277 17061 11639 13621 17084 14041 16619 12611 10217 19269 12793 15906 16609 16983 15397 12765 13010 14202 17983 14693 12245 999999 999999 999999 999999 999999 999999 999999 999999 999999 999999 999999 999999 999999 999999 999999 999999 999999 999999 999999 999999 999999 999999 999999 999999 999999 999999 999999 999999 999999 999999 999999 999999 999999 999999 999999 999999 999999 999999 999999 999999 0 999999 999999 999999 999999 999999 999999 999999 999999 999999 8655
999999 13145 12751 16094 11705 12648 10048 16949 16144 14727 16128 10971 18865 10224 15415 12179 14392 11640 11915 18121 13272 15032 19601 16354 19685 16195 13227 11029 14889 16449 19360 10342 16514 16815 19387 15471 16300 14304 12775 11552 17310 16428 14232 14940 10308 11331 15663 18020 10448 16620 19840 11732 14408 15202 16630 17164 15420 14765 19681 14156 12410 999999 999999 999999 999999 999999 999999 999999 999999 999999 999999 999999 999999 999999 999999 999999 999999 999999 999999 999999 999999 999999 999999 999999 999999 999999 999999 999999 999999 999999 999999 999999 999999 999999 999999 999999 999999 999999 999999 999999 999999 999999 0 999999 999999 999999 999999 999999 999999 999999 999999 12696
999999 15461 18358 13551 14329 19288 18121 17914 17671 14889 16939 15329 15009 14419 17182 10331 13625 17156 19494 10981 17973 17600 10758 11364 12974 19301 15032 11044 12044 14073 19196 10607 13637 16701 14932 13090 18516 18206 13159 13651 12236 13457 11232 17976 13598 14628 13034 16976 11383 11788 12205 13823 15303 18403 14484 18366 17419 17561 13325 19853 11787 999999 999999 999999 999999 999999 999999 999999 999999 999999 999999 999999 999999 999999 999999 999999 999999 999999 999999 999999 999999 999999 999999 999999 999999 999999 999999 999999 999999 999999 999999 999999 999999 999999 999999 999999 999999 999999 999999 999999 999999 999999 999999 0 999999 999999 999999 999999 999999 999999 999999 9411
999999 11561 12779 19432 10452 13075 19261 13424 16479 15686 18289 11301 18199 12913 17957 15876 12336 10761 17631 19881 17743 14203 17185 10906 19847 19613 17973 17929 17659 18920 19153 13598 15421 11575 18943 19773 17397 18981 18738 14432 16744 10412 16811 14004 10521 19288 15945 12210 17177 18126 17072 10029 19216 14210 12165 18509 11821 17043 15464 13830 13962 999999 999999 999999 999999 999999 999999 999999 999999 999999 999999 999999 999999 999999 999999 999999 999999 999999 999999 999999 999999 999999 999999 999999 999999 999999 999999 999999 999999 999999 999999 999999 999999 999999 999999 999999 999999 999999 999999 999999 999999 999999 999999 999999 0 999999 999999 999999 999999 999999 999999 12778
999999 12863 15997 19448 17560 17715 10172 17718 18354 13945 16345 10077 11064 18873 16780 10338 19810 19706 18449 19960 10154 16311 14250 19396 11617 18013 17429 17699 11161 16223 19006 14706 13798 12350 10786 17171 10331 15984 18609 15774 17468 13696 12846 12909 18426 11780 18493 18916 10596 11407 15838 15917 19405 14857 12918 18663 14482 11969 14561 19117 13603 999999 999999 999999 999999 999999 999999 999999 999999 999999 999999 999999 999999 999999 999999 999999 999999 999999 999999 999999 999999 999999 999999 999999 999999 999999 999999 999999 999999 999999 999999 999999 999999 999999 999999 999999 999999 999999 999999 999999 999999 999999 999999 999999 999999 0 999999 999999 999999 999999 999999 6385
999999 14038 17776 10532 10263 12881 17142 15445 18155 10558 19902 16533 13828 13106 15501 13329 16278 11582 19986 15019 17193 11938 19219 14400 11061 10658 13166 13996 19144 15116 16896 19927 13459 19601 10942 18696 12068 16984 15592 10606 11343 10461 17063 11486 11192 13638 14805 12214 11858 19379 16848 10649 12649 15543 10405 14155 13141 10750 16624 16147 17047 999999 999999 999999 999999 999999 999999 999999 999999 999999 999999 999999 999999 999999 999999 999999 999999 999999 999999 999999 999999 999999 999999 999999 999999 999999 999999 999999 999999 999999 999999 999999 999999 999999 999999 999999 999999 999999 999999 999999 999999 999999 999999 999999 999999 999999 0 999999 999999 999999 999999 11548
999999 15847 11770 17836 12496 17898 19348 11670 12559 12173 14072 12586 17558 14556 16834 13103 11781 14311 13758 14483 16183 14611 14889 16231 17464 18466 18695 15395 15174 15193 14417 15850 13552 12447 13792 14041 19785 14983 10643 12329 17090 14569 18230 14802 18324 18342 10731 18942 12819 10018 19547 17914 17987 15922 15182 11515 12225 12180 18095 19206 11621 999999 999999 999999 999999 999999 999999 999999 999999 999999 999999 999999 999999 999999 999999 999999 999999 999999 999999 999999 999999 999999 999999 999999 999999 999999 999999 999999 999999 999999 999999 999999 999999 999999 999999 999999 999999 999999 999999 999999 999999 999999 999999 999999 999999 999999 999999 0 999999 999999 999999 9369
999999 17055 18447 11950 17147 16354 13112 10114 14670 13261 15957 10879 17334 18370 12225 12025 11201 14441 16039 16548 10529 11661 17381 12420 18501 18151 18012 18617 15465 16451 16104 13456 13112 13639 19030 16840 19015 15956 13703 18842 12319 14796 16154 10055 18043 11618 15918 16567 17526 17153 15810 18413 19263 10455 16493 14726 15569 11771 13807 19728 18301 999999 999999 999999 999999 999999 999999 999999 999999 999999 999999 999999 999999 999999 999999 999999 999999 999999 999999 999999 999999 999999 999999 999999 999999 999999 999999 999999 999999 999999 999999 999999 999999 999999 999999 999999 999999 999999 999999 999999 999999 999999 999999 999999 999999 999999 999999 999999 0 999999 999999 7776
999999 19890 16932 18112 10055 14501 16397 18576 11405 19843 17585 10494 12795 10203 11126 17726 10701 12426 19379 14338 16032 11914 17480 19533 13245 14320 19726 11336 13939 15241 14289 14735 13247 12596 17935 10500 18287 14430 18827 11426 17559 16531 16880 12886 11028 14087 17187 11917 10253 15929 17784 19916 15890 10892 10446 12872 16163 11618 10432 17342 16735 999999 999999 999999 999999 999999 999999 999999 999999 999999 999999 999999 999999 999999 999999 999999 999999 999999 999999 999999 999999 999999 999999 999999 999999 999999 999999 999999 999999 999999 999999 999999 999999 999999 999999 999999 999999 999999 999999 999999 999999 999999 999999 999999 999999 999999 999999 999999 999999 0 999999 8746
999999 13333 15597 15900 19368 12418 17069 17481 11244 14144 12613 10245 12168 11184 16899 19895 13526 10469 11699 15039 15050 10284 11155 14119 18600 18201 15509 16933 16772 12719 17220 19728 14446 17341 10790 18935 13515 10858 19111 19834 18707 16594 16270 18679 14916 13771 10163 18692 12114 11522 11679 11631 18619 10274 15761 14938 19908 11480 10896 18849 15591 999999 999999 999999 999999 999999 999999 999999 999999 999999 999999 999999 999999 999999 999999 999999 999999 999999 999999 999999 999999 999999 999999 999999 999999 999999 999999 999999 999999 999999 999999 999999 999999 999999 999999 999999 999999 999999 999999 999999 999999 999999 999999 999999 999999 999999 999999 999999 999999 999999 0 13205
1 999999 999999 999999 999999 999999 999999 999999 999999 999999 999999 999999 999999 999999 999999 999999 999999 999999 999999 999999 999999 999999 999999 999999 999999 999999 999999 999999 999999 999999 999999 999999 999999 999999 999999 999999 999999 999999 999999 999999 999999 999999 999999 999999 999999 999999 999999 999999 999999 999999 999999 999999 999999 999999 999999 999999 999999 999999 999999 999999 999999 999999 999999 999999 999999 999999 999999 999999 999999 999999 999999 999999 999999 999999 999999 999999 999999 999999 999999 999999 999999 999999 999999 999999 999999 999999 999999 999999 999999 999999 999999 999999 999999 999999 999999 999999 999999 999999 999999 999999 999999 999999 999999 999999 999999 999999 999999 999999 999999 999999 999999 0
EOF