NAME: GR_1x5x8_KH_5x8_Run_10
TYPE: TSP
COMMENT: BTSP instance |A|=40 GR nodes |B|=40 KH nodes depot=0.0 end=0.0.0
DIMENSION: 82
EDGE_WEIGHT_TYPE: EXPLICIT
EDGE_WEIGHT_FORMAT: FULL_MATRIX
NODE_COORD_TYPE: NO_COORDS
EDGE_WEIGHT_SECTION
0 12721 7052 8032 9950 14008 9720 8712 8601 12020 12044 6337 5292 7830 5167 5722 6283 10969 14286 9105 10008 13991 12991 7088 7132 6338 10783 8891 11663 12526 7156 13355 13966 9950 7871 11337 12011 8199 12404 14083 10103 999999 999999 999999 999999 999999 999999 999999 999999 999999 999999 999999 999999 999999 999999 999999 999999 999999 999999 999999 999999 999999 999999 999999 999999 999999 999999 999999 999999 999999 999999 999999 999999 999999 999999 999999 999999 999999 999999 999999 999999 999999
999999 0 999999 999999 999999 999999 999999 999999 999999 999999 999999 999999 999999 999999 999999 999999 999999 999999 999999 999999 999999 999999 999999 999999 999999 999999 999999 999999 999999 999999 999999 999999 999999 999999 999999 999999 999999 999999 999999 999999 999999 13244 13184 11661 15412 11437 16773 14617 12344 10528 14352 13747 11954 18272 12084 16533 11614 14893 12286 12792 11754 14732 10206 13956 13472 13629 16229 13748 18105 16693 16226 12038 18452 10298 12236 11514 13502 14080 18641 18349 11256 999999
999999 999999 0 999999 999999 999999 999999 999999 999999 999999 999999 999999 999999 999999 999999 999999 999999 999999 999999 999999 999999 999999 999999 999999 999999 999999 999999 999999 999999 999999 999999 999999 999999 999999 999999 999999 999999 999999 999999 999999 999999 12319 14679 11765 12851 16103 11586 14649 15952 11200 14949 16316 17818 12737 13026 12187 14974 13147 19939 10412 12394 10635 19309 11155 13963 11117 12955 11208 19110 10271 13907 14967 14857 19746 12767 11896 12879 13282 10697 10800 18007 999999
999999 999999 999999 0 999999 999999 999999 999999 999999 999999 999999 999999 999999 999999 999999 999999 999999 999999 999999 999999 999999 999999 999999 999999 999999 999999 999999 999999 999999 999999 999999 999999 999999 999999 999999 999999 999999 999999 999999 999999 999999 10739 15480 19513 13122 13650 10202 15111 15670 12934 15177 18237 13186 15035 12466 15297 11080 13319 11708 12107 13444 16593 14548 11293 18210 17666 13484 17161 14517 18014 16045 15503 19056 19883 19140 15851 11079 12763 16067 13624 13852 999999
999999 999999 999999 999999 0 999999 999999 999999 999999 999999 999999 999999 999999 999999 999999 999999 999999 999999 999999 999999 999999 999999 999999 999999 999999 999999 999999 999999 999999 999999 999999 999999 999999 999999 999999 999999 999999 999999 999999 999999 999999 18948 15895 17407 12053 19617 14864 14641 13754 12055 12722 19447 12959 18690 16062 15258 10372 10550 19402 10317 12808 13813 16574 17124 19855 16734 18831 18149 16667 11031 15882 17550 19517 12238 18148 15538 11198 19109 16059 15572 19884 999999
999999 999999 999999 999999 999999 0 999999 999999 999999 999999 999999 999999 999999 999999 999999 999999 999999 999999 999999 999999 999999 999999 999999 999999 999999 999999 999999 999999 999999 999999 999999 999999 999999 999999 999999 999999 999999 999999 999999 999999 999999 10813 19067 13896 12417 12691 13883 17322 15756 14690 10750 16273 14118 14894 12017 18444 12968 17001 14627 13283 17043 14195 13861 10660 10530 18170 16417 16248 14577 15121 14923 14822 16001 19452 16926 19904 16080 17129 19242 12200 14432 999999
999999 999999 999999 999999 999999 999999 0 999999 999999 999999 999999 999999 999999 999999 999999 999999 999999 999999 999999 999999 999999 999999 999999 999999 999999 999999 999999 999999 999999 999999 999999 999999 999999 999999 999999 999999 999999 999999 999999 999999 999999 15430 13523 18062 11721 18981 10904 10700 16920 12972 17392 10374 12911 11022 17695 12541 19756 13352 10635 16136 11922 18130 16998 12697 15309 11306 15760 10620 18635 17387 11487 16120 10662 10523 16068 16163 14108 16174 12501 14598 13870 999999
999999 999999 999999 999999 999999 999999 999999 0 999999 999999 999999 999999 999999 999999 999999 999999 999999 999999 999999 999999 999999 999999 999999 999999 999999 999999 999999 999999 999999 999999 999999 999999 999999 999999 999999 999999 999999 999999 999999 999999 999999 18855 17196 17952 11764 15644 17065 18323 14259 12752 17948 15264 12659 10956 12374 17402 10827 16530 18370 16760 15778 16851 15956 17718 12451 12680 17110 16398 13605 19644 17507 10335 17260 17444 15398 16858 17524 15641 11901 10679 19940 999999
999999 999999 999999 999999 999999 999999 999999 999999 0 999999 999999 999999 999999 999999 999999 999999 999999 999999 999999 999999 999999 999999 999999 999999 999999 999999 999999 999999 999999 999999 999999 999999 999999 999999 999999 999999 999999 999999 999999 999999 999999 11010 13215 12291 15603 19010 19163 11478 15169 11094 19073 13679 11226 16602 15729 10289 19858 15729 17682 15999 12230 10373 10537 10723 10307 18343 16326 12200 17153 19553 14673 15028 17508 18091 15378 18874 16141 17214 18727 14897 16179 999999
999999 999999 999999 999999 999999 999999 999999 999999 999999 0 999999 999999 999999 999999 999999 999999 999999 999999 999999 999999 999999 999999 999999 999999 999999 999999 999999 999999 999999 999999 999999 999999 999999 999999 999999 999999 999999 999999 999999 999999 999999 17279 17363 12941 15991 10054 17993 14218 14327 19832 18874 18027 17025 17841 10093 12793 13262 14992 14358 17428 14812 14673 15481 15070 19384 13649 16696 15241 11367 18530 18686 18594 18530 11310 12766 11053 19895 16262 13210 10492 10231 999999
999999 999999 999999 999999 999999 999999 999999 999999 999999 999999 0 999999 999999 999999 999999 999999 999999 999999 999999 999999 999999 999999 999999 999999 999999 999999 999999 999999 999999 999999 999999 999999 999999 999999 999999 999999 999999 999999 999999 999999 999999 14916 12247 18238 16670 11907 17282 15383 13377 12898 18494 19287 18221 11380 18483 14975 14446 13076 16935 12820 19463 19858 11853 10950 19912 15502 10197 15388 16190 19826 18702 14624 16933 13106 13233 14515 14202 16083 18595 19794 13541 999999
999999 999999 999999 999999 999999 999999 999999 999999 999999 999999 999999 0 999999 999999 999999 999999 999999 999999 999999 999999 999999 999999 999999 999999 999999 999999 999999 999999 999999 999999 999999 999999 999999 999999 999999 999999 999999 999999 999999 999999 999999 17713 17545 14190 17940 12663 16050 19917 18616 10318 10832 19854 12578 13211 15995 13525 15489 10720 17139 17580 17112 10293 17662 15229 14091 14709 18383 13939 17203 19308 17324 13286 17925 10596 19030 12561 14551 17716 16975 12941 15358 999999
999999 999999 999999 999999 999999 999999 999999 999999 999999 999999 999999 999999 0 999999 999999 999999 999999 999999 999999 999999 999999 999999 999999 999999 999999 999999 999999 999999 999999 999999 999999 999999 999999 999999 999999 999999 999999 999999 999999 999999 999999 14171 18740 11778 12244 19545 14061 18107 17794 17504 14115 18709 13304 18650 14681 14798 15510 16376 16077 12647 11847 18619 19145 12282 13134 12310 18742 14664 14534 10952 18560 12170 14672 14910 16822 10876 15507 12985 19063 11924 12435 999999
999999 999999 999999 999999 999999 999999 999999 999999 999999 999999 999999 999999 999999 0 999999 999999 999999 999999 999999 999999 999999 999999 999999 999999 999999 999999 999999 999999 999999 999999 999999 999999 999999 999999 999999 999999 999999 999999 999999 999999 999999 12409 18007 19393 11134 10428 10872 14262 13490 10623 17559 19371 16352 18295 10463 18367 19345 18551 12483 17745 17362 16560 15281 17295 12584 17471 18344 11976 15512 13996 13785 13709 13034 15951 18983 10207 17039 10929 13350 13870 12291 999999
999999 999999 999999 999999 999999 999999 999999 999999 999999 999999 999999 999999 999999 999999 0 999999 999999 999999 999999 999999 999999 999999 999999 999999 999999 999999 999999 999999 999999 999999 999999 999999 999999 999999 999999 999999 999999 999999 999999 999999 999999 16221 16101 11418 10369 12372 14398 15858 11745 10854 16215 18496 19928 12479 10187 13102 19535 11886 19556 13043 10465 18338 13690 12365 15468 13736 14240 15386 17878 18110 18160 18003 10601 13052 16424 11052 16550 10259 17611 10807 13892 999999
999999 999999 999999 999999 999999 999999 999999 999999 999999 999999 999999 999999 999999 999999 999999 0 999999 999999 999999 999999 999999 999999 999999 999999 999999 999999 999999 999999 999999 999999 999999 999999 999999 999999 999999 999999 999999 999999 999999 999999 999999 11070 14079 16640 14726 11981 12686 11356 10153 14854 19246 13462 16919 12445 15063 13061 16387 13637 18972 16495 16779 13100 15942 10427 15717 14597 15147 17283 12527 15394 16365 16762 10900 12569 19495 11299 15193 19678 17420 18464 16683 999999
999999 999999 999999 999999 999999 999999 999999 999999 999999 999999 999999 999999 999999 999999 999999 999999 0 999999 999999 999999 999999 999999 999999 999999 999999 999999 999999 999999 999999 999999 999999 999999 999999 999999 999999 999999 999999 999999 999999 999999 999999 13363 16843 12685 19699 17977 13679 12463 12652 15800 18547 18288 13414 18799 15533 16552 19727 11649 11761 19830 17982 12669 11257 11925 19175 12699 18779 18969 17879 13547 15847 19368 19658 13181 11100 18642 13769 19938 10176 15982 17998 999999
999999 999999 999999 999999 999999 999999 999999 999999 999999 999999 999999 999999 999999 999999 999999 999999 999999 0 999999 999999 999999 999999 999999 999999 999999 999999 999999 999999 999999 999999 999999 999999 999999 999999 999999 999999 999999 999999 999999 999999 999999 14575 17439 12051 12587 15956 15137 19117 17990 15314 13902 15361 19084 14329 17715 18262 11759 14624 15534 11430 11187 14416 11677 10219 16757 18397 13025 19335 15036 15472 12413 19177 15614 17675 14481 12084 16495 18656 16578 18592 14264 999999
999999 999999 999999 999999 999999 999999 999999 999999 999999 999999 999999 999999 999999 999999 999999 999999 999999 999999 0 999999 999999 999999 999999 999999 999999 999999 999999 999999 999999 999999 999999 999999 999999 999999 999999 999999 999999 999999 999999 999999 999999 19637 14263 10400 19506 10162 12683 12778 13884 19448 11340 15015 11653 11639 15330 11583 18610 13147 10489 11471 19507 16249 19115 16955 12523 14551 18273 13317 16126 18354 11719 16735 19672 14273 13797 14164 17247 14698 11475 16539 16011 999999
999999 999999 999999 999999 999999 999999 999999 999999 999999 999999 999999 999999 999999 999999 999999 999999 999999 999999 999999 0 999999 999999 999999 999999 999999 999999 999999 999999 999999 999999 999999 999999 999999 999999 999999 999999 999999 999999 999999 999999 999999 19007 15938 13330 10572 11488 13512 18463 17608 17899 17272 14251 11498 15542 19793 16587 16069 14112 19323 12788 11790 14994 19221 14749 15597 17320 13455 19619 11483 12822 14050 13482 16499 19295 15156 17991 13045 16302 11904 13761 13817 999999
999999 999999 999999 999999 999999 999999 999999 999999 999999 999999 999999 999999 999999 999999 999999 999999 999999 999999 999999 999999 0 999999 999999 999999 999999 999999 999999 999999 999999 999999 999999 999999 999999 999999 999999 999999 999999 999999 999999 999999 999999 13102 15351 12534 15757 13419 12881 18835 12106 16268 18098 16467 11994 19809 11100 13212 13555 18783 13079 13635 14603 19669 15086 13569 16693 19756 14282 13509 10023 13644 14978 17899 16350 15021 11278 15773 14905 16943 15476 12090 12691 999999
999999 999999 999999 999999 999999 999999 999999 999999 999999 999999 999999 999999 999999 999999 999999 999999 999999 999999 999999 999999 999999 0 999999 999999 999999 999999 999999 999999 999999 999999 999999 999999 999999 999999 999999 999999 999999 999999 999999 999999 999999 19052 19188 17151 11397 17223 10567 14892 19727 11563 12561 18775 19711 16194 14201 11277 16944 19921 10484 11435 17728 11825 15722 17720 12067 13878 19587 17570 14891 11359 18683 13379 14036 17691 10758 16512 18182 13913 10808 15027 11203 999999
999999 999999 999999 999999 999999 999999 999999 999999 999999 999999 999999 999999 999999 999999 999999 999999 999999 999999 999999 999999 999999 999999 0 999999 999999 999999 999999 999999 999999 999999 999999 999999 999999 999999 999999 999999 999999 999999 999999 999999 999999 10325 17250 16582 14201 18464 13162 16210 17269 14475 11439 18500 19717 13672 18674 14111 10726 19040 16924 12092 16727 14175 10018 14799 10232 15568 18496 14507 13799 15384 10200 13394 19085 12791 18125 16024 15206 15382 11170 11445 13081 999999
999999 999999 999999 999999 999999 999999 999999 999999 999999 999999 999999 999999 999999 999999 999999 999999 999999 999999 999999 999999 999999 999999 999999 0 999999 999999 999999 999999 999999 999999 999999 999999 999999 999999 999999 999999 999999 999999 999999 999999 999999 18999 16474 19818 10757 11375 19177 17886 19188 15887 11904 12498 18151 11062 17093 10162 16270 12439 18229 16277 15054 10239 16119 10171 11614 11305 17743 14612 13596 14455 17303 11315 14227 15695 18619 10487 13375 15999 16425 18382 11213 999999
999999 999999 999999 999999 999999 999999 999999 999999 999999 999999 999999 999999 999999 999999 999999 999999 999999 999999 999999 999999 999999 999999 999999 999999 0 999999 999999 999999 999999 999999 999999 999999 999999 999999 999999 999999 999999 999999 999999 999999 999999 11528 15973 15377 18191 19658 16955 19183 12980 10147 16336 11784 12872 11732 19495 13502 18211 10703 18679 15150 15044 11226 11931 12517 11002 15967 17244 19648 17924 19563 11263 19449 13449 15000 18048 17094 19731 16699 10044 15465 16278 999999
999999 999999 999999 999999 999999 999999 999999 999999 999999 999999 999999 999999 999999 999999 999999 999999 999999 999999 999999 999999 999999 999999 999999 999999 999999 0 999999 999999 999999 999999 999999 999999 999999 999999 999999 999999 999999 999999 999999 999999 999999 19176 10063 13294 13024 18885 17368 14584 17315 12303 13978 15480 11874 13370 15934 16167 15531 16448 16587 17232 13523 14483 16188 13621 18470 17322 12633 12110 17026 19905 14668 11011 13447 11311 18253 15619 14706 15851 19390 18196 14471 999999
999999 999999 999999 999999 999999 999999 999999 999999 999999 999999 999999 999999 999999 999999 999999 999999 999999 999999 999999 999999 999999 999999 999999 999999 999999 999999 0 999999 999999 999999 999999 999999 999999 999999 999999 999999 999999 999999 999999 999999 999999 13090 17232 11050 11981 19006 17361 17475 12980 17769 14718 13388 17550 15831 17660 11046 18974 18727 10123 14588 16416 18973 15700 16043 11442 13449 18892 11433 12671 16113 17425 14533 10057 15516 12830 16987 19246 12861 10036 15980 17812 999999
999999 999999 999999 999999 999999 999999 999999 999999 999999 999999 999999 999999 999999 999999 999999 999999 999999 999999 999999 999999 999999 999999 999999 999999 999999 999999 999999 0 999999 999999 999999 999999 999999 999999 999999 999999 999999 999999 999999 999999 999999 17102 14941 14634 13853 12465 16537 13302 12175 10675 16967 18609 19583 19117 13325 11339 15168 10840 17150 12956 14717 17351 15053 14894 12609 14324 13398 11703 11342 12523 17397 10479 14691 19030 15131 16487 16094 16927 13679 14373 18776 999999
999999 999999 999999 999999 999999 999999 999999 999999 999999 999999 999999 999999 999999 999999 999999 999999 999999 999999 999999 999999 999999 999999 999999 999999 999999 999999 999999 999999 0 999999 999999 999999 999999 999999 999999 999999 999999 999999 999999 999999 999999 16385 11619 18657 13492 15105 19936 19490 17108 16756 18842 16802 14678 10303 14752 18118 12832 17377 12469 19307 10347 12461 14947 13396 10254 12529 18245 18401 12438 18097 12484 16008 14597 13247 15261 17857 10100 17874 17591 11722 12556 999999
999999 999999 999999 999999 999999 999999 999999 999999 999999 999999 999999 999999 999999 999999 999999 999999 999999 999999 999999 999999 999999 999999 999999 999999 999999 999999 999999 999999 999999 0 999999 999999 999999 999999 999999 999999 999999 999999 999999 999999 999999 12467 17007 18484 16322 12608 11413 19603 15422 17206 13838 13536 16411 12957 19466 15755 16820 18420 15168 15766 15290 19577 18513 17549 13814 16397 19189 15676 16742 13184 12090 11233 16770 19762 14461 14203 19254 14132 11344 13687 19638 999999
999999 999999 999999 999999 999999 999999 999999 999999 999999 999999 999999 999999 999999 999999 999999 999999 999999 999999 999999 999999 999999 999999 999999 999999 999999 999999 999999 999999 999999 999999 0 999999 999999 999999 999999 999999 999999 999999 999999 999999 999999 19166 14494 18046 14851 10105 11380 16408 13212 16398 13978 11140 19295 18315 13041 11281 14672 10498 13615 11475 14647 15092 19623 11595 12708 14613 18151 14131 10904 12274 14460 15067 16647 13557 18226 15613 16277 10347 19188 17420 18998 999999
999999 999999 999999 999999 999999 999999 999999 999999 999999 999999 999999 999999 999999 999999 999999 999999 999999 999999 999999 999999 999999 999999 999999 999999 999999 999999 999999 999999 999999 999999 999999 0 999999 999999 999999 999999 999999 999999 999999 999999 999999 18083 17050 12844 19040 19174 11774 16944 13862 12347 10682 16244 17643 17904 16380 14082 17230 18834 13829 18527 19847 19028 13020 13158 18255 15312 15476 17927 12118 16833 17257 15321 16660 12346 12939 18548 11897 16476 12742 18197 11319 999999
999999 999999 999999 999999 999999 999999 999999 999999 999999 999999 999999 999999 999999 999999 999999 999999 999999 999999 999999 999999 999999 999999 999999 999999 999999 999999 999999 999999 999999 999999 999999 999999 0 999999 999999 999999 999999 999999 999999 999999 999999 19889 18313 11672 15868 11373 10468 16529 11869 19126 14965 18367 19760 11267 10894 11218 10015 10085 16812 12012 18365 12632 12619 12358 15713 10951 12560 13324 11642 13655 19699 13364 13410 11951 16963 11347 16455 14234 19685 15821 12314 999999
999999 999999 999999 999999 999999 999999 999999 999999 999999 999999 999999 999999 999999 999999 999999 999999 999999 999999 999999 999999 999999 999999 999999 999999 999999 999999 999999 999999 999999 999999 999999 999999 999999 0 999999 999999 999999 999999 999999 999999 999999 12605 12337 18611 10343 16429 11447 12039 19704 10562 15748 14431 14380 17888 11023 11532 14608 15534 13586 10709 10125 12844 15481 16907 19528 12858 13208 14743 17810 11554 18953 18445 16997 19832 12530 17332 17167 17841 17329 15976 18797 999999
999999 999999 999999 999999 999999 999999 999999 999999 999999 999999 999999 999999 999999 999999 999999 999999 999999 999999 999999 999999 999999 999999 999999 999999 999999 999999 999999 999999 999999 999999 999999 999999 999999 999999 0 999999 999999 999999 999999 999999 999999 10949 19525 12511 12245 16232 16807 17274 15849 17044 18685 15487 17283 19852 19058 16567 10732 12758 13949 10742 16633 17422 14636 16814 17344 14707 18251 17291 11306 15584 12745 15890 15256 18405 14162 11129 18637 18003 18958 19372 17055 999999
999999 999999 999999 999999 999999 999999 999999 999999 999999 999999 999999 999999 999999 999999 999999 999999 999999 999999 999999 999999 999999 999999 999999 999999 999999 999999 999999 999999 999999 999999 999999 999999 999999 999999 999999 0 999999 999999 999999 999999 999999 17959 14189 15754 18657 12543 19679 19801 18106 19701 14744 16434 17435 15664 10320 13888 15668 19401 18631 13663 15764 10838 14402 17229 17092 13953 19494 10952 14385 10705 10109 19002 16173 13952 19586 11996 17152 11954 10036 16572 12249 999999
999999 999999 999999 999999 999999 999999 999999 999999 999999 999999 999999 999999 999999 999999 999999 999999 999999 999999 999999 999999 999999 999999 999999 999999 999999 999999 999999 999999 999999 999999 999999 999999 999999 999999 999999 999999 0 999999 999999 999999 999999 10623 14163 12405 14402 14551 10925 14135 10711 10804 11360 13383 11283 10534 13289 17885 11105 14769 19940 14676 11507 18317 17087 13963 10493 11350 18546 12225 18380 13614 15872 12041 15790 10363 18494 12702 17263 13911 17934 18779 13866 999999
999999 999999 999999 999999 999999 999999 999999 999999 999999 999999 999999 999999 999999 999999 999999 999999 999999 999999 999999 999999 999999 999999 999999 999999 999999 999999 999999 999999 999999 999999 999999 999999 999999 999999 999999 999999 999999 0 999999 999999 999999 19461 19691 12616 10210 12299 11358 19259 11728 11122 17773 10960 14699 11548 10094 19835 18121 12830 15041 17460 12396 19871 14779 18956 13503 10148 16041 10654 18699 16352 12428 13875 10250 12194 19354 18641 17327 13263 19684 10362 19503 999999
999999 999999 999999 999999 999999 999999 999999 999999 999999 999999 999999 999999 999999 999999 999999 999999 999999 999999 999999 999999 999999 999999 999999 999999 999999 999999 999999 999999 999999 999999 999999 999999 999999 999999 999999 999999 999999 999999 0 999999 999999 17141 17890 11460 19954 19839 16266 13933 13058 10059 10795 12074 13070 14603 10087 11019 14401 18394 12026 18921 11669 18680 18919 13117 13420 19878 18949 18691 12486 15028 10310 13244 16408 18869 19609 11698 19309 12663 12561 14220 12647 999999
999999 999999 999999 999999 999999 999999 999999 999999 999999 999999 999999 999999 999999 999999 999999 999999 999999 999999 999999 999999 999999 999999 999999 999999 999999 999999 999999 999999 999999 999999 999999 999999 999999 999999 999999 999999 999999 999999 999999 0 999999 16815 10088 14748 14676 11338 19161 18500 13954 18844 19077 14999 15324 17479 18843 11138 17292 16335 17072 14847 16052 18852 18267 18842 14531 11265 19492 14509 16394 12481 12284 19578 15961 14825 10254 11155 18654 16977 11396 10414 14912 999999
999999 999999 999999 999999 999999 999999 999999 999999 999999 999999 999999 999999 999999 999999 999999 999999 999999 999999 999999 999999 999999 999999 999999 999999 999999 999999 999999 999999 999999 999999 999999 999999 999999 999999 999999 999999 999999 999999 999999 999999 0 12497 14193 14945 10038 14811 13872 16359 19127 11807 19622 16670 11577 12192 14019 19917 15103 10515 14749 11015 13353 11802 12858 18412 17560 19341 18346 13202 15938 11951 17207 19215 15626 14361 12597 15213 15207 12339 19106 10053 15275 999999
999999 13244 12319 10739 18948 10813 15430 18855 11010 17279 14916 17713 14171 12409 16221 11070 13363 14575 19637 19007 13102 19052 10325 18999 11528 19176 13090 17102 16385 12467 19166 18083 19889 12605 10949 17959 10623 19461 17141 16815 12497 0 999999 999999 999999 999999 999999 999999 999999 999999 999999 999999 999999 999999 999999 999999 999999 999999 999999 999999 999999 999999 999999 999999 999999 999999 999999 999999 999999 999999 999999 999999 999999 999999 999999 999999 999999 999999 999999 999999 999999 8854
999999 13184 14679 15480 15895 19067 13523 17196 13215 17363 12247 17545 18740 18007 16101 14079 16843 17439 14263 15938 15351 19188 17250 16474 15973 10063 17232 14941 11619 17007 14494 17050 18313 12337 19525 14189 14163 19691 17890 10088 14193 999999 0 999999 999999 999999 999999 999999 999999 999999 999999 999999 999999 999999 999999 999999 999999 999999 999999 999999 999999 999999 999999 999999 999999 999999 999999 999999 999999 999999 999999 999999 999999 999999 999999 999999 999999 999999 999999 999999 999999 11758
999999 11661 11765 19513 17407 13896 18062 17952 12291 12941 18238 14190 11778 19393 11418 16640 12685 12051 10400 13330 12534 17151 16582 19818 15377 13294 11050 14634 18657 18484 18046 12844 11672 18611 12511 15754 12405 12616 11460 14748 14945 999999 999999 0 999999 999999 999999 999999 999999 999999 999999 999999 999999 999999 999999 999999 999999 999999 999999 999999 999999 999999 999999 999999 999999 999999 999999 999999 999999 999999 999999 999999 999999 999999 999999 999999 999999 999999 999999 999999 999999 5998
999999 15412 12851 13122 12053 12417 11721 11764 15603 15991 16670 17940 12244 11134 10369 14726 19699 12587 19506 10572 15757 11397 14201 10757 18191 13024 11981 13853 13492 16322 14851 19040 15868 10343 12245 18657 14402 10210 19954 14676 10038 999999 999999 999999 0 999999 999999 999999 999999 999999 999999 999999 999999 999999 999999 999999 999999 999999 999999 999999 999999 999999 999999 999999 999999 999999 999999 999999 999999 999999 999999 999999 999999 999999 999999 999999 999999 999999 999999 999999 999999 13378
999999 11437 16103 13650 19617 12691 18981 15644 19010 10054 11907 12663 19545 10428 12372 11981 17977 15956 10162 11488 13419 17223 18464 11375 19658 18885 19006 12465 15105 12608 10105 19174 11373 16429 16232 12543 14551 12299 19839 11338 14811 999999 999999 999999 999999 0 999999 999999 999999 999999 999999 999999 999999 999999 999999 999999 999999 999999 999999 999999 999999 999999 999999 999999 999999 999999 999999 999999 999999 999999 999999 999999 999999 999999 999999 999999 999999 999999 999999 999999 999999 13362
999999 16773 11586 10202 14864 13883 10904 17065 19163 17993 17282 16050 14061 10872 14398 12686 13679 15137 12683 13512 12881 10567 13162 19177 16955 17368 17361 16537 19936 11413 11380 11774 10468 11447 16807 19679 10925 11358 16266 19161 13872 999999 999999 999999 999999 999999 0 999999 999999 999999 999999 999999 999999 999999 999999 999999 999999 999999 999999 999999 999999 999999 999999 999999 999999 999999 999999 999999 999999 999999 999999 999999 999999 999999 999999 999999 999999 999999 999999 999999 999999 10587
999999 14617 14649 15111 14641 17322 10700 18323 11478 14218 15383 19917 18107 14262 15858 11356 12463 19117 12778 18463 18835 14892 16210 17886 19183 14584 17475 13302 19490 19603 16408 16944 16529 12039 17274 19801 14135 19259 13933 18500 16359 999999 999999 999999 999999 999999 999999 0 999999 999999 999999 999999 999999 999999 999999 999999 999999 999999 999999 999999 999999 999999 999999 999999 999999 999999 999999 999999 999999 999999 999999 999999 999999 999999 999999 999999 999999 999999 999999 999999 999999 11170
999999 12344 15952 15670 13754 15756 16920 14259 15169 14327 13377 18616 17794 13490 11745 10153 12652 17990 13884 17608 12106 19727 17269 19188 12980 17315 12980 12175 17108 15422 13212 13862 11869 19704 15849 18106 10711 11728 13058 13954 19127 999999 999999 999999 999999 999999 999999 999999 0 999999 999999 999999 999999 999999 999999 999999 999999 999999 999999 999999 999999 999999 999999 999999 999999 999999 999999 999999 999999 999999 999999 999999 999999 999999 999999 999999 999999 999999 999999 999999 999999 6968
999999 10528 11200 12934 12055 14690 12972 12752 11094 19832 12898 10318 17504 10623 10854 14854 15800 15314 19448 17899 16268 11563 14475 15887 10147 12303 17769 10675 16756 17206 16398 12347 19126 10562 17044 19701 10804 11122 10059 18844 11807 999999 999999 999999 999999 999999 999999 999999 999999 0 999999 999999 999999 999999 999999 999999 999999 999999 999999 999999 999999 999999 999999 999999 999999 999999 999999 999999 999999 999999 999999 999999 999999 999999 999999 999999 999999 999999 999999 999999 999999 12785
999999 14352 14949 15177 12722 10750 17392 17948 19073 18874 18494 10832 14115 17559 16215 19246 18547 13902 11340 17272 18098 12561 11439 11904 16336 13978 14718 16967 18842 13838 13978 10682 14965 15748 18685 14744 11360 17773 10795 19077 19622 999999 999999 999999 999999 999999 999999 999999 999999 999999 0 999999 999999 999999 999999 999999 999999 999999 999999 999999 999999 999999 999999 999999 999999 999999 999999 999999 999999 999999 999999 999999 999999 999999 999999 999999 999999 999999 999999 999999 999999 6137
999999 13747 16316 18237 19447 16273 10374 15264 13679 18027 19287 19854 18709 19371 18496 13462 18288 15361 15015 14251 16467 18775 18500 12498 11784 15480 13388 18609 16802 13536 11140 16244 18367 14431 15487 16434 13383 10960 12074 14999 16670 999999 999999 999999 999999 999999 999999 999999 999999 999999 999999 0 999999 999999 999999 999999 999999 999999 999999 999999 999999 999999 999999 999999 999999 999999 999999 999999 999999 999999 999999 999999 999999 999999 999999 999999 999999 999999 999999 999999 999999 7299
999999 11954 17818 13186 12959 14118 12911 12659 11226 17025 18221 12578 13304 16352 19928 16919 13414 19084 11653 11498 11994 19711 19717 18151 12872 11874 17550 19583 14678 16411 19295 17643 19760 14380 17283 17435 11283 14699 13070 15324 11577 999999 999999 999999 999999 999999 999999 999999 999999 999999 999999 999999 0 999999 999999 999999 999999 999999 999999 999999 999999 999999 999999 999999 999999 999999 999999 999999 999999 999999 999999 999999 999999 999999 999999 999999 999999 999999 999999 999999 999999 9705
999999 18272 12737 15035 18690 14894 11022 10956 16602 17841 11380 13211 18650 18295 12479 12445 18799 14329 11639 15542 19809 16194 13672 11062 11732 13370 15831 19117 10303 12957 18315 17904 11267 17888 19852 15664 10534 11548 14603 17479 12192 999999 999999 999999 999999 999999 999999 999999 999999 999999 999999 999999 999999 0 999999 999999 999999 999999 999999 999999 999999 999999 999999 999999 999999 999999 999999 999999 999999 999999 999999 999999 999999 999999 999999 999999 999999 999999 999999 999999 999999 13634
999999 12084 13026 12466 16062 12017 17695 12374 15729 10093 18483 15995 14681 10463 10187 15063 15533 17715 15330 19793 11100 14201 18674 17093 19495 15934 17660 13325 14752 19466 13041 16380 10894 11023 19058 10320 13289 10094 10087 18843 14019 999999 999999 999999 999999 999999 999999 999999 999999 999999 999999 999999 999999 999999 0 999999 999999 999999 999999 999999 999999 999999 999999 999999 999999 999999 999999 999999 999999 999999 999999 999999 999999 999999 999999 999999 999999 999999 999999 999999 999999 7543
999999 16533 12187 15297 15258 18444 12541 17402 10289 12793 14975 13525 14798 18367 13102 13061 16552 18262 11583 16587 13212 11277 14111 10162 13502 16167 11046 11339 18118 15755 11281 14082 11218 11532 16567 13888 17885 19835 11019 11138 19917 999999 999999 999999 999999 999999 999999 999999 999999 999999 999999 999999 999999 999999 999999 0 999999 999999 999999 999999 999999 999999 999999 999999 999999 999999 999999 999999 999999 999999 999999 999999 999999 999999 999999 999999 999999 999999 999999 999999 999999 13863
999999 11614 14974 11080 10372 12968 19756 10827 19858 13262 14446 15489 15510 19345 19535 16387 19727 11759 18610 16069 13555 16944 10726 16270 18211 15531 18974 15168 12832 16820 14672 17230 10015 14608 10732 15668 11105 18121 14401 17292 15103 999999 999999 999999 999999 999999 999999 999999 999999 999999 999999 999999 999999 999999 999999 999999 0 999999 999999 999999 999999 999999 999999 999999 999999 999999 999999 999999 999999 999999 999999 999999 999999 999999 999999 999999 999999 999999 999999 999999 999999 7832
999999 14893 13147 13319 10550 17001 13352 16530 15729 14992 13076 10720 16376 18551 11886 13637 11649 14624 13147 14112 18783 19921 19040 12439 10703 16448 18727 10840 17377 18420 10498 18834 10085 15534 12758 19401 14769 12830 18394 16335 10515 999999 999999 999999 999999 999999 999999 999999 999999 999999 999999 999999 999999 999999 999999 999999 999999 0 999999 999999 999999 999999 999999 999999 999999 999999 999999 999999 999999 999999 999999 999999 999999 999999 999999 999999 999999 999999 999999 999999 999999 7270
999999 12286 19939 11708 19402 14627 10635 18370 17682 14358 16935 17139 16077 12483 19556 18972 11761 15534 10489 19323 13079 10484 16924 18229 18679 16587 10123 17150 12469 15168 13615 13829 16812 13586 13949 18631 19940 15041 12026 17072 14749 999999 999999 999999 999999 999999 999999 999999 999999 999999 999999 999999 999999 999999 999999 999999 999999 999999 0 999999 999999 999999 999999 999999 999999 999999 999999 999999 999999 999999 999999 999999 999999 999999 999999 999999 999999 999999 999999 999999 999999 11944
999999 12792 10412 12107 10317 13283 16136 16760 15999 17428 12820 17580 12647 17745 13043 16495 19830 11430 11471 12788 13635 11435 12092 16277 15150 17232 14588 12956 19307 15766 11475 18527 12012 10709 10742 13663 14676 17460 18921 14847 11015 999999 999999 999999 999999 999999 999999 999999 999999 999999 999999 999999 999999 999999 999999 999999 999999 999999 999999 0 999999 999999 999999 999999 999999 999999 999999 999999 999999 999999 999999 999999 999999 999999 999999 999999 999999 999999 999999 999999 999999 8354
999999 11754 12394 13444 12808 17043 11922 15778 12230 14812 19463 17112 11847 17362 10465 16779 17982 11187 19507 11790 14603 17728 16727 15054 15044 13523 16416 14717 10347 15290 14647 19847 18365 10125 16633 15764 11507 12396 11669 16052 13353 999999 999999 999999 999999 999999 999999 999999 999999 999999 999999 999999 999999 999999 999999 999999 999999 999999 999999 999999 0 999999 999999 999999 999999 999999 999999 999999 999999 999999 999999 999999 999999 999999 999999 999999 999999 999999 999999 999999 999999 14561
999999 14732 10635 16593 13813 14195 18130 16851 10373 14673 19858 10293 18619 16560 18338 13100 12669 14416 16249 14994 19669 11825 14175 10239 11226 14483 18973 17351 12461 19577 15092 19028 12632 12844 17422 10838 18317 19871 18680 18852 11802 999999 999999 999999 999999 999999 999999 999999 999999 999999 999999 999999 999999 999999 999999 999999 999999 999999 999999 999999 999999 0 999999 999999 999999 999999 999999 999999 999999 999999 999999 999999 999999 999999 999999 999999 999999 999999 999999 999999 999999 8466
999999 10206 19309 14548 16574 13861 16998 15956 10537 15481 11853 17662 19145 15281 13690 15942 11257 11677 19115 19221 15086 15722 10018 16119 11931 16188 15700 15053 14947 18513 19623 13020 12619 15481 14636 14402 17087 14779 18919 18267 12858 999999 999999 999999 999999 999999 999999 999999 999999 999999 999999 999999 999999 999999 999999 999999 999999 999999 999999 999999 999999 999999 0 999999 999999 999999 999999 999999 999999 999999 999999 999999 999999 999999 999999 999999 999999 999999 999999 999999 999999 5883
999999 13956 11155 11293 17124 10660 12697 17718 10723 15070 10950 15229 12282 17295 12365 10427 11925 10219 16955 14749 13569 17720 14799 10171 12517 13621 16043 14894 13396 17549 11595 13158 12358 16907 16814 17229 13963 18956 13117 18842 18412 999999 999999 999999 999999 999999 999999 999999 999999 999999 999999 999999 999999 999999 999999 999999 999999 999999 999999 999999 999999 999999 999999 0 999999 999999 999999 999999 999999 999999 999999 999999 999999 999999 999999 999999 999999 999999 999999 999999 999999 12740
999999 13472 13963 18210 19855 10530 15309 12451 10307 19384 19912 14091 13134 12584 15468 15717 19175 16757 12523 15597 16693 12067 10232 11614 11002 18470 11442 12609 10254 13814 12708 18255 15713 19528 17344 17092 10493 13503 13420 14531 17560 999999 999999 999999 999999 999999 999999 999999 999999 999999 999999 999999 999999 999999 999999 999999 999999 999999 999999 999999 999999 999999 999999 999999 0 999999 999999 999999 999999 999999 999999 999999 999999 999999 999999 999999 999999 999999 999999 999999 999999 12641
999999 13629 11117 17666 16734 18170 11306 12680 18343 13649 15502 14709 12310 17471 13736 14597 12699 18397 14551 17320 19756 13878 15568 11305 15967 17322 13449 14324 12529 16397 14613 15312 10951 12858 14707 13953 11350 10148 19878 11265 19341 999999 999999 999999 999999 999999 999999 999999 999999 999999 999999 999999 999999 999999 999999 999999 999999 999999 999999 999999 999999 999999 999999 999999 999999 0 999999 999999 999999 999999 999999 999999 999999 999999 999999 999999 999999 999999 999999 999999 999999 9862
999999 16229 12955 13484 18831 16417 15760 17110 16326 16696 10197 18383 18742 18344 14240 15147 18779 13025 18273 13455 14282 19587 18496 17743 17244 12633 18892 13398 18245 19189 18151 15476 12560 13208 18251 19494 18546 16041 18949 19492 18346 999999 999999 999999 999999 999999 999999 999999 999999 999999 999999 999999 999999 999999 999999 999999 999999 999999 999999 999999 999999 999999 999999 999999 999999 999999 0 999999 999999 999999 999999 999999 999999 999999 999999 999999 999999 999999 999999 999999 999999 13822
999999 13748 11208 17161 18149 16248 10620 16398 12200 15241 15388 13939 14664 11976 15386 17283 18969 19335 13317 19619 13509 17570 14507 14612 19648 12110 11433 11703 18401 15676 14131 17927 13324 14743 17291 10952 12225 10654 18691 14509 13202 999999 999999 999999 999999 999999 999999 999999 999999 999999 999999 999999 999999 999999 999999 999999 999999 999999 999999 999999 999999 999999 999999 999999 999999 999999 999999 0 999999 999999 999999 999999 999999 999999 999999 999999 999999 999999 999999 999999 999999 8268
999999 18105 19110 14517 16667 14577 18635 13605 17153 11367 16190 17203 14534 15512 17878 12527 17879 15036 16126 11483 10023 14891 13799 13596 17924 17026 12671 11342 12438 16742 10904 12118 11642 17810 11306 14385 18380 18699 12486 16394 15938 999999 999999 999999 999999 999999 999999 999999 999999 999999 999999 999999 999999 999999 999999 999999 999999 999999 999999 999999 999999 999999 999999 999999 999999 999999 999999 999999 0 999999 999999 999999 999999 999999 999999 999999 999999 999999 999999 999999 999999 8175
999999 16693 10271 18014 11031 15121 17387 19644 19553 18530 19826 19308 10952 13996 18110 15394 13547 15472 18354 12822 13644 11359 15384 14455 19563 19905 16113 12523 18097 13184 12274 16833 13655 11554 15584 10705 13614 16352 15028 12481 11951 999999 999999 999999 999999 999999 999999 999999 999999 999999 999999 999999 999999 999999 999999 999999 999999 999999 999999 999999 999999 999999 999999 999999 999999 999999 999999 999999 999999 0 999999 999999 999999 999999 999999 999999 999999 999999 999999 999999 999999 13964
999999 16226 13907 16045 15882 14923 11487 17507 14673 18686 18702 17324 18560 13785 18160 16365 15847 12413 11719 14050 14978 18683 10200 17303 11263 14668 17425 17397 12484 12090 14460 17257 19699 18953 12745 10109 15872 12428 10310 12284 17207 999999 999999 999999 999999 999999 999999 999999 999999 999999 999999 999999 999999 999999 999999 999999 999999 999999 999999 999999 999999 999999 999999 999999 999999 999999 999999 999999 999999 999999 0 999999 999999 999999 999999 999999 999999 999999 999999 999999 999999 14436
999999 12038 14967 15503 17550 14822 16120 10335 15028 18594 14624 13286 12170 13709 18003 16762 19368 19177 16735 13482 17899 13379 13394 11315 19449 11011 14533 10479 16008 11233 15067 15321 13364 18445 15890 19002 12041 13875 13244 19578 19215 999999 999999 999999 999999 999999 999999 999999 999999 999999 999999 999999 999999 999999 999999 999999 999999 999999 999999 999999 999999 999999 999999 999999 999999 999999 999999 999999 999999 999999 999999 0 999999 999999 999999 999999 999999 999999 999999 999999 999999 12370
999999 18452 14857 19056 19517 16001 10662 17260 17508 18530 16933 17925 14672 13034 10601 10900 19658 15614 19672 16499 16350 14036 19085 14227 13449 13447 10057 14691 14597 16770 16647 16660 13410 16997 15256 16173 15790 10250 16408 15961 15626 999999 999999 999999 999999 999999 999999 999999 999999 999999 999999 999999 999999 999999 999999 999999 999999 999999 999999 999999 999999 999999 999999 999999 999999 999999 999999 999999 999999 999999 999999 999999 0 999999 999999 999999 999999 999999 999999 999999 999999 10038
999999 10298 19746 19883 12238 19452 10523 17444 18091 11310 13106 10596 14910 15951 13052 12569 13181 17675 14273 19295 15021 17691 12791 15695 15000 11311 15516 19030 13247 19762 13557 12346 11951 19832 18405 13952 10363 12194 18869 14825 14361 999999 999999 999999 999999 999999 999999 999999 999999 999999 999999 999999 999999 999999 999999 999999 999999 999999 999999 999999 999999 999999 999999 999999 999999 999999 999999 999999 999999 999999 999999 999999 999999 0 999999 999999 999999 999999 999999 999999 999999 14085
999999 12236 12767 19140 18148 16926 16068 15398 15378 12766 13233 19030 16822 18983 16424 19495 11100 14481 13797 15156 11278 10758 18125 18619 18048 18253 12830 15131 15261 14461 18226 12939 16963 12530 14162 19586 18494 19354 19609 10254 12597 999999 999999 999999 999999 999999 999999 999999 999999 999999 999999 999999 999999 999999 999999 999999 999999 999999 999999 999999 999999 999999 999999 999999 999999 999999 999999 999999 999999 999999 999999 999999 999999 999999 0 999999 999999 999999 999999 999999 999999 5531
999999 11514 11896 15851 15538 19904 16163 16858 18874 11053 14515 12561 10876 10207 11052 11299 18642 12084 14164 17991 15773 16512 16024 10487 17094 15619 16987 16487 17857 14203 15613 18548 11347 17332 11129 11996 12702 18641 11698 11155 15213 999999 999999 999999 999999 999999 999999 999999 999999 999999 999999 999999 999999 999999 999999 999999 999999 999999 999999 999999 999999 999999 999999 999999 999999 999999 999999 999999 999999 999999 999999 999999 999999 999999 999999 0 999999 999999 999999 999999 999999 13176
999999 13502 12879 11079 11198 16080 14108 17524 16141 19895 14202 14551 15507 17039 16550 15193 13769 16495 17247 13045 14905 18182 15206 13375 19731 14706 19246 16094 10100 19254 16277 11897 16455 17167 18637 17152 17263 17327 19309 18654 15207 999999 999999 999999 999999 999999 999999 999999 999999 999999 999999 999999 999999 999999 999999 999999 999999 999999 999999 999999 999999 999999 999999 999999 999999 999999 999999 999999 999999 999999 999999 999999 999999 999999 999999 999999 0 999999 999999 999999 999999 13036
999999 14080 13282 12763 19109 17129 16174 15641 17214 16262 16083 17716 12985 10929 10259 19678 19938 18656 14698 16302 16943 13913 15382 15999 16699 15851 12861 16927 17874 14132 10347 16476 14234 17841 18003 11954 13911 13263 12663 16977 12339 999999 999999 999999 999999 999999 999999 999999 999999 999999 999999 999999 999999 999999 999999 999999 999999 999999 999999 999999 999999 999999 999999 999999 999999 999999 999999 999999 999999 999999 999999 999999 999999 999999 999999 999999 999999 0 999999 999999 999999 13344
999999 18641 10697 16067 16059 19242 12501 11901 18727 13210 18595 16975 19063 13350 17611 17420 10176 16578 11475 11904 15476 10808 11170 16425 10044 19390 10036 13679 17591 11344 19188 12742 19685 17329 18958 10036 17934 19684 12561 11396 19106 999999 999999 999999 999999 999999 999999 999999 999999 999999 999999 999999 999999 999999 999999 999999 999999 999999 999999 999999 999999 999999 999999 999999 999999 999999 999999 999999 999999 999999 999999 999999 999999 999999 999999 999999 999999 999999 0 999999 999999 14264
999999 18349 10800 13624 15572 12200 14598 10679 14897 10492 19794 12941 11924 13870 10807 18464 15982 18592 16539 13761 12090 15027 11445 18382 15465 18196 15980 14373 11722 13687 17420 18197 15821 15976 19372 16572 18779 10362 14220 10414 10053 999999 999999 999999 999999 999999 999999 999999 999999 999999 999999 999999 999999 999999 999999 999999 999999 999999 999999 999999 999999 999999 999999 999999 999999 999999 999999 999999 999999 999999 999999 999999 999999 999999 999999 999999 999999 999999 999999 0 999999 5789
999999 11256 18007 13852 19884 14432 13870 19940 16179 10231 13541 15358 12435 12291 13892 16683 17998 14264 16011 13817 12691 11203 13081 11213 16278 14471 17812 18776 12556 19638 18998 11319 12314 18797 17055 12249 13866 19503 12647 14912 15275 999999 999999 999999 999999 999999 999999 999999 999999 999999 999999 999999 999999 999999 999999 999999 999999 999999 999999 999999 999999 999999 999999 999999 999999 999999 999999 999999 999999 999999 999999 999999 999999 999999 999999 999999 999999 999999 999999 999999 0 9048
1 999999 999999 999999 999999 999999 999999 999999 999999 999999 999999 999999 999999 999999 999999 999999 999999 999999 999999 999999 999999 999999 999999 999999 999999 999999 999999 999999 999999 999999 999999 999999 999999 999999 999999 999999 999999 999999 999999 999999 999999 999999 999999 999999 999999 999999 999999 999999 999999 999999 999999 999999 999999 999999 999999 999999 999999 999999 999999 999999 999999 999999 999999 999999 999999 999999 999999 999999 999999 999999 999999 999999 999999 999999 999999 999999 999999 999999 999999 999999 999999 0
EOF