NAME: GR_1x5x6_KH_5x6_Run_9
TYPE: TSP
COMMENT: BTSP instance |A|=30 GR nodes |B|=30 KH nodes depot=0.0 end=0.0.0
DIMENSION: 62
EDGE_WEIGHT_TYPE: EXPLICIT
EDGE_WEIGHT_FORMAT: FULL_MATRIX
NODE_COORD_TYPE: NO_COORDS
EDGE_WEIGHT_SECTION
0 8324 10661 12346 9686 11364 6645 8488 8611 13717 12691 9717 7272 5660 11156 14170 11961 6054 8321 13262 5750 8762 10667 8183 6142 9073 10811 5430 13502 14613 7891 999999 999999 999999 999999 999999 999999 999999 999999 999999 999999 999999 999999 999999 999999 999999 999999 999999 999999 999999 999999 999999 999999 999999 999999 999999 999999 999999 999999 999999 999999 999999
999999 0 999999 999999 999999 999999 999999 999999 999999 999999 999999 999999 999999 999999 999999 999999 999999 999999 999999 999999 999999 999999 999999 999999 999999 999999 999999 999999 999999 999999 999999 15274 18338 11967 15789 14940 14322 11836 15972 10516 11358 11124 13688 15570 19225 15999 16026 18429 13004 14800 13474 19507 18476 11622 18203 10893 15741 12739 19980 12480 17414 999999
999999 999999 0 999999 999999 999999 999999 999999 999999 999999 999999 999999 999999 999999 999999 999999 999999 999999 999999 999999 999999 999999 999999 999999 999999 999999 999999 999999 999999 999999 999999 18783 19990 10454 15875 17706 10603 19144 16585 16348 19362 16543 15585 17996 15578 11617 12597 14602 16222 18882 10938 13072 15260 19962 19990 18568 15894 14090 17712 18667 19164 999999
999999 999999 999999 0 999999 999999 999999 999999 999999 999999 999999 999999 999999 999999 999999 999999 999999 999999 999999 999999 999999 999999 999999 999999 999999 999999 999999 999999 999999 999999 999999 18934 17560 15324 12788 10387 15696 16128 12828 13297 12419 10133 15508 17447 16632 15770 13843 12584 12202 12002 17658 13175 13866 18437 17526 15965 10567 19612 17736 18951 15324 999999
999999 999999 999999 999999 0 999999 999999 999999 999999 999999 999999 999999 999999 999999 999999 999999 999999 999999 999999 999999 999999 999999 999999 999999 999999 999999 999999 999999 999999 999999 999999 12674 14818 17045 11405 17284 15279 13016 15281 11935 18058 14147 16073 11222 13361 11228 10655 15944 11007 13907 10599 17300 16451 11075 16706 14341 17762 18179 17419 14139 13231 999999
999999 999999 999999 999999 999999 0 999999 999999 999999 999999 999999 999999 999999 999999 999999 999999 999999 999999 999999 999999 999999 999999 999999 999999 999999 999999 999999 999999 999999 999999 999999 18508 15199 17369 19823 17764 10269 19973 12564 11956 15377 14310 16730 19993 17108 19091 10888 11346 18560 11880 16549 12465 18827 18669 10360 19527 18163 17124 13870 12136 12781 999999
999999 999999 999999 999999 999999 999999 0 999999 999999 999999 999999 999999 999999 999999 999999 999999 999999 999999 999999 999999 999999 999999 999999 999999 999999 999999 999999 999999 999999 999999 999999 14764 19566 18489 10219 11498 17027 11630 12684 19468 14085 11297 14327 14326 11050 15521 14003 11111 14486 18839 15371 18289 13113 18937 15798 13643 15219 17698 10809 10954 16075 999999
999999 999999 999999 999999 999999 999999 999999 0 999999 999999 999999 999999 999999 999999 999999 999999 999999 999999 999999 999999 999999 999999 999999 999999 999999 999999 999999 999999 999999 999999 999999 16162 13728 12765 17868 19595 17848 18936 14296 15912 18129 13362 17130 12042 13295 12908 15975 11875 10011 12815 10979 14945 15661 16084 16556 15835 16505 14534 12858 17953 18681 999999
999999 999999 999999 999999 999999 999999 999999 999999 0 999999 999999 999999 999999 999999 999999 999999 999999 999999 999999 999999 999999 999999 999999 999999 999999 999999 999999 999999 999999 999999 999999 16905 15428 19720 13334 13270 10789 16106 19954 19808 12148 15380 19938 19118 13121 17697 12622 18274 15241 11878 13291 18863 12409 15391 12672 12752 16688 12249 17717 16390 19256 999999
999999 999999 999999 999999 999999 999999 999999 999999 999999 0 999999 999999 999999 999999 999999 999999 999999 999999 999999 999999 999999 999999 999999 999999 999999 999999 999999 999999 999999 999999 999999 15079 10844 12743 18866 16252 15793 10356 12438 16112 15773 12575 12663 17208 13464 11464 16693 17944 13828 17962 15643 10272 14340 15688 16828 19950 10798 13284 16926 15200 12130 999999
999999 999999 999999 999999 999999 999999 999999 999999 999999 999999 0 999999 999999 999999 999999 999999 999999 999999 999999 999999 999999 999999 999999 999999 999999 999999 999999 999999 999999 999999 999999 16615 14096 11651 11795 19403 12466 10945 16855 14099 14531 16435 15167 12620 18260 17345 14507 19777 19328 18357 19377 12541 17310 12666 18586 13472 12091 16155 13114 14820 16822 999999
999999 999999 999999 999999 999999 999999 999999 999999 999999 999999 999999 0 999999 999999 999999 999999 999999 999999 999999 999999 999999 999999 999999 999999 999999 999999 999999 999999 999999 999999 999999 10745 10743 19656 15491 18914 16358 10270 15280 10005 14566 12268 12032 19952 10531 13316 11722 16578 19381 12815 11167 10762 15748 13205 14058 19954 14908 11684 11043 11684 17276 999999
999999 999999 999999 999999 999999 999999 999999 999999 999999 999999 999999 999999 0 999999 999999 999999 999999 999999 999999 999999 999999 999999 999999 999999 999999 999999 999999 999999 999999 999999 999999 18092 10873 15611 19517 12412 13385 15805 15602 13203 16971 10416 14262 15717 11635 13433 19860 17933 15496 13844 13664 15287 13005 16339 12438 10220 14572 14290 16936 14021 19992 999999
999999 999999 999999 999999 999999 999999 999999 999999 999999 999999 999999 999999 999999 0 999999 999999 999999 999999 999999 999999 999999 999999 999999 999999 999999 999999 999999 999999 999999 999999 999999 17271 13471 11765 19341 18669 13958 10961 12240 15385 18341 11331 15227 13306 15055 16379 10614 18139 10687 14820 14008 16834 14264 11453 13123 17076 15094 18745 14639 17618 18710 999999
999999 999999 999999 999999 999999 999999 999999 999999 999999 999999 999999 999999 999999 999999 0 999999 999999 999999 999999 999999 999999 999999 999999 999999 999999 999999 999999 999999 999999 999999 999999 11161 19771 14257 16454 15560 12005 11448 17505 12870 10337 13095 10607 17637 19762 11322 11845 17578 18849 13157 15101 13585 12394 19550 15755 14268 14245 16444 17164 17059 15463 999999
999999 999999 999999 999999 999999 999999 999999 999999 999999 999999 999999 999999 999999 999999 999999 0 999999 999999 999999 999999 999999 999999 999999 999999 999999 999999 999999 999999 999999 999999 999999 13230 17689 14156 17230 16555 18468 10563 14597 16566 10028 18872 14523 12545 13669 19244 16587 15032 10776 16437 14019 10740 19626 18431 11737 12467 18208 19886 12446 13293 10132 999999
999999 999999 999999 999999 999999 999999 999999 999999 999999 999999 999999 999999 999999 999999 999999 999999 0 999999 999999 999999 999999 999999 999999 999999 999999 999999 999999 999999 999999 999999 999999 15069 14904 13901 16608 13816 19661 16792 16285 11175 11553 18715 12361 13061 17503 12210 18605 17428 14555 17155 14743 11916 10095 10259 18354 13774 15537 16287 18860 19893 13936 999999
999999 999999 999999 999999 999999 999999 999999 999999 999999 999999 999999 999999 999999 999999 999999 999999 999999 0 999999 999999 999999 999999 999999 999999 999999 999999 999999 999999 999999 999999 999999 18775 16550 13756 14621 13707 14428 14787 12735 13924 13392 10514 17855 15925 10982 17707 14991 19654 13644 13801 14266 19445 18753 17280 11699 16906 11872 11095 17596 19384 17991 999999
999999 999999 999999 999999 999999 999999 999999 999999 999999 999999 999999 999999 999999 999999 999999 999999 999999 999999 0 999999 999999 999999 999999 999999 999999 999999 999999 999999 999999 999999 999999 13767 12647 12651 12600 19172 14202 17290 17512 13217 12789 16436 14520 10770 16604 10367 17694 10471 18859 18597 13715 10920 10746 13336 15371 13712 12815 16879 10334 15906 15747 999999
999999 999999 999999 999999 999999 999999 999999 999999 999999 999999 999999 999999 999999 999999 999999 999999 999999 999999 999999 0 999999 999999 999999 999999 999999 999999 999999 999999 999999 999999 999999 12903 11413 16153 13855 12009 15066 14682 15756 15847 11247 10992 17205 17070 16159 19689 13793 15507 11950 11829 18946 10381 10206 11541 16835 16982 19622 15816 13427 18780 19500 999999
999999 999999 999999 999999 999999 999999 999999 999999 999999 999999 999999 999999 999999 999999 999999 999999 999999 999999 999999 999999 0 999999 999999 999999 999999 999999 999999 999999 999999 999999 999999 17917 12614 10352 15403 18170 16432 14353 19156 14209 18799 17876 15568 14069 11931 19577 11043 15448 19308 11076 13314 10797 14650 10485 14639 15648 14248 13481 15454 16775 15290 999999
999999 999999 999999 999999 999999 999999 999999 999999 999999 999999 999999 999999 999999 999999 999999 999999 999999 999999 999999 999999 999999 0 999999 999999 999999 999999 999999 999999 999999 999999 999999 18795 14990 11798 11234 10581 10340 19235 10747 16208 14039 17207 18453 14938 10078 17413 15149 13320 11490 10453 18604 15707 11665 14642 13526 10805 12667 16602 17877 16050 12453 999999
999999 999999 999999 999999 999999 999999 999999 999999 999999 999999 999999 999999 999999 999999 999999 999999 999999 999999 999999 999999 999999 999999 0 999999 999999 999999 999999 999999 999999 999999 999999 12327 13743 12746 11206 16913 13973 12930 14790 10541 19811 14264 15843 10551 16012 11839 13765 11079 15409 18916 16366 18607 17027 18175 14065 19655 18741 12929 12830 17779 13150 999999
999999 999999 999999 999999 999999 999999 999999 999999 999999 999999 999999 999999 999999 999999 999999 999999 999999 999999 999999 999999 999999 999999 999999 0 999999 999999 999999 999999 999999 999999 999999 15573 11291 15522 18752 13893 14970 12071 11939 13122 17158 13926 19560 13656 10813 14493 11186 16192 12882 13416 16268 16595 18269 14642 17410 11019 17075 16583 15298 10421 16569 999999
999999 999999 999999 999999 999999 999999 999999 999999 999999 999999 999999 999999 999999 999999 999999 999999 999999 999999 999999 999999 999999 999999 999999 999999 0 999999 999999 999999 999999 999999 999999 14853 16009 13200 16570 17247 11811 15579 18958 12935 15603 14371 10827 11110 18147 11152 17220 14978 15407 19708 19113 16114 16011 10549 15224 12514 14130 19467 15873 13438 14927 999999
999999 999999 999999 999999 999999 999999 999999 999999 999999 999999 999999 999999 999999 999999 999999 999999 999999 999999 999999 999999 999999 999999 999999 999999 999999 0 999999 999999 999999 999999 999999 12531 10910 13001 10428 11914 13923 15492 16181 10203 10000 14563 11454 11540 12829 16316 16419 10902 13150 14258 19783 10080 10668 11249 18148 15913 10847 10562 15276 11543 16363 999999
999999 999999 999999 999999 999999 999999 999999 999999 999999 999999 999999 999999 999999 999999 999999 999999 999999 999999 999999 999999 999999 999999 999999 999999 999999 999999 0 999999 999999 999999 999999 14389 13971 19575 13337 13170 16108 11583 14988 12506 13059 15372 11915 14548 13239 19333 18301 10362 16417 17775 16616 13420 18935 19755 11150 18860 10980 11895 15064 17681 14944 999999
999999 999999 999999 999999 999999 999999 999999 999999 999999 999999 999999 999999 999999 999999 999999 999999 999999 999999 999999 999999 999999 999999 999999 999999 999999 999999 999999 0 999999 999999 999999 14151 11025 12679 18494 13902 12579 16325 11301 12455 14554 15199 15346 12191 10211 18765 11744 16223 10237 15545 13907 15873 10300 16095 11619 15701 18438 12550 15152 17013 15500 999999
999999 999999 999999 999999 999999 999999 999999 999999 999999 999999 999999 999999 999999 999999 999999 999999 999999 999999 999999 999999 999999 999999 999999 999999 999999 999999 999999 999999 0 999999 999999 10024 14757 16779 19210 14916 13619 12152 18352 14012 10165 10771 18242 16579 14140 19965 14662 15847 16993 16365 19022 16112 15893 13828 14285 19818 11418 13351 17167 14081 10869 999999
999999 999999 999999 999999 999999 999999 999999 999999 999999 999999 999999 999999 999999 999999 999999 999999 999999 999999 999999 999999 999999 999999 999999 999999 999999 999999 999999 999999 999999 0 999999 12276 15942 18663 13270 18682 15551 12119 10356 19263 12009 11090 18239 11885 18214 15335 12273 13165 15702 13058 15327 19005 15235 17222 14598 18088 11844 13418 16773 17017 17464 999999
999999 999999 999999 999999 999999 999999 999999 999999 999999 999999 999999 999999 999999 999999 999999 999999 999999 999999 999999 999999 999999 999999 999999 999999 999999 999999 999999 999999 999999 999999 0 15580 14684 10716 15464 18166 11657 15020 13836 19599 16542 17407 17205 10158 13306 16268 10891 18312 13468 19862 14425 16842 12991 18541 13082 12851 15306 15504 13116 18914 18592 999999
999999 15274 18783 18934 12674 18508 14764 16162 16905 15079 16615 10745 18092 17271 11161 13230 15069 18775 13767 12903 17917 18795 12327 15573 14853 12531 14389 14151 10024 12276 15580 0 999999 999999 999999 999999 999999 999999 999999 999999 999999 999999 999999 999999 999999 999999 999999 999999 999999 999999 999999 999999 999999 999999 999999 999999 999999 999999 999999 999999 999999 14043
999999 18338 19990 17560 14818 15199 19566 13728 15428 10844 14096 10743 10873 13471 19771 17689 14904 16550 12647 11413 12614 14990 13743 11291 16009 10910 13971 11025 14757 15942 14684 999999 0 999999 999999 999999 999999 999999 999999 999999 999999 999999 999999 999999 999999 999999 999999 999999 999999 999999 999999 999999 999999 999999 999999 999999 999999 999999 999999 999999 999999 8084
999999 11967 10454 15324 17045 17369 18489 12765 19720 12743 11651 19656 15611 11765 14257 14156 13901 13756 12651 16153 10352 11798 12746 15522 13200 13001 19575 12679 16779 18663 10716 999999 999999 0 999999 999999 999999 999999 999999 999999 999999 999999 999999 999999 999999 999999 999999 999999 999999 999999 999999 999999 999999 999999 999999 999999 999999 999999 999999 999999 999999 12857
999999 15789 15875 12788 11405 19823 10219 17868 13334 18866 11795 15491 19517 19341 16454 17230 16608 14621 12600 13855 15403 11234 11206 18752 16570 10428 13337 18494 19210 13270 15464 999999 999999 999999 0 999999 999999 999999 999999 999999 999999 999999 999999 999999 999999 999999 999999 999999 999999 999999 999999 999999 999999 999999 999999 999999 999999 999999 999999 999999 999999 7294
999999 14940 17706 10387 17284 17764 11498 19595 13270 16252 19403 18914 12412 18669 15560 16555 13816 13707 19172 12009 18170 10581 16913 13893 17247 11914 13170 13902 14916 18682 18166 999999 999999 999999 999999 0 999999 999999 999999 999999 999999 999999 999999 999999 999999 999999 999999 999999 999999 999999 999999 999999 999999 999999 999999 999999 999999 999999 999999 999999 999999 11746
999999 14322 10603 15696 15279 10269 17027 17848 10789 15793 12466 16358 13385 13958 12005 18468 19661 14428 14202 15066 16432 10340 13973 14970 11811 13923 16108 12579 13619 15551 11657 999999 999999 999999 999999 999999 0 999999 999999 999999 999999 999999 999999 999999 999999 999999 999999 999999 999999 999999 999999 999999 999999 999999 999999 999999 999999 999999 999999 999999 999999 14307
999999 11836 19144 16128 13016 19973 11630 18936 16106 10356 10945 10270 15805 10961 11448 10563 16792 14787 17290 14682 14353 19235 12930 12071 15579 15492 11583 16325 12152 12119 15020 999999 999999 999999 999999 999999 999999 0 999999 999999 999999 999999 999999 999999 999999 999999 999999 999999 999999 999999 999999 999999 999999 999999 999999 999999 999999 999999 999999 999999 999999 8418
999999 15972 16585 12828 15281 12564 12684 14296 19954 12438 16855 15280 15602 12240 17505 14597 16285 12735 17512 15756 19156 10747 14790 11939 18958 16181 14988 11301 18352 10356 13836 999999 999999 999999 999999 999999 999999 999999 0 999999 999999 999999 999999 999999 999999 999999 999999 999999 999999 999999 999999 999999 999999 999999 999999 999999 999999 999999 999999 999999 999999 11530
999999 10516 16348 13297 11935 11956 19468 15912 19808 16112 14099 10005 13203 15385 12870 16566 11175 13924 13217 15847 14209 16208 10541 13122 12935 10203 12506 12455 14012 19263 19599 999999 999999 999999 999999 999999 999999 999999 999999 0 999999 999999 999999 999999 999999 999999 999999 999999 999999 999999 999999 999999 999999 999999 999999 999999 999999 999999 999999 999999 999999 11098
999999 11358 19362 12419 18058 15377 14085 18129 12148 15773 14531 14566 16971 18341 10337 10028 11553 13392 12789 11247 18799 14039 19811 17158 15603 10000 13059 14554 10165 12009 16542 999999 999999 999999 999999 999999 999999 999999 999999 999999 0 999999 999999 999999 999999 999999 999999 999999 999999 999999 999999 999999 999999 999999 999999 999999 999999 999999 999999 999999 999999 14890
999999 11124 16543 10133 14147 14310 11297 13362 15380 12575 16435 12268 10416 11331 13095 18872 18715 10514 16436 10992 17876 17207 14264 13926 14371 14563 15372 15199 10771 11090 17407 999999 999999 999999 999999 999999 999999 999999 999999 999999 999999 0 999999 999999 999999 999999 999999 999999 999999 999999 999999 999999 999999 999999 999999 999999 999999 999999 999999 999999 999999 14700
999999 13688 15585 15508 16073 16730 14327 17130 19938 12663 15167 12032 14262 15227 10607 14523 12361 17855 14520 17205 15568 18453 15843 19560 10827 11454 11915 15346 18242 18239 17205 999999 999999 999999 999999 999999 999999 999999 999999 999999 999999 999999 0 999999 999999 999999 999999 999999 999999 999999 999999 999999 999999 999999 999999 999999 999999 999999 999999 999999 999999 14634
999999 15570 17996 17447 11222 19993 14326 12042 19118 17208 12620 19952 15717 13306 17637 12545 13061 15925 10770 17070 14069 14938 10551 13656 11110 11540 14548 12191 16579 11885 10158 999999 999999 999999 999999 999999 999999 999999 999999 999999 999999 999999 999999 0 999999 999999 999999 999999 999999 999999 999999 999999 999999 999999 999999 999999 999999 999999 999999 999999 999999 14968
999999 19225 15578 16632 13361 17108 11050 13295 13121 13464 18260 10531 11635 15055 19762 13669 17503 10982 16604 16159 11931 10078 16012 10813 18147 12829 13239 10211 14140 18214 13306 999999 999999 999999 999999 999999 999999 999999 999999 999999 999999 999999 999999 999999 0 999999 999999 999999 999999 999999 999999 999999 999999 999999 999999 999999 999999 999999 999999 999999 999999 8572
999999 15999 11617 15770 11228 19091 15521 12908 17697 11464 17345 13316 13433 16379 11322 19244 12210 17707 10367 19689 19577 17413 11839 14493 11152 16316 19333 18765 19965 15335 16268 999999 999999 999999 999999 999999 999999 999999 999999 999999 999999 999999 999999 999999 999999 0 999999 999999 999999 999999 999999 999999 999999 999999 999999 999999 999999 999999 999999 999999 999999 12784
999999 16026 12597 13843 10655 10888 14003 15975 12622 16693 14507 11722 19860 10614 11845 16587 18605 14991 17694 13793 11043 15149 13765 11186 17220 16419 18301 11744 14662 12273 10891 999999 999999 999999 999999 999999 999999 999999 999999 999999 999999 999999 999999 999999 999999 999999 0 999999 999999 999999 999999 999999 999999 999999 999999 999999 999999 999999 999999 999999 999999 7963
999999 18429 14602 12584 15944 11346 11111 11875 18274 17944 19777 16578 17933 18139 17578 15032 17428 19654 10471 15507 15448 13320 11079 16192 14978 10902 10362 16223 15847 13165 18312 999999 999999 999999 999999 999999 999999 999999 999999 999999 999999 999999 999999 999999 999999 999999 999999 0 999999 999999 999999 999999 999999 999999 999999 999999 999999 999999 999999 999999 999999 9238
999999 13004 16222 12202 11007 18560 14486 10011 15241 13828 19328 19381 15496 10687 18849 10776 14555 13644 18859 11950 19308 11490 15409 12882 15407 13150 16417 10237 16993 15702 13468 999999 999999 999999 999999 999999 999999 999999 999999 999999 999999 999999 999999 999999 999999 999999 999999 999999 0 999999 999999 999999 999999 999999 999999 999999 999999 999999 999999 999999 999999 9886
999999 14800 18882 12002 13907 11880 18839 12815 11878 17962 18357 12815 13844 14820 13157 16437 17155 13801 18597 11829 11076 10453 18916 13416 19708 14258 17775 15545 16365 13058 19862 999999 999999 999999 999999 999999 999999 999999 999999 999999 999999 999999 999999 999999 999999 999999 999999 999999 999999 0 999999 999999 999999 999999 999999 999999 999999 999999 999999 999999 999999 14459
999999 13474 10938 17658 10599 16549 15371 10979 13291 15643 19377 11167 13664 14008 15101 14019 14743 14266 13715 18946 13314 18604 16366 16268 19113 19783 16616 13907 19022 15327 14425 999999 999999 999999 999999 999999 999999 999999 999999 999999 999999 999999 999999 999999 999999 999999 999999 999999 999999 999999 0 999999 999999 999999 999999 999999 999999 999999 999999 999999 999999 5189
999999 19507 13072 13175 17300 12465 18289 14945 18863 10272 12541 10762 15287 16834 13585 10740 11916 19445 10920 10381 10797 15707 18607 16595 16114 10080 13420 15873 16112 19005 16842 999999 999999 999999 999999 999999 999999 999999 999999 999999 999999 999999 999999 999999 999999 999999 999999 999999 999999 999999 999999 0 999999 999999 999999 999999 999999 999999 999999 999999 999999 11749
999999 18476 15260 13866 16451 18827 13113 15661 12409 14340 17310 15748 13005 14264 12394 19626 10095 18753 10746 10206 14650 11665 17027 18269 16011 10668 18935 10300 15893 15235 12991 999999 999999 999999 999999 999999 999999 999999 999999 999999 999999 999999 999999 999999 999999 999999 999999 999999 999999 999999 999999 999999 0 999999 999999 999999 999999 999999 999999 999999 999999 11195
999999 11622 19962 18437 11075 18669 18937 16084 15391 15688 12666 13205 16339 11453 19550 18431 10259 17280 13336 11541 10485 14642 18175 14642 10549 11249 19755 16095 13828 17222 18541 999999 999999 999999 999999 999999 999999 999999 999999 999999 999999 999999 999999 999999 999999 999999 999999 999999 999999 999999 999999 999999 999999 0 999999 999999 999999 999999 999999 999999 999999 9093
999999 18203 19990 17526 16706 10360 15798 16556 12672 16828 18586 14058 12438 13123 15755 11737 18354 11699 15371 16835 14639 13526 14065 17410 15224 18148 11150 11619 14285 14598 13082 999999 999999 999999 999999 999999 999999 999999 999999 999999 999999 999999 999999 999999 999999 999999 999999 999999 999999 999999 999999 999999 999999 999999 0 999999 999999 999999 999999 999999 999999 14832
999999 10893 18568 15965 14341 19527 13643 15835 12752 19950 13472 19954 10220 17076 14268 12467 13774 16906 13712 16982 15648 10805 19655 11019 12514 15913 18860 15701 19818 18088 12851 999999 999999 999999 999999 999999 999999 999999 999999 999999 999999 999999 999999 999999 999999 999999 999999 999999 999999 999999 999999 999999 999999 999999 999999 0 999999 999999 999999 999999 999999 7345
999999 15741 15894 10567 17762 18163 15219 16505 16688 10798 12091 14908 14572 15094 14245 18208 15537 11872 12815 19622 14248 12667 18741 17075 14130 10847 10980 18438 11418 11844 15306 999999 999999 999999 999999 999999 999999 999999 999999 999999 999999 999999 999999 999999 999999 999999 999999 999999 999999 999999 999999 999999 999999 999999 999999 999999 0 999999 999999 999999 999999 12663
999999 12739 14090 19612 18179 17124 17698 14534 12249 13284 16155 11684 14290 18745 16444 19886 16287 11095 16879 15816 13481 16602 12929 16583 19467 10562 11895 12550 13351 13418 15504 999999 999999 999999 999999 999999 999999 999999 999999 999999 999999 999999 999999 999999 999999 999999 999999 999999 999999 999999 999999 999999 999999 999999 999999 999999 999999 0 999999 999999 999999 12077
999999 19980 17712 17736 17419 13870 10809 12858 17717 16926 13114 11043 16936 14639 17164 12446 18860 17596 10334 13427 15454 17877 12830 15298 15873 15276 15064 15152 17167 16773 13116 999999 999999 999999 999999 999999 999999 999999 999999 999999 999999 999999 999999 999999 999999 999999 999999 999999 999999 999999 999999 999999 999999 999999 999999 999999 999999 999999 0 999999 999999 10723
999999 12480 18667 18951 14139 12136 10954 17953 16390 15200 14820 11684 14021 17618 17059 13293 19893 19384 15906 18780 16775 16050 17779 10421 13438 11543 17681 17013 14081 17017 18914 999999 999999 999999 999999 999999 999999 999999 999999 999999 999999 999999 999999 999999 999999 999999 999999 999999 999999 999999 999999 999999 999999 999999 999999 999999 999999 999999 999999 0 999999 14962
999999 17414 19164 15324 13231 12781 16075 18681 19256 12130 16822 17276 19992 18710 15463 10132 13936 17991 15747 19500 15290 12453 13150 16569 14927 16363 14944 15500 10869 17464 18592 999999 999999 999999 999999 999999 999999 999999 999999 999999 999999 999999 999999 999999 999999 999999 999999 999999 999999 999999 999999 999999 999999 999999 999999 999999 999999 999999 999999 999999 0 9889
1 999999 999999 999999 999999 999999 999999 999999 999999 999999 999999 999999 999999 999999 999999 999999 999999 999999 999999 999999 999999 999999 999999 999999 999999 999999 999999 999999 999999 999999 999999 999999 999999 999999 999999 999999 999999 999999 999999 999999 999999 999999 999999 999999 999999 999999 999999 999999 999999 999999 999999 999999 999999 999999 999999 999999 999999 999999 999999 999999 999999 0
EOF