NAME: GR_1x10x18_KH_10x18_Run_1
TYPE: TSP
COMMENT: BTSP instance |A|=180 GR nodes |B|=180 KH nodes depot=0.0 end=0.0.0
DIMENSION: 362
EDGE_WEIGHT_TYPE: EXPLICIT
EDGE_WEIGHT_FORMAT: FULL_MATRIX
NODE_COORD_TYPE: NO_COORDS
EDGE_WEIGHT_SECTION
0 7563 5659 8839 10442 12601 14155 8331 11681 5236 10383 7133 6194 8983 14547 8335 14731 9565 7733 14862 6603 10026 13879 10588 5166 8177 13001 10637 5234 13936 14470 9784 5607 10195 11072 10289 12468 13392 7984 8167 14942 14769 8819 9220 13334 6570 7328 7387 6841 9122 8817 8952 5943 10162 5559 12813 12054 9717 14260 8558 11475 13998 5357 14412 6948 5357 6810 7842 14010 13305 13770 13489 9119 8380 11903 10697 9153 13404 8928 13524 12430 5943 6443 12110 7678 13917 7904 7098 11168 7562 8400 10755 5883 10928 14725 9238 14063 8439 7225 10510 12288 14762 12165 6216 6895 11161 6753 14997 9269 6002 13364 5787 7752 5311 14146 11894 10933 5922 6844 13688 6100 9775 10896 6532 5399 10910 13894 9549 11055 6335 12602 9879 13347 10493 7028 9697 13607 6118 6317 7979 9834 10167 14220 13109 7432 10012 5153 12900 14334 8747 9998 8792 7795 14406 12831 12688 9355 13099 13923 8372 10254 9417 14010 9237 13421 9663 14747 13096 8119 10628 10666 12884 7064 7924 14838 12086 10814 10378 7349 13364 8409 999999 999999 999999 999999 999999 999999 999999 999999 999999 999999 999999 999999 999999 999999 999999 999999 999999 999999 999999 999999 999999 999999 999999 999999 999999 999999 999999 999999 999999 999999 999999 999999 999999 999999 999999 999999 999999 999999 999999 999999 999999 999999 999999 999999 999999 999999 999999 999999 999999 999999 999999 999999 999999 999999 999999 999999 999999 999999 999999 999999 999999 999999 999999 999999 999999 999999 999999 999999 999999 999999 999999 999999 999999 999999 999999 999999 999999 999999 999999 999999 999999 999999 999999 999999 999999 999999 999999 999999 999999 999999 999999 999999 999999 999999 999999 999999 999999 999999 999999 999999 999999 999999 999999 999999 999999 999999 999999 999999 999999 999999 999999 999999 999999 999999 999999 999999 999999 999999 999999 999999 999999 999999 999999 999999 999999 999999 999999 999999 999999 999999 999999 999999 999999 999999 999999 999999 999999 999999 999999 999999 999999 999999 999999 999999 999999 999999 999999 999999 999999 999999 999999 999999 999999 999999 999999 999999 999999 999999 999999 999999 999999 999999 999999 999999 999999 999999 999999 999999 999999 999999 999999 999999 999999 999999 999999 999999 999999 999999 999999 999999 999999
999999 0 999999 999999 999999 999999 999999 999999 999999 999999 999999 999999 999999 999999 999999 999999 999999 999999 999999 999999 999999 999999 999999 999999 999999 999999 999999 999999 999999 999999 999999 999999 999999 999999 999999 999999 999999 999999 999999 999999 999999 999999 999999 999999 999999 999999 999999 999999 999999 999999 999999 999999 999999 999999 999999 999999 999999 999999 999999 999999 999999 999999 999999 999999 999999 999999 999999 999999 999999 999999 999999 999999 999999 999999 999999 999999 999999 999999 999999 999999 999999 999999 999999 999999 999999 999999 999999 999999 999999 999999 999999 999999 999999 999999 999999 999999 999999 999999 999999 999999 999999 999999 999999 999999 999999 999999 999999 999999 999999 999999 999999 999999 999999 999999 999999 999999 999999 999999 999999 999999 999999 999999 999999 999999 999999 999999 999999 999999 999999 999999 999999 999999 999999 999999 999999 999999 999999 999999 999999 999999 999999 999999 999999 999999 999999 999999 999999 999999 999999 999999 999999 999999 999999 999999 999999 999999 999999 999999 999999 999999 999999 999999 999999 999999 999999 999999 999999 999999 999999 999999 999999 999999 999999 999999 999999 999999 999999 999999 999999 999999 999999 999999 999999 999999 999999 999999 999999 999999 999999 999999 999999 999999 999999 11251 999999 999999 999999 17534 999999 999999 999999 999999 999999 999999 999999 999999 999999 999999 999999 999999 999999 999999 999999 999999 999999 999999 999999 999999 999999 999999 999999 999999 999999 14711 999999 999999 13252 999999 999999 999999 999999 999999 999999 999999 999999 999999 12698 999999 999999 999999 14544 999999 17174 999999 999999 999999 999999 999999 999999 999999 999999 999999 999999 999999 999999 999999 999999 999999 999999 999999 999999 999999 11799 999999 999999 999999 999999 999999 18035 999999 999999 999999 999999 999999 999999 999999 14162 999999 999999 999999 999999 999999 999999 999999 999999 19456 999999 999999 999999 999999 999999 999999 999999 17628 999999 999999 999999 999999 999999 10388 999999 999999 999999 999999 999999 999999 11757 999999 999999 999999 999999 999999 999999 999999 999999 999999 999999 999999 999999 999999 999999 999999 999999 999999 999999 999999 999999 999999 999999 999999 999999 999999 999999 999999 999999 999999 999999 999999 999999 999999 999999 999999 999999 999999 999999 999999 999999 999999 999999 999999 999999 11383 999999 12584 16642 999999 999999 999999 999999 999999 17308 999999
999999 999999 0 999999 999999 999999 999999 999999 999999 999999 999999 999999 999999 999999 999999 999999 999999 999999 999999 999999 999999 999999 999999 999999 999999 999999 999999 999999 999999 999999 999999 999999 999999 999999 999999 999999 999999 999999 999999 999999 999999 999999 999999 999999 999999 999999 999999 999999 999999 999999 999999 999999 999999 999999 999999 999999 999999 999999 999999 999999 999999 999999 999999 999999 999999 999999 999999 999999 999999 999999 999999 999999 999999 999999 999999 999999 999999 999999 999999 999999 999999 999999 999999 999999 999999 999999 999999 999999 999999 999999 999999 999999 999999 999999 999999 999999 999999 999999 999999 999999 999999 999999 999999 999999 999999 999999 999999 999999 999999 999999 999999 999999 999999 999999 999999 999999 999999 999999 999999 999999 999999 999999 999999 999999 999999 999999 999999 999999 999999 999999 999999 999999 999999 999999 999999 999999 999999 999999 999999 999999 999999 999999 999999 999999 999999 999999 999999 999999 999999 999999 999999 999999 999999 999999 999999 999999 999999 999999 999999 999999 999999 999999 999999 999999 999999 999999 999999 999999 999999 999999 999999 999999 999999 999999 999999 999999 999999 999999 999999 999999 999999 999999 999999 999999 999999 999999 999999 999999 999999 999999 999999 999999 999999 17901 999999 999999 999999 18704 999999 999999 999999 999999 999999 999999 999999 999999 999999 999999 999999 999999 999999 999999 999999 999999 999999 999999 999999 999999 999999 999999 999999 999999 999999 14505 999999 999999 14334 999999 999999 999999 999999 999999 999999 999999 999999 999999 19238 999999 999999 999999 11837 999999 12774 999999 999999 999999 999999 999999 999999 999999 999999 999999 999999 999999 999999 999999 999999 999999 999999 999999 999999 999999 19712 999999 999999 999999 999999 999999 16956 999999 999999 999999 999999 999999 999999 999999 11091 999999 999999 999999 999999 999999 999999 999999 999999 10873 999999 999999 999999 999999 999999 999999 999999 15821 999999 999999 999999 999999 999999 10524 999999 999999 999999 999999 999999 999999 18000 999999 999999 999999 999999 999999 999999 999999 999999 999999 999999 999999 999999 999999 999999 999999 999999 999999 999999 999999 999999 999999 999999 999999 999999 999999 999999 999999 999999 999999 999999 999999 999999 999999 999999 999999 999999 999999 999999 999999 999999 999999 999999 999999 999999 16132 999999 15688 14294 999999 999999 999999 999999 999999 12385 999999
999999 999999 999999 0 999999 999999 999999 999999 999999 999999 999999 999999 999999 999999 999999 999999 999999 999999 999999 999999 999999 999999 999999 999999 999999 999999 999999 999999 999999 999999 999999 999999 999999 999999 999999 999999 999999 999999 999999 999999 999999 999999 999999 999999 999999 999999 999999 999999 999999 999999 999999 999999 999999 999999 999999 999999 999999 999999 999999 999999 999999 999999 999999 999999 999999 999999 999999 999999 999999 999999 999999 999999 999999 999999 999999 999999 999999 999999 999999 999999 999999 999999 999999 999999 999999 999999 999999 999999 999999 999999 999999 999999 999999 999999 999999 999999 999999 999999 999999 999999 999999 999999 999999 999999 999999 999999 999999 999999 999999 999999 999999 999999 999999 999999 999999 999999 999999 999999 999999 999999 999999 999999 999999 999999 999999 999999 999999 999999 999999 999999 999999 999999 999999 999999 999999 999999 999999 999999 999999 999999 999999 999999 999999 999999 999999 999999 999999 999999 999999 999999 999999 999999 999999 999999 999999 999999 999999 999999 999999 999999 999999 999999 999999 999999 999999 999999 999999 999999 999999 999999 999999 999999 999999 999999 999999 999999 999999 999999 999999 999999 999999 999999 999999 999999 999999 999999 999999 999999 999999 999999 999999 999999 999999 16143 999999 999999 999999 18227 999999 999999 999999 999999 999999 999999 999999 999999 999999 999999 999999 999999 999999 999999 999999 999999 999999 999999 999999 999999 999999 999999 999999 999999 999999 19448 999999 999999 17832 999999 999999 999999 999999 999999 999999 999999 999999 999999 10961 999999 999999 999999 16464 999999 13891 999999 999999 999999 999999 999999 999999 999999 999999 999999 999999 999999 999999 999999 999999 999999 999999 999999 999999 999999 11426 999999 999999 999999 999999 999999 12894 999999 999999 999999 999999 999999 999999 999999 10657 999999 999999 999999 999999 999999 999999 999999 999999 19406 999999 999999 999999 999999 999999 999999 999999 10947 999999 999999 999999 999999 999999 10877 999999 999999 999999 999999 999999 999999 10132 999999 999999 999999 999999 999999 999999 999999 999999 999999 999999 999999 999999 999999 999999 999999 999999 999999 999999 999999 999999 999999 999999 999999 999999 999999 999999 999999 999999 999999 999999 999999 999999 999999 999999 999999 999999 999999 999999 999999 999999 999999 999999 999999 999999 19514 999999 12571 11833 999999 999999 999999 999999 999999 14689 999999
999999 999999 999999 999999 0 999999 999999 999999 999999 999999 999999 999999 999999 999999 999999 999999 999999 999999 999999 999999 999999 999999 999999 999999 999999 999999 999999 999999 999999 999999 999999 999999 999999 999999 999999 999999 999999 999999 999999 999999 999999 999999 999999 999999 999999 999999 999999 999999 999999 999999 999999 999999 999999 999999 999999 999999 999999 999999 999999 999999 999999 999999 999999 999999 999999 999999 999999 999999 999999 999999 999999 999999 999999 999999 999999 999999 999999 999999 999999 999999 999999 999999 999999 999999 999999 999999 999999 999999 999999 999999 999999 999999 999999 999999 999999 999999 999999 999999 999999 999999 999999 999999 999999 999999 999999 999999 999999 999999 999999 999999 999999 999999 999999 999999 999999 999999 999999 999999 999999 999999 999999 999999 999999 999999 999999 999999 999999 999999 999999 999999 999999 999999 999999 999999 999999 999999 999999 999999 999999 999999 999999 999999 999999 999999 999999 999999 999999 999999 999999 999999 999999 999999 999999 999999 999999 999999 999999 999999 999999 999999 999999 999999 999999 999999 999999 999999 999999 999999 999999 999999 999999 999999 999999 999999 999999 999999 999999 999999 999999 999999 999999 999999 999999 999999 999999 999999 999999 999999 999999 999999 999999 999999 999999 14478 999999 999999 999999 18535 999999 999999 999999 999999 999999 999999 999999 999999 999999 999999 999999 999999 999999 999999 999999 999999 999999 999999 999999 999999 999999 999999 999999 999999 999999 10675 999999 999999 10092 999999 999999 999999 999999 999999 999999 999999 999999 999999 12406 999999 999999 999999 13615 999999 17960 999999 999999 999999 999999 999999 999999 999999 999999 999999 999999 999999 999999 999999 999999 999999 999999 999999 999999 999999 15983 999999 999999 999999 999999 999999 16186 999999 999999 999999 999999 999999 999999 999999 18412 999999 999999 999999 999999 999999 999999 999999 999999 14518 999999 999999 999999 999999 999999 999999 999999 17391 999999 999999 999999 999999 999999 14574 999999 999999 999999 999999 999999 999999 13042 999999 999999 999999 999999 999999 999999 999999 999999 999999 999999 999999 999999 999999 999999 999999 999999 999999 999999 999999 999999 999999 999999 999999 999999 999999 999999 999999 999999 999999 999999 999999 999999 999999 999999 999999 999999 999999 999999 999999 999999 999999 999999 999999 999999 14368 999999 18168 13898 999999 999999 999999 999999 999999 10789 999999
999999 999999 999999 999999 999999 0 999999 999999 999999 999999 999999 999999 999999 999999 999999 999999 999999 999999 999999 999999 999999 999999 999999 999999 999999 999999 999999 999999 999999 999999 999999 999999 999999 999999 999999 999999 999999 999999 999999 999999 999999 999999 999999 999999 999999 999999 999999 999999 999999 999999 999999 999999 999999 999999 999999 999999 999999 999999 999999 999999 999999 999999 999999 999999 999999 999999 999999 999999 999999 999999 999999 999999 999999 999999 999999 999999 999999 999999 999999 999999 999999 999999 999999 999999 999999 999999 999999 999999 999999 999999 999999 999999 999999 999999 999999 999999 999999 999999 999999 999999 999999 999999 999999 999999 999999 999999 999999 999999 999999 999999 999999 999999 999999 999999 999999 999999 999999 999999 999999 999999 999999 999999 999999 999999 999999 999999 999999 999999 999999 999999 999999 999999 999999 999999 999999 999999 999999 999999 999999 999999 999999 999999 999999 999999 999999 999999 999999 999999 999999 999999 999999 999999 999999 999999 999999 999999 999999 999999 999999 999999 999999 999999 999999 999999 999999 999999 999999 999999 999999 999999 999999 999999 999999 999999 999999 999999 999999 999999 999999 999999 999999 999999 999999 999999 999999 999999 999999 999999 999999 999999 999999 999999 999999 11348 999999 999999 999999 12307 999999 999999 999999 999999 999999 999999 999999 999999 999999 999999 999999 999999 999999 999999 999999 999999 999999 999999 999999 999999 999999 999999 999999 999999 999999 10743 999999 999999 10367 999999 999999 999999 999999 999999 999999 999999 999999 999999 10676 999999 999999 999999 15747 999999 17150 999999 999999 999999 999999 999999 999999 999999 999999 999999 999999 999999 999999 999999 999999 999999 999999 999999 999999 999999 10857 999999 999999 999999 999999 999999 15540 999999 999999 999999 999999 999999 999999 999999 19556 999999 999999 999999 999999 999999 999999 999999 999999 13830 999999 999999 999999 999999 999999 999999 999999 19382 999999 999999 999999 999999 999999 18094 999999 999999 999999 999999 999999 999999 19695 999999 999999 999999 999999 999999 999999 999999 999999 999999 999999 999999 999999 999999 999999 999999 999999 999999 999999 999999 999999 999999 999999 999999 999999 999999 999999 999999 999999 999999 999999 999999 999999 999999 999999 999999 999999 999999 999999 999999 999999 999999 999999 999999 999999 12723 999999 11023 15064 999999 999999 999999 999999 999999 19158 999999
999999 999999 999999 999999 999999 999999 0 999999 999999 999999 999999 999999 999999 999999 999999 999999 999999 999999 999999 999999 999999 999999 999999 999999 999999 999999 999999 999999 999999 999999 999999 999999 999999 999999 999999 999999 999999 999999 999999 999999 999999 999999 999999 999999 999999 999999 999999 999999 999999 999999 999999 999999 999999 999999 999999 999999 999999 999999 999999 999999 999999 999999 999999 999999 999999 999999 999999 999999 999999 999999 999999 999999 999999 999999 999999 999999 999999 999999 999999 999999 999999 999999 999999 999999 999999 999999 999999 999999 999999 999999 999999 999999 999999 999999 999999 999999 999999 999999 999999 999999 999999 999999 999999 999999 999999 999999 999999 999999 999999 999999 999999 999999 999999 999999 999999 999999 999999 999999 999999 999999 999999 999999 999999 999999 999999 999999 999999 999999 999999 999999 999999 999999 999999 999999 999999 999999 999999 999999 999999 999999 999999 999999 999999 999999 999999 999999 999999 999999 999999 999999 999999 999999 999999 999999 999999 999999 999999 999999 999999 999999 999999 999999 999999 999999 999999 999999 999999 999999 999999 999999 999999 999999 999999 999999 999999 999999 999999 999999 999999 999999 999999 999999 999999 999999 999999 999999 999999 999999 999999 999999 999999 999999 999999 14037 999999 999999 999999 14588 999999 999999 999999 999999 999999 999999 999999 999999 999999 999999 999999 999999 999999 999999 999999 999999 999999 999999 999999 999999 999999 999999 999999 999999 999999 16727 999999 999999 15055 999999 999999 999999 999999 999999 999999 999999 999999 999999 11731 999999 999999 999999 15786 999999 12358 999999 999999 999999 999999 999999 999999 999999 999999 999999 999999 999999 999999 999999 999999 999999 999999 999999 999999 999999 18157 999999 999999 999999 999999 999999 16765 999999 999999 999999 999999 999999 999999 999999 18969 999999 999999 999999 999999 999999 999999 999999 999999 11905 999999 999999 999999 999999 999999 999999 999999 13653 999999 999999 999999 999999 999999 11091 999999 999999 999999 999999 999999 999999 12563 999999 999999 999999 999999 999999 999999 999999 999999 999999 999999 999999 999999 999999 999999 999999 999999 999999 999999 999999 999999 999999 999999 999999 999999 999999 999999 999999 999999 999999 999999 999999 999999 999999 999999 999999 999999 999999 999999 999999 999999 999999 999999 999999 999999 15926 999999 12952 14665 999999 999999 999999 999999 999999 15740 999999
999999 999999 999999 999999 999999 999999 999999 0 999999 999999 999999 999999 999999 999999 999999 999999 999999 999999 999999 999999 999999 999999 999999 999999 999999 999999 999999 999999 999999 999999 999999 999999 999999 999999 999999 999999 999999 999999 999999 999999 999999 999999 999999 999999 999999 999999 999999 999999 999999 999999 999999 999999 999999 999999 999999 999999 999999 999999 999999 999999 999999 999999 999999 999999 999999 999999 999999 999999 999999 999999 999999 999999 999999 999999 999999 999999 999999 999999 999999 999999 999999 999999 999999 999999 999999 999999 999999 999999 999999 999999 999999 999999 999999 999999 999999 999999 999999 999999 999999 999999 999999 999999 999999 999999 999999 999999 999999 999999 999999 999999 999999 999999 999999 999999 999999 999999 999999 999999 999999 999999 999999 999999 999999 999999 999999 999999 999999 999999 999999 999999 999999 999999 999999 999999 999999 999999 999999 999999 999999 999999 999999 999999 999999 999999 999999 999999 999999 999999 999999 999999 999999 999999 999999 999999 999999 999999 999999 999999 999999 999999 999999 999999 999999 999999 999999 999999 999999 999999 999999 999999 999999 999999 999999 999999 999999 999999 999999 999999 999999 999999 999999 999999 999999 999999 999999 999999 999999 999999 999999 999999 999999 999999 999999 18396 999999 999999 999999 14507 999999 999999 999999 999999 999999 999999 999999 999999 999999 999999 999999 999999 999999 999999 999999 999999 999999 999999 999999 999999 999999 999999 999999 999999 999999 12031 999999 999999 15002 999999 999999 999999 999999 999999 999999 999999 999999 999999 13453 999999 999999 999999 14774 999999 10041 999999 999999 999999 999999 999999 999999 999999 999999 999999 999999 999999 999999 999999 999999 999999 999999 999999 999999 999999 12882 999999 999999 999999 999999 999999 18395 999999 999999 999999 999999 999999 999999 999999 14490 999999 999999 999999 999999 999999 999999 999999 999999 19946 999999 999999 999999 999999 999999 999999 999999 11760 999999 999999 999999 999999 999999 18352 999999 999999 999999 999999 999999 999999 19251 999999 999999 999999 999999 999999 999999 999999 999999 999999 999999 999999 999999 999999 999999 999999 999999 999999 999999 999999 999999 999999 999999 999999 999999 999999 999999 999999 999999 999999 999999 999999 999999 999999 999999 999999 999999 999999 999999 999999 999999 999999 999999 999999 999999 11531 999999 16208 13215 999999 999999 999999 999999 999999 18511 999999
999999 999999 999999 999999 999999 999999 999999 999999 0 999999 999999 999999 999999 999999 999999 999999 999999 999999 999999 999999 999999 999999 999999 999999 999999 999999 999999 999999 999999 999999 999999 999999 999999 999999 999999 999999 999999 999999 999999 999999 999999 999999 999999 999999 999999 999999 999999 999999 999999 999999 999999 999999 999999 999999 999999 999999 999999 999999 999999 999999 999999 999999 999999 999999 999999 999999 999999 999999 999999 999999 999999 999999 999999 999999 999999 999999 999999 999999 999999 999999 999999 999999 999999 999999 999999 999999 999999 999999 999999 999999 999999 999999 999999 999999 999999 999999 999999 999999 999999 999999 999999 999999 999999 999999 999999 999999 999999 999999 999999 999999 999999 999999 999999 999999 999999 999999 999999 999999 999999 999999 999999 999999 999999 999999 999999 999999 999999 999999 999999 999999 999999 999999 999999 999999 999999 999999 999999 999999 999999 999999 999999 999999 999999 999999 999999 999999 999999 999999 999999 999999 999999 999999 999999 999999 999999 999999 999999 999999 999999 999999 999999 999999 999999 999999 999999 999999 999999 999999 999999 999999 999999 999999 999999 999999 999999 999999 999999 999999 999999 999999 999999 999999 999999 999999 999999 999999 999999 999999 999999 999999 999999 999999 999999 18178 999999 999999 999999 17822 999999 999999 999999 999999 999999 999999 999999 999999 999999 999999 999999 999999 999999 999999 999999 999999 999999 999999 999999 999999 999999 999999 999999 999999 999999 17556 999999 999999 16680 999999 999999 999999 999999 999999 999999 999999 999999 999999 12878 999999 999999 999999 13607 999999 12421 999999 999999 999999 999999 999999 999999 999999 999999 999999 999999 999999 999999 999999 999999 999999 999999 999999 999999 999999 10832 999999 999999 999999 999999 999999 13743 999999 999999 999999 999999 999999 999999 999999 11229 999999 999999 999999 999999 999999 999999 999999 999999 15662 999999 999999 999999 999999 999999 999999 999999 19289 999999 999999 999999 999999 999999 18956 999999 999999 999999 999999 999999 999999 18763 999999 999999 999999 999999 999999 999999 999999 999999 999999 999999 999999 999999 999999 999999 999999 999999 999999 999999 999999 999999 999999 999999 999999 999999 999999 999999 999999 999999 999999 999999 999999 999999 999999 999999 999999 999999 999999 999999 999999 999999 999999 999999 999999 999999 13157 999999 15376 13489 999999 999999 999999 999999 999999 10833 999999
999999 999999 999999 999999 999999 999999 999999 999999 999999 0 999999 999999 999999 999999 999999 999999 999999 999999 999999 999999 999999 999999 999999 999999 999999 999999 999999 999999 999999 999999 999999 999999 999999 999999 999999 999999 999999 999999 999999 999999 999999 999999 999999 999999 999999 999999 999999 999999 999999 999999 999999 999999 999999 999999 999999 999999 999999 999999 999999 999999 999999 999999 999999 999999 999999 999999 999999 999999 999999 999999 999999 999999 999999 999999 999999 999999 999999 999999 999999 999999 999999 999999 999999 999999 999999 999999 999999 999999 999999 999999 999999 999999 999999 999999 999999 999999 999999 999999 999999 999999 999999 999999 999999 999999 999999 999999 999999 999999 999999 999999 999999 999999 999999 999999 999999 999999 999999 999999 999999 999999 999999 999999 999999 999999 999999 999999 999999 999999 999999 999999 999999 999999 999999 999999 999999 999999 999999 999999 999999 999999 999999 999999 999999 999999 999999 999999 999999 999999 999999 999999 999999 999999 999999 999999 999999 999999 999999 999999 999999 999999 999999 999999 999999 999999 999999 999999 999999 999999 999999 999999 999999 999999 999999 999999 999999 999999 999999 999999 999999 999999 999999 999999 999999 999999 999999 999999 999999 999999 999999 999999 999999 999999 999999 12880 999999 999999 999999 17139 999999 999999 999999 999999 999999 999999 999999 999999 999999 999999 999999 999999 999999 999999 999999 999999 999999 999999 999999 999999 999999 999999 999999 999999 999999 12878 999999 999999 15833 999999 999999 999999 999999 999999 999999 999999 999999 999999 15568 999999 999999 999999 16080 999999 15986 999999 999999 999999 999999 999999 999999 999999 999999 999999 999999 999999 999999 999999 999999 999999 999999 999999 999999 999999 16108 999999 999999 999999 999999 999999 14118 999999 999999 999999 999999 999999 999999 999999 18277 999999 999999 999999 999999 999999 999999 999999 999999 16527 999999 999999 999999 999999 999999 999999 999999 16527 999999 999999 999999 999999 999999 15743 999999 999999 999999 999999 999999 999999 15318 999999 999999 999999 999999 999999 999999 999999 999999 999999 999999 999999 999999 999999 999999 999999 999999 999999 999999 999999 999999 999999 999999 999999 999999 999999 999999 999999 999999 999999 999999 999999 999999 999999 999999 999999 999999 999999 999999 999999 999999 999999 999999 999999 999999 17146 999999 18697 12647 999999 999999 999999 999999 999999 17769 999999
999999 999999 999999 999999 999999 999999 999999 999999 999999 999999 0 999999 999999 999999 999999 999999 999999 999999 999999 999999 999999 999999 999999 999999 999999 999999 999999 999999 999999 999999 999999 999999 999999 999999 999999 999999 999999 999999 999999 999999 999999 999999 999999 999999 999999 999999 999999 999999 999999 999999 999999 999999 999999 999999 999999 999999 999999 999999 999999 999999 999999 999999 999999 999999 999999 999999 999999 999999 999999 999999 999999 999999 999999 999999 999999 999999 999999 999999 999999 999999 999999 999999 999999 999999 999999 999999 999999 999999 999999 999999 999999 999999 999999 999999 999999 999999 999999 999999 999999 999999 999999 999999 999999 999999 999999 999999 999999 999999 999999 999999 999999 999999 999999 999999 999999 999999 999999 999999 999999 999999 999999 999999 999999 999999 999999 999999 999999 999999 999999 999999 999999 999999 999999 999999 999999 999999 999999 999999 999999 999999 999999 999999 999999 999999 999999 999999 999999 999999 999999 999999 999999 999999 999999 999999 999999 999999 999999 999999 999999 999999 999999 999999 999999 999999 999999 999999 999999 999999 999999 999999 999999 999999 999999 999999 999999 999999 999999 999999 999999 999999 999999 999999 999999 999999 999999 999999 999999 999999 999999 999999 999999 999999 999999 14629 999999 999999 999999 19405 999999 999999 999999 999999 999999 999999 999999 999999 999999 999999 999999 999999 999999 999999 999999 999999 999999 999999 999999 999999 999999 999999 999999 999999 999999 10838 999999 999999 13209 999999 999999 999999 999999 999999 999999 999999 999999 999999 19689 999999 999999 999999 16111 999999 10234 999999 999999 999999 999999 999999 999999 999999 999999 999999 999999 999999 999999 999999 999999 999999 999999 999999 999999 999999 19163 999999 999999 999999 999999 999999 12464 999999 999999 999999 999999 999999 999999 999999 14564 999999 999999 999999 999999 999999 999999 999999 999999 10953 999999 999999 999999 999999 999999 999999 999999 13343 999999 999999 999999 999999 999999 16645 999999 999999 999999 999999 999999 999999 12796 999999 999999 999999 999999 999999 999999 999999 999999 999999 999999 999999 999999 999999 999999 999999 999999 999999 999999 999999 999999 999999 999999 999999 999999 999999 999999 999999 999999 999999 999999 999999 999999 999999 999999 999999 999999 999999 999999 999999 999999 999999 999999 999999 999999 14169 999999 17881 17339 999999 999999 999999 999999 999999 17712 999999
999999 999999 999999 999999 999999 999999 999999 999999 999999 999999 999999 0 999999 999999 999999 999999 999999 999999 999999 999999 999999 999999 999999 999999 999999 999999 999999 999999 999999 999999 999999 999999 999999 999999 999999 999999 999999 999999 999999 999999 999999 999999 999999 999999 999999 999999 999999 999999 999999 999999 999999 999999 999999 999999 999999 999999 999999 999999 999999 999999 999999 999999 999999 999999 999999 999999 999999 999999 999999 999999 999999 999999 999999 999999 999999 999999 999999 999999 999999 999999 999999 999999 999999 999999 999999 999999 999999 999999 999999 999999 999999 999999 999999 999999 999999 999999 999999 999999 999999 999999 999999 999999 999999 999999 999999 999999 999999 999999 999999 999999 999999 999999 999999 999999 999999 999999 999999 999999 999999 999999 999999 999999 999999 999999 999999 999999 999999 999999 999999 999999 999999 999999 999999 999999 999999 999999 999999 999999 999999 999999 999999 999999 999999 999999 999999 999999 999999 999999 999999 999999 999999 999999 999999 999999 999999 999999 999999 999999 999999 999999 999999 999999 999999 999999 999999 999999 999999 999999 999999 999999 999999 999999 999999 999999 999999 999999 999999 999999 999999 999999 999999 999999 999999 999999 999999 999999 999999 999999 999999 999999 999999 999999 999999 17000 999999 999999 999999 16328 999999 999999 999999 999999 999999 999999 999999 999999 999999 999999 999999 999999 999999 999999 999999 999999 999999 999999 999999 999999 999999 999999 999999 999999 999999 11059 999999 999999 16444 999999 999999 999999 999999 999999 999999 999999 999999 999999 11241 999999 999999 999999 14121 999999 14583 999999 999999 999999 999999 999999 999999 999999 999999 999999 999999 999999 999999 999999 999999 999999 999999 999999 999999 999999 17626 999999 999999 999999 999999 999999 12904 999999 999999 999999 999999 999999 999999 999999 11289 999999 999999 999999 999999 999999 999999 999999 999999 10826 999999 999999 999999 999999 999999 999999 999999 16949 999999 999999 999999 999999 999999 15081 999999 999999 999999 999999 999999 999999 10820 999999 999999 999999 999999 999999 999999 999999 999999 999999 999999 999999 999999 999999 999999 999999 999999 999999 999999 999999 999999 999999 999999 999999 999999 999999 999999 999999 999999 999999 999999 999999 999999 999999 999999 999999 999999 999999 999999 999999 999999 999999 999999 999999 999999 13289 999999 13074 11772 999999 999999 999999 999999 999999 19162 999999
999999 999999 999999 999999 999999 999999 999999 999999 999999 999999 999999 999999 0 999999 999999 999999 999999 999999 999999 999999 999999 999999 999999 999999 999999 999999 999999 999999 999999 999999 999999 999999 999999 999999 999999 999999 999999 999999 999999 999999 999999 999999 999999 999999 999999 999999 999999 999999 999999 999999 999999 999999 999999 999999 999999 999999 999999 999999 999999 999999 999999 999999 999999 999999 999999 999999 999999 999999 999999 999999 999999 999999 999999 999999 999999 999999 999999 999999 999999 999999 999999 999999 999999 999999 999999 999999 999999 999999 999999 999999 999999 999999 999999 999999 999999 999999 999999 999999 999999 999999 999999 999999 999999 999999 999999 999999 999999 999999 999999 999999 999999 999999 999999 999999 999999 999999 999999 999999 999999 999999 999999 999999 999999 999999 999999 999999 999999 999999 999999 999999 999999 999999 999999 999999 999999 999999 999999 999999 999999 999999 999999 999999 999999 999999 999999 999999 999999 999999 999999 999999 999999 999999 999999 999999 999999 999999 999999 999999 999999 999999 999999 999999 999999 999999 999999 999999 999999 999999 999999 999999 999999 999999 999999 999999 999999 999999 999999 999999 999999 999999 999999 999999 999999 999999 999999 999999 999999 999999 999999 999999 999999 999999 999999 15383 999999 999999 999999 14289 999999 999999 999999 999999 999999 999999 999999 999999 999999 999999 999999 999999 999999 999999 999999 999999 999999 999999 999999 999999 999999 999999 999999 999999 999999 19309 999999 999999 16525 999999 999999 999999 999999 999999 999999 999999 999999 999999 18608 999999 999999 999999 10202 999999 10868 999999 999999 999999 999999 999999 999999 999999 999999 999999 999999 999999 999999 999999 999999 999999 999999 999999 999999 999999 14428 999999 999999 999999 999999 999999 16012 999999 999999 999999 999999 999999 999999 999999 17322 999999 999999 999999 999999 999999 999999 999999 999999 16160 999999 999999 999999 999999 999999 999999 999999 10720 999999 999999 999999 999999 999999 14617 999999 999999 999999 999999 999999 999999 16239 999999 999999 999999 999999 999999 999999 999999 999999 999999 999999 999999 999999 999999 999999 999999 999999 999999 999999 999999 999999 999999 999999 999999 999999 999999 999999 999999 999999 999999 999999 999999 999999 999999 999999 999999 999999 999999 999999 999999 999999 999999 999999 999999 999999 11823 999999 15037 12901 999999 999999 999999 999999 999999 11594 999999
999999 999999 999999 999999 999999 999999 999999 999999 999999 999999 999999 999999 999999 0 999999 999999 999999 999999 999999 999999 999999 999999 999999 999999 999999 999999 999999 999999 999999 999999 999999 999999 999999 999999 999999 999999 999999 999999 999999 999999 999999 999999 999999 999999 999999 999999 999999 999999 999999 999999 999999 999999 999999 999999 999999 999999 999999 999999 999999 999999 999999 999999 999999 999999 999999 999999 999999 999999 999999 999999 999999 999999 999999 999999 999999 999999 999999 999999 999999 999999 999999 999999 999999 999999 999999 999999 999999 999999 999999 999999 999999 999999 999999 999999 999999 999999 999999 999999 999999 999999 999999 999999 999999 999999 999999 999999 999999 999999 999999 999999 999999 999999 999999 999999 999999 999999 999999 999999 999999 999999 999999 999999 999999 999999 999999 999999 999999 999999 999999 999999 999999 999999 999999 999999 999999 999999 999999 999999 999999 999999 999999 999999 999999 999999 999999 999999 999999 999999 999999 999999 999999 999999 999999 999999 999999 999999 999999 999999 999999 999999 999999 999999 999999 999999 999999 999999 999999 999999 999999 999999 999999 999999 999999 999999 999999 999999 999999 999999 999999 999999 999999 999999 999999 999999 999999 999999 999999 999999 999999 999999 999999 999999 999999 15554 999999 999999 999999 13102 999999 999999 999999 999999 999999 999999 999999 999999 999999 999999 999999 999999 999999 999999 999999 999999 999999 999999 999999 999999 999999 999999 999999 999999 999999 19447 999999 999999 11829 999999 999999 999999 999999 999999 999999 999999 999999 999999 10029 999999 999999 999999 14668 999999 16122 999999 999999 999999 999999 999999 999999 999999 999999 999999 999999 999999 999999 999999 999999 999999 999999 999999 999999 999999 11441 999999 999999 999999 999999 999999 13237 999999 999999 999999 999999 999999 999999 999999 12114 999999 999999 999999 999999 999999 999999 999999 999999 10226 999999 999999 999999 999999 999999 999999 999999 13916 999999 999999 999999 999999 999999 15982 999999 999999 999999 999999 999999 999999 13726 999999 999999 999999 999999 999999 999999 999999 999999 999999 999999 999999 999999 999999 999999 999999 999999 999999 999999 999999 999999 999999 999999 999999 999999 999999 999999 999999 999999 999999 999999 999999 999999 999999 999999 999999 999999 999999 999999 999999 999999 999999 999999 999999 999999 11462 999999 11365 19766 999999 999999 999999 999999 999999 14434 999999
999999 999999 999999 999999 999999 999999 999999 999999 999999 999999 999999 999999 999999 999999 0 999999 999999 999999 999999 999999 999999 999999 999999 999999 999999 999999 999999 999999 999999 999999 999999 999999 999999 999999 999999 999999 999999 999999 999999 999999 999999 999999 999999 999999 999999 999999 999999 999999 999999 999999 999999 999999 999999 999999 999999 999999 999999 999999 999999 999999 999999 999999 999999 999999 999999 999999 999999 999999 999999 999999 999999 999999 999999 999999 999999 999999 999999 999999 999999 999999 999999 999999 999999 999999 999999 999999 999999 999999 999999 999999 999999 999999 999999 999999 999999 999999 999999 999999 999999 999999 999999 999999 999999 999999 999999 999999 999999 999999 999999 999999 999999 999999 999999 999999 999999 999999 999999 999999 999999 999999 999999 999999 999999 999999 999999 999999 999999 999999 999999 999999 999999 999999 999999 999999 999999 999999 999999 999999 999999 999999 999999 999999 999999 999999 999999 999999 999999 999999 999999 999999 999999 999999 999999 999999 999999 999999 999999 999999 999999 999999 999999 999999 999999 999999 999999 999999 999999 999999 999999 999999 999999 999999 999999 999999 999999 999999 999999 999999 999999 999999 999999 999999 999999 999999 999999 999999 999999 999999 999999 999999 999999 999999 999999 10057 999999 999999 999999 13585 999999 999999 999999 999999 999999 999999 999999 999999 999999 999999 999999 999999 999999 999999 999999 999999 999999 999999 999999 999999 999999 999999 999999 999999 999999 14898 999999 999999 18127 999999 999999 999999 999999 999999 999999 999999 999999 999999 16816 999999 999999 999999 12421 999999 19250 999999 999999 999999 999999 999999 999999 999999 999999 999999 999999 999999 999999 999999 999999 999999 999999 999999 999999 999999 10027 999999 999999 999999 999999 999999 18805 999999 999999 999999 999999 999999 999999 999999 17266 999999 999999 999999 999999 999999 999999 999999 999999 14873 999999 999999 999999 999999 999999 999999 999999 13230 999999 999999 999999 999999 999999 17216 999999 999999 999999 999999 999999 999999 17035 999999 999999 999999 999999 999999 999999 999999 999999 999999 999999 999999 999999 999999 999999 999999 999999 999999 999999 999999 999999 999999 999999 999999 999999 999999 999999 999999 999999 999999 999999 999999 999999 999999 999999 999999 999999 999999 999999 999999 999999 999999 999999 999999 999999 18869 999999 13393 10254 999999 999999 999999 999999 999999 18766 999999
999999 999999 999999 999999 999999 999999 999999 999999 999999 999999 999999 999999 999999 999999 999999 0 999999 999999 999999 999999 999999 999999 999999 999999 999999 999999 999999 999999 999999 999999 999999 999999 999999 999999 999999 999999 999999 999999 999999 999999 999999 999999 999999 999999 999999 999999 999999 999999 999999 999999 999999 999999 999999 999999 999999 999999 999999 999999 999999 999999 999999 999999 999999 999999 999999 999999 999999 999999 999999 999999 999999 999999 999999 999999 999999 999999 999999 999999 999999 999999 999999 999999 999999 999999 999999 999999 999999 999999 999999 999999 999999 999999 999999 999999 999999 999999 999999 999999 999999 999999 999999 999999 999999 999999 999999 999999 999999 999999 999999 999999 999999 999999 999999 999999 999999 999999 999999 999999 999999 999999 999999 999999 999999 999999 999999 999999 999999 999999 999999 999999 999999 999999 999999 999999 999999 999999 999999 999999 999999 999999 999999 999999 999999 999999 999999 999999 999999 999999 999999 999999 999999 999999 999999 999999 999999 999999 999999 999999 999999 999999 999999 999999 999999 999999 999999 999999 999999 999999 999999 999999 999999 999999 999999 999999 999999 999999 999999 999999 999999 999999 999999 999999 999999 999999 999999 999999 999999 999999 999999 999999 999999 999999 999999 14339 999999 999999 999999 19068 999999 999999 999999 999999 999999 999999 999999 999999 999999 999999 999999 999999 999999 999999 999999 999999 999999 999999 999999 999999 999999 999999 999999 999999 999999 19364 999999 999999 17045 999999 999999 999999 999999 999999 999999 999999 999999 999999 14570 999999 999999 999999 13808 999999 19185 999999 999999 999999 999999 999999 999999 999999 999999 999999 999999 999999 999999 999999 999999 999999 999999 999999 999999 999999 16641 999999 999999 999999 999999 999999 18472 999999 999999 999999 999999 999999 999999 999999 18014 999999 999999 999999 999999 999999 999999 999999 999999 16362 999999 999999 999999 999999 999999 999999 999999 14497 999999 999999 999999 999999 999999 17813 999999 999999 999999 999999 999999 999999 13843 999999 999999 999999 999999 999999 999999 999999 999999 999999 999999 999999 999999 999999 999999 999999 999999 999999 999999 999999 999999 999999 999999 999999 999999 999999 999999 999999 999999 999999 999999 999999 999999 999999 999999 999999 999999 999999 999999 999999 999999 999999 999999 999999 999999 11080 999999 10722 16536 999999 999999 999999 999999 999999 17381 999999
999999 999999 999999 999999 999999 999999 999999 999999 999999 999999 999999 999999 999999 999999 999999 999999 0 999999 999999 999999 999999 999999 999999 999999 999999 999999 999999 999999 999999 999999 999999 999999 999999 999999 999999 999999 999999 999999 999999 999999 999999 999999 999999 999999 999999 999999 999999 999999 999999 999999 999999 999999 999999 999999 999999 999999 999999 999999 999999 999999 999999 999999 999999 999999 999999 999999 999999 999999 999999 999999 999999 999999 999999 999999 999999 999999 999999 999999 999999 999999 999999 999999 999999 999999 999999 999999 999999 999999 999999 999999 999999 999999 999999 999999 999999 999999 999999 999999 999999 999999 999999 999999 999999 999999 999999 999999 999999 999999 999999 999999 999999 999999 999999 999999 999999 999999 999999 999999 999999 999999 999999 999999 999999 999999 999999 999999 999999 999999 999999 999999 999999 999999 999999 999999 999999 999999 999999 999999 999999 999999 999999 999999 999999 999999 999999 999999 999999 999999 999999 999999 999999 999999 999999 999999 999999 999999 999999 999999 999999 999999 999999 999999 999999 999999 999999 999999 999999 999999 999999 999999 999999 999999 999999 999999 999999 999999 999999 999999 999999 999999 999999 999999 999999 999999 999999 999999 999999 999999 999999 999999 999999 999999 999999 13184 999999 999999 999999 17007 999999 999999 999999 999999 999999 999999 999999 999999 999999 999999 999999 999999 999999 999999 999999 999999 999999 999999 999999 999999 999999 999999 999999 999999 999999 10752 999999 999999 13489 999999 999999 999999 999999 999999 999999 999999 999999 999999 17801 999999 999999 999999 14509 999999 18007 999999 999999 999999 999999 999999 999999 999999 999999 999999 999999 999999 999999 999999 999999 999999 999999 999999 999999 999999 18240 999999 999999 999999 999999 999999 12085 999999 999999 999999 999999 999999 999999 999999 13312 999999 999999 999999 999999 999999 999999 999999 999999 11857 999999 999999 999999 999999 999999 999999 999999 17938 999999 999999 999999 999999 999999 14788 999999 999999 999999 999999 999999 999999 17675 999999 999999 999999 999999 999999 999999 999999 999999 999999 999999 999999 999999 999999 999999 999999 999999 999999 999999 999999 999999 999999 999999 999999 999999 999999 999999 999999 999999 999999 999999 999999 999999 999999 999999 999999 999999 999999 999999 999999 999999 999999 999999 999999 999999 10806 999999 10351 14216 999999 999999 999999 999999 999999 18571 999999
999999 999999 999999 999999 999999 999999 999999 999999 999999 999999 999999 999999 999999 999999 999999 999999 999999 0 999999 999999 999999 999999 999999 999999 999999 999999 999999 999999 999999 999999 999999 999999 999999 999999 999999 999999 999999 999999 999999 999999 999999 999999 999999 999999 999999 999999 999999 999999 999999 999999 999999 999999 999999 999999 999999 999999 999999 999999 999999 999999 999999 999999 999999 999999 999999 999999 999999 999999 999999 999999 999999 999999 999999 999999 999999 999999 999999 999999 999999 999999 999999 999999 999999 999999 999999 999999 999999 999999 999999 999999 999999 999999 999999 999999 999999 999999 999999 999999 999999 999999 999999 999999 999999 999999 999999 999999 999999 999999 999999 999999 999999 999999 999999 999999 999999 999999 999999 999999 999999 999999 999999 999999 999999 999999 999999 999999 999999 999999 999999 999999 999999 999999 999999 999999 999999 999999 999999 999999 999999 999999 999999 999999 999999 999999 999999 999999 999999 999999 999999 999999 999999 999999 999999 999999 999999 999999 999999 999999 999999 999999 999999 999999 999999 999999 999999 999999 999999 999999 999999 999999 999999 999999 999999 999999 999999 999999 999999 999999 999999 999999 999999 999999 999999 999999 999999 999999 999999 999999 999999 999999 999999 999999 999999 10134 999999 999999 999999 15111 999999 999999 999999 999999 999999 999999 999999 999999 999999 999999 999999 999999 999999 999999 999999 999999 999999 999999 999999 999999 999999 999999 999999 999999 999999 18577 999999 999999 13196 999999 999999 999999 999999 999999 999999 999999 999999 999999 15955 999999 999999 999999 16940 999999 14007 999999 999999 999999 999999 999999 999999 999999 999999 999999 999999 999999 999999 999999 999999 999999 999999 999999 999999 999999 18588 999999 999999 999999 999999 999999 10390 999999 999999 999999 999999 999999 999999 999999 13562 999999 999999 999999 999999 999999 999999 999999 999999 14597 999999 999999 999999 999999 999999 999999 999999 12042 999999 999999 999999 999999 999999 18302 999999 999999 999999 999999 999999 999999 18100 999999 999999 999999 999999 999999 999999 999999 999999 999999 999999 999999 999999 999999 999999 999999 999999 999999 999999 999999 999999 999999 999999 999999 999999 999999 999999 999999 999999 999999 999999 999999 999999 999999 999999 999999 999999 999999 999999 999999 999999 999999 999999 999999 999999 11928 999999 11574 17224 999999 999999 999999 999999 999999 15861 999999
999999 999999 999999 999999 999999 999999 999999 999999 999999 999999 999999 999999 999999 999999 999999 999999 999999 999999 0 999999 999999 999999 999999 999999 999999 999999 999999 999999 999999 999999 999999 999999 999999 999999 999999 999999 999999 999999 999999 999999 999999 999999 999999 999999 999999 999999 999999 999999 999999 999999 999999 999999 999999 999999 999999 999999 999999 999999 999999 999999 999999 999999 999999 999999 999999 999999 999999 999999 999999 999999 999999 999999 999999 999999 999999 999999 999999 999999 999999 999999 999999 999999 999999 999999 999999 999999 999999 999999 999999 999999 999999 999999 999999 999999 999999 999999 999999 999999 999999 999999 999999 999999 999999 999999 999999 999999 999999 999999 999999 999999 999999 999999 999999 999999 999999 999999 999999 999999 999999 999999 999999 999999 999999 999999 999999 999999 999999 999999 999999 999999 999999 999999 999999 999999 999999 999999 999999 999999 999999 999999 999999 999999 999999 999999 999999 999999 999999 999999 999999 999999 999999 999999 999999 999999 999999 999999 999999 999999 999999 999999 999999 999999 999999 999999 999999 999999 999999 999999 999999 999999 999999 999999 999999 999999 999999 999999 999999 999999 999999 999999 999999 999999 999999 999999 999999 999999 999999 999999 999999 999999 999999 999999 999999 17932 999999 999999 999999 10710 999999 999999 999999 999999 999999 999999 999999 999999 999999 999999 999999 999999 999999 999999 999999 999999 999999 999999 999999 999999 999999 999999 999999 999999 999999 15951 999999 999999 11203 999999 999999 999999 999999 999999 999999 999999 999999 999999 18731 999999 999999 999999 18467 999999 18612 999999 999999 999999 999999 999999 999999 999999 999999 999999 999999 999999 999999 999999 999999 999999 999999 999999 999999 999999 17441 999999 999999 999999 999999 999999 10083 999999 999999 999999 999999 999999 999999 999999 15177 999999 999999 999999 999999 999999 999999 999999 999999 18204 999999 999999 999999 999999 999999 999999 999999 18663 999999 999999 999999 999999 999999 19567 999999 999999 999999 999999 999999 999999 18904 999999 999999 999999 999999 999999 999999 999999 999999 999999 999999 999999 999999 999999 999999 999999 999999 999999 999999 999999 999999 999999 999999 999999 999999 999999 999999 999999 999999 999999 999999 999999 999999 999999 999999 999999 999999 999999 999999 999999 999999 999999 999999 999999 999999 14631 999999 11474 11988 999999 999999 999999 999999 999999 10665 999999
999999 999999 999999 999999 999999 999999 999999 999999 999999 999999 999999 999999 999999 999999 999999 999999 999999 999999 999999 0 999999 999999 999999 999999 999999 999999 999999 999999 999999 999999 999999 999999 999999 999999 999999 999999 999999 999999 999999 999999 999999 999999 999999 999999 999999 999999 999999 999999 999999 999999 999999 999999 999999 999999 999999 999999 999999 999999 999999 999999 999999 999999 999999 999999 999999 999999 999999 999999 999999 999999 999999 999999 999999 999999 999999 999999 999999 999999 999999 999999 999999 999999 999999 999999 999999 999999 999999 999999 999999 999999 999999 999999 999999 999999 999999 999999 999999 999999 999999 999999 999999 999999 999999 999999 999999 999999 999999 999999 999999 999999 999999 999999 999999 999999 999999 999999 999999 999999 999999 999999 999999 999999 999999 999999 999999 999999 999999 999999 999999 999999 999999 999999 999999 999999 999999 999999 999999 999999 999999 999999 999999 999999 999999 999999 999999 999999 999999 999999 999999 999999 999999 999999 999999 999999 999999 999999 999999 999999 999999 999999 999999 999999 999999 999999 999999 999999 999999 999999 999999 999999 999999 999999 999999 999999 999999 999999 999999 999999 999999 999999 999999 999999 999999 999999 17541 999999 999999 999999 999999 999999 999999 999999 999999 999999 999999 999999 18641 999999 999999 999999 999999 999999 999999 999999 999999 15235 999999 999999 999999 999999 999999 999999 999999 999999 999999 999999 16290 999999 12660 999999 999999 999999 999999 999999 999999 999999 999999 999999 999999 999999 999999 999999 999999 19208 999999 999999 999999 999999 999999 999999 999999 999999 999999 12166 999999 11355 999999 999999 13534 999999 999999 999999 999999 999999 999999 999999 999999 999999 999999 999999 999999 999999 999999 999999 999999 999999 999999 999999 999999 999999 999999 999999 999999 999999 999999 999999 999999 999999 999999 999999 999999 999999 999999 999999 999999 999999 999999 999999 999999 10211 999999 999999 999999 999999 999999 15889 14109 13909 999999 999999 999999 999999 999999 999999 999999 999999 999999 17229 999999 999999 999999 999999 999999 999999 999999 999999 999999 999999 999999 999999 999999 999999 999999 999999 999999 999999 12093 999999 999999 999999 999999 17728 999999 999999 999999 999999 999999 999999 16028 999999 999999 999999 999999 999999 999999 999999 999999 999999 999999 999999 999999 999999 999999 999999 999999 999999 999999 999999 10787 999999 999999 999999
999999 999999 999999 999999 999999 999999 999999 999999 999999 999999 999999 999999 999999 999999 999999 999999 999999 999999 999999 999999 0 999999 999999 999999 999999 999999 999999 999999 999999 999999 999999 999999 999999 999999 999999 999999 999999 999999 999999 999999 999999 999999 999999 999999 999999 999999 999999 999999 999999 999999 999999 999999 999999 999999 999999 999999 999999 999999 999999 999999 999999 999999 999999 999999 999999 999999 999999 999999 999999 999999 999999 999999 999999 999999 999999 999999 999999 999999 999999 999999 999999 999999 999999 999999 999999 999999 999999 999999 999999 999999 999999 999999 999999 999999 999999 999999 999999 999999 999999 999999 999999 999999 999999 999999 999999 999999 999999 999999 999999 999999 999999 999999 999999 999999 999999 999999 999999 999999 999999 999999 999999 999999 999999 999999 999999 999999 999999 999999 999999 999999 999999 999999 999999 999999 999999 999999 999999 999999 999999 999999 999999 999999 999999 999999 999999 999999 999999 999999 999999 999999 999999 999999 999999 999999 999999 999999 999999 999999 999999 999999 999999 999999 999999 999999 999999 999999 999999 999999 999999 999999 999999 999999 999999 999999 999999 999999 999999 999999 999999 999999 999999 999999 999999 999999 13262 999999 999999 999999 999999 999999 999999 999999 999999 999999 999999 999999 11949 999999 999999 999999 999999 999999 999999 999999 999999 16552 999999 999999 999999 999999 999999 999999 999999 999999 999999 999999 10343 999999 17865 999999 999999 999999 999999 999999 999999 999999 999999 999999 999999 999999 999999 999999 999999 14124 999999 999999 999999 999999 999999 999999 999999 999999 999999 11469 999999 13418 999999 999999 15666 999999 999999 999999 999999 999999 999999 999999 999999 999999 999999 999999 999999 999999 999999 999999 999999 999999 999999 999999 999999 999999 999999 999999 999999 999999 999999 999999 999999 999999 999999 999999 999999 999999 999999 999999 999999 999999 999999 999999 999999 15102 999999 999999 999999 999999 999999 12516 19541 16446 999999 999999 999999 999999 999999 999999 999999 999999 999999 18746 999999 999999 999999 999999 999999 999999 999999 999999 999999 999999 999999 999999 999999 999999 999999 999999 999999 999999 19775 999999 999999 999999 999999 14027 999999 999999 999999 999999 999999 999999 15320 999999 999999 999999 999999 999999 999999 999999 999999 999999 999999 999999 999999 999999 999999 999999 999999 999999 999999 999999 15479 999999 999999 999999
999999 999999 999999 999999 999999 999999 999999 999999 999999 999999 999999 999999 999999 999999 999999 999999 999999 999999 999999 999999 999999 0 999999 999999 999999 999999 999999 999999 999999 999999 999999 999999 999999 999999 999999 999999 999999 999999 999999 999999 999999 999999 999999 999999 999999 999999 999999 999999 999999 999999 999999 999999 999999 999999 999999 999999 999999 999999 999999 999999 999999 999999 999999 999999 999999 999999 999999 999999 999999 999999 999999 999999 999999 999999 999999 999999 999999 999999 999999 999999 999999 999999 999999 999999 999999 999999 999999 999999 999999 999999 999999 999999 999999 999999 999999 999999 999999 999999 999999 999999 999999 999999 999999 999999 999999 999999 999999 999999 999999 999999 999999 999999 999999 999999 999999 999999 999999 999999 999999 999999 999999 999999 999999 999999 999999 999999 999999 999999 999999 999999 999999 999999 999999 999999 999999 999999 999999 999999 999999 999999 999999 999999 999999 999999 999999 999999 999999 999999 999999 999999 999999 999999 999999 999999 999999 999999 999999 999999 999999 999999 999999 999999 999999 999999 999999 999999 999999 999999 999999 999999 999999 999999 999999 999999 999999 999999 999999 999999 999999 999999 999999 999999 999999 999999 19239 999999 999999 999999 999999 999999 999999 999999 999999 999999 999999 999999 11952 999999 999999 999999 999999 999999 999999 999999 999999 15506 999999 999999 999999 999999 999999 999999 999999 999999 999999 999999 12798 999999 17510 999999 999999 999999 999999 999999 999999 999999 999999 999999 999999 999999 999999 999999 999999 12122 999999 999999 999999 999999 999999 999999 999999 999999 999999 17596 999999 12301 999999 999999 15878 999999 999999 999999 999999 999999 999999 999999 999999 999999 999999 999999 999999 999999 999999 999999 999999 999999 999999 999999 999999 999999 999999 999999 999999 999999 999999 999999 999999 999999 999999 999999 999999 999999 999999 999999 999999 999999 999999 999999 999999 16215 999999 999999 999999 999999 999999 10079 15637 19171 999999 999999 999999 999999 999999 999999 999999 999999 999999 12944 999999 999999 999999 999999 999999 999999 999999 999999 999999 999999 999999 999999 999999 999999 999999 999999 999999 999999 10674 999999 999999 999999 999999 14795 999999 999999 999999 999999 999999 999999 14874 999999 999999 999999 999999 999999 999999 999999 999999 999999 999999 999999 999999 999999 999999 999999 999999 999999 999999 999999 10923 999999 999999 999999
999999 999999 999999 999999 999999 999999 999999 999999 999999 999999 999999 999999 999999 999999 999999 999999 999999 999999 999999 999999 999999 999999 0 999999 999999 999999 999999 999999 999999 999999 999999 999999 999999 999999 999999 999999 999999 999999 999999 999999 999999 999999 999999 999999 999999 999999 999999 999999 999999 999999 999999 999999 999999 999999 999999 999999 999999 999999 999999 999999 999999 999999 999999 999999 999999 999999 999999 999999 999999 999999 999999 999999 999999 999999 999999 999999 999999 999999 999999 999999 999999 999999 999999 999999 999999 999999 999999 999999 999999 999999 999999 999999 999999 999999 999999 999999 999999 999999 999999 999999 999999 999999 999999 999999 999999 999999 999999 999999 999999 999999 999999 999999 999999 999999 999999 999999 999999 999999 999999 999999 999999 999999 999999 999999 999999 999999 999999 999999 999999 999999 999999 999999 999999 999999 999999 999999 999999 999999 999999 999999 999999 999999 999999 999999 999999 999999 999999 999999 999999 999999 999999 999999 999999 999999 999999 999999 999999 999999 999999 999999 999999 999999 999999 999999 999999 999999 999999 999999 999999 999999 999999 999999 999999 999999 999999 999999 999999 999999 999999 999999 999999 999999 999999 999999 15676 999999 999999 999999 999999 999999 999999 999999 999999 999999 999999 999999 14166 999999 999999 999999 999999 999999 999999 999999 999999 18825 999999 999999 999999 999999 999999 999999 999999 999999 999999 999999 16434 999999 12506 999999 999999 999999 999999 999999 999999 999999 999999 999999 999999 999999 999999 999999 999999 14786 999999 999999 999999 999999 999999 999999 999999 999999 999999 18485 999999 10486 999999 999999 11022 999999 999999 999999 999999 999999 999999 999999 999999 999999 999999 999999 999999 999999 999999 999999 999999 999999 999999 999999 999999 999999 999999 999999 999999 999999 999999 999999 999999 999999 999999 999999 999999 999999 999999 999999 999999 999999 999999 999999 999999 15191 999999 999999 999999 999999 999999 11546 19494 11667 999999 999999 999999 999999 999999 999999 999999 999999 999999 14640 999999 999999 999999 999999 999999 999999 999999 999999 999999 999999 999999 999999 999999 999999 999999 999999 999999 999999 14072 999999 999999 999999 999999 10059 999999 999999 999999 999999 999999 999999 17877 999999 999999 999999 999999 999999 999999 999999 999999 999999 999999 999999 999999 999999 999999 999999 999999 999999 999999 999999 12871 999999 999999 999999
999999 999999 999999 999999 999999 999999 999999 999999 999999 999999 999999 999999 999999 999999 999999 999999 999999 999999 999999 999999 999999 999999 999999 0 999999 999999 999999 999999 999999 999999 999999 999999 999999 999999 999999 999999 999999 999999 999999 999999 999999 999999 999999 999999 999999 999999 999999 999999 999999 999999 999999 999999 999999 999999 999999 999999 999999 999999 999999 999999 999999 999999 999999 999999 999999 999999 999999 999999 999999 999999 999999 999999 999999 999999 999999 999999 999999 999999 999999 999999 999999 999999 999999 999999 999999 999999 999999 999999 999999 999999 999999 999999 999999 999999 999999 999999 999999 999999 999999 999999 999999 999999 999999 999999 999999 999999 999999 999999 999999 999999 999999 999999 999999 999999 999999 999999 999999 999999 999999 999999 999999 999999 999999 999999 999999 999999 999999 999999 999999 999999 999999 999999 999999 999999 999999 999999 999999 999999 999999 999999 999999 999999 999999 999999 999999 999999 999999 999999 999999 999999 999999 999999 999999 999999 999999 999999 999999 999999 999999 999999 999999 999999 999999 999999 999999 999999 999999 999999 999999 999999 999999 999999 999999 999999 999999 999999 999999 999999 999999 999999 999999 999999 999999 999999 10558 999999 999999 999999 999999 999999 999999 999999 999999 999999 999999 999999 10838 999999 999999 999999 999999 999999 999999 999999 999999 12271 999999 999999 999999 999999 999999 999999 999999 999999 999999 999999 16615 999999 12416 999999 999999 999999 999999 999999 999999 999999 999999 999999 999999 999999 999999 999999 999999 10315 999999 999999 999999 999999 999999 999999 999999 999999 999999 17307 999999 11823 999999 999999 12261 999999 999999 999999 999999 999999 999999 999999 999999 999999 999999 999999 999999 999999 999999 999999 999999 999999 999999 999999 999999 999999 999999 999999 999999 999999 999999 999999 999999 999999 999999 999999 999999 999999 999999 999999 999999 999999 999999 999999 999999 10671 999999 999999 999999 999999 999999 17992 17011 12962 999999 999999 999999 999999 999999 999999 999999 999999 999999 16755 999999 999999 999999 999999 999999 999999 999999 999999 999999 999999 999999 999999 999999 999999 999999 999999 999999 999999 19955 999999 999999 999999 999999 13405 999999 999999 999999 999999 999999 999999 17753 999999 999999 999999 999999 999999 999999 999999 999999 999999 999999 999999 999999 999999 999999 999999 999999 999999 999999 999999 12996 999999 999999 999999
999999 999999 999999 999999 999999 999999 999999 999999 999999 999999 999999 999999 999999 999999 999999 999999 999999 999999 999999 999999 999999 999999 999999 999999 0 999999 999999 999999 999999 999999 999999 999999 999999 999999 999999 999999 999999 999999 999999 999999 999999 999999 999999 999999 999999 999999 999999 999999 999999 999999 999999 999999 999999 999999 999999 999999 999999 999999 999999 999999 999999 999999 999999 999999 999999 999999 999999 999999 999999 999999 999999 999999 999999 999999 999999 999999 999999 999999 999999 999999 999999 999999 999999 999999 999999 999999 999999 999999 999999 999999 999999 999999 999999 999999 999999 999999 999999 999999 999999 999999 999999 999999 999999 999999 999999 999999 999999 999999 999999 999999 999999 999999 999999 999999 999999 999999 999999 999999 999999 999999 999999 999999 999999 999999 999999 999999 999999 999999 999999 999999 999999 999999 999999 999999 999999 999999 999999 999999 999999 999999 999999 999999 999999 999999 999999 999999 999999 999999 999999 999999 999999 999999 999999 999999 999999 999999 999999 999999 999999 999999 999999 999999 999999 999999 999999 999999 999999 999999 999999 999999 999999 999999 999999 999999 999999 999999 999999 999999 999999 999999 999999 999999 999999 999999 18834 999999 999999 999999 999999 999999 999999 999999 999999 999999 999999 999999 13271 999999 999999 999999 999999 999999 999999 999999 999999 10037 999999 999999 999999 999999 999999 999999 999999 999999 999999 999999 19246 999999 11062 999999 999999 999999 999999 999999 999999 999999 999999 999999 999999 999999 999999 999999 999999 18845 999999 999999 999999 999999 999999 999999 999999 999999 999999 12878 999999 14017 999999 999999 19064 999999 999999 999999 999999 999999 999999 999999 999999 999999 999999 999999 999999 999999 999999 999999 999999 999999 999999 999999 999999 999999 999999 999999 999999 999999 999999 999999 999999 999999 999999 999999 999999 999999 999999 999999 999999 999999 999999 999999 999999 16714 999999 999999 999999 999999 999999 12288 13104 19636 999999 999999 999999 999999 999999 999999 999999 999999 999999 14906 999999 999999 999999 999999 999999 999999 999999 999999 999999 999999 999999 999999 999999 999999 999999 999999 999999 999999 18051 999999 999999 999999 999999 11542 999999 999999 999999 999999 999999 999999 16082 999999 999999 999999 999999 999999 999999 999999 999999 999999 999999 999999 999999 999999 999999 999999 999999 999999 999999 999999 18472 999999 999999 999999
999999 999999 999999 999999 999999 999999 999999 999999 999999 999999 999999 999999 999999 999999 999999 999999 999999 999999 999999 999999 999999 999999 999999 999999 999999 0 999999 999999 999999 999999 999999 999999 999999 999999 999999 999999 999999 999999 999999 999999 999999 999999 999999 999999 999999 999999 999999 999999 999999 999999 999999 999999 999999 999999 999999 999999 999999 999999 999999 999999 999999 999999 999999 999999 999999 999999 999999 999999 999999 999999 999999 999999 999999 999999 999999 999999 999999 999999 999999 999999 999999 999999 999999 999999 999999 999999 999999 999999 999999 999999 999999 999999 999999 999999 999999 999999 999999 999999 999999 999999 999999 999999 999999 999999 999999 999999 999999 999999 999999 999999 999999 999999 999999 999999 999999 999999 999999 999999 999999 999999 999999 999999 999999 999999 999999 999999 999999 999999 999999 999999 999999 999999 999999 999999 999999 999999 999999 999999 999999 999999 999999 999999 999999 999999 999999 999999 999999 999999 999999 999999 999999 999999 999999 999999 999999 999999 999999 999999 999999 999999 999999 999999 999999 999999 999999 999999 999999 999999 999999 999999 999999 999999 999999 999999 999999 999999 999999 999999 999999 999999 999999 999999 999999 999999 11587 999999 999999 999999 999999 999999 999999 999999 999999 999999 999999 999999 12597 999999 999999 999999 999999 999999 999999 999999 999999 16895 999999 999999 999999 999999 999999 999999 999999 999999 999999 999999 17081 999999 11215 999999 999999 999999 999999 999999 999999 999999 999999 999999 999999 999999 999999 999999 999999 13825 999999 999999 999999 999999 999999 999999 999999 999999 999999 13493 999999 19918 999999 999999 13608 999999 999999 999999 999999 999999 999999 999999 999999 999999 999999 999999 999999 999999 999999 999999 999999 999999 999999 999999 999999 999999 999999 999999 999999 999999 999999 999999 999999 999999 999999 999999 999999 999999 999999 999999 999999 999999 999999 999999 999999 14932 999999 999999 999999 999999 999999 16367 15074 14751 999999 999999 999999 999999 999999 999999 999999 999999 999999 19351 999999 999999 999999 999999 999999 999999 999999 999999 999999 999999 999999 999999 999999 999999 999999 999999 999999 999999 19722 999999 999999 999999 999999 15890 999999 999999 999999 999999 999999 999999 12533 999999 999999 999999 999999 999999 999999 999999 999999 999999 999999 999999 999999 999999 999999 999999 999999 999999 999999 999999 16720 999999 999999 999999
999999 999999 999999 999999 999999 999999 999999 999999 999999 999999 999999 999999 999999 999999 999999 999999 999999 999999 999999 999999 999999 999999 999999 999999 999999 999999 0 999999 999999 999999 999999 999999 999999 999999 999999 999999 999999 999999 999999 999999 999999 999999 999999 999999 999999 999999 999999 999999 999999 999999 999999 999999 999999 999999 999999 999999 999999 999999 999999 999999 999999 999999 999999 999999 999999 999999 999999 999999 999999 999999 999999 999999 999999 999999 999999 999999 999999 999999 999999 999999 999999 999999 999999 999999 999999 999999 999999 999999 999999 999999 999999 999999 999999 999999 999999 999999 999999 999999 999999 999999 999999 999999 999999 999999 999999 999999 999999 999999 999999 999999 999999 999999 999999 999999 999999 999999 999999 999999 999999 999999 999999 999999 999999 999999 999999 999999 999999 999999 999999 999999 999999 999999 999999 999999 999999 999999 999999 999999 999999 999999 999999 999999 999999 999999 999999 999999 999999 999999 999999 999999 999999 999999 999999 999999 999999 999999 999999 999999 999999 999999 999999 999999 999999 999999 999999 999999 999999 999999 999999 999999 999999 999999 999999 999999 999999 999999 999999 999999 999999 999999 999999 999999 999999 999999 11121 999999 999999 999999 999999 999999 999999 999999 999999 999999 999999 999999 16624 999999 999999 999999 999999 999999 999999 999999 999999 10014 999999 999999 999999 999999 999999 999999 999999 999999 999999 999999 13406 999999 19344 999999 999999 999999 999999 999999 999999 999999 999999 999999 999999 999999 999999 999999 999999 13659 999999 999999 999999 999999 999999 999999 999999 999999 999999 17578 999999 15318 999999 999999 17282 999999 999999 999999 999999 999999 999999 999999 999999 999999 999999 999999 999999 999999 999999 999999 999999 999999 999999 999999 999999 999999 999999 999999 999999 999999 999999 999999 999999 999999 999999 999999 999999 999999 999999 999999 999999 999999 999999 999999 999999 16502 999999 999999 999999 999999 999999 15418 11124 19484 999999 999999 999999 999999 999999 999999 999999 999999 999999 12644 999999 999999 999999 999999 999999 999999 999999 999999 999999 999999 999999 999999 999999 999999 999999 999999 999999 999999 15181 999999 999999 999999 999999 16094 999999 999999 999999 999999 999999 999999 12893 999999 999999 999999 999999 999999 999999 999999 999999 999999 999999 999999 999999 999999 999999 999999 999999 999999 999999 999999 13352 999999 999999 999999
999999 999999 999999 999999 999999 999999 999999 999999 999999 999999 999999 999999 999999 999999 999999 999999 999999 999999 999999 999999 999999 999999 999999 999999 999999 999999 999999 0 999999 999999 999999 999999 999999 999999 999999 999999 999999 999999 999999 999999 999999 999999 999999 999999 999999 999999 999999 999999 999999 999999 999999 999999 999999 999999 999999 999999 999999 999999 999999 999999 999999 999999 999999 999999 999999 999999 999999 999999 999999 999999 999999 999999 999999 999999 999999 999999 999999 999999 999999 999999 999999 999999 999999 999999 999999 999999 999999 999999 999999 999999 999999 999999 999999 999999 999999 999999 999999 999999 999999 999999 999999 999999 999999 999999 999999 999999 999999 999999 999999 999999 999999 999999 999999 999999 999999 999999 999999 999999 999999 999999 999999 999999 999999 999999 999999 999999 999999 999999 999999 999999 999999 999999 999999 999999 999999 999999 999999 999999 999999 999999 999999 999999 999999 999999 999999 999999 999999 999999 999999 999999 999999 999999 999999 999999 999999 999999 999999 999999 999999 999999 999999 999999 999999 999999 999999 999999 999999 999999 999999 999999 999999 999999 999999 999999 999999 999999 999999 999999 999999 999999 999999 999999 999999 999999 15432 999999 999999 999999 999999 999999 999999 999999 999999 999999 999999 999999 17262 999999 999999 999999 999999 999999 999999 999999 999999 16270 999999 999999 999999 999999 999999 999999 999999 999999 999999 999999 18859 999999 17452 999999 999999 999999 999999 999999 999999 999999 999999 999999 999999 999999 999999 999999 999999 14259 999999 999999 999999 999999 999999 999999 999999 999999 999999 11112 999999 17162 999999 999999 17485 999999 999999 999999 999999 999999 999999 999999 999999 999999 999999 999999 999999 999999 999999 999999 999999 999999 999999 999999 999999 999999 999999 999999 999999 999999 999999 999999 999999 999999 999999 999999 999999 999999 999999 999999 999999 999999 999999 999999 999999 15473 999999 999999 999999 999999 999999 17206 16475 16578 999999 999999 999999 999999 999999 999999 999999 999999 999999 11026 999999 999999 999999 999999 999999 999999 999999 999999 999999 999999 999999 999999 999999 999999 999999 999999 999999 999999 15448 999999 999999 999999 999999 12460 999999 999999 999999 999999 999999 999999 16988 999999 999999 999999 999999 999999 999999 999999 999999 999999 999999 999999 999999 999999 999999 999999 999999 999999 999999 999999 19920 999999 999999 999999
999999 999999 999999 999999 999999 999999 999999 999999 999999 999999 999999 999999 999999 999999 999999 999999 999999 999999 999999 999999 999999 999999 999999 999999 999999 999999 999999 999999 0 999999 999999 999999 999999 999999 999999 999999 999999 999999 999999 999999 999999 999999 999999 999999 999999 999999 999999 999999 999999 999999 999999 999999 999999 999999 999999 999999 999999 999999 999999 999999 999999 999999 999999 999999 999999 999999 999999 999999 999999 999999 999999 999999 999999 999999 999999 999999 999999 999999 999999 999999 999999 999999 999999 999999 999999 999999 999999 999999 999999 999999 999999 999999 999999 999999 999999 999999 999999 999999 999999 999999 999999 999999 999999 999999 999999 999999 999999 999999 999999 999999 999999 999999 999999 999999 999999 999999 999999 999999 999999 999999 999999 999999 999999 999999 999999 999999 999999 999999 999999 999999 999999 999999 999999 999999 999999 999999 999999 999999 999999 999999 999999 999999 999999 999999 999999 999999 999999 999999 999999 999999 999999 999999 999999 999999 999999 999999 999999 999999 999999 999999 999999 999999 999999 999999 999999 999999 999999 999999 999999 999999 999999 999999 999999 999999 999999 999999 999999 999999 999999 999999 999999 999999 999999 999999 14943 999999 999999 999999 999999 999999 999999 999999 999999 999999 999999 999999 10662 999999 999999 999999 999999 999999 999999 999999 999999 19747 999999 999999 999999 999999 999999 999999 999999 999999 999999 999999 10120 999999 14754 999999 999999 999999 999999 999999 999999 999999 999999 999999 999999 999999 999999 999999 999999 16720 999999 999999 999999 999999 999999 999999 999999 999999 999999 14649 999999 10321 999999 999999 10588 999999 999999 999999 999999 999999 999999 999999 999999 999999 999999 999999 999999 999999 999999 999999 999999 999999 999999 999999 999999 999999 999999 999999 999999 999999 999999 999999 999999 999999 999999 999999 999999 999999 999999 999999 999999 999999 999999 999999 999999 14356 999999 999999 999999 999999 999999 12088 12213 17026 999999 999999 999999 999999 999999 999999 999999 999999 999999 18768 999999 999999 999999 999999 999999 999999 999999 999999 999999 999999 999999 999999 999999 999999 999999 999999 999999 999999 11994 999999 999999 999999 999999 16538 999999 999999 999999 999999 999999 999999 11555 999999 999999 999999 999999 999999 999999 999999 999999 999999 999999 999999 999999 999999 999999 999999 999999 999999 999999 999999 13655 999999 999999 999999
999999 999999 999999 999999 999999 999999 999999 999999 999999 999999 999999 999999 999999 999999 999999 999999 999999 999999 999999 999999 999999 999999 999999 999999 999999 999999 999999 999999 999999 0 999999 999999 999999 999999 999999 999999 999999 999999 999999 999999 999999 999999 999999 999999 999999 999999 999999 999999 999999 999999 999999 999999 999999 999999 999999 999999 999999 999999 999999 999999 999999 999999 999999 999999 999999 999999 999999 999999 999999 999999 999999 999999 999999 999999 999999 999999 999999 999999 999999 999999 999999 999999 999999 999999 999999 999999 999999 999999 999999 999999 999999 999999 999999 999999 999999 999999 999999 999999 999999 999999 999999 999999 999999 999999 999999 999999 999999 999999 999999 999999 999999 999999 999999 999999 999999 999999 999999 999999 999999 999999 999999 999999 999999 999999 999999 999999 999999 999999 999999 999999 999999 999999 999999 999999 999999 999999 999999 999999 999999 999999 999999 999999 999999 999999 999999 999999 999999 999999 999999 999999 999999 999999 999999 999999 999999 999999 999999 999999 999999 999999 999999 999999 999999 999999 999999 999999 999999 999999 999999 999999 999999 999999 999999 999999 999999 999999 999999 999999 999999 999999 999999 999999 999999 999999 11314 999999 999999 999999 999999 999999 999999 999999 999999 999999 999999 999999 13602 999999 999999 999999 999999 999999 999999 999999 999999 10224 999999 999999 999999 999999 999999 999999 999999 999999 999999 999999 18913 999999 12215 999999 999999 999999 999999 999999 999999 999999 999999 999999 999999 999999 999999 999999 999999 16827 999999 999999 999999 999999 999999 999999 999999 999999 999999 14702 999999 11398 999999 999999 17421 999999 999999 999999 999999 999999 999999 999999 999999 999999 999999 999999 999999 999999 999999 999999 999999 999999 999999 999999 999999 999999 999999 999999 999999 999999 999999 999999 999999 999999 999999 999999 999999 999999 999999 999999 999999 999999 999999 999999 999999 13225 999999 999999 999999 999999 999999 19553 12004 17399 999999 999999 999999 999999 999999 999999 999999 999999 999999 11283 999999 999999 999999 999999 999999 999999 999999 999999 999999 999999 999999 999999 999999 999999 999999 999999 999999 999999 19805 999999 999999 999999 999999 15564 999999 999999 999999 999999 999999 999999 16157 999999 999999 999999 999999 999999 999999 999999 999999 999999 999999 999999 999999 999999 999999 999999 999999 999999 999999 999999 18763 999999 999999 999999
999999 999999 999999 999999 999999 999999 999999 999999 999999 999999 999999 999999 999999 999999 999999 999999 999999 999999 999999 999999 999999 999999 999999 999999 999999 999999 999999 999999 999999 999999 0 999999 999999 999999 999999 999999 999999 999999 999999 999999 999999 999999 999999 999999 999999 999999 999999 999999 999999 999999 999999 999999 999999 999999 999999 999999 999999 999999 999999 999999 999999 999999 999999 999999 999999 999999 999999 999999 999999 999999 999999 999999 999999 999999 999999 999999 999999 999999 999999 999999 999999 999999 999999 999999 999999 999999 999999 999999 999999 999999 999999 999999 999999 999999 999999 999999 999999 999999 999999 999999 999999 999999 999999 999999 999999 999999 999999 999999 999999 999999 999999 999999 999999 999999 999999 999999 999999 999999 999999 999999 999999 999999 999999 999999 999999 999999 999999 999999 999999 999999 999999 999999 999999 999999 999999 999999 999999 999999 999999 999999 999999 999999 999999 999999 999999 999999 999999 999999 999999 999999 999999 999999 999999 999999 999999 999999 999999 999999 999999 999999 999999 999999 999999 999999 999999 999999 999999 999999 999999 999999 999999 999999 999999 999999 999999 999999 999999 999999 999999 999999 999999 999999 999999 999999 19190 999999 999999 999999 999999 999999 999999 999999 999999 999999 999999 999999 17248 999999 999999 999999 999999 999999 999999 999999 999999 14689 999999 999999 999999 999999 999999 999999 999999 999999 999999 999999 17125 999999 11597 999999 999999 999999 999999 999999 999999 999999 999999 999999 999999 999999 999999 999999 999999 14919 999999 999999 999999 999999 999999 999999 999999 999999 999999 17490 999999 15900 999999 999999 15047 999999 999999 999999 999999 999999 999999 999999 999999 999999 999999 999999 999999 999999 999999 999999 999999 999999 999999 999999 999999 999999 999999 999999 999999 999999 999999 999999 999999 999999 999999 999999 999999 999999 999999 999999 999999 999999 999999 999999 999999 19065 999999 999999 999999 999999 999999 17475 10338 19479 999999 999999 999999 999999 999999 999999 999999 999999 999999 13173 999999 999999 999999 999999 999999 999999 999999 999999 999999 999999 999999 999999 999999 999999 999999 999999 999999 999999 13163 999999 999999 999999 999999 12658 999999 999999 999999 999999 999999 999999 14242 999999 999999 999999 999999 999999 999999 999999 999999 999999 999999 999999 999999 999999 999999 999999 999999 999999 999999 999999 16117 999999 999999 999999
999999 999999 999999 999999 999999 999999 999999 999999 999999 999999 999999 999999 999999 999999 999999 999999 999999 999999 999999 999999 999999 999999 999999 999999 999999 999999 999999 999999 999999 999999 999999 0 999999 999999 999999 999999 999999 999999 999999 999999 999999 999999 999999 999999 999999 999999 999999 999999 999999 999999 999999 999999 999999 999999 999999 999999 999999 999999 999999 999999 999999 999999 999999 999999 999999 999999 999999 999999 999999 999999 999999 999999 999999 999999 999999 999999 999999 999999 999999 999999 999999 999999 999999 999999 999999 999999 999999 999999 999999 999999 999999 999999 999999 999999 999999 999999 999999 999999 999999 999999 999999 999999 999999 999999 999999 999999 999999 999999 999999 999999 999999 999999 999999 999999 999999 999999 999999 999999 999999 999999 999999 999999 999999 999999 999999 999999 999999 999999 999999 999999 999999 999999 999999 999999 999999 999999 999999 999999 999999 999999 999999 999999 999999 999999 999999 999999 999999 999999 999999 999999 999999 999999 999999 999999 999999 999999 999999 999999 999999 999999 999999 999999 999999 999999 999999 999999 999999 999999 999999 999999 999999 999999 999999 999999 999999 999999 999999 999999 999999 999999 999999 999999 999999 999999 13125 999999 999999 999999 999999 999999 999999 999999 999999 999999 999999 999999 12050 999999 999999 999999 999999 999999 999999 999999 999999 12904 999999 999999 999999 999999 999999 999999 999999 999999 999999 999999 15871 999999 12601 999999 999999 999999 999999 999999 999999 999999 999999 999999 999999 999999 999999 999999 999999 15959 999999 999999 999999 999999 999999 999999 999999 999999 999999 16109 999999 17677 999999 999999 10731 999999 999999 999999 999999 999999 999999 999999 999999 999999 999999 999999 999999 999999 999999 999999 999999 999999 999999 999999 999999 999999 999999 999999 999999 999999 999999 999999 999999 999999 999999 999999 999999 999999 999999 999999 999999 999999 999999 999999 999999 15322 999999 999999 999999 999999 999999 14380 12259 14328 999999 999999 999999 999999 999999 999999 999999 999999 999999 14329 999999 999999 999999 999999 999999 999999 999999 999999 999999 999999 999999 999999 999999 999999 999999 999999 999999 999999 14409 999999 999999 999999 999999 10634 999999 999999 999999 999999 999999 999999 14884 999999 999999 999999 999999 999999 999999 999999 999999 999999 999999 999999 999999 999999 999999 999999 999999 999999 999999 999999 13318 999999 999999 999999
999999 999999 999999 999999 999999 999999 999999 999999 999999 999999 999999 999999 999999 999999 999999 999999 999999 999999 999999 999999 999999 999999 999999 999999 999999 999999 999999 999999 999999 999999 999999 999999 0 999999 999999 999999 999999 999999 999999 999999 999999 999999 999999 999999 999999 999999 999999 999999 999999 999999 999999 999999 999999 999999 999999 999999 999999 999999 999999 999999 999999 999999 999999 999999 999999 999999 999999 999999 999999 999999 999999 999999 999999 999999 999999 999999 999999 999999 999999 999999 999999 999999 999999 999999 999999 999999 999999 999999 999999 999999 999999 999999 999999 999999 999999 999999 999999 999999 999999 999999 999999 999999 999999 999999 999999 999999 999999 999999 999999 999999 999999 999999 999999 999999 999999 999999 999999 999999 999999 999999 999999 999999 999999 999999 999999 999999 999999 999999 999999 999999 999999 999999 999999 999999 999999 999999 999999 999999 999999 999999 999999 999999 999999 999999 999999 999999 999999 999999 999999 999999 999999 999999 999999 999999 999999 999999 999999 999999 999999 999999 999999 999999 999999 999999 999999 999999 999999 999999 999999 999999 999999 999999 999999 999999 999999 999999 999999 999999 999999 999999 999999 999999 999999 999999 14631 999999 999999 999999 999999 999999 999999 999999 999999 999999 999999 999999 14939 999999 999999 999999 999999 999999 999999 999999 999999 10034 999999 999999 999999 999999 999999 999999 999999 999999 999999 999999 16995 999999 15429 999999 999999 999999 999999 999999 999999 999999 999999 999999 999999 999999 999999 999999 999999 11004 999999 999999 999999 999999 999999 999999 999999 999999 999999 16631 999999 14767 999999 999999 11517 999999 999999 999999 999999 999999 999999 999999 999999 999999 999999 999999 999999 999999 999999 999999 999999 999999 999999 999999 999999 999999 999999 999999 999999 999999 999999 999999 999999 999999 999999 999999 999999 999999 999999 999999 999999 999999 999999 999999 999999 17049 999999 999999 999999 999999 999999 16417 16634 19475 999999 999999 999999 999999 999999 999999 999999 999999 999999 12918 999999 999999 999999 999999 999999 999999 999999 999999 999999 999999 999999 999999 999999 999999 999999 999999 999999 999999 13302 999999 999999 999999 999999 18057 999999 999999 999999 999999 999999 999999 14109 999999 999999 999999 999999 999999 999999 999999 999999 999999 999999 999999 999999 999999 999999 999999 999999 999999 999999 999999 16428 999999 999999 999999
999999 999999 999999 999999 999999 999999 999999 999999 999999 999999 999999 999999 999999 999999 999999 999999 999999 999999 999999 999999 999999 999999 999999 999999 999999 999999 999999 999999 999999 999999 999999 999999 999999 0 999999 999999 999999 999999 999999 999999 999999 999999 999999 999999 999999 999999 999999 999999 999999 999999 999999 999999 999999 999999 999999 999999 999999 999999 999999 999999 999999 999999 999999 999999 999999 999999 999999 999999 999999 999999 999999 999999 999999 999999 999999 999999 999999 999999 999999 999999 999999 999999 999999 999999 999999 999999 999999 999999 999999 999999 999999 999999 999999 999999 999999 999999 999999 999999 999999 999999 999999 999999 999999 999999 999999 999999 999999 999999 999999 999999 999999 999999 999999 999999 999999 999999 999999 999999 999999 999999 999999 999999 999999 999999 999999 999999 999999 999999 999999 999999 999999 999999 999999 999999 999999 999999 999999 999999 999999 999999 999999 999999 999999 999999 999999 999999 999999 999999 999999 999999 999999 999999 999999 999999 999999 999999 999999 999999 999999 999999 999999 999999 999999 999999 999999 999999 999999 999999 999999 999999 999999 999999 999999 999999 999999 999999 999999 999999 999999 999999 999999 999999 999999 999999 17337 999999 999999 999999 999999 999999 999999 999999 999999 999999 999999 999999 10654 999999 999999 999999 999999 999999 999999 999999 999999 17742 999999 999999 999999 999999 999999 999999 999999 999999 999999 999999 15254 999999 10737 999999 999999 999999 999999 999999 999999 999999 999999 999999 999999 999999 999999 999999 999999 17693 999999 999999 999999 999999 999999 999999 999999 999999 999999 16801 999999 13317 999999 999999 11565 999999 999999 999999 999999 999999 999999 999999 999999 999999 999999 999999 999999 999999 999999 999999 999999 999999 999999 999999 999999 999999 999999 999999 999999 999999 999999 999999 999999 999999 999999 999999 999999 999999 999999 999999 999999 999999 999999 999999 999999 16066 999999 999999 999999 999999 999999 17017 12972 17529 999999 999999 999999 999999 999999 999999 999999 999999 999999 10541 999999 999999 999999 999999 999999 999999 999999 999999 999999 999999 999999 999999 999999 999999 999999 999999 999999 999999 16747 999999 999999 999999 999999 10305 999999 999999 999999 999999 999999 999999 19166 999999 999999 999999 999999 999999 999999 999999 999999 999999 999999 999999 999999 999999 999999 999999 999999 999999 999999 999999 15459 999999 999999 999999
999999 999999 999999 999999 999999 999999 999999 999999 999999 999999 999999 999999 999999 999999 999999 999999 999999 999999 999999 999999 999999 999999 999999 999999 999999 999999 999999 999999 999999 999999 999999 999999 999999 999999 0 999999 999999 999999 999999 999999 999999 999999 999999 999999 999999 999999 999999 999999 999999 999999 999999 999999 999999 999999 999999 999999 999999 999999 999999 999999 999999 999999 999999 999999 999999 999999 999999 999999 999999 999999 999999 999999 999999 999999 999999 999999 999999 999999 999999 999999 999999 999999 999999 999999 999999 999999 999999 999999 999999 999999 999999 999999 999999 999999 999999 999999 999999 999999 999999 999999 999999 999999 999999 999999 999999 999999 999999 999999 999999 999999 999999 999999 999999 999999 999999 999999 999999 999999 999999 999999 999999 999999 999999 999999 999999 999999 999999 999999 999999 999999 999999 999999 999999 999999 999999 999999 999999 999999 999999 999999 999999 999999 999999 999999 999999 999999 999999 999999 999999 999999 999999 999999 999999 999999 999999 999999 999999 999999 999999 999999 999999 999999 999999 999999 999999 999999 999999 999999 999999 999999 999999 999999 999999 999999 999999 999999 999999 999999 999999 999999 999999 999999 999999 999999 10780 999999 999999 999999 999999 999999 999999 999999 999999 999999 999999 999999 14503 999999 999999 999999 999999 999999 999999 999999 999999 14075 999999 999999 999999 999999 999999 999999 999999 999999 999999 999999 11307 999999 13436 999999 999999 999999 999999 999999 999999 999999 999999 999999 999999 999999 999999 999999 999999 16181 999999 999999 999999 999999 999999 999999 999999 999999 999999 19489 999999 13291 999999 999999 10020 999999 999999 999999 999999 999999 999999 999999 999999 999999 999999 999999 999999 999999 999999 999999 999999 999999 999999 999999 999999 999999 999999 999999 999999 999999 999999 999999 999999 999999 999999 999999 999999 999999 999999 999999 999999 999999 999999 999999 999999 15495 999999 999999 999999 999999 999999 15081 16919 10197 999999 999999 999999 999999 999999 999999 999999 999999 999999 17348 999999 999999 999999 999999 999999 999999 999999 999999 999999 999999 999999 999999 999999 999999 999999 999999 999999 999999 17574 999999 999999 999999 999999 11112 999999 999999 999999 999999 999999 999999 11119 999999 999999 999999 999999 999999 999999 999999 999999 999999 999999 999999 999999 999999 999999 999999 999999 999999 999999 999999 10466 999999 999999 999999
999999 999999 999999 999999 999999 999999 999999 999999 999999 999999 999999 999999 999999 999999 999999 999999 999999 999999 999999 999999 999999 999999 999999 999999 999999 999999 999999 999999 999999 999999 999999 999999 999999 999999 999999 0 999999 999999 999999 999999 999999 999999 999999 999999 999999 999999 999999 999999 999999 999999 999999 999999 999999 999999 999999 999999 999999 999999 999999 999999 999999 999999 999999 999999 999999 999999 999999 999999 999999 999999 999999 999999 999999 999999 999999 999999 999999 999999 999999 999999 999999 999999 999999 999999 999999 999999 999999 999999 999999 999999 999999 999999 999999 999999 999999 999999 999999 999999 999999 999999 999999 999999 999999 999999 999999 999999 999999 999999 999999 999999 999999 999999 999999 999999 999999 999999 999999 999999 999999 999999 999999 999999 999999 999999 999999 999999 999999 999999 999999 999999 999999 999999 999999 999999 999999 999999 999999 999999 999999 999999 999999 999999 999999 999999 999999 999999 999999 999999 999999 999999 999999 999999 999999 999999 999999 999999 999999 999999 999999 999999 999999 999999 999999 999999 999999 999999 999999 999999 999999 999999 999999 999999 999999 999999 999999 999999 999999 999999 999999 999999 999999 999999 999999 999999 12044 999999 999999 999999 999999 999999 999999 999999 999999 999999 999999 999999 14828 999999 999999 999999 999999 999999 999999 999999 999999 17845 999999 999999 999999 999999 999999 999999 999999 999999 999999 999999 15473 999999 10819 999999 999999 999999 999999 999999 999999 999999 999999 999999 999999 999999 999999 999999 999999 14117 999999 999999 999999 999999 999999 999999 999999 999999 999999 18978 999999 14550 999999 999999 10213 999999 999999 999999 999999 999999 999999 999999 999999 999999 999999 999999 999999 999999 999999 999999 999999 999999 999999 999999 999999 999999 999999 999999 999999 999999 999999 999999 999999 999999 999999 999999 999999 999999 999999 999999 999999 999999 999999 999999 999999 15128 999999 999999 999999 999999 999999 17557 11569 17808 999999 999999 999999 999999 999999 999999 999999 999999 999999 11314 999999 999999 999999 999999 999999 999999 999999 999999 999999 999999 999999 999999 999999 999999 999999 999999 999999 999999 19784 999999 999999 999999 999999 15866 999999 999999 999999 999999 999999 999999 19297 999999 999999 999999 999999 999999 999999 999999 999999 999999 999999 999999 999999 999999 999999 999999 999999 999999 999999 999999 14362 999999 999999 999999
999999 999999 999999 999999 999999 999999 999999 999999 999999 999999 999999 999999 999999 999999 999999 999999 999999 999999 999999 999999 999999 999999 999999 999999 999999 999999 999999 999999 999999 999999 999999 999999 999999 999999 999999 999999 0 999999 999999 999999 999999 999999 999999 999999 999999 999999 999999 999999 999999 999999 999999 999999 999999 999999 999999 999999 999999 999999 999999 999999 999999 999999 999999 999999 999999 999999 999999 999999 999999 999999 999999 999999 999999 999999 999999 999999 999999 999999 999999 999999 999999 999999 999999 999999 999999 999999 999999 999999 999999 999999 999999 999999 999999 999999 999999 999999 999999 999999 999999 999999 999999 999999 999999 999999 999999 999999 999999 999999 999999 999999 999999 999999 999999 999999 999999 999999 999999 999999 999999 999999 999999 999999 999999 999999 999999 999999 999999 999999 999999 999999 999999 999999 999999 999999 999999 999999 999999 999999 999999 999999 999999 999999 999999 999999 999999 999999 999999 999999 999999 999999 999999 999999 999999 999999 999999 999999 999999 999999 999999 999999 999999 999999 999999 999999 999999 999999 999999 999999 999999 999999 999999 999999 999999 999999 999999 999999 999999 999999 999999 999999 999999 999999 999999 999999 16882 999999 999999 999999 999999 999999 999999 999999 999999 999999 999999 999999 17435 999999 999999 999999 999999 999999 999999 999999 999999 10894 999999 999999 999999 999999 999999 999999 999999 999999 999999 999999 15972 999999 16818 999999 999999 999999 999999 999999 999999 999999 999999 999999 999999 999999 999999 999999 999999 11127 999999 999999 999999 999999 999999 999999 999999 999999 999999 14501 999999 15774 999999 999999 15456 999999 999999 999999 999999 999999 999999 999999 999999 999999 999999 999999 999999 999999 999999 999999 999999 999999 999999 999999 999999 999999 999999 999999 999999 999999 999999 999999 999999 999999 999999 999999 999999 999999 999999 999999 999999 999999 999999 999999 999999 13841 999999 999999 999999 999999 999999 16687 16590 14517 999999 999999 999999 999999 999999 999999 999999 999999 999999 14284 999999 999999 999999 999999 999999 999999 999999 999999 999999 999999 999999 999999 999999 999999 999999 999999 999999 999999 16139 999999 999999 999999 999999 10203 999999 999999 999999 999999 999999 999999 13183 999999 999999 999999 999999 999999 999999 999999 999999 999999 999999 999999 999999 999999 999999 999999 999999 999999 999999 999999 16010 999999 999999 999999
999999 999999 999999 999999 999999 999999 999999 999999 999999 999999 999999 999999 999999 999999 999999 999999 999999 999999 999999 999999 999999 999999 999999 999999 999999 999999 999999 999999 999999 999999 999999 999999 999999 999999 999999 999999 999999 0 999999 999999 999999 999999 999999 999999 999999 999999 999999 999999 999999 999999 999999 999999 999999 999999 999999 999999 999999 999999 999999 999999 999999 999999 999999 999999 999999 999999 999999 999999 999999 999999 999999 999999 999999 999999 999999 999999 999999 999999 999999 999999 999999 999999 999999 999999 999999 999999 999999 999999 999999 999999 999999 999999 999999 999999 999999 999999 999999 999999 999999 999999 999999 999999 999999 999999 999999 999999 999999 999999 999999 999999 999999 999999 999999 999999 999999 999999 999999 999999 999999 999999 999999 999999 999999 999999 999999 999999 999999 999999 999999 999999 999999 999999 999999 999999 999999 999999 999999 999999 999999 999999 999999 999999 999999 999999 999999 999999 999999 999999 999999 999999 999999 999999 999999 999999 999999 999999 999999 999999 999999 999999 999999 999999 999999 999999 999999 999999 999999 999999 999999 999999 999999 999999 999999 999999 999999 999999 999999 999999 999999 999999 999999 999999 999999 999999 999999 999999 999999 999999 999999 999999 10072 999999 999999 999999 999999 999999 999999 999999 999999 999999 999999 999999 999999 999999 16045 999999 999999 15111 999999 999999 999999 999999 999999 999999 999999 999999 999999 999999 999999 999999 999999 999999 999999 999999 999999 14117 999999 999999 999999 999999 999999 19497 999999 999999 999999 999999 999999 999999 999999 999999 999999 999999 999999 999999 999999 999999 999999 999999 999999 999999 999999 999999 999999 999999 15268 15485 12183 999999 999999 999999 999999 999999 999999 999999 999999 999999 999999 999999 999999 17366 999999 999999 999999 999999 999999 999999 999999 999999 999999 999999 11551 999999 999999 18361 999999 999999 999999 999999 999999 999999 999999 999999 999999 999999 12581 999999 999999 999999 999999 999999 999999 999999 14420 999999 999999 999999 999999 999999 999999 999999 999999 999999 17728 999999 999999 999999 999999 16771 999999 999999 999999 999999 999999 999999 999999 999999 999999 16354 999999 999999 999999 999999 999999 999999 999999 999999 15656 999999 999999 999999 999999 999999 999999 999999 999999 999999 999999 999999 18828 999999 999999 999999 999999 999999 999999 999999 999999 999999 999999 999999 999999 999999
999999 999999 999999 999999 999999 999999 999999 999999 999999 999999 999999 999999 999999 999999 999999 999999 999999 999999 999999 999999 999999 999999 999999 999999 999999 999999 999999 999999 999999 999999 999999 999999 999999 999999 999999 999999 999999 999999 0 999999 999999 999999 999999 999999 999999 999999 999999 999999 999999 999999 999999 999999 999999 999999 999999 999999 999999 999999 999999 999999 999999 999999 999999 999999 999999 999999 999999 999999 999999 999999 999999 999999 999999 999999 999999 999999 999999 999999 999999 999999 999999 999999 999999 999999 999999 999999 999999 999999 999999 999999 999999 999999 999999 999999 999999 999999 999999 999999 999999 999999 999999 999999 999999 999999 999999 999999 999999 999999 999999 999999 999999 999999 999999 999999 999999 999999 999999 999999 999999 999999 999999 999999 999999 999999 999999 999999 999999 999999 999999 999999 999999 999999 999999 999999 999999 999999 999999 999999 999999 999999 999999 999999 999999 999999 999999 999999 999999 999999 999999 999999 999999 999999 999999 999999 999999 999999 999999 999999 999999 999999 999999 999999 999999 999999 999999 999999 999999 999999 999999 999999 999999 999999 999999 999999 999999 999999 999999 999999 999999 999999 999999 999999 999999 999999 999999 999999 999999 999999 999999 999999 18427 999999 999999 999999 999999 999999 999999 999999 999999 999999 999999 999999 999999 999999 12889 999999 999999 17584 999999 999999 999999 999999 999999 999999 999999 999999 999999 999999 999999 999999 999999 999999 999999 999999 999999 16775 999999 999999 999999 999999 999999 15591 999999 999999 999999 999999 999999 999999 999999 999999 999999 999999 999999 999999 999999 999999 999999 999999 999999 999999 999999 999999 999999 999999 15429 11678 10391 999999 999999 999999 999999 999999 999999 999999 999999 999999 999999 999999 999999 11154 999999 999999 999999 999999 999999 999999 999999 999999 999999 999999 14584 999999 999999 18470 999999 999999 999999 999999 999999 999999 999999 999999 999999 999999 16545 999999 999999 999999 999999 999999 999999 999999 12018 999999 999999 999999 999999 999999 999999 999999 999999 999999 18321 999999 999999 999999 999999 12557 999999 999999 999999 999999 999999 999999 999999 999999 999999 16127 999999 999999 999999 999999 999999 999999 999999 999999 13242 999999 999999 999999 999999 999999 999999 999999 999999 999999 999999 999999 16499 999999 999999 999999 999999 999999 999999 999999 999999 999999 999999 999999 999999 999999
999999 999999 999999 999999 999999 999999 999999 999999 999999 999999 999999 999999 999999 999999 999999 999999 999999 999999 999999 999999 999999 999999 999999 999999 999999 999999 999999 999999 999999 999999 999999 999999 999999 999999 999999 999999 999999 999999 999999 0 999999 999999 999999 999999 999999 999999 999999 999999 999999 999999 999999 999999 999999 999999 999999 999999 999999 999999 999999 999999 999999 999999 999999 999999 999999 999999 999999 999999 999999 999999 999999 999999 999999 999999 999999 999999 999999 999999 999999 999999 999999 999999 999999 999999 999999 999999 999999 999999 999999 999999 999999 999999 999999 999999 999999 999999 999999 999999 999999 999999 999999 999999 999999 999999 999999 999999 999999 999999 999999 999999 999999 999999 999999 999999 999999 999999 999999 999999 999999 999999 999999 999999 999999 999999 999999 999999 999999 999999 999999 999999 999999 999999 999999 999999 999999 999999 999999 999999 999999 999999 999999 999999 999999 999999 999999 999999 999999 999999 999999 999999 999999 999999 999999 999999 999999 999999 999999 999999 999999 999999 999999 999999 999999 999999 999999 999999 999999 999999 999999 999999 999999 999999 999999 999999 999999 999999 999999 999999 999999 999999 999999 999999 999999 999999 999999 999999 999999 999999 999999 999999 19781 999999 999999 999999 999999 999999 999999 999999 999999 999999 999999 999999 999999 999999 10932 999999 999999 10185 999999 999999 999999 999999 999999 999999 999999 999999 999999 999999 999999 999999 999999 999999 999999 999999 999999 13953 999999 999999 999999 999999 999999 14736 999999 999999 999999 999999 999999 999999 999999 999999 999999 999999 999999 999999 999999 999999 999999 999999 999999 999999 999999 999999 999999 999999 19735 16128 17317 999999 999999 999999 999999 999999 999999 999999 999999 999999 999999 999999 999999 18250 999999 999999 999999 999999 999999 999999 999999 999999 999999 999999 10755 999999 999999 13078 999999 999999 999999 999999 999999 999999 999999 999999 999999 999999 19750 999999 999999 999999 999999 999999 999999 999999 12981 999999 999999 999999 999999 999999 999999 999999 999999 999999 14244 999999 999999 999999 999999 14922 999999 999999 999999 999999 999999 999999 999999 999999 999999 14560 999999 999999 999999 999999 999999 999999 999999 999999 13485 999999 999999 999999 999999 999999 999999 999999 999999 999999 999999 999999 11554 999999 999999 999999 999999 999999 999999 999999 999999 999999 999999 999999 999999 999999
999999 999999 999999 999999 999999 999999 999999 999999 999999 999999 999999 999999 999999 999999 999999 999999 999999 999999 999999 999999 999999 999999 999999 999999 999999 999999 999999 999999 999999 999999 999999 999999 999999 999999 999999 999999 999999 999999 999999 999999 0 999999 999999 999999 999999 999999 999999 999999 999999 999999 999999 999999 999999 999999 999999 999999 999999 999999 999999 999999 999999 999999 999999 999999 999999 999999 999999 999999 999999 999999 999999 999999 999999 999999 999999 999999 999999 999999 999999 999999 999999 999999 999999 999999 999999 999999 999999 999999 999999 999999 999999 999999 999999 999999 999999 999999 999999 999999 999999 999999 999999 999999 999999 999999 999999 999999 999999 999999 999999 999999 999999 999999 999999 999999 999999 999999 999999 999999 999999 999999 999999 999999 999999 999999 999999 999999 999999 999999 999999 999999 999999 999999 999999 999999 999999 999999 999999 999999 999999 999999 999999 999999 999999 999999 999999 999999 999999 999999 999999 999999 999999 999999 999999 999999 999999 999999 999999 999999 999999 999999 999999 999999 999999 999999 999999 999999 999999 999999 999999 999999 999999 999999 999999 999999 999999 999999 999999 999999 999999 999999 999999 999999 999999 999999 999999 999999 999999 999999 999999 999999 12261 999999 999999 999999 999999 999999 999999 999999 999999 999999 999999 999999 999999 999999 18846 999999 999999 18114 999999 999999 999999 999999 999999 999999 999999 999999 999999 999999 999999 999999 999999 999999 999999 999999 999999 11079 999999 999999 999999 999999 999999 15369 999999 999999 999999 999999 999999 999999 999999 999999 999999 999999 999999 999999 999999 999999 999999 999999 999999 999999 999999 999999 999999 999999 15926 15859 17419 999999 999999 999999 999999 999999 999999 999999 999999 999999 999999 999999 999999 11490 999999 999999 999999 999999 999999 999999 999999 999999 999999 999999 18229 999999 999999 12919 999999 999999 999999 999999 999999 999999 999999 999999 999999 999999 10258 999999 999999 999999 999999 999999 999999 999999 16340 999999 999999 999999 999999 999999 999999 999999 999999 999999 13081 999999 999999 999999 999999 17849 999999 999999 999999 999999 999999 999999 999999 999999 999999 12660 999999 999999 999999 999999 999999 999999 999999 999999 11374 999999 999999 999999 999999 999999 999999 999999 999999 999999 999999 999999 18974 999999 999999 999999 999999 999999 999999 999999 999999 999999 999999 999999 999999 999999
999999 999999 999999 999999 999999 999999 999999 999999 999999 999999 999999 999999 999999 999999 999999 999999 999999 999999 999999 999999 999999 999999 999999 999999 999999 999999 999999 999999 999999 999999 999999 999999 999999 999999 999999 999999 999999 999999 999999 999999 999999 0 999999 999999 999999 999999 999999 999999 999999 999999 999999 999999 999999 999999 999999 999999 999999 999999 999999 999999 999999 999999 999999 999999 999999 999999 999999 999999 999999 999999 999999 999999 999999 999999 999999 999999 999999 999999 999999 999999 999999 999999 999999 999999 999999 999999 999999 999999 999999 999999 999999 999999 999999 999999 999999 999999 999999 999999 999999 999999 999999 999999 999999 999999 999999 999999 999999 999999 999999 999999 999999 999999 999999 999999 999999 999999 999999 999999 999999 999999 999999 999999 999999 999999 999999 999999 999999 999999 999999 999999 999999 999999 999999 999999 999999 999999 999999 999999 999999 999999 999999 999999 999999 999999 999999 999999 999999 999999 999999 999999 999999 999999 999999 999999 999999 999999 999999 999999 999999 999999 999999 999999 999999 999999 999999 999999 999999 999999 999999 999999 999999 999999 999999 999999 999999 999999 999999 999999 999999 999999 999999 999999 999999 999999 999999 999999 999999 999999 999999 999999 13374 999999 999999 999999 999999 999999 999999 999999 999999 999999 999999 999999 999999 999999 12740 999999 999999 10164 999999 999999 999999 999999 999999 999999 999999 999999 999999 999999 999999 999999 999999 999999 999999 999999 999999 10134 999999 999999 999999 999999 999999 12555 999999 999999 999999 999999 999999 999999 999999 999999 999999 999999 999999 999999 999999 999999 999999 999999 999999 999999 999999 999999 999999 999999 10346 17331 14112 999999 999999 999999 999999 999999 999999 999999 999999 999999 999999 999999 999999 16525 999999 999999 999999 999999 999999 999999 999999 999999 999999 999999 19084 999999 999999 15377 999999 999999 999999 999999 999999 999999 999999 999999 999999 999999 19148 999999 999999 999999 999999 999999 999999 999999 10993 999999 999999 999999 999999 999999 999999 999999 999999 999999 19546 999999 999999 999999 999999 17509 999999 999999 999999 999999 999999 999999 999999 999999 999999 12850 999999 999999 999999 999999 999999 999999 999999 999999 10802 999999 999999 999999 999999 999999 999999 999999 999999 999999 999999 999999 18049 999999 999999 999999 999999 999999 999999 999999 999999 999999 999999 999999 999999 999999
999999 999999 999999 999999 999999 999999 999999 999999 999999 999999 999999 999999 999999 999999 999999 999999 999999 999999 999999 999999 999999 999999 999999 999999 999999 999999 999999 999999 999999 999999 999999 999999 999999 999999 999999 999999 999999 999999 999999 999999 999999 999999 0 999999 999999 999999 999999 999999 999999 999999 999999 999999 999999 999999 999999 999999 999999 999999 999999 999999 999999 999999 999999 999999 999999 999999 999999 999999 999999 999999 999999 999999 999999 999999 999999 999999 999999 999999 999999 999999 999999 999999 999999 999999 999999 999999 999999 999999 999999 999999 999999 999999 999999 999999 999999 999999 999999 999999 999999 999999 999999 999999 999999 999999 999999 999999 999999 999999 999999 999999 999999 999999 999999 999999 999999 999999 999999 999999 999999 999999 999999 999999 999999 999999 999999 999999 999999 999999 999999 999999 999999 999999 999999 999999 999999 999999 999999 999999 999999 999999 999999 999999 999999 999999 999999 999999 999999 999999 999999 999999 999999 999999 999999 999999 999999 999999 999999 999999 999999 999999 999999 999999 999999 999999 999999 999999 999999 999999 999999 999999 999999 999999 999999 999999 999999 999999 999999 999999 999999 999999 999999 999999 999999 999999 999999 999999 999999 999999 999999 999999 13236 999999 999999 999999 999999 999999 999999 999999 999999 999999 999999 999999 999999 999999 18163 999999 999999 14274 999999 999999 999999 999999 999999 999999 999999 999999 999999 999999 999999 999999 999999 999999 999999 999999 999999 10391 999999 999999 999999 999999 999999 14314 999999 999999 999999 999999 999999 999999 999999 999999 999999 999999 999999 999999 999999 999999 999999 999999 999999 999999 999999 999999 999999 999999 11490 18280 11679 999999 999999 999999 999999 999999 999999 999999 999999 999999 999999 999999 999999 12512 999999 999999 999999 999999 999999 999999 999999 999999 999999 999999 12594 999999 999999 11910 999999 999999 999999 999999 999999 999999 999999 999999 999999 999999 11440 999999 999999 999999 999999 999999 999999 999999 11543 999999 999999 999999 999999 999999 999999 999999 999999 999999 15713 999999 999999 999999 999999 12454 999999 999999 999999 999999 999999 999999 999999 999999 999999 17374 999999 999999 999999 999999 999999 999999 999999 999999 14597 999999 999999 999999 999999 999999 999999 999999 999999 999999 999999 999999 11866 999999 999999 999999 999999 999999 999999 999999 999999 999999 999999 999999 999999 999999
999999 999999 999999 999999 999999 999999 999999 999999 999999 999999 999999 999999 999999 999999 999999 999999 999999 999999 999999 999999 999999 999999 999999 999999 999999 999999 999999 999999 999999 999999 999999 999999 999999 999999 999999 999999 999999 999999 999999 999999 999999 999999 999999 0 999999 999999 999999 999999 999999 999999 999999 999999 999999 999999 999999 999999 999999 999999 999999 999999 999999 999999 999999 999999 999999 999999 999999 999999 999999 999999 999999 999999 999999 999999 999999 999999 999999 999999 999999 999999 999999 999999 999999 999999 999999 999999 999999 999999 999999 999999 999999 999999 999999 999999 999999 999999 999999 999999 999999 999999 999999 999999 999999 999999 999999 999999 999999 999999 999999 999999 999999 999999 999999 999999 999999 999999 999999 999999 999999 999999 999999 999999 999999 999999 999999 999999 999999 999999 999999 999999 999999 999999 999999 999999 999999 999999 999999 999999 999999 999999 999999 999999 999999 999999 999999 999999 999999 999999 999999 999999 999999 999999 999999 999999 999999 999999 999999 999999 999999 999999 999999 999999 999999 999999 999999 999999 999999 999999 999999 999999 999999 999999 999999 999999 999999 999999 999999 999999 999999 999999 999999 999999 999999 999999 999999 999999 999999 999999 999999 999999 15838 999999 999999 999999 999999 999999 999999 999999 999999 999999 999999 999999 999999 999999 18951 999999 999999 18602 999999 999999 999999 999999 999999 999999 999999 999999 999999 999999 999999 999999 999999 999999 999999 999999 999999 15024 999999 999999 999999 999999 999999 16102 999999 999999 999999 999999 999999 999999 999999 999999 999999 999999 999999 999999 999999 999999 999999 999999 999999 999999 999999 999999 999999 999999 12348 11605 17125 999999 999999 999999 999999 999999 999999 999999 999999 999999 999999 999999 999999 15485 999999 999999 999999 999999 999999 999999 999999 999999 999999 999999 13584 999999 999999 15912 999999 999999 999999 999999 999999 999999 999999 999999 999999 999999 12489 999999 999999 999999 999999 999999 999999 999999 12709 999999 999999 999999 999999 999999 999999 999999 999999 999999 12230 999999 999999 999999 999999 12384 999999 999999 999999 999999 999999 999999 999999 999999 999999 12134 999999 999999 999999 999999 999999 999999 999999 999999 18026 999999 999999 999999 999999 999999 999999 999999 999999 999999 999999 999999 18390 999999 999999 999999 999999 999999 999999 999999 999999 999999 999999 999999 999999 999999
999999 999999 999999 999999 999999 999999 999999 999999 999999 999999 999999 999999 999999 999999 999999 999999 999999 999999 999999 999999 999999 999999 999999 999999 999999 999999 999999 999999 999999 999999 999999 999999 999999 999999 999999 999999 999999 999999 999999 999999 999999 999999 999999 999999 0 999999 999999 999999 999999 999999 999999 999999 999999 999999 999999 999999 999999 999999 999999 999999 999999 999999 999999 999999 999999 999999 999999 999999 999999 999999 999999 999999 999999 999999 999999 999999 999999 999999 999999 999999 999999 999999 999999 999999 999999 999999 999999 999999 999999 999999 999999 999999 999999 999999 999999 999999 999999 999999 999999 999999 999999 999999 999999 999999 999999 999999 999999 999999 999999 999999 999999 999999 999999 999999 999999 999999 999999 999999 999999 999999 999999 999999 999999 999999 999999 999999 999999 999999 999999 999999 999999 999999 999999 999999 999999 999999 999999 999999 999999 999999 999999 999999 999999 999999 999999 999999 999999 999999 999999 999999 999999 999999 999999 999999 999999 999999 999999 999999 999999 999999 999999 999999 999999 999999 999999 999999 999999 999999 999999 999999 999999 999999 999999 999999 999999 999999 999999 999999 999999 999999 999999 999999 999999 999999 999999 999999 999999 999999 999999 999999 14028 999999 999999 999999 999999 999999 999999 999999 999999 999999 999999 999999 999999 999999 11089 999999 999999 16443 999999 999999 999999 999999 999999 999999 999999 999999 999999 999999 999999 999999 999999 999999 999999 999999 999999 15411 999999 999999 999999 999999 999999 11456 999999 999999 999999 999999 999999 999999 999999 999999 999999 999999 999999 999999 999999 999999 999999 999999 999999 999999 999999 999999 999999 999999 15645 15790 16598 999999 999999 999999 999999 999999 999999 999999 999999 999999 999999 999999 999999 16214 999999 999999 999999 999999 999999 999999 999999 999999 999999 999999 13814 999999 999999 11941 999999 999999 999999 999999 999999 999999 999999 999999 999999 999999 18782 999999 999999 999999 999999 999999 999999 999999 18988 999999 999999 999999 999999 999999 999999 999999 999999 999999 13032 999999 999999 999999 999999 14169 999999 999999 999999 999999 999999 999999 999999 999999 999999 14758 999999 999999 999999 999999 999999 999999 999999 999999 11600 999999 999999 999999 999999 999999 999999 999999 999999 999999 999999 999999 19296 999999 999999 999999 999999 999999 999999 999999 999999 999999 999999 999999 999999 999999
999999 999999 999999 999999 999999 999999 999999 999999 999999 999999 999999 999999 999999 999999 999999 999999 999999 999999 999999 999999 999999 999999 999999 999999 999999 999999 999999 999999 999999 999999 999999 999999 999999 999999 999999 999999 999999 999999 999999 999999 999999 999999 999999 999999 999999 0 999999 999999 999999 999999 999999 999999 999999 999999 999999 999999 999999 999999 999999 999999 999999 999999 999999 999999 999999 999999 999999 999999 999999 999999 999999 999999 999999 999999 999999 999999 999999 999999 999999 999999 999999 999999 999999 999999 999999 999999 999999 999999 999999 999999 999999 999999 999999 999999 999999 999999 999999 999999 999999 999999 999999 999999 999999 999999 999999 999999 999999 999999 999999 999999 999999 999999 999999 999999 999999 999999 999999 999999 999999 999999 999999 999999 999999 999999 999999 999999 999999 999999 999999 999999 999999 999999 999999 999999 999999 999999 999999 999999 999999 999999 999999 999999 999999 999999 999999 999999 999999 999999 999999 999999 999999 999999 999999 999999 999999 999999 999999 999999 999999 999999 999999 999999 999999 999999 999999 999999 999999 999999 999999 999999 999999 999999 999999 999999 999999 999999 999999 999999 999999 999999 999999 999999 999999 999999 999999 999999 999999 999999 999999 999999 15369 999999 999999 999999 999999 999999 999999 999999 999999 999999 999999 999999 999999 999999 15270 999999 999999 16481 999999 999999 999999 999999 999999 999999 999999 999999 999999 999999 999999 999999 999999 999999 999999 999999 999999 18222 999999 999999 999999 999999 999999 19842 999999 999999 999999 999999 999999 999999 999999 999999 999999 999999 999999 999999 999999 999999 999999 999999 999999 999999 999999 999999 999999 999999 16821 13544 10331 999999 999999 999999 999999 999999 999999 999999 999999 999999 999999 999999 999999 10718 999999 999999 999999 999999 999999 999999 999999 999999 999999 999999 18699 999999 999999 17874 999999 999999 999999 999999 999999 999999 999999 999999 999999 999999 18374 999999 999999 999999 999999 999999 999999 999999 11478 999999 999999 999999 999999 999999 999999 999999 999999 999999 18763 999999 999999 999999 999999 18793 999999 999999 999999 999999 999999 999999 999999 999999 999999 14563 999999 999999 999999 999999 999999 999999 999999 999999 16204 999999 999999 999999 999999 999999 999999 999999 999999 999999 999999 999999 13996 999999 999999 999999 999999 999999 999999 999999 999999 999999 999999 999999 999999 999999
999999 999999 999999 999999 999999 999999 999999 999999 999999 999999 999999 999999 999999 999999 999999 999999 999999 999999 999999 999999 999999 999999 999999 999999 999999 999999 999999 999999 999999 999999 999999 999999 999999 999999 999999 999999 999999 999999 999999 999999 999999 999999 999999 999999 999999 999999 0 999999 999999 999999 999999 999999 999999 999999 999999 999999 999999 999999 999999 999999 999999 999999 999999 999999 999999 999999 999999 999999 999999 999999 999999 999999 999999 999999 999999 999999 999999 999999 999999 999999 999999 999999 999999 999999 999999 999999 999999 999999 999999 999999 999999 999999 999999 999999 999999 999999 999999 999999 999999 999999 999999 999999 999999 999999 999999 999999 999999 999999 999999 999999 999999 999999 999999 999999 999999 999999 999999 999999 999999 999999 999999 999999 999999 999999 999999 999999 999999 999999 999999 999999 999999 999999 999999 999999 999999 999999 999999 999999 999999 999999 999999 999999 999999 999999 999999 999999 999999 999999 999999 999999 999999 999999 999999 999999 999999 999999 999999 999999 999999 999999 999999 999999 999999 999999 999999 999999 999999 999999 999999 999999 999999 999999 999999 999999 999999 999999 999999 999999 999999 999999 999999 999999 999999 999999 999999 999999 999999 999999 999999 999999 17966 999999 999999 999999 999999 999999 999999 999999 999999 999999 999999 999999 999999 999999 15036 999999 999999 19002 999999 999999 999999 999999 999999 999999 999999 999999 999999 999999 999999 999999 999999 999999 999999 999999 999999 13883 999999 999999 999999 999999 999999 12640 999999 999999 999999 999999 999999 999999 999999 999999 999999 999999 999999 999999 999999 999999 999999 999999 999999 999999 999999 999999 999999 999999 19121 11454 12072 999999 999999 999999 999999 999999 999999 999999 999999 999999 999999 999999 999999 12869 999999 999999 999999 999999 999999 999999 999999 999999 999999 999999 11555 999999 999999 15354 999999 999999 999999 999999 999999 999999 999999 999999 999999 999999 12687 999999 999999 999999 999999 999999 999999 999999 13563 999999 999999 999999 999999 999999 999999 999999 999999 999999 10348 999999 999999 999999 999999 10169 999999 999999 999999 999999 999999 999999 999999 999999 999999 16656 999999 999999 999999 999999 999999 999999 999999 999999 14663 999999 999999 999999 999999 999999 999999 999999 999999 999999 999999 999999 18251 999999 999999 999999 999999 999999 999999 999999 999999 999999 999999 999999 999999 999999
999999 999999 999999 999999 999999 999999 999999 999999 999999 999999 999999 999999 999999 999999 999999 999999 999999 999999 999999 999999 999999 999999 999999 999999 999999 999999 999999 999999 999999 999999 999999 999999 999999 999999 999999 999999 999999 999999 999999 999999 999999 999999 999999 999999 999999 999999 999999 0 999999 999999 999999 999999 999999 999999 999999 999999 999999 999999 999999 999999 999999 999999 999999 999999 999999 999999 999999 999999 999999 999999 999999 999999 999999 999999 999999 999999 999999 999999 999999 999999 999999 999999 999999 999999 999999 999999 999999 999999 999999 999999 999999 999999 999999 999999 999999 999999 999999 999999 999999 999999 999999 999999 999999 999999 999999 999999 999999 999999 999999 999999 999999 999999 999999 999999 999999 999999 999999 999999 999999 999999 999999 999999 999999 999999 999999 999999 999999 999999 999999 999999 999999 999999 999999 999999 999999 999999 999999 999999 999999 999999 999999 999999 999999 999999 999999 999999 999999 999999 999999 999999 999999 999999 999999 999999 999999 999999 999999 999999 999999 999999 999999 999999 999999 999999 999999 999999 999999 999999 999999 999999 999999 999999 999999 999999 999999 999999 999999 999999 999999 999999 999999 999999 999999 999999 999999 999999 999999 999999 999999 999999 10484 999999 999999 999999 999999 999999 999999 999999 999999 999999 999999 999999 999999 999999 16324 999999 999999 14206 999999 999999 999999 999999 999999 999999 999999 999999 999999 999999 999999 999999 999999 999999 999999 999999 999999 17786 999999 999999 999999 999999 999999 15001 999999 999999 999999 999999 999999 999999 999999 999999 999999 999999 999999 999999 999999 999999 999999 999999 999999 999999 999999 999999 999999 999999 10988 15909 12932 999999 999999 999999 999999 999999 999999 999999 999999 999999 999999 999999 999999 11436 999999 999999 999999 999999 999999 999999 999999 999999 999999 999999 11519 999999 999999 14889 999999 999999 999999 999999 999999 999999 999999 999999 999999 999999 10885 999999 999999 999999 999999 999999 999999 999999 14133 999999 999999 999999 999999 999999 999999 999999 999999 999999 16455 999999 999999 999999 999999 10828 999999 999999 999999 999999 999999 999999 999999 999999 999999 15987 999999 999999 999999 999999 999999 999999 999999 999999 19065 999999 999999 999999 999999 999999 999999 999999 999999 999999 999999 999999 17311 999999 999999 999999 999999 999999 999999 999999 999999 999999 999999 999999 999999 999999
999999 999999 999999 999999 999999 999999 999999 999999 999999 999999 999999 999999 999999 999999 999999 999999 999999 999999 999999 999999 999999 999999 999999 999999 999999 999999 999999 999999 999999 999999 999999 999999 999999 999999 999999 999999 999999 999999 999999 999999 999999 999999 999999 999999 999999 999999 999999 999999 0 999999 999999 999999 999999 999999 999999 999999 999999 999999 999999 999999 999999 999999 999999 999999 999999 999999 999999 999999 999999 999999 999999 999999 999999 999999 999999 999999 999999 999999 999999 999999 999999 999999 999999 999999 999999 999999 999999 999999 999999 999999 999999 999999 999999 999999 999999 999999 999999 999999 999999 999999 999999 999999 999999 999999 999999 999999 999999 999999 999999 999999 999999 999999 999999 999999 999999 999999 999999 999999 999999 999999 999999 999999 999999 999999 999999 999999 999999 999999 999999 999999 999999 999999 999999 999999 999999 999999 999999 999999 999999 999999 999999 999999 999999 999999 999999 999999 999999 999999 999999 999999 999999 999999 999999 999999 999999 999999 999999 999999 999999 999999 999999 999999 999999 999999 999999 999999 999999 999999 999999 999999 999999 999999 999999 999999 999999 999999 999999 999999 999999 999999 999999 999999 999999 999999 999999 999999 999999 999999 999999 999999 10968 999999 999999 999999 999999 999999 999999 999999 999999 999999 999999 999999 999999 999999 14035 999999 999999 13926 999999 999999 999999 999999 999999 999999 999999 999999 999999 999999 999999 999999 999999 999999 999999 999999 999999 17919 999999 999999 999999 999999 999999 18442 999999 999999 999999 999999 999999 999999 999999 999999 999999 999999 999999 999999 999999 999999 999999 999999 999999 999999 999999 999999 999999 999999 19565 13545 11528 999999 999999 999999 999999 999999 999999 999999 999999 999999 999999 999999 999999 12320 999999 999999 999999 999999 999999 999999 999999 999999 999999 999999 13349 999999 999999 19358 999999 999999 999999 999999 999999 999999 999999 999999 999999 999999 11118 999999 999999 999999 999999 999999 999999 999999 19842 999999 999999 999999 999999 999999 999999 999999 999999 999999 17021 999999 999999 999999 999999 17426 999999 999999 999999 999999 999999 999999 999999 999999 999999 11541 999999 999999 999999 999999 999999 999999 999999 999999 13859 999999 999999 999999 999999 999999 999999 999999 999999 999999 999999 999999 18114 999999 999999 999999 999999 999999 999999 999999 999999 999999 999999 999999 999999 999999
999999 999999 999999 999999 999999 999999 999999 999999 999999 999999 999999 999999 999999 999999 999999 999999 999999 999999 999999 999999 999999 999999 999999 999999 999999 999999 999999 999999 999999 999999 999999 999999 999999 999999 999999 999999 999999 999999 999999 999999 999999 999999 999999 999999 999999 999999 999999 999999 999999 0 999999 999999 999999 999999 999999 999999 999999 999999 999999 999999 999999 999999 999999 999999 999999 999999 999999 999999 999999 999999 999999 999999 999999 999999 999999 999999 999999 999999 999999 999999 999999 999999 999999 999999 999999 999999 999999 999999 999999 999999 999999 999999 999999 999999 999999 999999 999999 999999 999999 999999 999999 999999 999999 999999 999999 999999 999999 999999 999999 999999 999999 999999 999999 999999 999999 999999 999999 999999 999999 999999 999999 999999 999999 999999 999999 999999 999999 999999 999999 999999 999999 999999 999999 999999 999999 999999 999999 999999 999999 999999 999999 999999 999999 999999 999999 999999 999999 999999 999999 999999 999999 999999 999999 999999 999999 999999 999999 999999 999999 999999 999999 999999 999999 999999 999999 999999 999999 999999 999999 999999 999999 999999 999999 999999 999999 999999 999999 999999 999999 999999 999999 999999 999999 999999 999999 999999 999999 999999 999999 999999 10254 999999 999999 999999 999999 999999 999999 999999 999999 999999 999999 999999 999999 999999 11818 999999 999999 12371 999999 999999 999999 999999 999999 999999 999999 999999 999999 999999 999999 999999 999999 999999 999999 999999 999999 15516 999999 999999 999999 999999 999999 12383 999999 999999 999999 999999 999999 999999 999999 999999 999999 999999 999999 999999 999999 999999 999999 999999 999999 999999 999999 999999 999999 999999 11099 13639 18877 999999 999999 999999 999999 999999 999999 999999 999999 999999 999999 999999 999999 16822 999999 999999 999999 999999 999999 999999 999999 999999 999999 999999 14117 999999 999999 12683 999999 999999 999999 999999 999999 999999 999999 999999 999999 999999 12385 999999 999999 999999 999999 999999 999999 999999 12011 999999 999999 999999 999999 999999 999999 999999 999999 999999 11242 999999 999999 999999 999999 10368 999999 999999 999999 999999 999999 999999 999999 999999 999999 17761 999999 999999 999999 999999 999999 999999 999999 999999 13586 999999 999999 999999 999999 999999 999999 999999 999999 999999 999999 999999 12902 999999 999999 999999 999999 999999 999999 999999 999999 999999 999999 999999 999999 999999
999999 999999 999999 999999 999999 999999 999999 999999 999999 999999 999999 999999 999999 999999 999999 999999 999999 999999 999999 999999 999999 999999 999999 999999 999999 999999 999999 999999 999999 999999 999999 999999 999999 999999 999999 999999 999999 999999 999999 999999 999999 999999 999999 999999 999999 999999 999999 999999 999999 999999 0 999999 999999 999999 999999 999999 999999 999999 999999 999999 999999 999999 999999 999999 999999 999999 999999 999999 999999 999999 999999 999999 999999 999999 999999 999999 999999 999999 999999 999999 999999 999999 999999 999999 999999 999999 999999 999999 999999 999999 999999 999999 999999 999999 999999 999999 999999 999999 999999 999999 999999 999999 999999 999999 999999 999999 999999 999999 999999 999999 999999 999999 999999 999999 999999 999999 999999 999999 999999 999999 999999 999999 999999 999999 999999 999999 999999 999999 999999 999999 999999 999999 999999 999999 999999 999999 999999 999999 999999 999999 999999 999999 999999 999999 999999 999999 999999 999999 999999 999999 999999 999999 999999 999999 999999 999999 999999 999999 999999 999999 999999 999999 999999 999999 999999 999999 999999 999999 999999 999999 999999 999999 999999 999999 999999 999999 999999 999999 999999 999999 999999 999999 999999 999999 999999 999999 999999 999999 999999 999999 16813 999999 999999 999999 999999 999999 999999 999999 999999 999999 999999 999999 999999 999999 12231 999999 999999 18740 999999 999999 999999 999999 999999 999999 999999 999999 999999 999999 999999 999999 999999 999999 999999 999999 999999 13856 999999 999999 999999 999999 999999 19274 999999 999999 999999 999999 999999 999999 999999 999999 999999 999999 999999 999999 999999 999999 999999 999999 999999 999999 999999 999999 999999 999999 11621 11434 12395 999999 999999 999999 999999 999999 999999 999999 999999 999999 999999 999999 999999 16309 999999 999999 999999 999999 999999 999999 999999 999999 999999 999999 12953 999999 999999 14766 999999 999999 999999 999999 999999 999999 999999 999999 999999 999999 14609 999999 999999 999999 999999 999999 999999 999999 16342 999999 999999 999999 999999 999999 999999 999999 999999 999999 13538 999999 999999 999999 999999 16036 999999 999999 999999 999999 999999 999999 999999 999999 999999 16308 999999 999999 999999 999999 999999 999999 999999 999999 10894 999999 999999 999999 999999 999999 999999 999999 999999 999999 999999 999999 14955 999999 999999 999999 999999 999999 999999 999999 999999 999999 999999 999999 999999 999999
999999 999999 999999 999999 999999 999999 999999 999999 999999 999999 999999 999999 999999 999999 999999 999999 999999 999999 999999 999999 999999 999999 999999 999999 999999 999999 999999 999999 999999 999999 999999 999999 999999 999999 999999 999999 999999 999999 999999 999999 999999 999999 999999 999999 999999 999999 999999 999999 999999 999999 999999 0 999999 999999 999999 999999 999999 999999 999999 999999 999999 999999 999999 999999 999999 999999 999999 999999 999999 999999 999999 999999 999999 999999 999999 999999 999999 999999 999999 999999 999999 999999 999999 999999 999999 999999 999999 999999 999999 999999 999999 999999 999999 999999 999999 999999 999999 999999 999999 999999 999999 999999 999999 999999 999999 999999 999999 999999 999999 999999 999999 999999 999999 999999 999999 999999 999999 999999 999999 999999 999999 999999 999999 999999 999999 999999 999999 999999 999999 999999 999999 999999 999999 999999 999999 999999 999999 999999 999999 999999 999999 999999 999999 999999 999999 999999 999999 999999 999999 999999 999999 999999 999999 999999 999999 999999 999999 999999 999999 999999 999999 999999 999999 999999 999999 999999 999999 999999 999999 999999 999999 999999 999999 999999 999999 999999 999999 999999 999999 999999 999999 999999 999999 999999 999999 999999 999999 999999 999999 999999 12998 999999 999999 999999 999999 999999 999999 999999 999999 999999 999999 999999 999999 999999 16640 999999 999999 16553 999999 999999 999999 999999 999999 999999 999999 999999 999999 999999 999999 999999 999999 999999 999999 999999 999999 14358 999999 999999 999999 999999 999999 11965 999999 999999 999999 999999 999999 999999 999999 999999 999999 999999 999999 999999 999999 999999 999999 999999 999999 999999 999999 999999 999999 999999 15440 17767 16192 999999 999999 999999 999999 999999 999999 999999 999999 999999 999999 999999 999999 13512 999999 999999 999999 999999 999999 999999 999999 999999 999999 999999 12477 999999 999999 11015 999999 999999 999999 999999 999999 999999 999999 999999 999999 999999 15195 999999 999999 999999 999999 999999 999999 999999 19555 999999 999999 999999 999999 999999 999999 999999 999999 999999 11910 999999 999999 999999 999999 12599 999999 999999 999999 999999 999999 999999 999999 999999 999999 17654 999999 999999 999999 999999 999999 999999 999999 999999 13148 999999 999999 999999 999999 999999 999999 999999 999999 999999 999999 999999 12405 999999 999999 999999 999999 999999 999999 999999 999999 999999 999999 999999 999999 999999
999999 999999 999999 999999 999999 999999 999999 999999 999999 999999 999999 999999 999999 999999 999999 999999 999999 999999 999999 999999 999999 999999 999999 999999 999999 999999 999999 999999 999999 999999 999999 999999 999999 999999 999999 999999 999999 999999 999999 999999 999999 999999 999999 999999 999999 999999 999999 999999 999999 999999 999999 999999 0 999999 999999 999999 999999 999999 999999 999999 999999 999999 999999 999999 999999 999999 999999 999999 999999 999999 999999 999999 999999 999999 999999 999999 999999 999999 999999 999999 999999 999999 999999 999999 999999 999999 999999 999999 999999 999999 999999 999999 999999 999999 999999 999999 999999 999999 999999 999999 999999 999999 999999 999999 999999 999999 999999 999999 999999 999999 999999 999999 999999 999999 999999 999999 999999 999999 999999 999999 999999 999999 999999 999999 999999 999999 999999 999999 999999 999999 999999 999999 999999 999999 999999 999999 999999 999999 999999 999999 999999 999999 999999 999999 999999 999999 999999 999999 999999 999999 999999 999999 999999 999999 999999 999999 999999 999999 999999 999999 999999 999999 999999 999999 999999 999999 999999 999999 999999 999999 999999 999999 999999 999999 999999 999999 999999 999999 999999 999999 999999 999999 999999 999999 999999 999999 999999 999999 999999 999999 16584 999999 999999 999999 999999 999999 999999 999999 999999 999999 999999 999999 999999 999999 16637 999999 999999 18699 999999 999999 999999 999999 999999 999999 999999 999999 999999 999999 999999 999999 999999 999999 999999 999999 999999 18067 999999 999999 999999 999999 999999 18194 999999 999999 999999 999999 999999 999999 999999 999999 999999 999999 999999 999999 999999 999999 999999 999999 999999 999999 999999 999999 999999 999999 10039 16025 17937 999999 999999 999999 999999 999999 999999 999999 999999 999999 999999 999999 999999 10734 999999 999999 999999 999999 999999 999999 999999 999999 999999 999999 17582 999999 999999 16150 999999 999999 999999 999999 999999 999999 999999 999999 999999 999999 16897 999999 999999 999999 999999 999999 999999 999999 14631 999999 999999 999999 999999 999999 999999 999999 999999 999999 11001 999999 999999 999999 999999 17367 999999 999999 999999 999999 999999 999999 999999 999999 999999 14121 999999 999999 999999 999999 999999 999999 999999 999999 13563 999999 999999 999999 999999 999999 999999 999999 999999 999999 999999 999999 17789 999999 999999 999999 999999 999999 999999 999999 999999 999999 999999 999999 999999 999999
999999 999999 999999 999999 999999 999999 999999 999999 999999 999999 999999 999999 999999 999999 999999 999999 999999 999999 999999 999999 999999 999999 999999 999999 999999 999999 999999 999999 999999 999999 999999 999999 999999 999999 999999 999999 999999 999999 999999 999999 999999 999999 999999 999999 999999 999999 999999 999999 999999 999999 999999 999999 999999 0 999999 999999 999999 999999 999999 999999 999999 999999 999999 999999 999999 999999 999999 999999 999999 999999 999999 999999 999999 999999 999999 999999 999999 999999 999999 999999 999999 999999 999999 999999 999999 999999 999999 999999 999999 999999 999999 999999 999999 999999 999999 999999 999999 999999 999999 999999 999999 999999 999999 999999 999999 999999 999999 999999 999999 999999 999999 999999 999999 999999 999999 999999 999999 999999 999999 999999 999999 999999 999999 999999 999999 999999 999999 999999 999999 999999 999999 999999 999999 999999 999999 999999 999999 999999 999999 999999 999999 999999 999999 999999 999999 999999 999999 999999 999999 999999 999999 999999 999999 999999 999999 999999 999999 999999 999999 999999 999999 999999 999999 999999 999999 999999 999999 999999 999999 999999 999999 999999 999999 999999 999999 999999 999999 999999 999999 999999 999999 999999 999999 999999 999999 999999 999999 999999 999999 999999 15429 999999 999999 999999 999999 999999 999999 999999 999999 999999 999999 999999 999999 999999 16833 999999 999999 14877 999999 999999 999999 999999 999999 999999 999999 999999 999999 999999 999999 999999 999999 999999 999999 999999 999999 18579 999999 999999 999999 999999 999999 14854 999999 999999 999999 999999 999999 999999 999999 999999 999999 999999 999999 999999 999999 999999 999999 999999 999999 999999 999999 999999 999999 999999 15414 15103 16579 999999 999999 999999 999999 999999 999999 999999 999999 999999 999999 999999 999999 10115 999999 999999 999999 999999 999999 999999 999999 999999 999999 999999 16450 999999 999999 19134 999999 999999 999999 999999 999999 999999 999999 999999 999999 999999 19479 999999 999999 999999 999999 999999 999999 999999 18643 999999 999999 999999 999999 999999 999999 999999 999999 999999 12178 999999 999999 999999 999999 13987 999999 999999 999999 999999 999999 999999 999999 999999 999999 13323 999999 999999 999999 999999 999999 999999 999999 999999 16894 999999 999999 999999 999999 999999 999999 999999 999999 999999 999999 999999 19877 999999 999999 999999 999999 999999 999999 999999 999999 999999 999999 999999 999999 999999
999999 999999 999999 999999 999999 999999 999999 999999 999999 999999 999999 999999 999999 999999 999999 999999 999999 999999 999999 999999 999999 999999 999999 999999 999999 999999 999999 999999 999999 999999 999999 999999 999999 999999 999999 999999 999999 999999 999999 999999 999999 999999 999999 999999 999999 999999 999999 999999 999999 999999 999999 999999 999999 999999 0 999999 999999 999999 999999 999999 999999 999999 999999 999999 999999 999999 999999 999999 999999 999999 999999 999999 999999 999999 999999 999999 999999 999999 999999 999999 999999 999999 999999 999999 999999 999999 999999 999999 999999 999999 999999 999999 999999 999999 999999 999999 999999 999999 999999 999999 999999 999999 999999 999999 999999 999999 999999 999999 999999 999999 999999 999999 999999 999999 999999 999999 999999 999999 999999 999999 999999 999999 999999 999999 999999 999999 999999 999999 999999 999999 999999 999999 999999 999999 999999 999999 999999 999999 999999 999999 999999 999999 999999 999999 999999 999999 999999 999999 999999 999999 999999 999999 999999 999999 999999 999999 999999 999999 999999 999999 999999 999999 999999 999999 999999 999999 999999 999999 999999 999999 999999 999999 999999 999999 999999 999999 999999 999999 999999 999999 999999 999999 999999 999999 999999 999999 999999 999999 999999 999999 17975 999999 999999 999999 999999 999999 999999 999999 999999 999999 999999 999999 999999 999999 10604 999999 999999 11982 999999 999999 999999 999999 999999 999999 999999 999999 999999 999999 999999 999999 999999 999999 999999 999999 999999 17862 999999 999999 999999 999999 999999 12110 999999 999999 999999 999999 999999 999999 999999 999999 999999 999999 999999 999999 999999 999999 999999 999999 999999 999999 999999 999999 999999 999999 15664 12386 16813 999999 999999 999999 999999 999999 999999 999999 999999 999999 999999 999999 999999 10563 999999 999999 999999 999999 999999 999999 999999 999999 999999 999999 13705 999999 999999 16451 999999 999999 999999 999999 999999 999999 999999 999999 999999 999999 18113 999999 999999 999999 999999 999999 999999 999999 18565 999999 999999 999999 999999 999999 999999 999999 999999 999999 13305 999999 999999 999999 999999 11058 999999 999999 999999 999999 999999 999999 999999 999999 999999 17685 999999 999999 999999 999999 999999 999999 999999 999999 17649 999999 999999 999999 999999 999999 999999 999999 999999 999999 999999 999999 12331 999999 999999 999999 999999 999999 999999 999999 999999 999999 999999 999999 999999 999999
999999 999999 999999 999999 999999 999999 999999 999999 999999 999999 999999 999999 999999 999999 999999 999999 999999 999999 999999 999999 999999 999999 999999 999999 999999 999999 999999 999999 999999 999999 999999 999999 999999 999999 999999 999999 999999 999999 999999 999999 999999 999999 999999 999999 999999 999999 999999 999999 999999 999999 999999 999999 999999 999999 999999 0 999999 999999 999999 999999 999999 999999 999999 999999 999999 999999 999999 999999 999999 999999 999999 999999 999999 999999 999999 999999 999999 999999 999999 999999 999999 999999 999999 999999 999999 999999 999999 999999 999999 999999 999999 999999 999999 999999 999999 999999 999999 999999 999999 999999 999999 999999 999999 999999 999999 999999 999999 999999 999999 999999 999999 999999 999999 999999 999999 999999 999999 999999 999999 999999 999999 999999 999999 999999 999999 999999 999999 999999 999999 999999 999999 999999 999999 999999 999999 999999 999999 999999 999999 999999 999999 999999 999999 999999 999999 999999 999999 999999 999999 999999 999999 999999 999999 999999 999999 999999 999999 999999 999999 999999 999999 999999 999999 999999 999999 999999 999999 999999 999999 999999 999999 999999 999999 999999 999999 999999 999999 999999 999999 999999 999999 999999 999999 999999 999999 999999 999999 999999 999999 999999 999999 999999 999999 999999 999999 999999 999999 999999 999999 999999 16846 999999 11212 999999 999999 999999 999999 999999 999999 999999 999999 999999 17865 999999 999999 999999 999999 999999 999999 17569 999999 999999 999999 999999 999999 999999 999999 999999 999999 999999 999999 999999 999999 999999 10827 999999 999999 999999 999999 999999 999999 999999 999999 999999 999999 999999 999999 15647 999999 999999 999999 999999 999999 999999 999999 999999 999999 13510 999999 999999 999999 999999 999999 999999 999999 19174 999999 999999 999999 999999 999999 999999 19324 999999 999999 999999 999999 999999 999999 999999 999999 999999 999999 999999 999999 999999 999999 999999 999999 999999 999999 999999 999999 999999 999999 999999 999999 999999 999999 999999 12006 999999 999999 13406 999999 999999 999999 999999 999999 999999 999999 999999 999999 19074 999999 999999 999999 999999 999999 999999 999999 999999 999999 999999 999999 999999 999999 999999 999999 999999 999999 999999 999999 999999 999999 17794 999999 999999 999999 10506 999999 999999 999999 999999 11069 999999 999999 999999 999999 999999 19889 999999 999999 999999 999999 999999 17113 999999 999999 16162 999999 999999
999999 999999 999999 999999 999999 999999 999999 999999 999999 999999 999999 999999 999999 999999 999999 999999 999999 999999 999999 999999 999999 999999 999999 999999 999999 999999 999999 999999 999999 999999 999999 999999 999999 999999 999999 999999 999999 999999 999999 999999 999999 999999 999999 999999 999999 999999 999999 999999 999999 999999 999999 999999 999999 999999 999999 999999 0 999999 999999 999999 999999 999999 999999 999999 999999 999999 999999 999999 999999 999999 999999 999999 999999 999999 999999 999999 999999 999999 999999 999999 999999 999999 999999 999999 999999 999999 999999 999999 999999 999999 999999 999999 999999 999999 999999 999999 999999 999999 999999 999999 999999 999999 999999 999999 999999 999999 999999 999999 999999 999999 999999 999999 999999 999999 999999 999999 999999 999999 999999 999999 999999 999999 999999 999999 999999 999999 999999 999999 999999 999999 999999 999999 999999 999999 999999 999999 999999 999999 999999 999999 999999 999999 999999 999999 999999 999999 999999 999999 999999 999999 999999 999999 999999 999999 999999 999999 999999 999999 999999 999999 999999 999999 999999 999999 999999 999999 999999 999999 999999 999999 999999 999999 999999 999999 999999 999999 999999 999999 999999 999999 999999 999999 999999 999999 999999 999999 999999 999999 999999 999999 999999 999999 999999 999999 999999 999999 999999 999999 999999 999999 12542 999999 18638 999999 999999 999999 999999 999999 999999 999999 999999 999999 15177 999999 999999 999999 999999 999999 999999 10616 999999 999999 999999 999999 999999 999999 999999 999999 999999 999999 999999 999999 999999 999999 11308 999999 999999 999999 999999 999999 999999 999999 999999 999999 999999 999999 999999 13068 999999 999999 999999 999999 999999 999999 999999 999999 999999 18447 999999 999999 999999 999999 999999 999999 999999 14463 999999 999999 999999 999999 999999 999999 15442 999999 999999 999999 999999 999999 999999 999999 999999 999999 999999 999999 999999 999999 999999 999999 999999 999999 999999 999999 999999 999999 999999 999999 999999 999999 999999 999999 17822 999999 999999 16590 999999 999999 999999 999999 999999 999999 999999 999999 999999 10214 999999 999999 999999 999999 999999 999999 999999 999999 999999 999999 999999 999999 999999 999999 999999 999999 999999 999999 999999 999999 999999 11318 999999 999999 999999 18491 999999 999999 999999 999999 17071 999999 999999 999999 999999 999999 19060 999999 999999 999999 999999 999999 17017 999999 999999 15114 999999 999999
999999 999999 999999 999999 999999 999999 999999 999999 999999 999999 999999 999999 999999 999999 999999 999999 999999 999999 999999 999999 999999 999999 999999 999999 999999 999999 999999 999999 999999 999999 999999 999999 999999 999999 999999 999999 999999 999999 999999 999999 999999 999999 999999 999999 999999 999999 999999 999999 999999 999999 999999 999999 999999 999999 999999 999999 999999 0 999999 999999 999999 999999 999999 999999 999999 999999 999999 999999 999999 999999 999999 999999 999999 999999 999999 999999 999999 999999 999999 999999 999999 999999 999999 999999 999999 999999 999999 999999 999999 999999 999999 999999 999999 999999 999999 999999 999999 999999 999999 999999 999999 999999 999999 999999 999999 999999 999999 999999 999999 999999 999999 999999 999999 999999 999999 999999 999999 999999 999999 999999 999999 999999 999999 999999 999999 999999 999999 999999 999999 999999 999999 999999 999999 999999 999999 999999 999999 999999 999999 999999 999999 999999 999999 999999 999999 999999 999999 999999 999999 999999 999999 999999 999999 999999 999999 999999 999999 999999 999999 999999 999999 999999 999999 999999 999999 999999 999999 999999 999999 999999 999999 999999 999999 999999 999999 999999 999999 999999 999999 999999 999999 999999 999999 999999 999999 999999 999999 999999 999999 999999 999999 999999 999999 999999 999999 999999 999999 999999 999999 999999 14184 999999 18587 999999 999999 999999 999999 999999 999999 999999 999999 999999 10527 999999 999999 999999 999999 999999 999999 12052 999999 999999 999999 999999 999999 999999 999999 999999 999999 999999 999999 999999 999999 999999 18199 999999 999999 999999 999999 999999 999999 999999 999999 999999 999999 999999 999999 13821 999999 999999 999999 999999 999999 999999 999999 999999 999999 10450 999999 999999 999999 999999 999999 999999 999999 18792 999999 999999 999999 999999 999999 999999 12414 999999 999999 999999 999999 999999 999999 999999 999999 999999 999999 999999 999999 999999 999999 999999 999999 999999 999999 999999 999999 999999 999999 999999 999999 999999 999999 999999 16270 999999 999999 18446 999999 999999 999999 999999 999999 999999 999999 999999 999999 16868 999999 999999 999999 999999 999999 999999 999999 999999 999999 999999 999999 999999 999999 999999 999999 999999 999999 999999 999999 999999 999999 19360 999999 999999 999999 10108 999999 999999 999999 999999 18406 999999 999999 999999 999999 999999 14454 999999 999999 999999 999999 999999 18363 999999 999999 16675 999999 999999
999999 999999 999999 999999 999999 999999 999999 999999 999999 999999 999999 999999 999999 999999 999999 999999 999999 999999 999999 999999 999999 999999 999999 999999 999999 999999 999999 999999 999999 999999 999999 999999 999999 999999 999999 999999 999999 999999 999999 999999 999999 999999 999999 999999 999999 999999 999999 999999 999999 999999 999999 999999 999999 999999 999999 999999 999999 999999 0 999999 999999 999999 999999 999999 999999 999999 999999 999999 999999 999999 999999 999999 999999 999999 999999 999999 999999 999999 999999 999999 999999 999999 999999 999999 999999 999999 999999 999999 999999 999999 999999 999999 999999 999999 999999 999999 999999 999999 999999 999999 999999 999999 999999 999999 999999 999999 999999 999999 999999 999999 999999 999999 999999 999999 999999 999999 999999 999999 999999 999999 999999 999999 999999 999999 999999 999999 999999 999999 999999 999999 999999 999999 999999 999999 999999 999999 999999 999999 999999 999999 999999 999999 999999 999999 999999 999999 999999 999999 999999 999999 999999 999999 999999 999999 999999 999999 999999 999999 999999 999999 999999 999999 999999 999999 999999 999999 999999 999999 999999 999999 999999 999999 999999 999999 999999 999999 999999 999999 999999 999999 999999 999999 999999 999999 999999 999999 999999 999999 999999 999999 999999 999999 999999 999999 999999 999999 999999 999999 999999 999999 13069 999999 17903 999999 999999 999999 999999 999999 999999 999999 999999 999999 14654 999999 999999 999999 999999 999999 999999 16738 999999 999999 999999 999999 999999 999999 999999 999999 999999 999999 999999 999999 999999 999999 16416 999999 999999 999999 999999 999999 999999 999999 999999 999999 999999 999999 999999 16242 999999 999999 999999 999999 999999 999999 999999 999999 999999 12392 999999 999999 999999 999999 999999 999999 999999 17280 999999 999999 999999 999999 999999 999999 11016 999999 999999 999999 999999 999999 999999 999999 999999 999999 999999 999999 999999 999999 999999 999999 999999 999999 999999 999999 999999 999999 999999 999999 999999 999999 999999 999999 13097 999999 999999 11082 999999 999999 999999 999999 999999 999999 999999 999999 999999 19318 999999 999999 999999 999999 999999 999999 999999 999999 999999 999999 999999 999999 999999 999999 999999 999999 999999 999999 999999 999999 999999 11577 999999 999999 999999 14664 999999 999999 999999 999999 19312 999999 999999 999999 999999 999999 16711 999999 999999 999999 999999 999999 10654 999999 999999 18239 999999 999999
999999 999999 999999 999999 999999 999999 999999 999999 999999 999999 999999 999999 999999 999999 999999 999999 999999 999999 999999 999999 999999 999999 999999 999999 999999 999999 999999 999999 999999 999999 999999 999999 999999 999999 999999 999999 999999 999999 999999 999999 999999 999999 999999 999999 999999 999999 999999 999999 999999 999999 999999 999999 999999 999999 999999 999999 999999 999999 999999 0 999999 999999 999999 999999 999999 999999 999999 999999 999999 999999 999999 999999 999999 999999 999999 999999 999999 999999 999999 999999 999999 999999 999999 999999 999999 999999 999999 999999 999999 999999 999999 999999 999999 999999 999999 999999 999999 999999 999999 999999 999999 999999 999999 999999 999999 999999 999999 999999 999999 999999 999999 999999 999999 999999 999999 999999 999999 999999 999999 999999 999999 999999 999999 999999 999999 999999 999999 999999 999999 999999 999999 999999 999999 999999 999999 999999 999999 999999 999999 999999 999999 999999 999999 999999 999999 999999 999999 999999 999999 999999 999999 999999 999999 999999 999999 999999 999999 999999 999999 999999 999999 999999 999999 999999 999999 999999 999999 999999 999999 999999 999999 999999 999999 999999 999999 999999 999999 999999 999999 999999 999999 999999 999999 999999 999999 999999 999999 999999 999999 999999 999999 999999 999999 999999 999999 999999 999999 999999 999999 999999 14621 999999 16272 999999 999999 999999 999999 999999 999999 999999 999999 999999 17656 999999 999999 999999 999999 999999 999999 16164 999999 999999 999999 999999 999999 999999 999999 999999 999999 999999 999999 999999 999999 999999 12621 999999 999999 999999 999999 999999 999999 999999 999999 999999 999999 999999 999999 15994 999999 999999 999999 999999 999999 999999 999999 999999 999999 17733 999999 999999 999999 999999 999999 999999 999999 10174 999999 999999 999999 999999 999999 999999 15465 999999 999999 999999 999999 999999 999999 999999 999999 999999 999999 999999 999999 999999 999999 999999 999999 999999 999999 999999 999999 999999 999999 999999 999999 999999 999999 999999 10748 999999 999999 13966 999999 999999 999999 999999 999999 999999 999999 999999 999999 12329 999999 999999 999999 999999 999999 999999 999999 999999 999999 999999 999999 999999 999999 999999 999999 999999 999999 999999 999999 999999 999999 11034 999999 999999 999999 18280 999999 999999 999999 999999 13456 999999 999999 999999 999999 999999 17833 999999 999999 999999 999999 999999 18783 999999 999999 15966 999999 999999
999999 999999 999999 999999 999999 999999 999999 999999 999999 999999 999999 999999 999999 999999 999999 999999 999999 999999 999999 999999 999999 999999 999999 999999 999999 999999 999999 999999 999999 999999 999999 999999 999999 999999 999999 999999 999999 999999 999999 999999 999999 999999 999999 999999 999999 999999 999999 999999 999999 999999 999999 999999 999999 999999 999999 999999 999999 999999 999999 999999 0 999999 999999 999999 999999 999999 999999 999999 999999 999999 999999 999999 999999 999999 999999 999999 999999 999999 999999 999999 999999 999999 999999 999999 999999 999999 999999 999999 999999 999999 999999 999999 999999 999999 999999 999999 999999 999999 999999 999999 999999 999999 999999 999999 999999 999999 999999 999999 999999 999999 999999 999999 999999 999999 999999 999999 999999 999999 999999 999999 999999 999999 999999 999999 999999 999999 999999 999999 999999 999999 999999 999999 999999 999999 999999 999999 999999 999999 999999 999999 999999 999999 999999 999999 999999 999999 999999 999999 999999 999999 999999 999999 999999 999999 999999 999999 999999 999999 999999 999999 999999 999999 999999 999999 999999 999999 999999 999999 999999 999999 999999 999999 999999 999999 999999 999999 999999 999999 999999 999999 999999 999999 999999 999999 999999 999999 999999 999999 999999 999999 999999 999999 999999 999999 999999 999999 999999 999999 999999 999999 10674 999999 18756 999999 999999 999999 999999 999999 999999 999999 999999 999999 12459 999999 999999 999999 999999 999999 999999 19220 999999 999999 999999 999999 999999 999999 999999 999999 999999 999999 999999 999999 999999 999999 19194 999999 999999 999999 999999 999999 999999 999999 999999 999999 999999 999999 999999 11943 999999 999999 999999 999999 999999 999999 999999 999999 999999 16262 999999 999999 999999 999999 999999 999999 999999 11267 999999 999999 999999 999999 999999 999999 19150 999999 999999 999999 999999 999999 999999 999999 999999 999999 999999 999999 999999 999999 999999 999999 999999 999999 999999 999999 999999 999999 999999 999999 999999 999999 999999 999999 15577 999999 999999 12521 999999 999999 999999 999999 999999 999999 999999 999999 999999 10449 999999 999999 999999 999999 999999 999999 999999 999999 999999 999999 999999 999999 999999 999999 999999 999999 999999 999999 999999 999999 999999 19994 999999 999999 999999 10081 999999 999999 999999 999999 19337 999999 999999 999999 999999 999999 17200 999999 999999 999999 999999 999999 13024 999999 999999 16308 999999 999999
999999 999999 999999 999999 999999 999999 999999 999999 999999 999999 999999 999999 999999 999999 999999 999999 999999 999999 999999 999999 999999 999999 999999 999999 999999 999999 999999 999999 999999 999999 999999 999999 999999 999999 999999 999999 999999 999999 999999 999999 999999 999999 999999 999999 999999 999999 999999 999999 999999 999999 999999 999999 999999 999999 999999 999999 999999 999999 999999 999999 999999 0 999999 999999 999999 999999 999999 999999 999999 999999 999999 999999 999999 999999 999999 999999 999999 999999 999999 999999 999999 999999 999999 999999 999999 999999 999999 999999 999999 999999 999999 999999 999999 999999 999999 999999 999999 999999 999999 999999 999999 999999 999999 999999 999999 999999 999999 999999 999999 999999 999999 999999 999999 999999 999999 999999 999999 999999 999999 999999 999999 999999 999999 999999 999999 999999 999999 999999 999999 999999 999999 999999 999999 999999 999999 999999 999999 999999 999999 999999 999999 999999 999999 999999 999999 999999 999999 999999 999999 999999 999999 999999 999999 999999 999999 999999 999999 999999 999999 999999 999999 999999 999999 999999 999999 999999 999999 999999 999999 999999 999999 999999 999999 999999 999999 999999 999999 999999 999999 999999 999999 999999 999999 999999 999999 999999 999999 999999 999999 999999 999999 999999 999999 999999 999999 999999 999999 999999 999999 999999 10927 999999 17865 999999 999999 999999 999999 999999 999999 999999 999999 999999 16866 999999 999999 999999 999999 999999 999999 18937 999999 999999 999999 999999 999999 999999 999999 999999 999999 999999 999999 999999 999999 999999 17243 999999 999999 999999 999999 999999 999999 999999 999999 999999 999999 999999 999999 16593 999999 999999 999999 999999 999999 999999 999999 999999 999999 17683 999999 999999 999999 999999 999999 999999 999999 19942 999999 999999 999999 999999 999999 999999 18674 999999 999999 999999 999999 999999 999999 999999 999999 999999 999999 999999 999999 999999 999999 999999 999999 999999 999999 999999 999999 999999 999999 999999 999999 999999 999999 999999 18155 999999 999999 19997 999999 999999 999999 999999 999999 999999 999999 999999 999999 14284 999999 999999 999999 999999 999999 999999 999999 999999 999999 999999 999999 999999 999999 999999 999999 999999 999999 999999 999999 999999 999999 19370 999999 999999 999999 12053 999999 999999 999999 999999 10073 999999 999999 999999 999999 999999 15433 999999 999999 999999 999999 999999 18509 999999 999999 12129 999999 999999
999999 999999 999999 999999 999999 999999 999999 999999 999999 999999 999999 999999 999999 999999 999999 999999 999999 999999 999999 999999 999999 999999 999999 999999 999999 999999 999999 999999 999999 999999 999999 999999 999999 999999 999999 999999 999999 999999 999999 999999 999999 999999 999999 999999 999999 999999 999999 999999 999999 999999 999999 999999 999999 999999 999999 999999 999999 999999 999999 999999 999999 999999 0 999999 999999 999999 999999 999999 999999 999999 999999 999999 999999 999999 999999 999999 999999 999999 999999 999999 999999 999999 999999 999999 999999 999999 999999 999999 999999 999999 999999 999999 999999 999999 999999 999999 999999 999999 999999 999999 999999 999999 999999 999999 999999 999999 999999 999999 999999 999999 999999 999999 999999 999999 999999 999999 999999 999999 999999 999999 999999 999999 999999 999999 999999 999999 999999 999999 999999 999999 999999 999999 999999 999999 999999 999999 999999 999999 999999 999999 999999 999999 999999 999999 999999 999999 999999 999999 999999 999999 999999 999999 999999 999999 999999 999999 999999 999999 999999 999999 999999 999999 999999 999999 999999 999999 999999 999999 999999 999999 999999 999999 999999 999999 999999 999999 999999 999999 999999 999999 999999 999999 999999 999999 999999 999999 999999 999999 999999 999999 999999 999999 999999 999999 999999 999999 999999 999999 999999 999999 11215 999999 10192 999999 999999 999999 999999 999999 999999 999999 999999 999999 13803 999999 999999 999999 999999 999999 999999 16435 999999 999999 999999 999999 999999 999999 999999 999999 999999 999999 999999 999999 999999 999999 15277 999999 999999 999999 999999 999999 999999 999999 999999 999999 999999 999999 999999 19690 999999 999999 999999 999999 999999 999999 999999 999999 999999 19004 999999 999999 999999 999999 999999 999999 999999 16468 999999 999999 999999 999999 999999 999999 17211 999999 999999 999999 999999 999999 999999 999999 999999 999999 999999 999999 999999 999999 999999 999999 999999 999999 999999 999999 999999 999999 999999 999999 999999 999999 999999 999999 10007 999999 999999 17153 999999 999999 999999 999999 999999 999999 999999 999999 999999 16389 999999 999999 999999 999999 999999 999999 999999 999999 999999 999999 999999 999999 999999 999999 999999 999999 999999 999999 999999 999999 999999 15599 999999 999999 999999 12566 999999 999999 999999 999999 14064 999999 999999 999999 999999 999999 11980 999999 999999 999999 999999 999999 13161 999999 999999 10341 999999 999999
999999 999999 999999 999999 999999 999999 999999 999999 999999 999999 999999 999999 999999 999999 999999 999999 999999 999999 999999 999999 999999 999999 999999 999999 999999 999999 999999 999999 999999 999999 999999 999999 999999 999999 999999 999999 999999 999999 999999 999999 999999 999999 999999 999999 999999 999999 999999 999999 999999 999999 999999 999999 999999 999999 999999 999999 999999 999999 999999 999999 999999 999999 999999 0 999999 999999 999999 999999 999999 999999 999999 999999 999999 999999 999999 999999 999999 999999 999999 999999 999999 999999 999999 999999 999999 999999 999999 999999 999999 999999 999999 999999 999999 999999 999999 999999 999999 999999 999999 999999 999999 999999 999999 999999 999999 999999 999999 999999 999999 999999 999999 999999 999999 999999 999999 999999 999999 999999 999999 999999 999999 999999 999999 999999 999999 999999 999999 999999 999999 999999 999999 999999 999999 999999 999999 999999 999999 999999 999999 999999 999999 999999 999999 999999 999999 999999 999999 999999 999999 999999 999999 999999 999999 999999 999999 999999 999999 999999 999999 999999 999999 999999 999999 999999 999999 999999 999999 999999 999999 999999 999999 999999 999999 999999 999999 999999 999999 999999 999999 999999 999999 999999 999999 999999 999999 999999 999999 999999 999999 999999 999999 999999 999999 999999 999999 999999 999999 999999 999999 999999 19755 999999 19866 999999 999999 999999 999999 999999 999999 999999 999999 999999 10680 999999 999999 999999 999999 999999 999999 13285 999999 999999 999999 999999 999999 999999 999999 999999 999999 999999 999999 999999 999999 999999 18971 999999 999999 999999 999999 999999 999999 999999 999999 999999 999999 999999 999999 11350 999999 999999 999999 999999 999999 999999 999999 999999 999999 12694 999999 999999 999999 999999 999999 999999 999999 13322 999999 999999 999999 999999 999999 999999 13238 999999 999999 999999 999999 999999 999999 999999 999999 999999 999999 999999 999999 999999 999999 999999 999999 999999 999999 999999 999999 999999 999999 999999 999999 999999 999999 999999 15219 999999 999999 15553 999999 999999 999999 999999 999999 999999 999999 999999 999999 15564 999999 999999 999999 999999 999999 999999 999999 999999 999999 999999 999999 999999 999999 999999 999999 999999 999999 999999 999999 999999 999999 16840 999999 999999 999999 14556 999999 999999 999999 999999 12395 999999 999999 999999 999999 999999 16659 999999 999999 999999 999999 999999 12547 999999 999999 10539 999999 999999
999999 999999 999999 999999 999999 999999 999999 999999 999999 999999 999999 999999 999999 999999 999999 999999 999999 999999 999999 999999 999999 999999 999999 999999 999999 999999 999999 999999 999999 999999 999999 999999 999999 999999 999999 999999 999999 999999 999999 999999 999999 999999 999999 999999 999999 999999 999999 999999 999999 999999 999999 999999 999999 999999 999999 999999 999999 999999 999999 999999 999999 999999 999999 999999 0 999999 999999 999999 999999 999999 999999 999999 999999 999999 999999 999999 999999 999999 999999 999999 999999 999999 999999 999999 999999 999999 999999 999999 999999 999999 999999 999999 999999 999999 999999 999999 999999 999999 999999 999999 999999 999999 999999 999999 999999 999999 999999 999999 999999 999999 999999 999999 999999 999999 999999 999999 999999 999999 999999 999999 999999 999999 999999 999999 999999 999999 999999 999999 999999 999999 999999 999999 999999 999999 999999 999999 999999 999999 999999 999999 999999 999999 999999 999999 999999 999999 999999 999999 999999 999999 999999 999999 999999 999999 999999 999999 999999 999999 999999 999999 999999 999999 999999 999999 999999 999999 999999 999999 999999 999999 999999 999999 999999 999999 999999 999999 999999 999999 999999 999999 999999 999999 999999 999999 999999 999999 999999 999999 999999 999999 999999 999999 999999 999999 999999 999999 999999 999999 999999 999999 13134 999999 14957 999999 999999 999999 999999 999999 999999 999999 999999 999999 17622 999999 999999 999999 999999 999999 999999 11452 999999 999999 999999 999999 999999 999999 999999 999999 999999 999999 999999 999999 999999 999999 12880 999999 999999 999999 999999 999999 999999 999999 999999 999999 999999 999999 999999 13848 999999 999999 999999 999999 999999 999999 999999 999999 999999 10015 999999 999999 999999 999999 999999 999999 999999 19499 999999 999999 999999 999999 999999 999999 11837 999999 999999 999999 999999 999999 999999 999999 999999 999999 999999 999999 999999 999999 999999 999999 999999 999999 999999 999999 999999 999999 999999 999999 999999 999999 999999 999999 16708 999999 999999 11786 999999 999999 999999 999999 999999 999999 999999 999999 999999 18075 999999 999999 999999 999999 999999 999999 999999 999999 999999 999999 999999 999999 999999 999999 999999 999999 999999 999999 999999 999999 999999 11768 999999 999999 999999 19319 999999 999999 999999 999999 15423 999999 999999 999999 999999 999999 14692 999999 999999 999999 999999 999999 10244 999999 999999 16253 999999 999999
999999 999999 999999 999999 999999 999999 999999 999999 999999 999999 999999 999999 999999 999999 999999 999999 999999 999999 999999 999999 999999 999999 999999 999999 999999 999999 999999 999999 999999 999999 999999 999999 999999 999999 999999 999999 999999 999999 999999 999999 999999 999999 999999 999999 999999 999999 999999 999999 999999 999999 999999 999999 999999 999999 999999 999999 999999 999999 999999 999999 999999 999999 999999 999999 999999 0 999999 999999 999999 999999 999999 999999 999999 999999 999999 999999 999999 999999 999999 999999 999999 999999 999999 999999 999999 999999 999999 999999 999999 999999 999999 999999 999999 999999 999999 999999 999999 999999 999999 999999 999999 999999 999999 999999 999999 999999 999999 999999 999999 999999 999999 999999 999999 999999 999999 999999 999999 999999 999999 999999 999999 999999 999999 999999 999999 999999 999999 999999 999999 999999 999999 999999 999999 999999 999999 999999 999999 999999 999999 999999 999999 999999 999999 999999 999999 999999 999999 999999 999999 999999 999999 999999 999999 999999 999999 999999 999999 999999 999999 999999 999999 999999 999999 999999 999999 999999 999999 999999 999999 999999 999999 999999 999999 999999 999999 999999 999999 999999 999999 999999 999999 999999 999999 999999 999999 999999 999999 999999 999999 999999 999999 999999 999999 999999 999999 999999 999999 999999 999999 999999 14315 999999 14600 999999 999999 999999 999999 999999 999999 999999 999999 999999 13759 999999 999999 999999 999999 999999 999999 14428 999999 999999 999999 999999 999999 999999 999999 999999 999999 999999 999999 999999 999999 999999 11353 999999 999999 999999 999999 999999 999999 999999 999999 999999 999999 999999 999999 12351 999999 999999 999999 999999 999999 999999 999999 999999 999999 10548 999999 999999 999999 999999 999999 999999 999999 19244 999999 999999 999999 999999 999999 999999 13573 999999 999999 999999 999999 999999 999999 999999 999999 999999 999999 999999 999999 999999 999999 999999 999999 999999 999999 999999 999999 999999 999999 999999 999999 999999 999999 999999 18922 999999 999999 19579 999999 999999 999999 999999 999999 999999 999999 999999 999999 17520 999999 999999 999999 999999 999999 999999 999999 999999 999999 999999 999999 999999 999999 999999 999999 999999 999999 999999 999999 999999 999999 10039 999999 999999 999999 10598 999999 999999 999999 999999 12631 999999 999999 999999 999999 999999 17045 999999 999999 999999 999999 999999 14812 999999 999999 14692 999999 999999
999999 999999 999999 999999 999999 999999 999999 999999 999999 999999 999999 999999 999999 999999 999999 999999 999999 999999 999999 999999 999999 999999 999999 999999 999999 999999 999999 999999 999999 999999 999999 999999 999999 999999 999999 999999 999999 999999 999999 999999 999999 999999 999999 999999 999999 999999 999999 999999 999999 999999 999999 999999 999999 999999 999999 999999 999999 999999 999999 999999 999999 999999 999999 999999 999999 999999 0 999999 999999 999999 999999 999999 999999 999999 999999 999999 999999 999999 999999 999999 999999 999999 999999 999999 999999 999999 999999 999999 999999 999999 999999 999999 999999 999999 999999 999999 999999 999999 999999 999999 999999 999999 999999 999999 999999 999999 999999 999999 999999 999999 999999 999999 999999 999999 999999 999999 999999 999999 999999 999999 999999 999999 999999 999999 999999 999999 999999 999999 999999 999999 999999 999999 999999 999999 999999 999999 999999 999999 999999 999999 999999 999999 999999 999999 999999 999999 999999 999999 999999 999999 999999 999999 999999 999999 999999 999999 999999 999999 999999 999999 999999 999999 999999 999999 999999 999999 999999 999999 999999 999999 999999 999999 999999 999999 999999 999999 999999 999999 999999 999999 999999 999999 999999 999999 999999 999999 999999 999999 999999 999999 999999 999999 999999 999999 999999 999999 999999 999999 999999 999999 14022 999999 16590 999999 999999 999999 999999 999999 999999 999999 999999 999999 13893 999999 999999 999999 999999 999999 999999 18805 999999 999999 999999 999999 999999 999999 999999 999999 999999 999999 999999 999999 999999 999999 11524 999999 999999 999999 999999 999999 999999 999999 999999 999999 999999 999999 999999 16495 999999 999999 999999 999999 999999 999999 999999 999999 999999 18191 999999 999999 999999 999999 999999 999999 999999 15294 999999 999999 999999 999999 999999 999999 18165 999999 999999 999999 999999 999999 999999 999999 999999 999999 999999 999999 999999 999999 999999 999999 999999 999999 999999 999999 999999 999999 999999 999999 999999 999999 999999 999999 11147 999999 999999 18545 999999 999999 999999 999999 999999 999999 999999 999999 999999 18056 999999 999999 999999 999999 999999 999999 999999 999999 999999 999999 999999 999999 999999 999999 999999 999999 999999 999999 999999 999999 999999 17432 999999 999999 999999 10763 999999 999999 999999 999999 15707 999999 999999 999999 999999 999999 10590 999999 999999 999999 999999 999999 19579 999999 999999 12818 999999 999999
999999 999999 999999 999999 999999 999999 999999 999999 999999 999999 999999 999999 999999 999999 999999 999999 999999 999999 999999 999999 999999 999999 999999 999999 999999 999999 999999 999999 999999 999999 999999 999999 999999 999999 999999 999999 999999 999999 999999 999999 999999 999999 999999 999999 999999 999999 999999 999999 999999 999999 999999 999999 999999 999999 999999 999999 999999 999999 999999 999999 999999 999999 999999 999999 999999 999999 999999 0 999999 999999 999999 999999 999999 999999 999999 999999 999999 999999 999999 999999 999999 999999 999999 999999 999999 999999 999999 999999 999999 999999 999999 999999 999999 999999 999999 999999 999999 999999 999999 999999 999999 999999 999999 999999 999999 999999 999999 999999 999999 999999 999999 999999 999999 999999 999999 999999 999999 999999 999999 999999 999999 999999 999999 999999 999999 999999 999999 999999 999999 999999 999999 999999 999999 999999 999999 999999 999999 999999 999999 999999 999999 999999 999999 999999 999999 999999 999999 999999 999999 999999 999999 999999 999999 999999 999999 999999 999999 999999 999999 999999 999999 999999 999999 999999 999999 999999 999999 999999 999999 999999 999999 999999 999999 999999 999999 999999 999999 999999 999999 999999 999999 999999 999999 999999 999999 999999 999999 999999 999999 999999 999999 999999 999999 999999 999999 999999 999999 999999 999999 999999 10146 999999 13274 999999 999999 999999 999999 999999 999999 999999 999999 999999 19537 999999 999999 999999 999999 999999 999999 18701 999999 999999 999999 999999 999999 999999 999999 999999 999999 999999 999999 999999 999999 999999 13396 999999 999999 999999 999999 999999 999999 999999 999999 999999 999999 999999 999999 17197 999999 999999 999999 999999 999999 999999 999999 999999 999999 10087 999999 999999 999999 999999 999999 999999 999999 16112 999999 999999 999999 999999 999999 999999 19252 999999 999999 999999 999999 999999 999999 999999 999999 999999 999999 999999 999999 999999 999999 999999 999999 999999 999999 999999 999999 999999 999999 999999 999999 999999 999999 999999 19238 999999 999999 19109 999999 999999 999999 999999 999999 999999 999999 999999 999999 12471 999999 999999 999999 999999 999999 999999 999999 999999 999999 999999 999999 999999 999999 999999 999999 999999 999999 999999 999999 999999 999999 16663 999999 999999 999999 12121 999999 999999 999999 999999 19951 999999 999999 999999 999999 999999 18307 999999 999999 999999 999999 999999 14592 999999 999999 17184 999999 999999
999999 999999 999999 999999 999999 999999 999999 999999 999999 999999 999999 999999 999999 999999 999999 999999 999999 999999 999999 999999 999999 999999 999999 999999 999999 999999 999999 999999 999999 999999 999999 999999 999999 999999 999999 999999 999999 999999 999999 999999 999999 999999 999999 999999 999999 999999 999999 999999 999999 999999 999999 999999 999999 999999 999999 999999 999999 999999 999999 999999 999999 999999 999999 999999 999999 999999 999999 999999 0 999999 999999 999999 999999 999999 999999 999999 999999 999999 999999 999999 999999 999999 999999 999999 999999 999999 999999 999999 999999 999999 999999 999999 999999 999999 999999 999999 999999 999999 999999 999999 999999 999999 999999 999999 999999 999999 999999 999999 999999 999999 999999 999999 999999 999999 999999 999999 999999 999999 999999 999999 999999 999999 999999 999999 999999 999999 999999 999999 999999 999999 999999 999999 999999 999999 999999 999999 999999 999999 999999 999999 999999 999999 999999 999999 999999 999999 999999 999999 999999 999999 999999 999999 999999 999999 999999 999999 999999 999999 999999 999999 999999 999999 999999 999999 999999 999999 999999 999999 999999 999999 999999 999999 999999 999999 999999 999999 999999 999999 999999 999999 999999 999999 999999 999999 999999 999999 999999 999999 999999 999999 999999 999999 999999 999999 999999 999999 999999 999999 999999 999999 17381 999999 10112 999999 999999 999999 999999 999999 999999 999999 999999 999999 11670 999999 999999 999999 999999 999999 999999 14839 999999 999999 999999 999999 999999 999999 999999 999999 999999 999999 999999 999999 999999 999999 16692 999999 999999 999999 999999 999999 999999 999999 999999 999999 999999 999999 999999 18140 999999 999999 999999 999999 999999 999999 999999 999999 999999 13267 999999 999999 999999 999999 999999 999999 999999 19498 999999 999999 999999 999999 999999 999999 19870 999999 999999 999999 999999 999999 999999 999999 999999 999999 999999 999999 999999 999999 999999 999999 999999 999999 999999 999999 999999 999999 999999 999999 999999 999999 999999 999999 11438 999999 999999 18787 999999 999999 999999 999999 999999 999999 999999 999999 999999 14906 999999 999999 999999 999999 999999 999999 999999 999999 999999 999999 999999 999999 999999 999999 999999 999999 999999 999999 999999 999999 999999 10385 999999 999999 999999 16614 999999 999999 999999 999999 17138 999999 999999 999999 999999 999999 19729 999999 999999 999999 999999 999999 16808 999999 999999 12216 999999 999999
999999 999999 999999 999999 999999 999999 999999 999999 999999 999999 999999 999999 999999 999999 999999 999999 999999 999999 999999 999999 999999 999999 999999 999999 999999 999999 999999 999999 999999 999999 999999 999999 999999 999999 999999 999999 999999 999999 999999 999999 999999 999999 999999 999999 999999 999999 999999 999999 999999 999999 999999 999999 999999 999999 999999 999999 999999 999999 999999 999999 999999 999999 999999 999999 999999 999999 999999 999999 999999 0 999999 999999 999999 999999 999999 999999 999999 999999 999999 999999 999999 999999 999999 999999 999999 999999 999999 999999 999999 999999 999999 999999 999999 999999 999999 999999 999999 999999 999999 999999 999999 999999 999999 999999 999999 999999 999999 999999 999999 999999 999999 999999 999999 999999 999999 999999 999999 999999 999999 999999 999999 999999 999999 999999 999999 999999 999999 999999 999999 999999 999999 999999 999999 999999 999999 999999 999999 999999 999999 999999 999999 999999 999999 999999 999999 999999 999999 999999 999999 999999 999999 999999 999999 999999 999999 999999 999999 999999 999999 999999 999999 999999 999999 999999 999999 999999 999999 999999 999999 999999 999999 999999 999999 999999 999999 999999 999999 999999 999999 999999 999999 999999 999999 999999 999999 999999 999999 999999 999999 999999 999999 999999 999999 999999 999999 999999 999999 999999 999999 999999 13188 999999 14655 999999 999999 999999 999999 999999 999999 999999 999999 999999 19705 999999 999999 999999 999999 999999 999999 19040 999999 999999 999999 999999 999999 999999 999999 999999 999999 999999 999999 999999 999999 999999 16798 999999 999999 999999 999999 999999 999999 999999 999999 999999 999999 999999 999999 14286 999999 999999 999999 999999 999999 999999 999999 999999 999999 18575 999999 999999 999999 999999 999999 999999 999999 18212 999999 999999 999999 999999 999999 999999 10152 999999 999999 999999 999999 999999 999999 999999 999999 999999 999999 999999 999999 999999 999999 999999 999999 999999 999999 999999 999999 999999 999999 999999 999999 999999 999999 999999 12900 999999 999999 14721 999999 999999 999999 999999 999999 999999 999999 999999 999999 17616 999999 999999 999999 999999 999999 999999 999999 999999 999999 999999 999999 999999 999999 999999 999999 999999 999999 999999 999999 999999 999999 11222 999999 999999 999999 12186 999999 999999 999999 999999 14329 999999 999999 999999 999999 999999 12070 999999 999999 999999 999999 999999 16659 999999 999999 19855 999999 999999
999999 999999 999999 999999 999999 999999 999999 999999 999999 999999 999999 999999 999999 999999 999999 999999 999999 999999 999999 999999 999999 999999 999999 999999 999999 999999 999999 999999 999999 999999 999999 999999 999999 999999 999999 999999 999999 999999 999999 999999 999999 999999 999999 999999 999999 999999 999999 999999 999999 999999 999999 999999 999999 999999 999999 999999 999999 999999 999999 999999 999999 999999 999999 999999 999999 999999 999999 999999 999999 999999 0 999999 999999 999999 999999 999999 999999 999999 999999 999999 999999 999999 999999 999999 999999 999999 999999 999999 999999 999999 999999 999999 999999 999999 999999 999999 999999 999999 999999 999999 999999 999999 999999 999999 999999 999999 999999 999999 999999 999999 999999 999999 999999 999999 999999 999999 999999 999999 999999 999999 999999 999999 999999 999999 999999 999999 999999 999999 999999 999999 999999 999999 999999 999999 999999 999999 999999 999999 999999 999999 999999 999999 999999 999999 999999 999999 999999 999999 999999 999999 999999 999999 999999 999999 999999 999999 999999 999999 999999 999999 999999 999999 999999 999999 999999 999999 999999 999999 999999 999999 999999 999999 999999 999999 999999 999999 999999 999999 999999 999999 999999 999999 999999 999999 999999 999999 999999 999999 999999 999999 999999 999999 999999 999999 999999 999999 999999 999999 999999 999999 12147 999999 12018 999999 999999 999999 999999 999999 999999 999999 999999 999999 12345 999999 999999 999999 999999 999999 999999 10492 999999 999999 999999 999999 999999 999999 999999 999999 999999 999999 999999 999999 999999 999999 13300 999999 999999 999999 999999 999999 999999 999999 999999 999999 999999 999999 999999 11739 999999 999999 999999 999999 999999 999999 999999 999999 999999 13650 999999 999999 999999 999999 999999 999999 999999 10858 999999 999999 999999 999999 999999 999999 17280 999999 999999 999999 999999 999999 999999 999999 999999 999999 999999 999999 999999 999999 999999 999999 999999 999999 999999 999999 999999 999999 999999 999999 999999 999999 999999 999999 10391 999999 999999 14066 999999 999999 999999 999999 999999 999999 999999 999999 999999 18986 999999 999999 999999 999999 999999 999999 999999 999999 999999 999999 999999 999999 999999 999999 999999 999999 999999 999999 999999 999999 999999 18435 999999 999999 999999 18808 999999 999999 999999 999999 19686 999999 999999 999999 999999 999999 13901 999999 999999 999999 999999 999999 11195 999999 999999 14969 999999 999999
999999 999999 999999 999999 999999 999999 999999 999999 999999 999999 999999 999999 999999 999999 999999 999999 999999 999999 999999 999999 999999 999999 999999 999999 999999 999999 999999 999999 999999 999999 999999 999999 999999 999999 999999 999999 999999 999999 999999 999999 999999 999999 999999 999999 999999 999999 999999 999999 999999 999999 999999 999999 999999 999999 999999 999999 999999 999999 999999 999999 999999 999999 999999 999999 999999 999999 999999 999999 999999 999999 999999 0 999999 999999 999999 999999 999999 999999 999999 999999 999999 999999 999999 999999 999999 999999 999999 999999 999999 999999 999999 999999 999999 999999 999999 999999 999999 999999 999999 999999 999999 999999 999999 999999 999999 999999 999999 999999 999999 999999 999999 999999 999999 999999 999999 999999 999999 999999 999999 999999 999999 999999 999999 999999 999999 999999 999999 999999 999999 999999 999999 999999 999999 999999 999999 999999 999999 999999 999999 999999 999999 999999 999999 999999 999999 999999 999999 999999 999999 999999 999999 999999 999999 999999 999999 999999 999999 999999 999999 999999 999999 999999 999999 999999 999999 999999 999999 999999 999999 999999 999999 999999 999999 999999 999999 999999 999999 999999 999999 999999 999999 999999 999999 999999 999999 999999 999999 999999 999999 999999 999999 999999 999999 999999 999999 999999 999999 999999 999999 999999 16013 999999 18852 999999 999999 999999 999999 999999 999999 999999 999999 999999 17482 999999 999999 999999 999999 999999 999999 17282 999999 999999 999999 999999 999999 999999 999999 999999 999999 999999 999999 999999 999999 999999 13139 999999 999999 999999 999999 999999 999999 999999 999999 999999 999999 999999 999999 15089 999999 999999 999999 999999 999999 999999 999999 999999 999999 10375 999999 999999 999999 999999 999999 999999 999999 17338 999999 999999 999999 999999 999999 999999 13014 999999 999999 999999 999999 999999 999999 999999 999999 999999 999999 999999 999999 999999 999999 999999 999999 999999 999999 999999 999999 999999 999999 999999 999999 999999 999999 999999 13981 999999 999999 14425 999999 999999 999999 999999 999999 999999 999999 999999 999999 16776 999999 999999 999999 999999 999999 999999 999999 999999 999999 999999 999999 999999 999999 999999 999999 999999 999999 999999 999999 999999 999999 10266 999999 999999 999999 13553 999999 999999 999999 999999 12343 999999 999999 999999 999999 999999 12248 999999 999999 999999 999999 999999 16726 999999 999999 17895 999999 999999
999999 999999 999999 999999 999999 999999 999999 999999 999999 999999 999999 999999 999999 999999 999999 999999 999999 999999 999999 999999 999999 999999 999999 999999 999999 999999 999999 999999 999999 999999 999999 999999 999999 999999 999999 999999 999999 999999 999999 999999 999999 999999 999999 999999 999999 999999 999999 999999 999999 999999 999999 999999 999999 999999 999999 999999 999999 999999 999999 999999 999999 999999 999999 999999 999999 999999 999999 999999 999999 999999 999999 999999 0 999999 999999 999999 999999 999999 999999 999999 999999 999999 999999 999999 999999 999999 999999 999999 999999 999999 999999 999999 999999 999999 999999 999999 999999 999999 999999 999999 999999 999999 999999 999999 999999 999999 999999 999999 999999 999999 999999 999999 999999 999999 999999 999999 999999 999999 999999 999999 999999 999999 999999 999999 999999 999999 999999 999999 999999 999999 999999 999999 999999 999999 999999 999999 999999 999999 999999 999999 999999 999999 999999 999999 999999 999999 999999 999999 999999 999999 999999 999999 999999 999999 999999 999999 999999 999999 999999 999999 999999 999999 999999 999999 999999 999999 999999 999999 999999 999999 999999 999999 999999 999999 999999 999999 999999 999999 999999 999999 999999 999999 999999 999999 999999 999999 999999 999999 999999 999999 999999 999999 999999 999999 999999 999999 999999 999999 999999 999999 16590 999999 12853 999999 999999 999999 999999 999999 999999 999999 999999 999999 17240 999999 999999 999999 999999 999999 999999 17911 999999 999999 999999 999999 999999 999999 999999 999999 999999 999999 999999 999999 999999 999999 12545 999999 999999 999999 999999 999999 999999 999999 999999 999999 999999 999999 999999 16189 999999 999999 999999 999999 999999 999999 999999 999999 999999 12144 999999 999999 999999 999999 999999 999999 999999 13791 999999 999999 999999 999999 999999 999999 16710 999999 999999 999999 999999 999999 999999 999999 999999 999999 999999 999999 999999 999999 999999 999999 999999 999999 999999 999999 999999 999999 999999 999999 999999 999999 999999 999999 18382 999999 999999 10216 999999 999999 999999 999999 999999 999999 999999 999999 999999 16715 999999 999999 999999 999999 999999 999999 999999 999999 999999 999999 999999 999999 999999 999999 999999 999999 999999 999999 999999 999999 999999 18715 999999 999999 999999 14372 999999 999999 999999 999999 18878 999999 999999 999999 999999 999999 15150 999999 999999 999999 999999 999999 10516 999999 999999 10042 999999 999999
999999 999999 999999 999999 999999 999999 999999 999999 999999 999999 999999 999999 999999 999999 999999 999999 999999 999999 999999 999999 999999 999999 999999 999999 999999 999999 999999 999999 999999 999999 999999 999999 999999 999999 999999 999999 999999 999999 999999 999999 999999 999999 999999 999999 999999 999999 999999 999999 999999 999999 999999 999999 999999 999999 999999 999999 999999 999999 999999 999999 999999 999999 999999 999999 999999 999999 999999 999999 999999 999999 999999 999999 999999 0 999999 999999 999999 999999 999999 999999 999999 999999 999999 999999 999999 999999 999999 999999 999999 999999 999999 999999 999999 999999 999999 999999 999999 999999 999999 999999 999999 999999 999999 999999 999999 999999 999999 999999 999999 999999 999999 999999 999999 999999 999999 999999 999999 999999 999999 999999 999999 999999 999999 999999 999999 999999 999999 999999 999999 999999 999999 999999 999999 999999 999999 999999 999999 999999 999999 999999 999999 999999 999999 999999 999999 999999 999999 999999 999999 999999 999999 999999 999999 999999 999999 999999 999999 999999 999999 999999 999999 999999 999999 999999 999999 999999 999999 999999 999999 999999 999999 999999 999999 999999 999999 999999 999999 999999 999999 999999 999999 999999 999999 17523 999999 999999 999999 999999 999999 999999 999999 999999 999999 999999 999999 999999 999999 999999 999999 999999 999999 999999 999999 999999 999999 999999 999999 999999 999999 999999 999999 13749 999999 999999 999999 999999 999999 999999 999999 999999 999999 999999 999999 999999 999999 999999 999999 999999 999999 999999 999999 999999 999999 999999 999999 999999 999999 999999 999999 999999 999999 999999 999999 999999 999999 999999 999999 999999 999999 999999 10383 999999 19104 999999 999999 999999 999999 999999 999999 18625 999999 16320 999999 999999 999999 999999 999999 999999 999999 999999 12215 999999 999999 999999 999999 999999 999999 14244 15025 999999 999999 999999 999999 999999 12552 999999 19008 999999 999999 999999 999999 999999 999999 999999 999999 999999 999999 999999 999999 999999 999999 999999 999999 999999 999999 999999 999999 999999 14090 11915 999999 999999 999999 999999 999999 10194 999999 999999 999999 999999 999999 999999 19987 999999 999999 999999 999999 999999 15352 999999 999999 999999 999999 999999 999999 999999 999999 999999 999999 999999 999999 999999 15048 10627 999999 999999 999999 999999 999999 999999 999999 999999 999999 999999 999999 999999 999999 999999 999999 999999 999999 999999
999999 999999 999999 999999 999999 999999 999999 999999 999999 999999 999999 999999 999999 999999 999999 999999 999999 999999 999999 999999 999999 999999 999999 999999 999999 999999 999999 999999 999999 999999 999999 999999 999999 999999 999999 999999 999999 999999 999999 999999 999999 999999 999999 999999 999999 999999 999999 999999 999999 999999 999999 999999 999999 999999 999999 999999 999999 999999 999999 999999 999999 999999 999999 999999 999999 999999 999999 999999 999999 999999 999999 999999 999999 999999 0 999999 999999 999999 999999 999999 999999 999999 999999 999999 999999 999999 999999 999999 999999 999999 999999 999999 999999 999999 999999 999999 999999 999999 999999 999999 999999 999999 999999 999999 999999 999999 999999 999999 999999 999999 999999 999999 999999 999999 999999 999999 999999 999999 999999 999999 999999 999999 999999 999999 999999 999999 999999 999999 999999 999999 999999 999999 999999 999999 999999 999999 999999 999999 999999 999999 999999 999999 999999 999999 999999 999999 999999 999999 999999 999999 999999 999999 999999 999999 999999 999999 999999 999999 999999 999999 999999 999999 999999 999999 999999 999999 999999 999999 999999 999999 999999 999999 999999 999999 999999 999999 999999 999999 999999 999999 999999 999999 999999 16850 999999 999999 999999 999999 999999 999999 999999 999999 999999 999999 999999 999999 999999 999999 999999 999999 999999 999999 999999 999999 999999 999999 999999 999999 999999 999999 999999 16465 999999 999999 999999 999999 999999 999999 999999 999999 999999 999999 999999 999999 999999 999999 999999 999999 999999 999999 999999 999999 999999 999999 999999 999999 999999 999999 999999 999999 999999 999999 999999 999999 999999 999999 999999 999999 999999 999999 15404 999999 11867 999999 999999 999999 999999 999999 999999 12781 999999 11386 999999 999999 999999 999999 999999 999999 999999 999999 14867 999999 999999 999999 999999 999999 999999 11831 16268 999999 999999 999999 999999 999999 11413 999999 15542 999999 999999 999999 999999 999999 999999 999999 999999 999999 999999 999999 999999 999999 999999 999999 999999 999999 999999 999999 999999 999999 16717 19711 999999 999999 999999 999999 999999 15078 999999 999999 999999 999999 999999 999999 16171 999999 999999 999999 999999 999999 12671 999999 999999 999999 999999 999999 999999 999999 999999 999999 999999 999999 999999 999999 10505 11056 999999 999999 999999 999999 999999 999999 999999 999999 999999 999999 999999 999999 999999 999999 999999 999999 999999 999999
999999 999999 999999 999999 999999 999999 999999 999999 999999 999999 999999 999999 999999 999999 999999 999999 999999 999999 999999 999999 999999 999999 999999 999999 999999 999999 999999 999999 999999 999999 999999 999999 999999 999999 999999 999999 999999 999999 999999 999999 999999 999999 999999 999999 999999 999999 999999 999999 999999 999999 999999 999999 999999 999999 999999 999999 999999 999999 999999 999999 999999 999999 999999 999999 999999 999999 999999 999999 999999 999999 999999 999999 999999 999999 999999 0 999999 999999 999999 999999 999999 999999 999999 999999 999999 999999 999999 999999 999999 999999 999999 999999 999999 999999 999999 999999 999999 999999 999999 999999 999999 999999 999999 999999 999999 999999 999999 999999 999999 999999 999999 999999 999999 999999 999999 999999 999999 999999 999999 999999 999999 999999 999999 999999 999999 999999 999999 999999 999999 999999 999999 999999 999999 999999 999999 999999 999999 999999 999999 999999 999999 999999 999999 999999 999999 999999 999999 999999 999999 999999 999999 999999 999999 999999 999999 999999 999999 999999 999999 999999 999999 999999 999999 999999 999999 999999 999999 999999 999999 999999 999999 999999 999999 999999 999999 999999 999999 999999 999999 999999 999999 999999 999999 10826 999999 999999 999999 999999 999999 999999 999999 999999 999999 999999 999999 999999 999999 999999 999999 999999 999999 999999 999999 999999 999999 999999 999999 999999 999999 999999 999999 10894 999999 999999 999999 999999 999999 999999 999999 999999 999999 999999 999999 999999 999999 999999 999999 999999 999999 999999 999999 999999 999999 999999 999999 999999 999999 999999 999999 999999 999999 999999 999999 999999 999999 999999 999999 999999 999999 999999 19702 999999 11619 999999 999999 999999 999999 999999 999999 17513 999999 18935 999999 999999 999999 999999 999999 999999 999999 999999 14507 999999 999999 999999 999999 999999 999999 19048 16934 999999 999999 999999 999999 999999 17509 999999 14704 999999 999999 999999 999999 999999 999999 999999 999999 999999 999999 999999 999999 999999 999999 999999 999999 999999 999999 999999 999999 999999 15993 13389 999999 999999 999999 999999 999999 19499 999999 999999 999999 999999 999999 999999 10952 999999 999999 999999 999999 999999 15020 999999 999999 999999 999999 999999 999999 999999 999999 999999 999999 999999 999999 999999 18280 15393 999999 999999 999999 999999 999999 999999 999999 999999 999999 999999 999999 999999 999999 999999 999999 999999 999999 999999
999999 999999 999999 999999 999999 999999 999999 999999 999999 999999 999999 999999 999999 999999 999999 999999 999999 999999 999999 999999 999999 999999 999999 999999 999999 999999 999999 999999 999999 999999 999999 999999 999999 999999 999999 999999 999999 999999 999999 999999 999999 999999 999999 999999 999999 999999 999999 999999 999999 999999 999999 999999 999999 999999 999999 999999 999999 999999 999999 999999 999999 999999 999999 999999 999999 999999 999999 999999 999999 999999 999999 999999 999999 999999 999999 999999 0 999999 999999 999999 999999 999999 999999 999999 999999 999999 999999 999999 999999 999999 999999 999999 999999 999999 999999 999999 999999 999999 999999 999999 999999 999999 999999 999999 999999 999999 999999 999999 999999 999999 999999 999999 999999 999999 999999 999999 999999 999999 999999 999999 999999 999999 999999 999999 999999 999999 999999 999999 999999 999999 999999 999999 999999 999999 999999 999999 999999 999999 999999 999999 999999 999999 999999 999999 999999 999999 999999 999999 999999 999999 999999 999999 999999 999999 999999 999999 999999 999999 999999 999999 999999 999999 999999 999999 999999 999999 999999 999999 999999 999999 999999 999999 999999 999999 999999 999999 999999 999999 999999 999999 999999 999999 999999 13794 999999 999999 999999 999999 999999 999999 999999 999999 999999 999999 999999 999999 999999 999999 999999 999999 999999 999999 999999 999999 999999 999999 999999 999999 999999 999999 999999 17886 999999 999999 999999 999999 999999 999999 999999 999999 999999 999999 999999 999999 999999 999999 999999 999999 999999 999999 999999 999999 999999 999999 999999 999999 999999 999999 999999 999999 999999 999999 999999 999999 999999 999999 999999 999999 999999 999999 20000 999999 11519 999999 999999 999999 999999 999999 999999 16148 999999 18411 999999 999999 999999 999999 999999 999999 999999 999999 19118 999999 999999 999999 999999 999999 999999 16338 17130 999999 999999 999999 999999 999999 10000 999999 17719 999999 999999 999999 999999 999999 999999 999999 999999 999999 999999 999999 999999 999999 999999 999999 999999 999999 999999 999999 999999 999999 11462 12484 999999 999999 999999 999999 999999 15278 999999 999999 999999 999999 999999 999999 16899 999999 999999 999999 999999 999999 19306 999999 999999 999999 999999 999999 999999 999999 999999 999999 999999 999999 999999 999999 12447 16179 999999 999999 999999 999999 999999 999999 999999 999999 999999 999999 999999 999999 999999 999999 999999 999999 999999 999999
999999 999999 999999 999999 999999 999999 999999 999999 999999 999999 999999 999999 999999 999999 999999 999999 999999 999999 999999 999999 999999 999999 999999 999999 999999 999999 999999 999999 999999 999999 999999 999999 999999 999999 999999 999999 999999 999999 999999 999999 999999 999999 999999 999999 999999 999999 999999 999999 999999 999999 999999 999999 999999 999999 999999 999999 999999 999999 999999 999999 999999 999999 999999 999999 999999 999999 999999 999999 999999 999999 999999 999999 999999 999999 999999 999999 999999 0 999999 999999 999999 999999 999999 999999 999999 999999 999999 999999 999999 999999 999999 999999 999999 999999 999999 999999 999999 999999 999999 999999 999999 999999 999999 999999 999999 999999 999999 999999 999999 999999 999999 999999 999999 999999 999999 999999 999999 999999 999999 999999 999999 999999 999999 999999 999999 999999 999999 999999 999999 999999 999999 999999 999999 999999 999999 999999 999999 999999 999999 999999 999999 999999 999999 999999 999999 999999 999999 999999 999999 999999 999999 999999 999999 999999 999999 999999 999999 999999 999999 999999 999999 999999 999999 999999 999999 999999 999999 999999 999999 999999 999999 999999 999999 999999 999999 999999 999999 999999 999999 999999 999999 999999 999999 10670 999999 999999 999999 999999 999999 999999 999999 999999 999999 999999 999999 999999 999999 999999 999999 999999 999999 999999 999999 999999 999999 999999 999999 999999 999999 999999 999999 15647 999999 999999 999999 999999 999999 999999 999999 999999 999999 999999 999999 999999 999999 999999 999999 999999 999999 999999 999999 999999 999999 999999 999999 999999 999999 999999 999999 999999 999999 999999 999999 999999 999999 999999 999999 999999 999999 999999 16360 999999 14700 999999 999999 999999 999999 999999 999999 18837 999999 12552 999999 999999 999999 999999 999999 999999 999999 999999 16289 999999 999999 999999 999999 999999 999999 13365 19598 999999 999999 999999 999999 999999 12188 999999 18052 999999 999999 999999 999999 999999 999999 999999 999999 999999 999999 999999 999999 999999 999999 999999 999999 999999 999999 999999 999999 999999 10598 18804 999999 999999 999999 999999 999999 17543 999999 999999 999999 999999 999999 999999 19104 999999 999999 999999 999999 999999 14029 999999 999999 999999 999999 999999 999999 999999 999999 999999 999999 999999 999999 999999 18061 16369 999999 999999 999999 999999 999999 999999 999999 999999 999999 999999 999999 999999 999999 999999 999999 999999 999999 999999
999999 999999 999999 999999 999999 999999 999999 999999 999999 999999 999999 999999 999999 999999 999999 999999 999999 999999 999999 999999 999999 999999 999999 999999 999999 999999 999999 999999 999999 999999 999999 999999 999999 999999 999999 999999 999999 999999 999999 999999 999999 999999 999999 999999 999999 999999 999999 999999 999999 999999 999999 999999 999999 999999 999999 999999 999999 999999 999999 999999 999999 999999 999999 999999 999999 999999 999999 999999 999999 999999 999999 999999 999999 999999 999999 999999 999999 999999 0 999999 999999 999999 999999 999999 999999 999999 999999 999999 999999 999999 999999 999999 999999 999999 999999 999999 999999 999999 999999 999999 999999 999999 999999 999999 999999 999999 999999 999999 999999 999999 999999 999999 999999 999999 999999 999999 999999 999999 999999 999999 999999 999999 999999 999999 999999 999999 999999 999999 999999 999999 999999 999999 999999 999999 999999 999999 999999 999999 999999 999999 999999 999999 999999 999999 999999 999999 999999 999999 999999 999999 999999 999999 999999 999999 999999 999999 999999 999999 999999 999999 999999 999999 999999 999999 999999 999999 999999 999999 999999 999999 999999 999999 999999 999999 999999 999999 999999 999999 999999 999999 999999 999999 999999 17765 999999 999999 999999 999999 999999 999999 999999 999999 999999 999999 999999 999999 999999 999999 999999 999999 999999 999999 999999 999999 999999 999999 999999 999999 999999 999999 999999 16088 999999 999999 999999 999999 999999 999999 999999 999999 999999 999999 999999 999999 999999 999999 999999 999999 999999 999999 999999 999999 999999 999999 999999 999999 999999 999999 999999 999999 999999 999999 999999 999999 999999 999999 999999 999999 999999 999999 10354 999999 13488 999999 999999 999999 999999 999999 999999 10025 999999 15174 999999 999999 999999 999999 999999 999999 999999 999999 14578 999999 999999 999999 999999 999999 999999 16437 13538 999999 999999 999999 999999 999999 11609 999999 18619 999999 999999 999999 999999 999999 999999 999999 999999 999999 999999 999999 999999 999999 999999 999999 999999 999999 999999 999999 999999 999999 15213 17784 999999 999999 999999 999999 999999 16276 999999 999999 999999 999999 999999 999999 19843 999999 999999 999999 999999 999999 12285 999999 999999 999999 999999 999999 999999 999999 999999 999999 999999 999999 999999 999999 16701 19371 999999 999999 999999 999999 999999 999999 999999 999999 999999 999999 999999 999999 999999 999999 999999 999999 999999 999999
999999 999999 999999 999999 999999 999999 999999 999999 999999 999999 999999 999999 999999 999999 999999 999999 999999 999999 999999 999999 999999 999999 999999 999999 999999 999999 999999 999999 999999 999999 999999 999999 999999 999999 999999 999999 999999 999999 999999 999999 999999 999999 999999 999999 999999 999999 999999 999999 999999 999999 999999 999999 999999 999999 999999 999999 999999 999999 999999 999999 999999 999999 999999 999999 999999 999999 999999 999999 999999 999999 999999 999999 999999 999999 999999 999999 999999 999999 999999 0 999999 999999 999999 999999 999999 999999 999999 999999 999999 999999 999999 999999 999999 999999 999999 999999 999999 999999 999999 999999 999999 999999 999999 999999 999999 999999 999999 999999 999999 999999 999999 999999 999999 999999 999999 999999 999999 999999 999999 999999 999999 999999 999999 999999 999999 999999 999999 999999 999999 999999 999999 999999 999999 999999 999999 999999 999999 999999 999999 999999 999999 999999 999999 999999 999999 999999 999999 999999 999999 999999 999999 999999 999999 999999 999999 999999 999999 999999 999999 999999 999999 999999 999999 999999 999999 999999 999999 999999 999999 999999 999999 999999 999999 999999 999999 999999 999999 999999 999999 999999 999999 999999 999999 14231 999999 999999 999999 999999 999999 999999 999999 999999 999999 999999 999999 999999 999999 999999 999999 999999 999999 999999 999999 999999 999999 999999 999999 999999 999999 999999 999999 14042 999999 999999 999999 999999 999999 999999 999999 999999 999999 999999 999999 999999 999999 999999 999999 999999 999999 999999 999999 999999 999999 999999 999999 999999 999999 999999 999999 999999 999999 999999 999999 999999 999999 999999 999999 999999 999999 999999 17317 999999 14360 999999 999999 999999 999999 999999 999999 16155 999999 18659 999999 999999 999999 999999 999999 999999 999999 999999 11291 999999 999999 999999 999999 999999 999999 11165 13747 999999 999999 999999 999999 999999 15946 999999 11646 999999 999999 999999 999999 999999 999999 999999 999999 999999 999999 999999 999999 999999 999999 999999 999999 999999 999999 999999 999999 999999 15244 13649 999999 999999 999999 999999 999999 10512 999999 999999 999999 999999 999999 999999 13953 999999 999999 999999 999999 999999 13766 999999 999999 999999 999999 999999 999999 999999 999999 999999 999999 999999 999999 999999 10249 17309 999999 999999 999999 999999 999999 999999 999999 999999 999999 999999 999999 999999 999999 999999 999999 999999 999999 999999
999999 999999 999999 999999 999999 999999 999999 999999 999999 999999 999999 999999 999999 999999 999999 999999 999999 999999 999999 999999 999999 999999 999999 999999 999999 999999 999999 999999 999999 999999 999999 999999 999999 999999 999999 999999 999999 999999 999999 999999 999999 999999 999999 999999 999999 999999 999999 999999 999999 999999 999999 999999 999999 999999 999999 999999 999999 999999 999999 999999 999999 999999 999999 999999 999999 999999 999999 999999 999999 999999 999999 999999 999999 999999 999999 999999 999999 999999 999999 999999 0 999999 999999 999999 999999 999999 999999 999999 999999 999999 999999 999999 999999 999999 999999 999999 999999 999999 999999 999999 999999 999999 999999 999999 999999 999999 999999 999999 999999 999999 999999 999999 999999 999999 999999 999999 999999 999999 999999 999999 999999 999999 999999 999999 999999 999999 999999 999999 999999 999999 999999 999999 999999 999999 999999 999999 999999 999999 999999 999999 999999 999999 999999 999999 999999 999999 999999 999999 999999 999999 999999 999999 999999 999999 999999 999999 999999 999999 999999 999999 999999 999999 999999 999999 999999 999999 999999 999999 999999 999999 999999 999999 999999 999999 999999 999999 999999 999999 999999 999999 999999 999999 999999 16903 999999 999999 999999 999999 999999 999999 999999 999999 999999 999999 999999 999999 999999 999999 999999 999999 999999 999999 999999 999999 999999 999999 999999 999999 999999 999999 999999 15496 999999 999999 999999 999999 999999 999999 999999 999999 999999 999999 999999 999999 999999 999999 999999 999999 999999 999999 999999 999999 999999 999999 999999 999999 999999 999999 999999 999999 999999 999999 999999 999999 999999 999999 999999 999999 999999 999999 17483 999999 11767 999999 999999 999999 999999 999999 999999 10453 999999 16308 999999 999999 999999 999999 999999 999999 999999 999999 18900 999999 999999 999999 999999 999999 999999 14807 12569 999999 999999 999999 999999 999999 15985 999999 13322 999999 999999 999999 999999 999999 999999 999999 999999 999999 999999 999999 999999 999999 999999 999999 999999 999999 999999 999999 999999 999999 12822 14319 999999 999999 999999 999999 999999 18817 999999 999999 999999 999999 999999 999999 10343 999999 999999 999999 999999 999999 16638 999999 999999 999999 999999 999999 999999 999999 999999 999999 999999 999999 999999 999999 18765 15059 999999 999999 999999 999999 999999 999999 999999 999999 999999 999999 999999 999999 999999 999999 999999 999999 999999 999999
999999 999999 999999 999999 999999 999999 999999 999999 999999 999999 999999 999999 999999 999999 999999 999999 999999 999999 999999 999999 999999 999999 999999 999999 999999 999999 999999 999999 999999 999999 999999 999999 999999 999999 999999 999999 999999 999999 999999 999999 999999 999999 999999 999999 999999 999999 999999 999999 999999 999999 999999 999999 999999 999999 999999 999999 999999 999999 999999 999999 999999 999999 999999 999999 999999 999999 999999 999999 999999 999999 999999 999999 999999 999999 999999 999999 999999 999999 999999 999999 999999 0 999999 999999 999999 999999 999999 999999 999999 999999 999999 999999 999999 999999 999999 999999 999999 999999 999999 999999 999999 999999 999999 999999 999999 999999 999999 999999 999999 999999 999999 999999 999999 999999 999999 999999 999999 999999 999999 999999 999999 999999 999999 999999 999999 999999 999999 999999 999999 999999 999999 999999 999999 999999 999999 999999 999999 999999 999999 999999 999999 999999 999999 999999 999999 999999 999999 999999 999999 999999 999999 999999 999999 999999 999999 999999 999999 999999 999999 999999 999999 999999 999999 999999 999999 999999 999999 999999 999999 999999 999999 999999 999999 999999 999999 999999 999999 999999 999999 999999 999999 999999 999999 13402 999999 999999 999999 999999 999999 999999 999999 999999 999999 999999 999999 999999 999999 999999 999999 999999 999999 999999 999999 999999 999999 999999 999999 999999 999999 999999 999999 16183 999999 999999 999999 999999 999999 999999 999999 999999 999999 999999 999999 999999 999999 999999 999999 999999 999999 999999 999999 999999 999999 999999 999999 999999 999999 999999 999999 999999 999999 999999 999999 999999 999999 999999 999999 999999 999999 999999 14528 999999 18419 999999 999999 999999 999999 999999 999999 19387 999999 15113 999999 999999 999999 999999 999999 999999 999999 999999 15123 999999 999999 999999 999999 999999 999999 10288 11022 999999 999999 999999 999999 999999 19635 999999 18335 999999 999999 999999 999999 999999 999999 999999 999999 999999 999999 999999 999999 999999 999999 999999 999999 999999 999999 999999 999999 999999 10968 17741 999999 999999 999999 999999 999999 11698 999999 999999 999999 999999 999999 999999 19943 999999 999999 999999 999999 999999 12268 999999 999999 999999 999999 999999 999999 999999 999999 999999 999999 999999 999999 999999 19051 11315 999999 999999 999999 999999 999999 999999 999999 999999 999999 999999 999999 999999 999999 999999 999999 999999 999999 999999
999999 999999 999999 999999 999999 999999 999999 999999 999999 999999 999999 999999 999999 999999 999999 999999 999999 999999 999999 999999 999999 999999 999999 999999 999999 999999 999999 999999 999999 999999 999999 999999 999999 999999 999999 999999 999999 999999 999999 999999 999999 999999 999999 999999 999999 999999 999999 999999 999999 999999 999999 999999 999999 999999 999999 999999 999999 999999 999999 999999 999999 999999 999999 999999 999999 999999 999999 999999 999999 999999 999999 999999 999999 999999 999999 999999 999999 999999 999999 999999 999999 999999 0 999999 999999 999999 999999 999999 999999 999999 999999 999999 999999 999999 999999 999999 999999 999999 999999 999999 999999 999999 999999 999999 999999 999999 999999 999999 999999 999999 999999 999999 999999 999999 999999 999999 999999 999999 999999 999999 999999 999999 999999 999999 999999 999999 999999 999999 999999 999999 999999 999999 999999 999999 999999 999999 999999 999999 999999 999999 999999 999999 999999 999999 999999 999999 999999 999999 999999 999999 999999 999999 999999 999999 999999 999999 999999 999999 999999 999999 999999 999999 999999 999999 999999 999999 999999 999999 999999 999999 999999 999999 999999 999999 999999 999999 999999 999999 999999 999999 999999 999999 999999 13619 999999 999999 999999 999999 999999 999999 999999 999999 999999 999999 999999 999999 999999 999999 999999 999999 999999 999999 999999 999999 999999 999999 999999 999999 999999 999999 999999 12411 999999 999999 999999 999999 999999 999999 999999 999999 999999 999999 999999 999999 999999 999999 999999 999999 999999 999999 999999 999999 999999 999999 999999 999999 999999 999999 999999 999999 999999 999999 999999 999999 999999 999999 999999 999999 999999 999999 17732 999999 11798 999999 999999 999999 999999 999999 999999 12557 999999 16496 999999 999999 999999 999999 999999 999999 999999 999999 18405 999999 999999 999999 999999 999999 999999 18792 16679 999999 999999 999999 999999 999999 11189 999999 19991 999999 999999 999999 999999 999999 999999 999999 999999 999999 999999 999999 999999 999999 999999 999999 999999 999999 999999 999999 999999 999999 19751 17448 999999 999999 999999 999999 999999 15473 999999 999999 999999 999999 999999 999999 11247 999999 999999 999999 999999 999999 18480 999999 999999 999999 999999 999999 999999 999999 999999 999999 999999 999999 999999 999999 19864 15008 999999 999999 999999 999999 999999 999999 999999 999999 999999 999999 999999 999999 999999 999999 999999 999999 999999 999999
999999 999999 999999 999999 999999 999999 999999 999999 999999 999999 999999 999999 999999 999999 999999 999999 999999 999999 999999 999999 999999 999999 999999 999999 999999 999999 999999 999999 999999 999999 999999 999999 999999 999999 999999 999999 999999 999999 999999 999999 999999 999999 999999 999999 999999 999999 999999 999999 999999 999999 999999 999999 999999 999999 999999 999999 999999 999999 999999 999999 999999 999999 999999 999999 999999 999999 999999 999999 999999 999999 999999 999999 999999 999999 999999 999999 999999 999999 999999 999999 999999 999999 999999 0 999999 999999 999999 999999 999999 999999 999999 999999 999999 999999 999999 999999 999999 999999 999999 999999 999999 999999 999999 999999 999999 999999 999999 999999 999999 999999 999999 999999 999999 999999 999999 999999 999999 999999 999999 999999 999999 999999 999999 999999 999999 999999 999999 999999 999999 999999 999999 999999 999999 999999 999999 999999 999999 999999 999999 999999 999999 999999 999999 999999 999999 999999 999999 999999 999999 999999 999999 999999 999999 999999 999999 999999 999999 999999 999999 999999 999999 999999 999999 999999 999999 999999 999999 999999 999999 999999 999999 999999 999999 999999 999999 999999 999999 999999 999999 999999 999999 999999 999999 14391 999999 999999 999999 999999 999999 999999 999999 999999 999999 999999 999999 999999 999999 999999 999999 999999 999999 999999 999999 999999 999999 999999 999999 999999 999999 999999 999999 16942 999999 999999 999999 999999 999999 999999 999999 999999 999999 999999 999999 999999 999999 999999 999999 999999 999999 999999 999999 999999 999999 999999 999999 999999 999999 999999 999999 999999 999999 999999 999999 999999 999999 999999 999999 999999 999999 999999 13693 999999 19609 999999 999999 999999 999999 999999 999999 16137 999999 17595 999999 999999 999999 999999 999999 999999 999999 999999 15856 999999 999999 999999 999999 999999 999999 11110 11456 999999 999999 999999 999999 999999 15966 999999 17494 999999 999999 999999 999999 999999 999999 999999 999999 999999 999999 999999 999999 999999 999999 999999 999999 999999 999999 999999 999999 999999 14326 16391 999999 999999 999999 999999 999999 17520 999999 999999 999999 999999 999999 999999 13489 999999 999999 999999 999999 999999 14956 999999 999999 999999 999999 999999 999999 999999 999999 999999 999999 999999 999999 999999 17918 14108 999999 999999 999999 999999 999999 999999 999999 999999 999999 999999 999999 999999 999999 999999 999999 999999 999999 999999
999999 999999 999999 999999 999999 999999 999999 999999 999999 999999 999999 999999 999999 999999 999999 999999 999999 999999 999999 999999 999999 999999 999999 999999 999999 999999 999999 999999 999999 999999 999999 999999 999999 999999 999999 999999 999999 999999 999999 999999 999999 999999 999999 999999 999999 999999 999999 999999 999999 999999 999999 999999 999999 999999 999999 999999 999999 999999 999999 999999 999999 999999 999999 999999 999999 999999 999999 999999 999999 999999 999999 999999 999999 999999 999999 999999 999999 999999 999999 999999 999999 999999 999999 999999 0 999999 999999 999999 999999 999999 999999 999999 999999 999999 999999 999999 999999 999999 999999 999999 999999 999999 999999 999999 999999 999999 999999 999999 999999 999999 999999 999999 999999 999999 999999 999999 999999 999999 999999 999999 999999 999999 999999 999999 999999 999999 999999 999999 999999 999999 999999 999999 999999 999999 999999 999999 999999 999999 999999 999999 999999 999999 999999 999999 999999 999999 999999 999999 999999 999999 999999 999999 999999 999999 999999 999999 999999 999999 999999 999999 999999 999999 999999 999999 999999 999999 999999 999999 999999 999999 999999 999999 999999 999999 999999 999999 999999 999999 999999 999999 999999 999999 999999 10984 999999 999999 999999 999999 999999 999999 999999 999999 999999 999999 999999 999999 999999 999999 999999 999999 999999 999999 999999 999999 999999 999999 999999 999999 999999 999999 999999 17196 999999 999999 999999 999999 999999 999999 999999 999999 999999 999999 999999 999999 999999 999999 999999 999999 999999 999999 999999 999999 999999 999999 999999 999999 999999 999999 999999 999999 999999 999999 999999 999999 999999 999999 999999 999999 999999 999999 13688 999999 11407 999999 999999 999999 999999 999999 999999 17023 999999 19692 999999 999999 999999 999999 999999 999999 999999 999999 17753 999999 999999 999999 999999 999999 999999 19626 19264 999999 999999 999999 999999 999999 12223 999999 17424 999999 999999 999999 999999 999999 999999 999999 999999 999999 999999 999999 999999 999999 999999 999999 999999 999999 999999 999999 999999 999999 12841 16958 999999 999999 999999 999999 999999 11295 999999 999999 999999 999999 999999 999999 15410 999999 999999 999999 999999 999999 13716 999999 999999 999999 999999 999999 999999 999999 999999 999999 999999 999999 999999 999999 12490 11449 999999 999999 999999 999999 999999 999999 999999 999999 999999 999999 999999 999999 999999 999999 999999 999999 999999 999999
999999 999999 999999 999999 999999 999999 999999 999999 999999 999999 999999 999999 999999 999999 999999 999999 999999 999999 999999 999999 999999 999999 999999 999999 999999 999999 999999 999999 999999 999999 999999 999999 999999 999999 999999 999999 999999 999999 999999 999999 999999 999999 999999 999999 999999 999999 999999 999999 999999 999999 999999 999999 999999 999999 999999 999999 999999 999999 999999 999999 999999 999999 999999 999999 999999 999999 999999 999999 999999 999999 999999 999999 999999 999999 999999 999999 999999 999999 999999 999999 999999 999999 999999 999999 999999 0 999999 999999 999999 999999 999999 999999 999999 999999 999999 999999 999999 999999 999999 999999 999999 999999 999999 999999 999999 999999 999999 999999 999999 999999 999999 999999 999999 999999 999999 999999 999999 999999 999999 999999 999999 999999 999999 999999 999999 999999 999999 999999 999999 999999 999999 999999 999999 999999 999999 999999 999999 999999 999999 999999 999999 999999 999999 999999 999999 999999 999999 999999 999999 999999 999999 999999 999999 999999 999999 999999 999999 999999 999999 999999 999999 999999 999999 999999 999999 999999 999999 999999 999999 999999 999999 999999 999999 999999 999999 999999 999999 999999 999999 999999 999999 999999 999999 14619 999999 999999 999999 999999 999999 999999 999999 999999 999999 999999 999999 999999 999999 999999 999999 999999 999999 999999 999999 999999 999999 999999 999999 999999 999999 999999 999999 13966 999999 999999 999999 999999 999999 999999 999999 999999 999999 999999 999999 999999 999999 999999 999999 999999 999999 999999 999999 999999 999999 999999 999999 999999 999999 999999 999999 999999 999999 999999 999999 999999 999999 999999 999999 999999 999999 999999 18259 999999 11972 999999 999999 999999 999999 999999 999999 15405 999999 13381 999999 999999 999999 999999 999999 999999 999999 999999 19829 999999 999999 999999 999999 999999 999999 12611 11544 999999 999999 999999 999999 999999 19018 999999 12004 999999 999999 999999 999999 999999 999999 999999 999999 999999 999999 999999 999999 999999 999999 999999 999999 999999 999999 999999 999999 999999 11914 12975 999999 999999 999999 999999 999999 15245 999999 999999 999999 999999 999999 999999 14435 999999 999999 999999 999999 999999 17366 999999 999999 999999 999999 999999 999999 999999 999999 999999 999999 999999 999999 999999 19348 12480 999999 999999 999999 999999 999999 999999 999999 999999 999999 999999 999999 999999 999999 999999 999999 999999 999999 999999
999999 999999 999999 999999 999999 999999 999999 999999 999999 999999 999999 999999 999999 999999 999999 999999 999999 999999 999999 999999 999999 999999 999999 999999 999999 999999 999999 999999 999999 999999 999999 999999 999999 999999 999999 999999 999999 999999 999999 999999 999999 999999 999999 999999 999999 999999 999999 999999 999999 999999 999999 999999 999999 999999 999999 999999 999999 999999 999999 999999 999999 999999 999999 999999 999999 999999 999999 999999 999999 999999 999999 999999 999999 999999 999999 999999 999999 999999 999999 999999 999999 999999 999999 999999 999999 999999 0 999999 999999 999999 999999 999999 999999 999999 999999 999999 999999 999999 999999 999999 999999 999999 999999 999999 999999 999999 999999 999999 999999 999999 999999 999999 999999 999999 999999 999999 999999 999999 999999 999999 999999 999999 999999 999999 999999 999999 999999 999999 999999 999999 999999 999999 999999 999999 999999 999999 999999 999999 999999 999999 999999 999999 999999 999999 999999 999999 999999 999999 999999 999999 999999 999999 999999 999999 999999 999999 999999 999999 999999 999999 999999 999999 999999 999999 999999 999999 999999 999999 999999 999999 999999 999999 999999 999999 999999 999999 999999 999999 999999 999999 999999 999999 999999 11030 999999 999999 999999 999999 999999 999999 999999 999999 999999 999999 999999 999999 999999 999999 999999 999999 999999 999999 999999 999999 999999 999999 999999 999999 999999 999999 999999 15973 999999 999999 999999 999999 999999 999999 999999 999999 999999 999999 999999 999999 999999 999999 999999 999999 999999 999999 999999 999999 999999 999999 999999 999999 999999 999999 999999 999999 999999 999999 999999 999999 999999 999999 999999 999999 999999 999999 16685 999999 16019 999999 999999 999999 999999 999999 999999 15269 999999 18020 999999 999999 999999 999999 999999 999999 999999 999999 19210 999999 999999 999999 999999 999999 999999 15365 11981 999999 999999 999999 999999 999999 14868 999999 19893 999999 999999 999999 999999 999999 999999 999999 999999 999999 999999 999999 999999 999999 999999 999999 999999 999999 999999 999999 999999 999999 18320 14044 999999 999999 999999 999999 999999 19298 999999 999999 999999 999999 999999 999999 15422 999999 999999 999999 999999 999999 16379 999999 999999 999999 999999 999999 999999 999999 999999 999999 999999 999999 999999 999999 11531 18077 999999 999999 999999 999999 999999 999999 999999 999999 999999 999999 999999 999999 999999 999999 999999 999999 999999 999999
999999 999999 999999 999999 999999 999999 999999 999999 999999 999999 999999 999999 999999 999999 999999 999999 999999 999999 999999 999999 999999 999999 999999 999999 999999 999999 999999 999999 999999 999999 999999 999999 999999 999999 999999 999999 999999 999999 999999 999999 999999 999999 999999 999999 999999 999999 999999 999999 999999 999999 999999 999999 999999 999999 999999 999999 999999 999999 999999 999999 999999 999999 999999 999999 999999 999999 999999 999999 999999 999999 999999 999999 999999 999999 999999 999999 999999 999999 999999 999999 999999 999999 999999 999999 999999 999999 999999 0 999999 999999 999999 999999 999999 999999 999999 999999 999999 999999 999999 999999 999999 999999 999999 999999 999999 999999 999999 999999 999999 999999 999999 999999 999999 999999 999999 999999 999999 999999 999999 999999 999999 999999 999999 999999 999999 999999 999999 999999 999999 999999 999999 999999 999999 999999 999999 999999 999999 999999 999999 999999 999999 999999 999999 999999 999999 999999 999999 999999 999999 999999 999999 999999 999999 999999 999999 999999 999999 999999 999999 999999 999999 999999 999999 999999 999999 999999 999999 999999 999999 999999 999999 999999 999999 999999 999999 999999 999999 999999 999999 999999 999999 999999 999999 17763 999999 999999 999999 999999 999999 999999 999999 999999 999999 999999 999999 999999 999999 999999 999999 999999 999999 999999 999999 999999 999999 999999 999999 999999 999999 999999 999999 12037 999999 999999 999999 999999 999999 999999 999999 999999 999999 999999 999999 999999 999999 999999 999999 999999 999999 999999 999999 999999 999999 999999 999999 999999 999999 999999 999999 999999 999999 999999 999999 999999 999999 999999 999999 999999 999999 999999 14845 999999 14548 999999 999999 999999 999999 999999 999999 11500 999999 15269 999999 999999 999999 999999 999999 999999 999999 999999 14044 999999 999999 999999 999999 999999 999999 15898 11045 999999 999999 999999 999999 999999 12592 999999 10456 999999 999999 999999 999999 999999 999999 999999 999999 999999 999999 999999 999999 999999 999999 999999 999999 999999 999999 999999 999999 999999 12324 17893 999999 999999 999999 999999 999999 19913 999999 999999 999999 999999 999999 999999 16456 999999 999999 999999 999999 999999 18605 999999 999999 999999 999999 999999 999999 999999 999999 999999 999999 999999 999999 999999 10505 10885 999999 999999 999999 999999 999999 999999 999999 999999 999999 999999 999999 999999 999999 999999 999999 999999 999999 999999
999999 999999 999999 999999 999999 999999 999999 999999 999999 999999 999999 999999 999999 999999 999999 999999 999999 999999 999999 999999 999999 999999 999999 999999 999999 999999 999999 999999 999999 999999 999999 999999 999999 999999 999999 999999 999999 999999 999999 999999 999999 999999 999999 999999 999999 999999 999999 999999 999999 999999 999999 999999 999999 999999 999999 999999 999999 999999 999999 999999 999999 999999 999999 999999 999999 999999 999999 999999 999999 999999 999999 999999 999999 999999 999999 999999 999999 999999 999999 999999 999999 999999 999999 999999 999999 999999 999999 999999 0 999999 999999 999999 999999 999999 999999 999999 999999 999999 999999 999999 999999 999999 999999 999999 999999 999999 999999 999999 999999 999999 999999 999999 999999 999999 999999 999999 999999 999999 999999 999999 999999 999999 999999 999999 999999 999999 999999 999999 999999 999999 999999 999999 999999 999999 999999 999999 999999 999999 999999 999999 999999 999999 999999 999999 999999 999999 999999 999999 999999 999999 999999 999999 999999 999999 999999 999999 999999 999999 999999 999999 999999 999999 999999 999999 999999 999999 999999 999999 999999 999999 999999 999999 999999 999999 999999 999999 999999 999999 999999 999999 999999 999999 999999 15495 999999 999999 999999 999999 999999 999999 999999 999999 999999 999999 999999 999999 999999 999999 999999 999999 999999 999999 999999 999999 999999 999999 999999 999999 999999 999999 999999 14029 999999 999999 999999 999999 999999 999999 999999 999999 999999 999999 999999 999999 999999 999999 999999 999999 999999 999999 999999 999999 999999 999999 999999 999999 999999 999999 999999 999999 999999 999999 999999 999999 999999 999999 999999 999999 999999 999999 16404 999999 13574 999999 999999 999999 999999 999999 999999 11463 999999 12511 999999 999999 999999 999999 999999 999999 999999 999999 12109 999999 999999 999999 999999 999999 999999 16563 11305 999999 999999 999999 999999 999999 18788 999999 13686 999999 999999 999999 999999 999999 999999 999999 999999 999999 999999 999999 999999 999999 999999 999999 999999 999999 999999 999999 999999 999999 15758 16836 999999 999999 999999 999999 999999 14763 999999 999999 999999 999999 999999 999999 16845 999999 999999 999999 999999 999999 19629 999999 999999 999999 999999 999999 999999 999999 999999 999999 999999 999999 999999 999999 12058 12163 999999 999999 999999 999999 999999 999999 999999 999999 999999 999999 999999 999999 999999 999999 999999 999999 999999 999999
999999 999999 999999 999999 999999 999999 999999 999999 999999 999999 999999 999999 999999 999999 999999 999999 999999 999999 999999 999999 999999 999999 999999 999999 999999 999999 999999 999999 999999 999999 999999 999999 999999 999999 999999 999999 999999 999999 999999 999999 999999 999999 999999 999999 999999 999999 999999 999999 999999 999999 999999 999999 999999 999999 999999 999999 999999 999999 999999 999999 999999 999999 999999 999999 999999 999999 999999 999999 999999 999999 999999 999999 999999 999999 999999 999999 999999 999999 999999 999999 999999 999999 999999 999999 999999 999999 999999 999999 999999 0 999999 999999 999999 999999 999999 999999 999999 999999 999999 999999 999999 999999 999999 999999 999999 999999 999999 999999 999999 999999 999999 999999 999999 999999 999999 999999 999999 999999 999999 999999 999999 999999 999999 999999 999999 999999 999999 999999 999999 999999 999999 999999 999999 999999 999999 999999 999999 999999 999999 999999 999999 999999 999999 999999 999999 999999 999999 999999 999999 999999 999999 999999 999999 999999 999999 999999 999999 999999 999999 999999 999999 999999 999999 999999 999999 999999 999999 999999 999999 999999 999999 999999 999999 999999 999999 999999 999999 999999 999999 999999 999999 999999 999999 17579 999999 999999 999999 999999 999999 999999 999999 999999 999999 999999 999999 999999 999999 999999 999999 999999 999999 999999 999999 999999 999999 999999 999999 999999 999999 999999 999999 13215 999999 999999 999999 999999 999999 999999 999999 999999 999999 999999 999999 999999 999999 999999 999999 999999 999999 999999 999999 999999 999999 999999 999999 999999 999999 999999 999999 999999 999999 999999 999999 999999 999999 999999 999999 999999 999999 999999 16076 999999 19956 999999 999999 999999 999999 999999 999999 14342 999999 18279 999999 999999 999999 999999 999999 999999 999999 999999 19897 999999 999999 999999 999999 999999 999999 14648 14856 999999 999999 999999 999999 999999 12031 999999 14903 999999 999999 999999 999999 999999 999999 999999 999999 999999 999999 999999 999999 999999 999999 999999 999999 999999 999999 999999 999999 999999 16732 18669 999999 999999 999999 999999 999999 16314 999999 999999 999999 999999 999999 999999 15438 999999 999999 999999 999999 999999 15451 999999 999999 999999 999999 999999 999999 999999 999999 999999 999999 999999 999999 999999 12459 10798 999999 999999 999999 999999 999999 999999 999999 999999 999999 999999 999999 999999 999999 999999 999999 999999 999999 999999
999999 999999 999999 999999 999999 999999 999999 999999 999999 999999 999999 999999 999999 999999 999999 999999 999999 999999 999999 999999 999999 999999 999999 999999 999999 999999 999999 999999 999999 999999 999999 999999 999999 999999 999999 999999 999999 999999 999999 999999 999999 999999 999999 999999 999999 999999 999999 999999 999999 999999 999999 999999 999999 999999 999999 999999 999999 999999 999999 999999 999999 999999 999999 999999 999999 999999 999999 999999 999999 999999 999999 999999 999999 999999 999999 999999 999999 999999 999999 999999 999999 999999 999999 999999 999999 999999 999999 999999 999999 999999 0 999999 999999 999999 999999 999999 999999 999999 999999 999999 999999 999999 999999 999999 999999 999999 999999 999999 999999 999999 999999 999999 999999 999999 999999 999999 999999 999999 999999 999999 999999 999999 999999 999999 999999 999999 999999 999999 999999 999999 999999 999999 999999 999999 999999 999999 999999 999999 999999 999999 999999 999999 999999 999999 999999 999999 999999 999999 999999 999999 999999 999999 999999 999999 999999 999999 999999 999999 999999 999999 999999 999999 999999 999999 999999 999999 999999 999999 999999 999999 999999 999999 999999 999999 999999 999999 999999 999999 999999 999999 999999 999999 999999 15262 999999 999999 999999 999999 999999 999999 999999 999999 999999 999999 999999 999999 999999 999999 999999 999999 999999 999999 999999 999999 999999 999999 999999 999999 999999 999999 999999 16392 999999 999999 999999 999999 999999 999999 999999 999999 999999 999999 999999 999999 999999 999999 999999 999999 999999 999999 999999 999999 999999 999999 999999 999999 999999 999999 999999 999999 999999 999999 999999 999999 999999 999999 999999 999999 999999 999999 12797 999999 12753 999999 999999 999999 999999 999999 999999 19057 999999 10892 999999 999999 999999 999999 999999 999999 999999 999999 11952 999999 999999 999999 999999 999999 999999 17989 16430 999999 999999 999999 999999 999999 19402 999999 16184 999999 999999 999999 999999 999999 999999 999999 999999 999999 999999 999999 999999 999999 999999 999999 999999 999999 999999 999999 999999 999999 12178 16926 999999 999999 999999 999999 999999 18082 999999 999999 999999 999999 999999 999999 13811 999999 999999 999999 999999 999999 12285 999999 999999 999999 999999 999999 999999 999999 999999 999999 999999 999999 999999 999999 14439 16744 999999 999999 999999 999999 999999 999999 999999 999999 999999 999999 999999 999999 999999 999999 999999 999999 999999 999999
999999 999999 999999 999999 999999 999999 999999 999999 999999 999999 999999 999999 999999 999999 999999 999999 999999 999999 999999 999999 999999 999999 999999 999999 999999 999999 999999 999999 999999 999999 999999 999999 999999 999999 999999 999999 999999 999999 999999 999999 999999 999999 999999 999999 999999 999999 999999 999999 999999 999999 999999 999999 999999 999999 999999 999999 999999 999999 999999 999999 999999 999999 999999 999999 999999 999999 999999 999999 999999 999999 999999 999999 999999 999999 999999 999999 999999 999999 999999 999999 999999 999999 999999 999999 999999 999999 999999 999999 999999 999999 999999 0 999999 999999 999999 999999 999999 999999 999999 999999 999999 999999 999999 999999 999999 999999 999999 999999 999999 999999 999999 999999 999999 999999 999999 999999 999999 999999 999999 999999 999999 999999 999999 999999 999999 999999 999999 999999 999999 999999 999999 999999 999999 999999 999999 999999 999999 999999 999999 999999 999999 999999 999999 999999 999999 999999 999999 999999 999999 999999 999999 999999 999999 999999 999999 999999 999999 999999 999999 999999 999999 999999 999999 999999 999999 999999 999999 999999 999999 999999 999999 999999 999999 999999 999999 999999 999999 999999 999999 999999 999999 999999 999999 999999 999999 999999 999999 999999 999999 999999 999999 999999 999999 999999 999999 999999 999999 999999 999999 10479 999999 999999 999999 999999 999999 999999 19920 999999 999999 10057 999999 999999 999999 999999 999999 999999 999999 10231 999999 999999 10936 999999 999999 999999 999999 999999 999999 16354 999999 999999 16520 999999 999999 999999 999999 999999 999999 999999 999999 999999 999999 999999 999999 999999 999999 999999 999999 999999 999999 999999 999999 999999 999999 999999 999999 999999 999999 999999 999999 999999 999999 999999 999999 19994 999999 999999 999999 999999 999999 999999 999999 19954 999999 999999 999999 15740 999999 999999 999999 999999 999999 11098 999999 999999 999999 999999 999999 999999 999999 999999 999999 999999 999999 999999 999999 999999 999999 999999 999999 999999 999999 999999 999999 999999 999999 999999 999999 999999 999999 999999 999999 999999 999999 999999 15716 999999 999999 999999 999999 999999 999999 999999 999999 11644 999999 999999 999999 999999 999999 17396 999999 999999 999999 15796 15781 999999 999999 15018 999999 999999 999999 999999 999999 999999 999999 999999 15439 999999 999999 999999 999999 999999 999999 999999 999999 999999 999999 999999 999999 999999 999999 999999
999999 999999 999999 999999 999999 999999 999999 999999 999999 999999 999999 999999 999999 999999 999999 999999 999999 999999 999999 999999 999999 999999 999999 999999 999999 999999 999999 999999 999999 999999 999999 999999 999999 999999 999999 999999 999999 999999 999999 999999 999999 999999 999999 999999 999999 999999 999999 999999 999999 999999 999999 999999 999999 999999 999999 999999 999999 999999 999999 999999 999999 999999 999999 999999 999999 999999 999999 999999 999999 999999 999999 999999 999999 999999 999999 999999 999999 999999 999999 999999 999999 999999 999999 999999 999999 999999 999999 999999 999999 999999 999999 999999 0 999999 999999 999999 999999 999999 999999 999999 999999 999999 999999 999999 999999 999999 999999 999999 999999 999999 999999 999999 999999 999999 999999 999999 999999 999999 999999 999999 999999 999999 999999 999999 999999 999999 999999 999999 999999 999999 999999 999999 999999 999999 999999 999999 999999 999999 999999 999999 999999 999999 999999 999999 999999 999999 999999 999999 999999 999999 999999 999999 999999 999999 999999 999999 999999 999999 999999 999999 999999 999999 999999 999999 999999 999999 999999 999999 999999 999999 999999 999999 999999 999999 999999 999999 999999 999999 999999 999999 999999 999999 999999 999999 999999 999999 999999 999999 999999 999999 999999 999999 999999 999999 999999 999999 999999 999999 999999 16632 999999 999999 999999 999999 999999 999999 16647 999999 999999 18752 999999 999999 999999 999999 999999 999999 999999 17148 999999 999999 15145 999999 999999 999999 999999 999999 999999 12560 999999 999999 11001 999999 999999 999999 999999 999999 999999 999999 999999 999999 999999 999999 999999 999999 999999 999999 999999 999999 999999 999999 999999 999999 999999 999999 999999 999999 999999 999999 999999 999999 999999 999999 999999 11946 999999 999999 999999 999999 999999 999999 999999 13869 999999 999999 999999 13579 999999 999999 999999 999999 999999 19513 999999 999999 999999 999999 999999 999999 999999 999999 999999 999999 999999 999999 999999 999999 999999 999999 999999 999999 999999 999999 999999 999999 999999 999999 999999 999999 999999 999999 999999 999999 999999 999999 19281 999999 999999 999999 999999 999999 999999 999999 999999 17091 999999 999999 999999 999999 999999 19740 999999 999999 999999 18461 14245 999999 999999 13745 999999 999999 999999 999999 999999 999999 999999 999999 11095 999999 999999 999999 999999 999999 999999 999999 999999 999999 999999 999999 999999 999999 999999 999999
999999 999999 999999 999999 999999 999999 999999 999999 999999 999999 999999 999999 999999 999999 999999 999999 999999 999999 999999 999999 999999 999999 999999 999999 999999 999999 999999 999999 999999 999999 999999 999999 999999 999999 999999 999999 999999 999999 999999 999999 999999 999999 999999 999999 999999 999999 999999 999999 999999 999999 999999 999999 999999 999999 999999 999999 999999 999999 999999 999999 999999 999999 999999 999999 999999 999999 999999 999999 999999 999999 999999 999999 999999 999999 999999 999999 999999 999999 999999 999999 999999 999999 999999 999999 999999 999999 999999 999999 999999 999999 999999 999999 999999 0 999999 999999 999999 999999 999999 999999 999999 999999 999999 999999 999999 999999 999999 999999 999999 999999 999999 999999 999999 999999 999999 999999 999999 999999 999999 999999 999999 999999 999999 999999 999999 999999 999999 999999 999999 999999 999999 999999 999999 999999 999999 999999 999999 999999 999999 999999 999999 999999 999999 999999 999999 999999 999999 999999 999999 999999 999999 999999 999999 999999 999999 999999 999999 999999 999999 999999 999999 999999 999999 999999 999999 999999 999999 999999 999999 999999 999999 999999 999999 999999 999999 999999 999999 999999 999999 999999 999999 999999 999999 999999 999999 999999 999999 999999 999999 999999 999999 999999 999999 999999 999999 999999 999999 999999 999999 11097 999999 999999 999999 999999 999999 999999 19988 999999 999999 18095 999999 999999 999999 999999 999999 999999 999999 11622 999999 999999 10004 999999 999999 999999 999999 999999 999999 14807 999999 999999 15533 999999 999999 999999 999999 999999 999999 999999 999999 999999 999999 999999 999999 999999 999999 999999 999999 999999 999999 999999 999999 999999 999999 999999 999999 999999 999999 999999 999999 999999 999999 999999 999999 19518 999999 999999 999999 999999 999999 999999 999999 14225 999999 999999 999999 19765 999999 999999 999999 999999 999999 12908 999999 999999 999999 999999 999999 999999 999999 999999 999999 999999 999999 999999 999999 999999 999999 999999 999999 999999 999999 999999 999999 999999 999999 999999 999999 999999 999999 999999 999999 999999 999999 999999 19186 999999 999999 999999 999999 999999 999999 999999 999999 18837 999999 999999 999999 999999 999999 17727 999999 999999 999999 13443 11673 999999 999999 14218 999999 999999 999999 999999 999999 999999 999999 999999 16425 999999 999999 999999 999999 999999 999999 999999 999999 999999 999999 999999 999999 999999 999999 999999
999999 999999 999999 999999 999999 999999 999999 999999 999999 999999 999999 999999 999999 999999 999999 999999 999999 999999 999999 999999 999999 999999 999999 999999 999999 999999 999999 999999 999999 999999 999999 999999 999999 999999 999999 999999 999999 999999 999999 999999 999999 999999 999999 999999 999999 999999 999999 999999 999999 999999 999999 999999 999999 999999 999999 999999 999999 999999 999999 999999 999999 999999 999999 999999 999999 999999 999999 999999 999999 999999 999999 999999 999999 999999 999999 999999 999999 999999 999999 999999 999999 999999 999999 999999 999999 999999 999999 999999 999999 999999 999999 999999 999999 999999 0 999999 999999 999999 999999 999999 999999 999999 999999 999999 999999 999999 999999 999999 999999 999999 999999 999999 999999 999999 999999 999999 999999 999999 999999 999999 999999 999999 999999 999999 999999 999999 999999 999999 999999 999999 999999 999999 999999 999999 999999 999999 999999 999999 999999 999999 999999 999999 999999 999999 999999 999999 999999 999999 999999 999999 999999 999999 999999 999999 999999 999999 999999 999999 999999 999999 999999 999999 999999 999999 999999 999999 999999 999999 999999 999999 999999 999999 999999 999999 999999 999999 999999 999999 999999 999999 999999 999999 999999 999999 999999 999999 999999 999999 999999 999999 999999 999999 999999 999999 999999 999999 999999 999999 999999 19534 999999 999999 999999 999999 999999 999999 17144 999999 999999 14569 999999 999999 999999 999999 999999 999999 999999 18717 999999 999999 13798 999999 999999 999999 999999 999999 999999 18351 999999 999999 12935 999999 999999 999999 999999 999999 999999 999999 999999 999999 999999 999999 999999 999999 999999 999999 999999 999999 999999 999999 999999 999999 999999 999999 999999 999999 999999 999999 999999 999999 999999 999999 999999 10669 999999 999999 999999 999999 999999 999999 999999 12198 999999 999999 999999 11362 999999 999999 999999 999999 999999 17440 999999 999999 999999 999999 999999 999999 999999 999999 999999 999999 999999 999999 999999 999999 999999 999999 999999 999999 999999 999999 999999 999999 999999 999999 999999 999999 999999 999999 999999 999999 999999 999999 18304 999999 999999 999999 999999 999999 999999 999999 999999 14348 999999 999999 999999 999999 999999 15630 999999 999999 999999 17383 15966 999999 999999 19478 999999 999999 999999 999999 999999 999999 999999 999999 18372 999999 999999 999999 999999 999999 999999 999999 999999 999999 999999 999999 999999 999999 999999 999999
999999 999999 999999 999999 999999 999999 999999 999999 999999 999999 999999 999999 999999 999999 999999 999999 999999 999999 999999 999999 999999 999999 999999 999999 999999 999999 999999 999999 999999 999999 999999 999999 999999 999999 999999 999999 999999 999999 999999 999999 999999 999999 999999 999999 999999 999999 999999 999999 999999 999999 999999 999999 999999 999999 999999 999999 999999 999999 999999 999999 999999 999999 999999 999999 999999 999999 999999 999999 999999 999999 999999 999999 999999 999999 999999 999999 999999 999999 999999 999999 999999 999999 999999 999999 999999 999999 999999 999999 999999 999999 999999 999999 999999 999999 999999 0 999999 999999 999999 999999 999999 999999 999999 999999 999999 999999 999999 999999 999999 999999 999999 999999 999999 999999 999999 999999 999999 999999 999999 999999 999999 999999 999999 999999 999999 999999 999999 999999 999999 999999 999999 999999 999999 999999 999999 999999 999999 999999 999999 999999 999999 999999 999999 999999 999999 999999 999999 999999 999999 999999 999999 999999 999999 999999 999999 999999 999999 999999 999999 999999 999999 999999 999999 999999 999999 999999 999999 999999 999999 999999 999999 999999 999999 999999 999999 999999 999999 999999 999999 999999 999999 999999 999999 999999 999999 999999 999999 999999 999999 999999 999999 999999 999999 999999 999999 999999 999999 999999 999999 12592 999999 999999 999999 999999 999999 999999 10382 999999 999999 10550 999999 999999 999999 999999 999999 999999 999999 11378 999999 999999 12429 999999 999999 999999 999999 999999 999999 10975 999999 999999 18548 999999 999999 999999 999999 999999 999999 999999 999999 999999 999999 999999 999999 999999 999999 999999 999999 999999 999999 999999 999999 999999 999999 999999 999999 999999 999999 999999 999999 999999 999999 999999 999999 11386 999999 999999 999999 999999 999999 999999 999999 10382 999999 999999 999999 12355 999999 999999 999999 999999 999999 11210 999999 999999 999999 999999 999999 999999 999999 999999 999999 999999 999999 999999 999999 999999 999999 999999 999999 999999 999999 999999 999999 999999 999999 999999 999999 999999 999999 999999 999999 999999 999999 999999 15453 999999 999999 999999 999999 999999 999999 999999 999999 16771 999999 999999 999999 999999 999999 14451 999999 999999 999999 14632 16331 999999 999999 10481 999999 999999 999999 999999 999999 999999 999999 999999 14924 999999 999999 999999 999999 999999 999999 999999 999999 999999 999999 999999 999999 999999 999999 999999
999999 999999 999999 999999 999999 999999 999999 999999 999999 999999 999999 999999 999999 999999 999999 999999 999999 999999 999999 999999 999999 999999 999999 999999 999999 999999 999999 999999 999999 999999 999999 999999 999999 999999 999999 999999 999999 999999 999999 999999 999999 999999 999999 999999 999999 999999 999999 999999 999999 999999 999999 999999 999999 999999 999999 999999 999999 999999 999999 999999 999999 999999 999999 999999 999999 999999 999999 999999 999999 999999 999999 999999 999999 999999 999999 999999 999999 999999 999999 999999 999999 999999 999999 999999 999999 999999 999999 999999 999999 999999 999999 999999 999999 999999 999999 999999 0 999999 999999 999999 999999 999999 999999 999999 999999 999999 999999 999999 999999 999999 999999 999999 999999 999999 999999 999999 999999 999999 999999 999999 999999 999999 999999 999999 999999 999999 999999 999999 999999 999999 999999 999999 999999 999999 999999 999999 999999 999999 999999 999999 999999 999999 999999 999999 999999 999999 999999 999999 999999 999999 999999 999999 999999 999999 999999 999999 999999 999999 999999 999999 999999 999999 999999 999999 999999 999999 999999 999999 999999 999999 999999 999999 999999 999999 999999 999999 999999 999999 999999 999999 999999 999999 999999 999999 999999 999999 999999 999999 999999 999999 999999 999999 999999 999999 999999 999999 999999 999999 999999 12193 999999 999999 999999 999999 999999 999999 14697 999999 999999 17746 999999 999999 999999 999999 999999 999999 999999 10268 999999 999999 16451 999999 999999 999999 999999 999999 999999 19446 999999 999999 14420 999999 999999 999999 999999 999999 999999 999999 999999 999999 999999 999999 999999 999999 999999 999999 999999 999999 999999 999999 999999 999999 999999 999999 999999 999999 999999 999999 999999 999999 999999 999999 999999 17203 999999 999999 999999 999999 999999 999999 999999 13866 999999 999999 999999 14214 999999 999999 999999 999999 999999 16212 999999 999999 999999 999999 999999 999999 999999 999999 999999 999999 999999 999999 999999 999999 999999 999999 999999 999999 999999 999999 999999 999999 999999 999999 999999 999999 999999 999999 999999 999999 999999 999999 15950 999999 999999 999999 999999 999999 999999 999999 999999 15292 999999 999999 999999 999999 999999 18876 999999 999999 999999 17328 14227 999999 999999 13588 999999 999999 999999 999999 999999 999999 999999 999999 12449 999999 999999 999999 999999 999999 999999 999999 999999 999999 999999 999999 999999 999999 999999 999999
999999 999999 999999 999999 999999 999999 999999 999999 999999 999999 999999 999999 999999 999999 999999 999999 999999 999999 999999 999999 999999 999999 999999 999999 999999 999999 999999 999999 999999 999999 999999 999999 999999 999999 999999 999999 999999 999999 999999 999999 999999 999999 999999 999999 999999 999999 999999 999999 999999 999999 999999 999999 999999 999999 999999 999999 999999 999999 999999 999999 999999 999999 999999 999999 999999 999999 999999 999999 999999 999999 999999 999999 999999 999999 999999 999999 999999 999999 999999 999999 999999 999999 999999 999999 999999 999999 999999 999999 999999 999999 999999 999999 999999 999999 999999 999999 999999 0 999999 999999 999999 999999 999999 999999 999999 999999 999999 999999 999999 999999 999999 999999 999999 999999 999999 999999 999999 999999 999999 999999 999999 999999 999999 999999 999999 999999 999999 999999 999999 999999 999999 999999 999999 999999 999999 999999 999999 999999 999999 999999 999999 999999 999999 999999 999999 999999 999999 999999 999999 999999 999999 999999 999999 999999 999999 999999 999999 999999 999999 999999 999999 999999 999999 999999 999999 999999 999999 999999 999999 999999 999999 999999 999999 999999 999999 999999 999999 999999 999999 999999 999999 999999 999999 999999 999999 999999 999999 999999 999999 999999 999999 999999 999999 999999 999999 999999 999999 999999 999999 12350 999999 999999 999999 999999 999999 999999 18221 999999 999999 12197 999999 999999 999999 999999 999999 999999 999999 19391 999999 999999 13142 999999 999999 999999 999999 999999 999999 10056 999999 999999 19117 999999 999999 999999 999999 999999 999999 999999 999999 999999 999999 999999 999999 999999 999999 999999 999999 999999 999999 999999 999999 999999 999999 999999 999999 999999 999999 999999 999999 999999 999999 999999 999999 11983 999999 999999 999999 999999 999999 999999 999999 16549 999999 999999 999999 16988 999999 999999 999999 999999 999999 19182 999999 999999 999999 999999 999999 999999 999999 999999 999999 999999 999999 999999 999999 999999 999999 999999 999999 999999 999999 999999 999999 999999 999999 999999 999999 999999 999999 999999 999999 999999 999999 999999 13740 999999 999999 999999 999999 999999 999999 999999 999999 17382 999999 999999 999999 999999 999999 13902 999999 999999 999999 18427 15393 999999 999999 14530 999999 999999 999999 999999 999999 999999 999999 999999 19525 999999 999999 999999 999999 999999 999999 999999 999999 999999 999999 999999 999999 999999 999999 999999
999999 999999 999999 999999 999999 999999 999999 999999 999999 999999 999999 999999 999999 999999 999999 999999 999999 999999 999999 999999 999999 999999 999999 999999 999999 999999 999999 999999 999999 999999 999999 999999 999999 999999 999999 999999 999999 999999 999999 999999 999999 999999 999999 999999 999999 999999 999999 999999 999999 999999 999999 999999 999999 999999 999999 999999 999999 999999 999999 999999 999999 999999 999999 999999 999999 999999 999999 999999 999999 999999 999999 999999 999999 999999 999999 999999 999999 999999 999999 999999 999999 999999 999999 999999 999999 999999 999999 999999 999999 999999 999999 999999 999999 999999 999999 999999 999999 999999 0 999999 999999 999999 999999 999999 999999 999999 999999 999999 999999 999999 999999 999999 999999 999999 999999 999999 999999 999999 999999 999999 999999 999999 999999 999999 999999 999999 999999 999999 999999 999999 999999 999999 999999 999999 999999 999999 999999 999999 999999 999999 999999 999999 999999 999999 999999 999999 999999 999999 999999 999999 999999 999999 999999 999999 999999 999999 999999 999999 999999 999999 999999 999999 999999 999999 999999 999999 999999 999999 999999 999999 999999 999999 999999 999999 999999 999999 999999 999999 999999 999999 999999 999999 999999 999999 999999 999999 999999 999999 999999 999999 999999 999999 999999 999999 999999 999999 999999 999999 999999 12014 999999 999999 999999 999999 999999 999999 14671 999999 999999 13977 999999 999999 999999 999999 999999 999999 999999 13029 999999 999999 14496 999999 999999 999999 999999 999999 999999 14131 999999 999999 14428 999999 999999 999999 999999 999999 999999 999999 999999 999999 999999 999999 999999 999999 999999 999999 999999 999999 999999 999999 999999 999999 999999 999999 999999 999999 999999 999999 999999 999999 999999 999999 999999 18843 999999 999999 999999 999999 999999 999999 999999 18665 999999 999999 999999 18228 999999 999999 999999 999999 999999 11180 999999 999999 999999 999999 999999 999999 999999 999999 999999 999999 999999 999999 999999 999999 999999 999999 999999 999999 999999 999999 999999 999999 999999 999999 999999 999999 999999 999999 999999 999999 999999 999999 19009 999999 999999 999999 999999 999999 999999 999999 999999 19460 999999 999999 999999 999999 999999 15674 999999 999999 999999 13386 12422 999999 999999 16855 999999 999999 999999 999999 999999 999999 999999 999999 11581 999999 999999 999999 999999 999999 999999 999999 999999 999999 999999 999999 999999 999999 999999 999999
999999 999999 999999 999999 999999 999999 999999 999999 999999 999999 999999 999999 999999 999999 999999 999999 999999 999999 999999 999999 999999 999999 999999 999999 999999 999999 999999 999999 999999 999999 999999 999999 999999 999999 999999 999999 999999 999999 999999 999999 999999 999999 999999 999999 999999 999999 999999 999999 999999 999999 999999 999999 999999 999999 999999 999999 999999 999999 999999 999999 999999 999999 999999 999999 999999 999999 999999 999999 999999 999999 999999 999999 999999 999999 999999 999999 999999 999999 999999 999999 999999 999999 999999 999999 999999 999999 999999 999999 999999 999999 999999 999999 999999 999999 999999 999999 999999 999999 999999 0 999999 999999 999999 999999 999999 999999 999999 999999 999999 999999 999999 999999 999999 999999 999999 999999 999999 999999 999999 999999 999999 999999 999999 999999 999999 999999 999999 999999 999999 999999 999999 999999 999999 999999 999999 999999 999999 999999 999999 999999 999999 999999 999999 999999 999999 999999 999999 999999 999999 999999 999999 999999 999999 999999 999999 999999 999999 999999 999999 999999 999999 999999 999999 999999 999999 999999 999999 999999 999999 999999 999999 999999 999999 999999 999999 999999 999999 999999 999999 999999 999999 999999 999999 999999 999999 999999 999999 999999 999999 999999 999999 999999 999999 999999 999999 999999 999999 999999 999999 11979 999999 999999 999999 999999 999999 999999 19046 999999 999999 13845 999999 999999 999999 999999 999999 999999 999999 11479 999999 999999 17271 999999 999999 999999 999999 999999 999999 15709 999999 999999 18494 999999 999999 999999 999999 999999 999999 999999 999999 999999 999999 999999 999999 999999 999999 999999 999999 999999 999999 999999 999999 999999 999999 999999 999999 999999 999999 999999 999999 999999 999999 999999 999999 11603 999999 999999 999999 999999 999999 999999 999999 13896 999999 999999 999999 10249 999999 999999 999999 999999 999999 18348 999999 999999 999999 999999 999999 999999 999999 999999 999999 999999 999999 999999 999999 999999 999999 999999 999999 999999 999999 999999 999999 999999 999999 999999 999999 999999 999999 999999 999999 999999 999999 999999 15738 999999 999999 999999 999999 999999 999999 999999 999999 12850 999999 999999 999999 999999 999999 19614 999999 999999 999999 12818 15726 999999 999999 15650 999999 999999 999999 999999 999999 999999 999999 999999 17650 999999 999999 999999 999999 999999 999999 999999 999999 999999 999999 999999 999999 999999 999999 999999
999999 999999 999999 999999 999999 999999 999999 999999 999999 999999 999999 999999 999999 999999 999999 999999 999999 999999 999999 999999 999999 999999 999999 999999 999999 999999 999999 999999 999999 999999 999999 999999 999999 999999 999999 999999 999999 999999 999999 999999 999999 999999 999999 999999 999999 999999 999999 999999 999999 999999 999999 999999 999999 999999 999999 999999 999999 999999 999999 999999 999999 999999 999999 999999 999999 999999 999999 999999 999999 999999 999999 999999 999999 999999 999999 999999 999999 999999 999999 999999 999999 999999 999999 999999 999999 999999 999999 999999 999999 999999 999999 999999 999999 999999 999999 999999 999999 999999 999999 999999 0 999999 999999 999999 999999 999999 999999 999999 999999 999999 999999 999999 999999 999999 999999 999999 999999 999999 999999 999999 999999 999999 999999 999999 999999 999999 999999 999999 999999 999999 999999 999999 999999 999999 999999 999999 999999 999999 999999 999999 999999 999999 999999 999999 999999 999999 999999 999999 999999 999999 999999 999999 999999 999999 999999 999999 999999 999999 999999 999999 999999 999999 999999 999999 999999 999999 999999 999999 999999 999999 999999 999999 999999 999999 999999 999999 999999 999999 999999 999999 999999 999999 999999 999999 999999 999999 999999 999999 999999 999999 999999 999999 999999 999999 999999 999999 999999 999999 999999 14693 999999 999999 999999 999999 999999 999999 17233 999999 999999 19726 999999 999999 999999 999999 999999 999999 999999 15698 999999 999999 19885 999999 999999 999999 999999 999999 999999 11431 999999 999999 10101 999999 999999 999999 999999 999999 999999 999999 999999 999999 999999 999999 999999 999999 999999 999999 999999 999999 999999 999999 999999 999999 999999 999999 999999 999999 999999 999999 999999 999999 999999 999999 999999 15656 999999 999999 999999 999999 999999 999999 999999 11353 999999 999999 999999 17779 999999 999999 999999 999999 999999 11518 999999 999999 999999 999999 999999 999999 999999 999999 999999 999999 999999 999999 999999 999999 999999 999999 999999 999999 999999 999999 999999 999999 999999 999999 999999 999999 999999 999999 999999 999999 999999 999999 14304 999999 999999 999999 999999 999999 999999 999999 999999 18628 999999 999999 999999 999999 999999 19381 999999 999999 999999 12409 13050 999999 999999 14148 999999 999999 999999 999999 999999 999999 999999 999999 17657 999999 999999 999999 999999 999999 999999 999999 999999 999999 999999 999999 999999 999999 999999 999999
999999 999999 999999 999999 999999 999999 999999 999999 999999 999999 999999 999999 999999 999999 999999 999999 999999 999999 999999 999999 999999 999999 999999 999999 999999 999999 999999 999999 999999 999999 999999 999999 999999 999999 999999 999999 999999 999999 999999 999999 999999 999999 999999 999999 999999 999999 999999 999999 999999 999999 999999 999999 999999 999999 999999 999999 999999 999999 999999 999999 999999 999999 999999 999999 999999 999999 999999 999999 999999 999999 999999 999999 999999 999999 999999 999999 999999 999999 999999 999999 999999 999999 999999 999999 999999 999999 999999 999999 999999 999999 999999 999999 999999 999999 999999 999999 999999 999999 999999 999999 999999 0 999999 999999 999999 999999 999999 999999 999999 999999 999999 999999 999999 999999 999999 999999 999999 999999 999999 999999 999999 999999 999999 999999 999999 999999 999999 999999 999999 999999 999999 999999 999999 999999 999999 999999 999999 999999 999999 999999 999999 999999 999999 999999 999999 999999 999999 999999 999999 999999 999999 999999 999999 999999 999999 999999 999999 999999 999999 999999 999999 999999 999999 999999 999999 999999 999999 999999 999999 999999 999999 999999 999999 999999 999999 999999 999999 999999 999999 999999 999999 999999 999999 999999 999999 999999 999999 999999 999999 999999 999999 999999 999999 999999 999999 999999 999999 999999 999999 15383 999999 999999 999999 999999 999999 999999 17623 999999 999999 16223 999999 999999 999999 999999 999999 999999 999999 15918 999999 999999 16201 999999 999999 999999 999999 999999 999999 15142 999999 999999 18667 999999 999999 999999 999999 999999 999999 999999 999999 999999 999999 999999 999999 999999 999999 999999 999999 999999 999999 999999 999999 999999 999999 999999 999999 999999 999999 999999 999999 999999 999999 999999 999999 11047 999999 999999 999999 999999 999999 999999 999999 12826 999999 999999 999999 13653 999999 999999 999999 999999 999999 16546 999999 999999 999999 999999 999999 999999 999999 999999 999999 999999 999999 999999 999999 999999 999999 999999 999999 999999 999999 999999 999999 999999 999999 999999 999999 999999 999999 999999 999999 999999 999999 999999 15203 999999 999999 999999 999999 999999 999999 999999 999999 13335 999999 999999 999999 999999 999999 12896 999999 999999 999999 11740 19601 999999 999999 18632 999999 999999 999999 999999 999999 999999 999999 999999 17592 999999 999999 999999 999999 999999 999999 999999 999999 999999 999999 999999 999999 999999 999999 999999
999999 999999 999999 999999 999999 999999 999999 999999 999999 999999 999999 999999 999999 999999 999999 999999 999999 999999 999999 999999 999999 999999 999999 999999 999999 999999 999999 999999 999999 999999 999999 999999 999999 999999 999999 999999 999999 999999 999999 999999 999999 999999 999999 999999 999999 999999 999999 999999 999999 999999 999999 999999 999999 999999 999999 999999 999999 999999 999999 999999 999999 999999 999999 999999 999999 999999 999999 999999 999999 999999 999999 999999 999999 999999 999999 999999 999999 999999 999999 999999 999999 999999 999999 999999 999999 999999 999999 999999 999999 999999 999999 999999 999999 999999 999999 999999 999999 999999 999999 999999 999999 999999 0 999999 999999 999999 999999 999999 999999 999999 999999 999999 999999 999999 999999 999999 999999 999999 999999 999999 999999 999999 999999 999999 999999 999999 999999 999999 999999 999999 999999 999999 999999 999999 999999 999999 999999 999999 999999 999999 999999 999999 999999 999999 999999 999999 999999 999999 999999 999999 999999 999999 999999 999999 999999 999999 999999 999999 999999 999999 999999 999999 999999 999999 999999 999999 999999 999999 999999 999999 999999 999999 999999 999999 999999 999999 999999 999999 999999 999999 999999 999999 999999 999999 999999 999999 999999 999999 999999 999999 999999 999999 999999 999999 999999 999999 999999 999999 999999 12681 999999 999999 999999 999999 999999 999999 12895 999999 999999 11763 999999 999999 999999 999999 999999 999999 999999 19181 999999 999999 12881 999999 999999 999999 999999 999999 999999 12702 999999 999999 15256 999999 999999 999999 999999 999999 999999 999999 999999 999999 999999 999999 999999 999999 999999 999999 999999 999999 999999 999999 999999 999999 999999 999999 999999 999999 999999 999999 999999 999999 999999 999999 999999 14734 999999 999999 999999 999999 999999 999999 999999 18961 999999 999999 999999 11990 999999 999999 999999 999999 999999 17960 999999 999999 999999 999999 999999 999999 999999 999999 999999 999999 999999 999999 999999 999999 999999 999999 999999 999999 999999 999999 999999 999999 999999 999999 999999 999999 999999 999999 999999 999999 999999 999999 14825 999999 999999 999999 999999 999999 999999 999999 999999 15427 999999 999999 999999 999999 999999 17701 999999 999999 999999 18057 19532 999999 999999 15909 999999 999999 999999 999999 999999 999999 999999 999999 16862 999999 999999 999999 999999 999999 999999 999999 999999 999999 999999 999999 999999 999999 999999 999999
999999 999999 999999 999999 999999 999999 999999 999999 999999 999999 999999 999999 999999 999999 999999 999999 999999 999999 999999 999999 999999 999999 999999 999999 999999 999999 999999 999999 999999 999999 999999 999999 999999 999999 999999 999999 999999 999999 999999 999999 999999 999999 999999 999999 999999 999999 999999 999999 999999 999999 999999 999999 999999 999999 999999 999999 999999 999999 999999 999999 999999 999999 999999 999999 999999 999999 999999 999999 999999 999999 999999 999999 999999 999999 999999 999999 999999 999999 999999 999999 999999 999999 999999 999999 999999 999999 999999 999999 999999 999999 999999 999999 999999 999999 999999 999999 999999 999999 999999 999999 999999 999999 999999 0 999999 999999 999999 999999 999999 999999 999999 999999 999999 999999 999999 999999 999999 999999 999999 999999 999999 999999 999999 999999 999999 999999 999999 999999 999999 999999 999999 999999 999999 999999 999999 999999 999999 999999 999999 999999 999999 999999 999999 999999 999999 999999 999999 999999 999999 999999 999999 999999 999999 999999 999999 999999 999999 999999 999999 999999 999999 999999 999999 999999 999999 999999 999999 999999 999999 999999 999999 999999 999999 999999 999999 999999 999999 999999 999999 999999 999999 999999 999999 999999 999999 999999 999999 999999 999999 999999 999999 999999 999999 999999 999999 999999 999999 999999 999999 16420 999999 999999 999999 999999 999999 999999 15437 999999 999999 13294 999999 999999 999999 999999 999999 999999 999999 17167 999999 999999 19433 999999 999999 999999 999999 999999 999999 18798 999999 999999 14868 999999 999999 999999 999999 999999 999999 999999 999999 999999 999999 999999 999999 999999 999999 999999 999999 999999 999999 999999 999999 999999 999999 999999 999999 999999 999999 999999 999999 999999 999999 999999 999999 18935 999999 999999 999999 999999 999999 999999 999999 13638 999999 999999 999999 13807 999999 999999 999999 999999 999999 16623 999999 999999 999999 999999 999999 999999 999999 999999 999999 999999 999999 999999 999999 999999 999999 999999 999999 999999 999999 999999 999999 999999 999999 999999 999999 999999 999999 999999 999999 999999 999999 999999 18161 999999 999999 999999 999999 999999 999999 999999 999999 10118 999999 999999 999999 999999 999999 19472 999999 999999 999999 10975 12895 999999 999999 14487 999999 999999 999999 999999 999999 999999 999999 999999 10893 999999 999999 999999 999999 999999 999999 999999 999999 999999 999999 999999 999999 999999 999999 999999
999999 999999 999999 999999 999999 999999 999999 999999 999999 999999 999999 999999 999999 999999 999999 999999 999999 999999 999999 999999 999999 999999 999999 999999 999999 999999 999999 999999 999999 999999 999999 999999 999999 999999 999999 999999 999999 999999 999999 999999 999999 999999 999999 999999 999999 999999 999999 999999 999999 999999 999999 999999 999999 999999 999999 999999 999999 999999 999999 999999 999999 999999 999999 999999 999999 999999 999999 999999 999999 999999 999999 999999 999999 999999 999999 999999 999999 999999 999999 999999 999999 999999 999999 999999 999999 999999 999999 999999 999999 999999 999999 999999 999999 999999 999999 999999 999999 999999 999999 999999 999999 999999 999999 999999 0 999999 999999 999999 999999 999999 999999 999999 999999 999999 999999 999999 999999 999999 999999 999999 999999 999999 999999 999999 999999 999999 999999 999999 999999 999999 999999 999999 999999 999999 999999 999999 999999 999999 999999 999999 999999 999999 999999 999999 999999 999999 999999 999999 999999 999999 999999 999999 999999 999999 999999 999999 999999 999999 999999 999999 999999 999999 999999 999999 999999 999999 999999 999999 999999 999999 999999 999999 999999 999999 999999 999999 999999 999999 999999 999999 999999 999999 999999 999999 999999 999999 999999 999999 999999 999999 999999 999999 999999 999999 999999 999999 999999 999999 999999 14198 999999 999999 999999 999999 999999 999999 16658 999999 999999 16795 999999 999999 999999 999999 999999 999999 999999 19363 999999 999999 16942 999999 999999 999999 999999 999999 999999 14584 999999 999999 12155 999999 999999 999999 999999 999999 999999 999999 999999 999999 999999 999999 999999 999999 999999 999999 999999 999999 999999 999999 999999 999999 999999 999999 999999 999999 999999 999999 999999 999999 999999 999999 999999 12607 999999 999999 999999 999999 999999 999999 999999 16167 999999 999999 999999 11980 999999 999999 999999 999999 999999 14318 999999 999999 999999 999999 999999 999999 999999 999999 999999 999999 999999 999999 999999 999999 999999 999999 999999 999999 999999 999999 999999 999999 999999 999999 999999 999999 999999 999999 999999 999999 999999 999999 19462 999999 999999 999999 999999 999999 999999 999999 999999 16644 999999 999999 999999 999999 999999 11308 999999 999999 999999 11144 12126 999999 999999 14957 999999 999999 999999 999999 999999 999999 999999 999999 14733 999999 999999 999999 999999 999999 999999 999999 999999 999999 999999 999999 999999 999999 999999 999999
999999 999999 999999 999999 999999 999999 999999 999999 999999 999999 999999 999999 999999 999999 999999 999999 999999 999999 999999 999999 999999 999999 999999 999999 999999 999999 999999 999999 999999 999999 999999 999999 999999 999999 999999 999999 999999 999999 999999 999999 999999 999999 999999 999999 999999 999999 999999 999999 999999 999999 999999 999999 999999 999999 999999 999999 999999 999999 999999 999999 999999 999999 999999 999999 999999 999999 999999 999999 999999 999999 999999 999999 999999 999999 999999 999999 999999 999999 999999 999999 999999 999999 999999 999999 999999 999999 999999 999999 999999 999999 999999 999999 999999 999999 999999 999999 999999 999999 999999 999999 999999 999999 999999 999999 999999 0 999999 999999 999999 999999 999999 999999 999999 999999 999999 999999 999999 999999 999999 999999 999999 999999 999999 999999 999999 999999 999999 999999 999999 999999 999999 999999 999999 999999 999999 999999 999999 999999 999999 999999 999999 999999 999999 999999 999999 999999 999999 999999 999999 999999 999999 999999 999999 999999 999999 999999 999999 999999 999999 999999 999999 999999 999999 999999 999999 999999 999999 999999 999999 999999 999999 999999 999999 999999 999999 999999 999999 999999 999999 999999 999999 999999 999999 999999 999999 999999 999999 999999 999999 999999 999999 999999 999999 999999 999999 999999 999999 999999 999999 15219 999999 999999 999999 999999 999999 999999 15549 999999 999999 15701 999999 999999 999999 999999 999999 999999 999999 16133 999999 999999 10447 999999 999999 999999 999999 999999 999999 19139 999999 999999 16737 999999 999999 999999 999999 999999 999999 999999 999999 999999 999999 999999 999999 999999 999999 999999 999999 999999 999999 999999 999999 999999 999999 999999 999999 999999 999999 999999 999999 999999 999999 999999 999999 18541 999999 999999 999999 999999 999999 999999 999999 14094 999999 999999 999999 11297 999999 999999 999999 999999 999999 16354 999999 999999 999999 999999 999999 999999 999999 999999 999999 999999 999999 999999 999999 999999 999999 999999 999999 999999 999999 999999 999999 999999 999999 999999 999999 999999 999999 999999 999999 999999 999999 999999 17544 999999 999999 999999 999999 999999 999999 999999 999999 14230 999999 999999 999999 999999 999999 10865 999999 999999 999999 10789 18827 999999 999999 19148 999999 999999 999999 999999 999999 999999 999999 999999 15532 999999 999999 999999 999999 999999 999999 999999 999999 999999 999999 999999 999999 999999 999999 999999
999999 999999 999999 999999 999999 999999 999999 999999 999999 999999 999999 999999 999999 999999 999999 999999 999999 999999 999999 999999 999999 999999 999999 999999 999999 999999 999999 999999 999999 999999 999999 999999 999999 999999 999999 999999 999999 999999 999999 999999 999999 999999 999999 999999 999999 999999 999999 999999 999999 999999 999999 999999 999999 999999 999999 999999 999999 999999 999999 999999 999999 999999 999999 999999 999999 999999 999999 999999 999999 999999 999999 999999 999999 999999 999999 999999 999999 999999 999999 999999 999999 999999 999999 999999 999999 999999 999999 999999 999999 999999 999999 999999 999999 999999 999999 999999 999999 999999 999999 999999 999999 999999 999999 999999 999999 999999 0 999999 999999 999999 999999 999999 999999 999999 999999 999999 999999 999999 999999 999999 999999 999999 999999 999999 999999 999999 999999 999999 999999 999999 999999 999999 999999 999999 999999 999999 999999 999999 999999 999999 999999 999999 999999 999999 999999 999999 999999 999999 999999 999999 999999 999999 999999 999999 999999 999999 999999 999999 999999 999999 999999 999999 999999 999999 999999 999999 999999 999999 999999 999999 999999 999999 999999 999999 999999 999999 999999 999999 999999 999999 999999 999999 999999 999999 999999 999999 999999 999999 999999 999999 999999 999999 999999 999999 999999 999999 999999 999999 999999 19193 999999 999999 999999 999999 999999 999999 10959 999999 999999 18286 999999 999999 999999 999999 999999 999999 999999 10289 999999 999999 18522 999999 999999 999999 999999 999999 999999 11174 999999 999999 13677 999999 999999 999999 999999 999999 999999 999999 999999 999999 999999 999999 999999 999999 999999 999999 999999 999999 999999 999999 999999 999999 999999 999999 999999 999999 999999 999999 999999 999999 999999 999999 999999 16388 999999 999999 999999 999999 999999 999999 999999 11664 999999 999999 999999 19017 999999 999999 999999 999999 999999 10679 999999 999999 999999 999999 999999 999999 999999 999999 999999 999999 999999 999999 999999 999999 999999 999999 999999 999999 999999 999999 999999 999999 999999 999999 999999 999999 999999 999999 999999 999999 999999 999999 12577 999999 999999 999999 999999 999999 999999 999999 999999 14235 999999 999999 999999 999999 999999 14489 999999 999999 999999 18478 16544 999999 999999 10164 999999 999999 999999 999999 999999 999999 999999 999999 12983 999999 999999 999999 999999 999999 999999 999999 999999 999999 999999 999999 999999 999999 999999 999999
999999 999999 999999 999999 999999 999999 999999 999999 999999 999999 999999 999999 999999 999999 999999 999999 999999 999999 999999 999999 999999 999999 999999 999999 999999 999999 999999 999999 999999 999999 999999 999999 999999 999999 999999 999999 999999 999999 999999 999999 999999 999999 999999 999999 999999 999999 999999 999999 999999 999999 999999 999999 999999 999999 999999 999999 999999 999999 999999 999999 999999 999999 999999 999999 999999 999999 999999 999999 999999 999999 999999 999999 999999 999999 999999 999999 999999 999999 999999 999999 999999 999999 999999 999999 999999 999999 999999 999999 999999 999999 999999 999999 999999 999999 999999 999999 999999 999999 999999 999999 999999 999999 999999 999999 999999 999999 999999 0 999999 999999 999999 999999 999999 999999 999999 999999 999999 999999 999999 999999 999999 999999 999999 999999 999999 999999 999999 999999 999999 999999 999999 999999 999999 999999 999999 999999 999999 999999 999999 999999 999999 999999 999999 999999 999999 999999 999999 999999 999999 999999 999999 999999 999999 999999 999999 999999 999999 999999 999999 999999 999999 999999 999999 999999 999999 999999 999999 999999 999999 999999 999999 999999 999999 999999 999999 999999 999999 999999 999999 999999 999999 999999 999999 999999 999999 999999 999999 999999 999999 999999 999999 999999 999999 999999 999999 999999 999999 999999 999999 13263 999999 999999 999999 999999 999999 999999 13565 999999 999999 12059 999999 999999 999999 999999 999999 999999 999999 12697 999999 999999 15188 999999 999999 999999 999999 999999 999999 18918 999999 999999 10197 999999 999999 999999 999999 999999 999999 999999 999999 999999 999999 999999 999999 999999 999999 999999 999999 999999 999999 999999 999999 999999 999999 999999 999999 999999 999999 999999 999999 999999 999999 999999 999999 14561 999999 999999 999999 999999 999999 999999 999999 12265 999999 999999 999999 14347 999999 999999 999999 999999 999999 19655 999999 999999 999999 999999 999999 999999 999999 999999 999999 999999 999999 999999 999999 999999 999999 999999 999999 999999 999999 999999 999999 999999 999999 999999 999999 999999 999999 999999 999999 999999 999999 999999 13039 999999 999999 999999 999999 999999 999999 999999 999999 16999 999999 999999 999999 999999 999999 18324 999999 999999 999999 16770 17023 999999 999999 15971 999999 999999 999999 999999 999999 999999 999999 999999 10115 999999 999999 999999 999999 999999 999999 999999 999999 999999 999999 999999 999999 999999 999999 999999
999999 999999 999999 999999 999999 999999 999999 999999 999999 999999 999999 999999 999999 999999 999999 999999 999999 999999 999999 999999 999999 999999 999999 999999 999999 999999 999999 999999 999999 999999 999999 999999 999999 999999 999999 999999 999999 999999 999999 999999 999999 999999 999999 999999 999999 999999 999999 999999 999999 999999 999999 999999 999999 999999 999999 999999 999999 999999 999999 999999 999999 999999 999999 999999 999999 999999 999999 999999 999999 999999 999999 999999 999999 999999 999999 999999 999999 999999 999999 999999 999999 999999 999999 999999 999999 999999 999999 999999 999999 999999 999999 999999 999999 999999 999999 999999 999999 999999 999999 999999 999999 999999 999999 999999 999999 999999 999999 999999 0 999999 999999 999999 999999 999999 999999 999999 999999 999999 999999 999999 999999 999999 999999 999999 999999 999999 999999 999999 999999 999999 999999 999999 999999 999999 999999 999999 999999 999999 999999 999999 999999 999999 999999 999999 999999 999999 999999 999999 999999 999999 999999 999999 999999 999999 999999 999999 999999 999999 999999 999999 999999 999999 999999 999999 999999 999999 999999 999999 999999 999999 999999 999999 999999 999999 999999 999999 999999 999999 999999 999999 999999 999999 999999 999999 999999 999999 999999 999999 999999 999999 999999 999999 999999 999999 999999 999999 999999 999999 999999 17224 999999 999999 999999 999999 999999 999999 15488 999999 999999 17410 999999 999999 999999 999999 999999 999999 999999 15113 999999 999999 17755 999999 999999 999999 999999 999999 999999 17402 999999 999999 13837 999999 999999 999999 999999 999999 999999 999999 999999 999999 999999 999999 999999 999999 999999 999999 999999 999999 999999 999999 999999 999999 999999 999999 999999 999999 999999 999999 999999 999999 999999 999999 999999 18272 999999 999999 999999 999999 999999 999999 999999 19395 999999 999999 999999 11419 999999 999999 999999 999999 999999 19192 999999 999999 999999 999999 999999 999999 999999 999999 999999 999999 999999 999999 999999 999999 999999 999999 999999 999999 999999 999999 999999 999999 999999 999999 999999 999999 999999 999999 999999 999999 999999 999999 17820 999999 999999 999999 999999 999999 999999 999999 999999 19889 999999 999999 999999 999999 999999 16096 999999 999999 999999 10233 17210 999999 999999 16027 999999 999999 999999 999999 999999 999999 999999 999999 17447 999999 999999 999999 999999 999999 999999 999999 999999 999999 999999 999999 999999 999999 999999 999999
999999 999999 999999 999999 999999 999999 999999 999999 999999 999999 999999 999999 999999 999999 999999 999999 999999 999999 999999 999999 999999 999999 999999 999999 999999 999999 999999 999999 999999 999999 999999 999999 999999 999999 999999 999999 999999 999999 999999 999999 999999 999999 999999 999999 999999 999999 999999 999999 999999 999999 999999 999999 999999 999999 999999 999999 999999 999999 999999 999999 999999 999999 999999 999999 999999 999999 999999 999999 999999 999999 999999 999999 999999 999999 999999 999999 999999 999999 999999 999999 999999 999999 999999 999999 999999 999999 999999 999999 999999 999999 999999 999999 999999 999999 999999 999999 999999 999999 999999 999999 999999 999999 999999 999999 999999 999999 999999 999999 999999 0 999999 999999 999999 999999 999999 999999 999999 999999 999999 999999 999999 999999 999999 999999 999999 999999 999999 999999 999999 999999 999999 999999 999999 999999 999999 999999 999999 999999 999999 999999 999999 999999 999999 999999 999999 999999 999999 999999 999999 999999 999999 999999 999999 999999 999999 999999 999999 999999 999999 999999 999999 999999 999999 999999 999999 999999 999999 999999 999999 999999 999999 999999 999999 999999 999999 999999 999999 999999 999999 999999 999999 12836 999999 999999 999999 999999 999999 999999 999999 12905 999999 999999 999999 999999 11437 14483 999999 999999 11196 999999 999999 999999 999999 999999 999999 999999 999999 999999 18487 999999 999999 999999 999999 999999 999999 999999 999999 999999 999999 999999 999999 17606 999999 999999 999999 999999 999999 999999 999999 999999 999999 999999 999999 999999 999999 17750 999999 999999 999999 999999 999999 999999 999999 999999 18558 999999 999999 999999 999999 999999 999999 999999 999999 999999 999999 999999 999999 999999 999999 999999 15605 999999 999999 999999 999999 999999 999999 999999 999999 999999 999999 999999 999999 999999 11602 999999 999999 999999 999999 999999 999999 999999 999999 999999 999999 999999 999999 999999 999999 999999 999999 999999 11886 999999 999999 999999 999999 999999 999999 999999 999999 15899 999999 999999 999999 999999 999999 999999 999999 999999 999999 999999 999999 999999 999999 999999 999999 999999 999999 11576 999999 999999 999999 999999 999999 13407 999999 999999 999999 999999 999999 999999 999999 999999 999999 999999 999999 999999 999999 999999 999999 999999 999999 999999 999999 999999 999999 999999 999999 999999 999999 999999 15204 999999 999999 14551 999999 18257 999999 999999 999999 999999
999999 999999 999999 999999 999999 999999 999999 999999 999999 999999 999999 999999 999999 999999 999999 999999 999999 999999 999999 999999 999999 999999 999999 999999 999999 999999 999999 999999 999999 999999 999999 999999 999999 999999 999999 999999 999999 999999 999999 999999 999999 999999 999999 999999 999999 999999 999999 999999 999999 999999 999999 999999 999999 999999 999999 999999 999999 999999 999999 999999 999999 999999 999999 999999 999999 999999 999999 999999 999999 999999 999999 999999 999999 999999 999999 999999 999999 999999 999999 999999 999999 999999 999999 999999 999999 999999 999999 999999 999999 999999 999999 999999 999999 999999 999999 999999 999999 999999 999999 999999 999999 999999 999999 999999 999999 999999 999999 999999 999999 999999 0 999999 999999 999999 999999 999999 999999 999999 999999 999999 999999 999999 999999 999999 999999 999999 999999 999999 999999 999999 999999 999999 999999 999999 999999 999999 999999 999999 999999 999999 999999 999999 999999 999999 999999 999999 999999 999999 999999 999999 999999 999999 999999 999999 999999 999999 999999 999999 999999 999999 999999 999999 999999 999999 999999 999999 999999 999999 999999 999999 999999 999999 999999 999999 999999 999999 999999 999999 999999 999999 999999 15700 999999 999999 999999 999999 999999 999999 999999 13290 999999 999999 999999 999999 15325 14747 999999 999999 11667 999999 999999 999999 999999 999999 999999 999999 999999 999999 15237 999999 999999 999999 999999 999999 999999 999999 999999 999999 999999 999999 999999 12942 999999 999999 999999 999999 999999 999999 999999 999999 999999 999999 999999 999999 999999 12082 999999 999999 999999 999999 999999 999999 999999 999999 19843 999999 999999 999999 999999 999999 999999 999999 999999 999999 999999 999999 999999 999999 999999 999999 13418 999999 999999 999999 999999 999999 999999 999999 999999 999999 999999 999999 999999 999999 11049 999999 999999 999999 999999 999999 999999 999999 999999 999999 999999 999999 999999 999999 999999 999999 999999 999999 13806 999999 999999 999999 999999 999999 999999 999999 999999 12543 999999 999999 999999 999999 999999 999999 999999 999999 999999 999999 999999 999999 999999 999999 999999 999999 999999 12050 999999 999999 999999 999999 999999 11717 999999 999999 999999 999999 999999 999999 999999 999999 999999 999999 999999 999999 999999 999999 999999 999999 999999 999999 999999 999999 999999 999999 999999 999999 999999 999999 10440 999999 999999 13477 999999 15594 999999 999999 999999 999999
999999 999999 999999 999999 999999 999999 999999 999999 999999 999999 999999 999999 999999 999999 999999 999999 999999 999999 999999 999999 999999 999999 999999 999999 999999 999999 999999 999999 999999 999999 999999 999999 999999 999999 999999 999999 999999 999999 999999 999999 999999 999999 999999 999999 999999 999999 999999 999999 999999 999999 999999 999999 999999 999999 999999 999999 999999 999999 999999 999999 999999 999999 999999 999999 999999 999999 999999 999999 999999 999999 999999 999999 999999 999999 999999 999999 999999 999999 999999 999999 999999 999999 999999 999999 999999 999999 999999 999999 999999 999999 999999 999999 999999 999999 999999 999999 999999 999999 999999 999999 999999 999999 999999 999999 999999 999999 999999 999999 999999 999999 999999 0 999999 999999 999999 999999 999999 999999 999999 999999 999999 999999 999999 999999 999999 999999 999999 999999 999999 999999 999999 999999 999999 999999 999999 999999 999999 999999 999999 999999 999999 999999 999999 999999 999999 999999 999999 999999 999999 999999 999999 999999 999999 999999 999999 999999 999999 999999 999999 999999 999999 999999 999999 999999 999999 999999 999999 999999 999999 999999 999999 999999 999999 999999 999999 999999 999999 999999 999999 999999 999999 14691 999999 999999 999999 999999 999999 999999 999999 10943 999999 999999 999999 999999 13042 10440 999999 999999 12877 999999 999999 999999 999999 999999 999999 999999 999999 999999 16565 999999 999999 999999 999999 999999 999999 999999 999999 999999 999999 999999 999999 17978 999999 999999 999999 999999 999999 999999 999999 999999 999999 999999 999999 999999 999999 18068 999999 999999 999999 999999 999999 999999 999999 999999 10364 999999 999999 999999 999999 999999 999999 999999 999999 999999 999999 999999 999999 999999 999999 999999 18958 999999 999999 999999 999999 999999 999999 999999 999999 999999 999999 999999 999999 999999 16614 999999 999999 999999 999999 999999 999999 999999 999999 999999 999999 999999 999999 999999 999999 999999 999999 999999 18504 999999 999999 999999 999999 999999 999999 999999 999999 17521 999999 999999 999999 999999 999999 999999 999999 999999 999999 999999 999999 999999 999999 999999 999999 999999 999999 14579 999999 999999 999999 999999 999999 11251 999999 999999 999999 999999 999999 999999 999999 999999 999999 999999 999999 999999 999999 999999 999999 999999 999999 999999 999999 999999 999999 999999 999999 999999 999999 999999 15695 999999 999999 11662 999999 17049 999999 999999 999999 999999
999999 999999 999999 999999 999999 999999 999999 999999 999999 999999 999999 999999 999999 999999 999999 999999 999999 999999 999999 999999 999999 999999 999999 999999 999999 999999 999999 999999 999999 999999 999999 999999 999999 999999 999999 999999 999999 999999 999999 999999 999999 999999 999999 999999 999999 999999 999999 999999 999999 999999 999999 999999 999999 999999 999999 999999 999999 999999 999999 999999 999999 999999 999999 999999 999999 999999 999999 999999 999999 999999 999999 999999 999999 999999 999999 999999 999999 999999 999999 999999 999999 999999 999999 999999 999999 999999 999999 999999 999999 999999 999999 999999 999999 999999 999999 999999 999999 999999 999999 999999 999999 999999 999999 999999 999999 999999 999999 999999 999999 999999 999999 999999 0 999999 999999 999999 999999 999999 999999 999999 999999 999999 999999 999999 999999 999999 999999 999999 999999 999999 999999 999999 999999 999999 999999 999999 999999 999999 999999 999999 999999 999999 999999 999999 999999 999999 999999 999999 999999 999999 999999 999999 999999 999999 999999 999999 999999 999999 999999 999999 999999 999999 999999 999999 999999 999999 999999 999999 999999 999999 999999 999999 999999 999999 999999 999999 999999 999999 999999 999999 999999 10877 999999 999999 999999 999999 999999 999999 999999 18280 999999 999999 999999 999999 17973 14788 999999 999999 10958 999999 999999 999999 999999 999999 999999 999999 999999 999999 19307 999999 999999 999999 999999 999999 999999 999999 999999 999999 999999 999999 999999 11689 999999 999999 999999 999999 999999 999999 999999 999999 999999 999999 999999 999999 999999 19903 999999 999999 999999 999999 999999 999999 999999 999999 19461 999999 999999 999999 999999 999999 999999 999999 999999 999999 999999 999999 999999 999999 999999 999999 14125 999999 999999 999999 999999 999999 999999 999999 999999 999999 999999 999999 999999 999999 16664 999999 999999 999999 999999 999999 999999 999999 999999 999999 999999 999999 999999 999999 999999 999999 999999 999999 12393 999999 999999 999999 999999 999999 999999 999999 999999 19727 999999 999999 999999 999999 999999 999999 999999 999999 999999 999999 999999 999999 999999 999999 999999 999999 999999 19020 999999 999999 999999 999999 999999 12709 999999 999999 999999 999999 999999 999999 999999 999999 999999 999999 999999 999999 999999 999999 999999 999999 999999 999999 999999 999999 999999 999999 999999 999999 999999 999999 17388 999999 999999 15286 999999 12266 999999 999999 999999 999999
999999 999999 999999 999999 999999 999999 999999 999999 999999 999999 999999 999999 999999 999999 999999 999999 999999 999999 999999 999999 999999 999999 999999 999999 999999 999999 999999 999999 999999 999999 999999 999999 999999 999999 999999 999999 999999 999999 999999 999999 999999 999999 999999 999999 999999 999999 999999 999999 999999 999999 999999 999999 999999 999999 999999 999999 999999 999999 999999 999999 999999 999999 999999 999999 999999 999999 999999 999999 999999 999999 999999 999999 999999 999999 999999 999999 999999 999999 999999 999999 999999 999999 999999 999999 999999 999999 999999 999999 999999 999999 999999 999999 999999 999999 999999 999999 999999 999999 999999 999999 999999 999999 999999 999999 999999 999999 999999 999999 999999 999999 999999 999999 999999 0 999999 999999 999999 999999 999999 999999 999999 999999 999999 999999 999999 999999 999999 999999 999999 999999 999999 999999 999999 999999 999999 999999 999999 999999 999999 999999 999999 999999 999999 999999 999999 999999 999999 999999 999999 999999 999999 999999 999999 999999 999999 999999 999999 999999 999999 999999 999999 999999 999999 999999 999999 999999 999999 999999 999999 999999 999999 999999 999999 999999 999999 999999 999999 999999 999999 999999 999999 12618 999999 999999 999999 999999 999999 999999 999999 10186 999999 999999 999999 999999 11700 18297 999999 999999 13529 999999 999999 999999 999999 999999 999999 999999 999999 999999 16424 999999 999999 999999 999999 999999 999999 999999 999999 999999 999999 999999 999999 15405 999999 999999 999999 999999 999999 999999 999999 999999 999999 999999 999999 999999 999999 13999 999999 999999 999999 999999 999999 999999 999999 999999 13451 999999 999999 999999 999999 999999 999999 999999 999999 999999 999999 999999 999999 999999 999999 999999 16059 999999 999999 999999 999999 999999 999999 999999 999999 999999 999999 999999 999999 999999 12379 999999 999999 999999 999999 999999 999999 999999 999999 999999 999999 999999 999999 999999 999999 999999 999999 999999 19105 999999 999999 999999 999999 999999 999999 999999 999999 10510 999999 999999 999999 999999 999999 999999 999999 999999 999999 999999 999999 999999 999999 999999 999999 999999 999999 11964 999999 999999 999999 999999 999999 13676 999999 999999 999999 999999 999999 999999 999999 999999 999999 999999 999999 999999 999999 999999 999999 999999 999999 999999 999999 999999 999999 999999 999999 999999 999999 999999 16335 999999 999999 16270 999999 16094 999999 999999 999999 999999
999999 999999 999999 999999 999999 999999 999999 999999 999999 999999 999999 999999 999999 999999 999999 999999 999999 999999 999999 999999 999999 999999 999999 999999 999999 999999 999999 999999 999999 999999 999999 999999 999999 999999 999999 999999 999999 999999 999999 999999 999999 999999 999999 999999 999999 999999 999999 999999 999999 999999 999999 999999 999999 999999 999999 999999 999999 999999 999999 999999 999999 999999 999999 999999 999999 999999 999999 999999 999999 999999 999999 999999 999999 999999 999999 999999 999999 999999 999999 999999 999999 999999 999999 999999 999999 999999 999999 999999 999999 999999 999999 999999 999999 999999 999999 999999 999999 999999 999999 999999 999999 999999 999999 999999 999999 999999 999999 999999 999999 999999 999999 999999 999999 999999 0 999999 999999 999999 999999 999999 999999 999999 999999 999999 999999 999999 999999 999999 999999 999999 999999 999999 999999 999999 999999 999999 999999 999999 999999 999999 999999 999999 999999 999999 999999 999999 999999 999999 999999 999999 999999 999999 999999 999999 999999 999999 999999 999999 999999 999999 999999 999999 999999 999999 999999 999999 999999 999999 999999 999999 999999 999999 999999 999999 999999 999999 999999 999999 999999 999999 999999 11389 999999 999999 999999 999999 999999 999999 999999 19877 999999 999999 999999 999999 13680 10983 999999 999999 11655 999999 999999 999999 999999 999999 999999 999999 999999 999999 15357 999999 999999 999999 999999 999999 999999 999999 999999 999999 999999 999999 999999 15688 999999 999999 999999 999999 999999 999999 999999 999999 999999 999999 999999 999999 999999 12068 999999 999999 999999 999999 999999 999999 999999 999999 11005 999999 999999 999999 999999 999999 999999 999999 999999 999999 999999 999999 999999 999999 999999 999999 19461 999999 999999 999999 999999 999999 999999 999999 999999 999999 999999 999999 999999 999999 18072 999999 999999 999999 999999 999999 999999 999999 999999 999999 999999 999999 999999 999999 999999 999999 999999 999999 12600 999999 999999 999999 999999 999999 999999 999999 999999 10721 999999 999999 999999 999999 999999 999999 999999 999999 999999 999999 999999 999999 999999 999999 999999 999999 999999 16843 999999 999999 999999 999999 999999 14756 999999 999999 999999 999999 999999 999999 999999 999999 999999 999999 999999 999999 999999 999999 999999 999999 999999 999999 999999 999999 999999 999999 999999 999999 999999 999999 11499 999999 999999 12224 999999 13719 999999 999999 999999 999999
999999 999999 999999 999999 999999 999999 999999 999999 999999 999999 999999 999999 999999 999999 999999 999999 999999 999999 999999 999999 999999 999999 999999 999999 999999 999999 999999 999999 999999 999999 999999 999999 999999 999999 999999 999999 999999 999999 999999 999999 999999 999999 999999 999999 999999 999999 999999 999999 999999 999999 999999 999999 999999 999999 999999 999999 999999 999999 999999 999999 999999 999999 999999 999999 999999 999999 999999 999999 999999 999999 999999 999999 999999 999999 999999 999999 999999 999999 999999 999999 999999 999999 999999 999999 999999 999999 999999 999999 999999 999999 999999 999999 999999 999999 999999 999999 999999 999999 999999 999999 999999 999999 999999 999999 999999 999999 999999 999999 999999 999999 999999 999999 999999 999999 999999 0 999999 999999 999999 999999 999999 999999 999999 999999 999999 999999 999999 999999 999999 999999 999999 999999 999999 999999 999999 999999 999999 999999 999999 999999 999999 999999 999999 999999 999999 999999 999999 999999 999999 999999 999999 999999 999999 999999 999999 999999 999999 999999 999999 999999 999999 999999 999999 999999 999999 999999 999999 999999 999999 999999 999999 999999 999999 999999 999999 999999 999999 999999 999999 999999 999999 12057 999999 999999 999999 999999 999999 999999 999999 19183 999999 999999 999999 999999 16901 12883 999999 999999 15982 999999 999999 999999 999999 999999 999999 999999 999999 999999 14963 999999 999999 999999 999999 999999 999999 999999 999999 999999 999999 999999 999999 11507 999999 999999 999999 999999 999999 999999 999999 999999 999999 999999 999999 999999 999999 10017 999999 999999 999999 999999 999999 999999 999999 999999 19594 999999 999999 999999 999999 999999 999999 999999 999999 999999 999999 999999 999999 999999 999999 999999 14202 999999 999999 999999 999999 999999 999999 999999 999999 999999 999999 999999 999999 999999 17358 999999 999999 999999 999999 999999 999999 999999 999999 999999 999999 999999 999999 999999 999999 999999 999999 999999 14129 999999 999999 999999 999999 999999 999999 999999 999999 12925 999999 999999 999999 999999 999999 999999 999999 999999 999999 999999 999999 999999 999999 999999 999999 999999 999999 13682 999999 999999 999999 999999 999999 19234 999999 999999 999999 999999 999999 999999 999999 999999 999999 999999 999999 999999 999999 999999 999999 999999 999999 999999 999999 999999 999999 999999 999999 999999 999999 999999 18191 999999 999999 12209 999999 15674 999999 999999 999999 999999
999999 999999 999999 999999 999999 999999 999999 999999 999999 999999 999999 999999 999999 999999 999999 999999 999999 999999 999999 999999 999999 999999 999999 999999 999999 999999 999999 999999 999999 999999 999999 999999 999999 999999 999999 999999 999999 999999 999999 999999 999999 999999 999999 999999 999999 999999 999999 999999 999999 999999 999999 999999 999999 999999 999999 999999 999999 999999 999999 999999 999999 999999 999999 999999 999999 999999 999999 999999 999999 999999 999999 999999 999999 999999 999999 999999 999999 999999 999999 999999 999999 999999 999999 999999 999999 999999 999999 999999 999999 999999 999999 999999 999999 999999 999999 999999 999999 999999 999999 999999 999999 999999 999999 999999 999999 999999 999999 999999 999999 999999 999999 999999 999999 999999 999999 999999 0 999999 999999 999999 999999 999999 999999 999999 999999 999999 999999 999999 999999 999999 999999 999999 999999 999999 999999 999999 999999 999999 999999 999999 999999 999999 999999 999999 999999 999999 999999 999999 999999 999999 999999 999999 999999 999999 999999 999999 999999 999999 999999 999999 999999 999999 999999 999999 999999 999999 999999 999999 999999 999999 999999 999999 999999 999999 999999 999999 999999 999999 999999 999999 999999 18925 999999 999999 999999 999999 999999 999999 999999 19268 999999 999999 999999 999999 11608 19216 999999 999999 17414 999999 999999 999999 999999 999999 999999 999999 999999 999999 13427 999999 999999 999999 999999 999999 999999 999999 999999 999999 999999 999999 999999 16433 999999 999999 999999 999999 999999 999999 999999 999999 999999 999999 999999 999999 999999 11329 999999 999999 999999 999999 999999 999999 999999 999999 11694 999999 999999 999999 999999 999999 999999 999999 999999 999999 999999 999999 999999 999999 999999 999999 15688 999999 999999 999999 999999 999999 999999 999999 999999 999999 999999 999999 999999 999999 16410 999999 999999 999999 999999 999999 999999 999999 999999 999999 999999 999999 999999 999999 999999 999999 999999 999999 19224 999999 999999 999999 999999 999999 999999 999999 999999 13706 999999 999999 999999 999999 999999 999999 999999 999999 999999 999999 999999 999999 999999 999999 999999 999999 999999 11384 999999 999999 999999 999999 999999 15251 999999 999999 999999 999999 999999 999999 999999 999999 999999 999999 999999 999999 999999 999999 999999 999999 999999 999999 999999 999999 999999 999999 999999 999999 999999 999999 15044 999999 999999 17327 999999 11674 999999 999999 999999 999999
999999 999999 999999 999999 999999 999999 999999 999999 999999 999999 999999 999999 999999 999999 999999 999999 999999 999999 999999 999999 999999 999999 999999 999999 999999 999999 999999 999999 999999 999999 999999 999999 999999 999999 999999 999999 999999 999999 999999 999999 999999 999999 999999 999999 999999 999999 999999 999999 999999 999999 999999 999999 999999 999999 999999 999999 999999 999999 999999 999999 999999 999999 999999 999999 999999 999999 999999 999999 999999 999999 999999 999999 999999 999999 999999 999999 999999 999999 999999 999999 999999 999999 999999 999999 999999 999999 999999 999999 999999 999999 999999 999999 999999 999999 999999 999999 999999 999999 999999 999999 999999 999999 999999 999999 999999 999999 999999 999999 999999 999999 999999 999999 999999 999999 999999 999999 999999 0 999999 999999 999999 999999 999999 999999 999999 999999 999999 999999 999999 999999 999999 999999 999999 999999 999999 999999 999999 999999 999999 999999 999999 999999 999999 999999 999999 999999 999999 999999 999999 999999 999999 999999 999999 999999 999999 999999 999999 999999 999999 999999 999999 999999 999999 999999 999999 999999 999999 999999 999999 999999 999999 999999 999999 999999 999999 999999 999999 999999 999999 999999 999999 12191 999999 999999 999999 999999 999999 999999 999999 18514 999999 999999 999999 999999 18935 15405 999999 999999 11098 999999 999999 999999 999999 999999 999999 999999 999999 999999 15297 999999 999999 999999 999999 999999 999999 999999 999999 999999 999999 999999 999999 14059 999999 999999 999999 999999 999999 999999 999999 999999 999999 999999 999999 999999 999999 16070 999999 999999 999999 999999 999999 999999 999999 999999 19151 999999 999999 999999 999999 999999 999999 999999 999999 999999 999999 999999 999999 999999 999999 999999 10859 999999 999999 999999 999999 999999 999999 999999 999999 999999 999999 999999 999999 999999 16150 999999 999999 999999 999999 999999 999999 999999 999999 999999 999999 999999 999999 999999 999999 999999 999999 999999 11714 999999 999999 999999 999999 999999 999999 999999 999999 17822 999999 999999 999999 999999 999999 999999 999999 999999 999999 999999 999999 999999 999999 999999 999999 999999 999999 19238 999999 999999 999999 999999 999999 16469 999999 999999 999999 999999 999999 999999 999999 999999 999999 999999 999999 999999 999999 999999 999999 999999 999999 999999 999999 999999 999999 999999 999999 999999 999999 999999 18369 999999 999999 12122 999999 16522 999999 999999 999999 999999
999999 999999 999999 999999 999999 999999 999999 999999 999999 999999 999999 999999 999999 999999 999999 999999 999999 999999 999999 999999 999999 999999 999999 999999 999999 999999 999999 999999 999999 999999 999999 999999 999999 999999 999999 999999 999999 999999 999999 999999 999999 999999 999999 999999 999999 999999 999999 999999 999999 999999 999999 999999 999999 999999 999999 999999 999999 999999 999999 999999 999999 999999 999999 999999 999999 999999 999999 999999 999999 999999 999999 999999 999999 999999 999999 999999 999999 999999 999999 999999 999999 999999 999999 999999 999999 999999 999999 999999 999999 999999 999999 999999 999999 999999 999999 999999 999999 999999 999999 999999 999999 999999 999999 999999 999999 999999 999999 999999 999999 999999 999999 999999 999999 999999 999999 999999 999999 999999 0 999999 999999 999999 999999 999999 999999 999999 999999 999999 999999 999999 999999 999999 999999 999999 999999 999999 999999 999999 999999 999999 999999 999999 999999 999999 999999 999999 999999 999999 999999 999999 999999 999999 999999 999999 999999 999999 999999 999999 999999 999999 999999 999999 999999 999999 999999 999999 999999 999999 999999 999999 999999 999999 999999 999999 999999 999999 999999 999999 999999 999999 999999 11848 999999 999999 999999 999999 999999 999999 999999 11778 999999 999999 999999 999999 12972 10693 999999 999999 14964 999999 999999 999999 999999 999999 999999 999999 999999 999999 10414 999999 999999 999999 999999 999999 999999 999999 999999 999999 999999 999999 999999 17279 999999 999999 999999 999999 999999 999999 999999 999999 999999 999999 999999 999999 999999 18921 999999 999999 999999 999999 999999 999999 999999 999999 14894 999999 999999 999999 999999 999999 999999 999999 999999 999999 999999 999999 999999 999999 999999 999999 19657 999999 999999 999999 999999 999999 999999 999999 999999 999999 999999 999999 999999 999999 14903 999999 999999 999999 999999 999999 999999 999999 999999 999999 999999 999999 999999 999999 999999 999999 999999 999999 16748 999999 999999 999999 999999 999999 999999 999999 999999 19735 999999 999999 999999 999999 999999 999999 999999 999999 999999 999999 999999 999999 999999 999999 999999 999999 999999 18076 999999 999999 999999 999999 999999 17078 999999 999999 999999 999999 999999 999999 999999 999999 999999 999999 999999 999999 999999 999999 999999 999999 999999 999999 999999 999999 999999 999999 999999 999999 999999 999999 14294 999999 999999 19591 999999 18045 999999 999999 999999 999999
999999 999999 999999 999999 999999 999999 999999 999999 999999 999999 999999 999999 999999 999999 999999 999999 999999 999999 999999 999999 999999 999999 999999 999999 999999 999999 999999 999999 999999 999999 999999 999999 999999 999999 999999 999999 999999 999999 999999 999999 999999 999999 999999 999999 999999 999999 999999 999999 999999 999999 999999 999999 999999 999999 999999 999999 999999 999999 999999 999999 999999 999999 999999 999999 999999 999999 999999 999999 999999 999999 999999 999999 999999 999999 999999 999999 999999 999999 999999 999999 999999 999999 999999 999999 999999 999999 999999 999999 999999 999999 999999 999999 999999 999999 999999 999999 999999 999999 999999 999999 999999 999999 999999 999999 999999 999999 999999 999999 999999 999999 999999 999999 999999 999999 999999 999999 999999 999999 999999 0 999999 999999 999999 999999 999999 999999 999999 999999 999999 999999 999999 999999 999999 999999 999999 999999 999999 999999 999999 999999 999999 999999 999999 999999 999999 999999 999999 999999 999999 999999 999999 999999 999999 999999 999999 999999 999999 999999 999999 999999 999999 999999 999999 999999 999999 999999 999999 999999 999999 999999 999999 999999 999999 999999 999999 999999 999999 999999 999999 999999 999999 16415 999999 999999 999999 999999 999999 999999 999999 15228 999999 999999 999999 999999 14921 17038 999999 999999 19738 999999 999999 999999 999999 999999 999999 999999 999999 999999 18459 999999 999999 999999 999999 999999 999999 999999 999999 999999 999999 999999 999999 18485 999999 999999 999999 999999 999999 999999 999999 999999 999999 999999 999999 999999 999999 18440 999999 999999 999999 999999 999999 999999 999999 999999 10421 999999 999999 999999 999999 999999 999999 999999 999999 999999 999999 999999 999999 999999 999999 999999 10307 999999 999999 999999 999999 999999 999999 999999 999999 999999 999999 999999 999999 999999 17150 999999 999999 999999 999999 999999 999999 999999 999999 999999 999999 999999 999999 999999 999999 999999 999999 999999 12455 999999 999999 999999 999999 999999 999999 999999 999999 17356 999999 999999 999999 999999 999999 999999 999999 999999 999999 999999 999999 999999 999999 999999 999999 999999 999999 12454 999999 999999 999999 999999 999999 13209 999999 999999 999999 999999 999999 999999 999999 999999 999999 999999 999999 999999 999999 999999 999999 999999 999999 999999 999999 999999 999999 999999 999999 999999 999999 999999 11163 999999 999999 12608 999999 17918 999999 999999 999999 999999
999999 999999 999999 999999 999999 999999 999999 999999 999999 999999 999999 999999 999999 999999 999999 999999 999999 999999 999999 999999 999999 999999 999999 999999 999999 999999 999999 999999 999999 999999 999999 999999 999999 999999 999999 999999 999999 999999 999999 999999 999999 999999 999999 999999 999999 999999 999999 999999 999999 999999 999999 999999 999999 999999 999999 999999 999999 999999 999999 999999 999999 999999 999999 999999 999999 999999 999999 999999 999999 999999 999999 999999 999999 999999 999999 999999 999999 999999 999999 999999 999999 999999 999999 999999 999999 999999 999999 999999 999999 999999 999999 999999 999999 999999 999999 999999 999999 999999 999999 999999 999999 999999 999999 999999 999999 999999 999999 999999 999999 999999 999999 999999 999999 999999 999999 999999 999999 999999 999999 999999 0 999999 999999 999999 999999 999999 999999 999999 999999 999999 999999 999999 999999 999999 999999 999999 999999 999999 999999 999999 999999 999999 999999 999999 999999 999999 999999 999999 999999 999999 999999 999999 999999 999999 999999 999999 999999 999999 999999 999999 999999 999999 999999 999999 999999 999999 999999 999999 999999 999999 999999 999999 999999 999999 999999 999999 999999 999999 999999 999999 999999 19251 999999 999999 999999 999999 999999 999999 999999 16564 999999 999999 999999 999999 19302 12229 999999 999999 10306 999999 999999 999999 999999 999999 999999 999999 999999 999999 12897 999999 999999 999999 999999 999999 999999 999999 999999 999999 999999 999999 999999 19502 999999 999999 999999 999999 999999 999999 999999 999999 999999 999999 999999 999999 999999 15092 999999 999999 999999 999999 999999 999999 999999 999999 11841 999999 999999 999999 999999 999999 999999 999999 999999 999999 999999 999999 999999 999999 999999 999999 10227 999999 999999 999999 999999 999999 999999 999999 999999 999999 999999 999999 999999 999999 11268 999999 999999 999999 999999 999999 999999 999999 999999 999999 999999 999999 999999 999999 999999 999999 999999 999999 13806 999999 999999 999999 999999 999999 999999 999999 999999 16744 999999 999999 999999 999999 999999 999999 999999 999999 999999 999999 999999 999999 999999 999999 999999 999999 999999 14213 999999 999999 999999 999999 999999 11170 999999 999999 999999 999999 999999 999999 999999 999999 999999 999999 999999 999999 999999 999999 999999 999999 999999 999999 999999 999999 999999 999999 999999 999999 999999 999999 14387 999999 999999 18797 999999 18872 999999 999999 999999 999999
999999 999999 999999 999999 999999 999999 999999 999999 999999 999999 999999 999999 999999 999999 999999 999999 999999 999999 999999 999999 999999 999999 999999 999999 999999 999999 999999 999999 999999 999999 999999 999999 999999 999999 999999 999999 999999 999999 999999 999999 999999 999999 999999 999999 999999 999999 999999 999999 999999 999999 999999 999999 999999 999999 999999 999999 999999 999999 999999 999999 999999 999999 999999 999999 999999 999999 999999 999999 999999 999999 999999 999999 999999 999999 999999 999999 999999 999999 999999 999999 999999 999999 999999 999999 999999 999999 999999 999999 999999 999999 999999 999999 999999 999999 999999 999999 999999 999999 999999 999999 999999 999999 999999 999999 999999 999999 999999 999999 999999 999999 999999 999999 999999 999999 999999 999999 999999 999999 999999 999999 999999 0 999999 999999 999999 999999 999999 999999 999999 999999 999999 999999 999999 999999 999999 999999 999999 999999 999999 999999 999999 999999 999999 999999 999999 999999 999999 999999 999999 999999 999999 999999 999999 999999 999999 999999 999999 999999 999999 999999 999999 999999 999999 999999 999999 999999 999999 999999 999999 999999 999999 999999 999999 999999 999999 999999 999999 999999 999999 999999 999999 15613 999999 999999 999999 999999 999999 999999 999999 12417 999999 999999 999999 999999 11215 19270 999999 999999 12623 999999 999999 999999 999999 999999 999999 999999 999999 999999 16187 999999 999999 999999 999999 999999 999999 999999 999999 999999 999999 999999 999999 17239 999999 999999 999999 999999 999999 999999 999999 999999 999999 999999 999999 999999 999999 13619 999999 999999 999999 999999 999999 999999 999999 999999 12877 999999 999999 999999 999999 999999 999999 999999 999999 999999 999999 999999 999999 999999 999999 999999 19997 999999 999999 999999 999999 999999 999999 999999 999999 999999 999999 999999 999999 999999 11466 999999 999999 999999 999999 999999 999999 999999 999999 999999 999999 999999 999999 999999 999999 999999 999999 999999 12465 999999 999999 999999 999999 999999 999999 999999 999999 17040 999999 999999 999999 999999 999999 999999 999999 999999 999999 999999 999999 999999 999999 999999 999999 999999 999999 10359 999999 999999 999999 999999 999999 18608 999999 999999 999999 999999 999999 999999 999999 999999 999999 999999 999999 999999 999999 999999 999999 999999 999999 999999 999999 999999 999999 999999 999999 999999 999999 999999 15885 999999 999999 12206 999999 10273 999999 999999 999999 999999
999999 999999 999999 999999 999999 999999 999999 999999 999999 999999 999999 999999 999999 999999 999999 999999 999999 999999 999999 999999 999999 999999 999999 999999 999999 999999 999999 999999 999999 999999 999999 999999 999999 999999 999999 999999 999999 999999 999999 999999 999999 999999 999999 999999 999999 999999 999999 999999 999999 999999 999999 999999 999999 999999 999999 999999 999999 999999 999999 999999 999999 999999 999999 999999 999999 999999 999999 999999 999999 999999 999999 999999 999999 999999 999999 999999 999999 999999 999999 999999 999999 999999 999999 999999 999999 999999 999999 999999 999999 999999 999999 999999 999999 999999 999999 999999 999999 999999 999999 999999 999999 999999 999999 999999 999999 999999 999999 999999 999999 999999 999999 999999 999999 999999 999999 999999 999999 999999 999999 999999 999999 999999 0 999999 999999 999999 999999 999999 999999 999999 999999 999999 999999 999999 999999 999999 999999 999999 999999 999999 999999 999999 999999 999999 999999 999999 999999 999999 999999 999999 999999 999999 999999 999999 999999 999999 999999 999999 999999 999999 999999 999999 999999 999999 999999 999999 999999 999999 999999 999999 999999 999999 999999 999999 999999 999999 999999 999999 999999 999999 999999 12410 999999 999999 999999 999999 999999 999999 999999 10568 999999 999999 999999 999999 19313 15024 999999 999999 17961 999999 999999 999999 999999 999999 999999 999999 999999 999999 10813 999999 999999 999999 999999 999999 999999 999999 999999 999999 999999 999999 999999 10004 999999 999999 999999 999999 999999 999999 999999 999999 999999 999999 999999 999999 999999 10071 999999 999999 999999 999999 999999 999999 999999 999999 19129 999999 999999 999999 999999 999999 999999 999999 999999 999999 999999 999999 999999 999999 999999 999999 18887 999999 999999 999999 999999 999999 999999 999999 999999 999999 999999 999999 999999 999999 12186 999999 999999 999999 999999 999999 999999 999999 999999 999999 999999 999999 999999 999999 999999 999999 999999 999999 15836 999999 999999 999999 999999 999999 999999 999999 999999 19488 999999 999999 999999 999999 999999 999999 999999 999999 999999 999999 999999 999999 999999 999999 999999 999999 999999 17011 999999 999999 999999 999999 999999 14200 999999 999999 999999 999999 999999 999999 999999 999999 999999 999999 999999 999999 999999 999999 999999 999999 999999 999999 999999 999999 999999 999999 999999 999999 999999 999999 11039 999999 999999 12926 999999 15242 999999 999999 999999 999999
999999 999999 999999 999999 999999 999999 999999 999999 999999 999999 999999 999999 999999 999999 999999 999999 999999 999999 999999 999999 999999 999999 999999 999999 999999 999999 999999 999999 999999 999999 999999 999999 999999 999999 999999 999999 999999 999999 999999 999999 999999 999999 999999 999999 999999 999999 999999 999999 999999 999999 999999 999999 999999 999999 999999 999999 999999 999999 999999 999999 999999 999999 999999 999999 999999 999999 999999 999999 999999 999999 999999 999999 999999 999999 999999 999999 999999 999999 999999 999999 999999 999999 999999 999999 999999 999999 999999 999999 999999 999999 999999 999999 999999 999999 999999 999999 999999 999999 999999 999999 999999 999999 999999 999999 999999 999999 999999 999999 999999 999999 999999 999999 999999 999999 999999 999999 999999 999999 999999 999999 999999 999999 999999 0 999999 999999 999999 999999 999999 999999 999999 999999 999999 999999 999999 999999 999999 999999 999999 999999 999999 999999 999999 999999 999999 999999 999999 999999 999999 999999 999999 999999 999999 999999 999999 999999 999999 999999 999999 999999 999999 999999 999999 999999 999999 999999 999999 999999 999999 999999 999999 999999 999999 999999 999999 999999 999999 999999 999999 999999 999999 14624 999999 999999 999999 999999 999999 999999 999999 11482 999999 999999 999999 999999 10048 19257 999999 999999 18915 999999 999999 999999 999999 999999 999999 999999 999999 999999 10749 999999 999999 999999 999999 999999 999999 999999 999999 999999 999999 999999 999999 12894 999999 999999 999999 999999 999999 999999 999999 999999 999999 999999 999999 999999 999999 10437 999999 999999 999999 999999 999999 999999 999999 999999 18285 999999 999999 999999 999999 999999 999999 999999 999999 999999 999999 999999 999999 999999 999999 999999 13188 999999 999999 999999 999999 999999 999999 999999 999999 999999 999999 999999 999999 999999 16925 999999 999999 999999 999999 999999 999999 999999 999999 999999 999999 999999 999999 999999 999999 999999 999999 999999 12047 999999 999999 999999 999999 999999 999999 999999 999999 19689 999999 999999 999999 999999 999999 999999 999999 999999 999999 999999 999999 999999 999999 999999 999999 999999 999999 16139 999999 999999 999999 999999 999999 13944 999999 999999 999999 999999 999999 999999 999999 999999 999999 999999 999999 999999 999999 999999 999999 999999 999999 999999 999999 999999 999999 999999 999999 999999 999999 999999 15941 999999 999999 17812 999999 11764 999999 999999 999999 999999
999999 999999 999999 999999 999999 999999 999999 999999 999999 999999 999999 999999 999999 999999 999999 999999 999999 999999 999999 999999 999999 999999 999999 999999 999999 999999 999999 999999 999999 999999 999999 999999 999999 999999 999999 999999 999999 999999 999999 999999 999999 999999 999999 999999 999999 999999 999999 999999 999999 999999 999999 999999 999999 999999 999999 999999 999999 999999 999999 999999 999999 999999 999999 999999 999999 999999 999999 999999 999999 999999 999999 999999 999999 999999 999999 999999 999999 999999 999999 999999 999999 999999 999999 999999 999999 999999 999999 999999 999999 999999 999999 999999 999999 999999 999999 999999 999999 999999 999999 999999 999999 999999 999999 999999 999999 999999 999999 999999 999999 999999 999999 999999 999999 999999 999999 999999 999999 999999 999999 999999 999999 999999 999999 999999 0 999999 999999 999999 999999 999999 999999 999999 999999 999999 999999 999999 999999 999999 999999 999999 999999 999999 999999 999999 999999 999999 999999 999999 999999 999999 999999 999999 999999 999999 999999 999999 999999 999999 999999 999999 999999 999999 999999 999999 999999 999999 999999 999999 999999 999999 999999 999999 999999 999999 999999 999999 999999 999999 999999 999999 999999 13033 999999 999999 999999 999999 999999 999999 999999 17131 999999 999999 999999 999999 19191 14062 999999 999999 17875 999999 999999 999999 999999 999999 999999 999999 999999 999999 13910 999999 999999 999999 999999 999999 999999 999999 999999 999999 999999 999999 999999 10100 999999 999999 999999 999999 999999 999999 999999 999999 999999 999999 999999 999999 999999 15113 999999 999999 999999 999999 999999 999999 999999 999999 13740 999999 999999 999999 999999 999999 999999 999999 999999 999999 999999 999999 999999 999999 999999 999999 18985 999999 999999 999999 999999 999999 999999 999999 999999 999999 999999 999999 999999 999999 10989 999999 999999 999999 999999 999999 999999 999999 999999 999999 999999 999999 999999 999999 999999 999999 999999 999999 13108 999999 999999 999999 999999 999999 999999 999999 999999 12440 999999 999999 999999 999999 999999 999999 999999 999999 999999 999999 999999 999999 999999 999999 999999 999999 999999 17227 999999 999999 999999 999999 999999 17503 999999 999999 999999 999999 999999 999999 999999 999999 999999 999999 999999 999999 999999 999999 999999 999999 999999 999999 999999 999999 999999 999999 999999 999999 999999 999999 18826 999999 999999 10018 999999 18803 999999 999999 999999 999999
999999 999999 999999 999999 999999 999999 999999 999999 999999 999999 999999 999999 999999 999999 999999 999999 999999 999999 999999 999999 999999 999999 999999 999999 999999 999999 999999 999999 999999 999999 999999 999999 999999 999999 999999 999999 999999 999999 999999 999999 999999 999999 999999 999999 999999 999999 999999 999999 999999 999999 999999 999999 999999 999999 999999 999999 999999 999999 999999 999999 999999 999999 999999 999999 999999 999999 999999 999999 999999 999999 999999 999999 999999 999999 999999 999999 999999 999999 999999 999999 999999 999999 999999 999999 999999 999999 999999 999999 999999 999999 999999 999999 999999 999999 999999 999999 999999 999999 999999 999999 999999 999999 999999 999999 999999 999999 999999 999999 999999 999999 999999 999999 999999 999999 999999 999999 999999 999999 999999 999999 999999 999999 999999 999999 999999 0 999999 999999 999999 999999 999999 999999 999999 999999 999999 999999 999999 999999 999999 999999 999999 999999 999999 999999 999999 999999 999999 999999 999999 999999 999999 999999 999999 999999 999999 999999 999999 999999 999999 999999 999999 999999 999999 999999 999999 999999 999999 999999 999999 999999 999999 999999 999999 999999 999999 999999 999999 999999 999999 999999 999999 12857 999999 999999 999999 999999 999999 999999 999999 16184 999999 999999 999999 999999 12832 17829 999999 999999 12707 999999 999999 999999 999999 999999 999999 999999 999999 999999 19513 999999 999999 999999 999999 999999 999999 999999 999999 999999 999999 999999 999999 16329 999999 999999 999999 999999 999999 999999 999999 999999 999999 999999 999999 999999 999999 14736 999999 999999 999999 999999 999999 999999 999999 999999 15245 999999 999999 999999 999999 999999 999999 999999 999999 999999 999999 999999 999999 999999 999999 999999 18462 999999 999999 999999 999999 999999 999999 999999 999999 999999 999999 999999 999999 999999 12276 999999 999999 999999 999999 999999 999999 999999 999999 999999 999999 999999 999999 999999 999999 999999 999999 999999 14012 999999 999999 999999 999999 999999 999999 999999 999999 17013 999999 999999 999999 999999 999999 999999 999999 999999 999999 999999 999999 999999 999999 999999 999999 999999 999999 11917 999999 999999 999999 999999 999999 18178 999999 999999 999999 999999 999999 999999 999999 999999 999999 999999 999999 999999 999999 999999 999999 999999 999999 999999 999999 999999 999999 999999 999999 999999 999999 999999 10405 999999 999999 15598 999999 12154 999999 999999 999999 999999
999999 999999 999999 999999 999999 999999 999999 999999 999999 999999 999999 999999 999999 999999 999999 999999 999999 999999 999999 999999 999999 999999 999999 999999 999999 999999 999999 999999 999999 999999 999999 999999 999999 999999 999999 999999 999999 999999 999999 999999 999999 999999 999999 999999 999999 999999 999999 999999 999999 999999 999999 999999 999999 999999 999999 999999 999999 999999 999999 999999 999999 999999 999999 999999 999999 999999 999999 999999 999999 999999 999999 999999 999999 999999 999999 999999 999999 999999 999999 999999 999999 999999 999999 999999 999999 999999 999999 999999 999999 999999 999999 999999 999999 999999 999999 999999 999999 999999 999999 999999 999999 999999 999999 999999 999999 999999 999999 999999 999999 999999 999999 999999 999999 999999 999999 999999 999999 999999 999999 999999 999999 999999 999999 999999 999999 999999 0 999999 999999 999999 999999 999999 999999 999999 999999 999999 999999 999999 999999 999999 999999 999999 999999 999999 999999 999999 999999 999999 999999 999999 999999 999999 999999 999999 999999 999999 999999 999999 999999 999999 999999 999999 999999 999999 999999 999999 999999 999999 999999 999999 999999 999999 999999 999999 999999 999999 999999 999999 999999 999999 999999 17455 999999 999999 999999 999999 999999 999999 999999 11607 999999 999999 999999 999999 18028 15246 999999 999999 11625 999999 999999 999999 999999 999999 999999 999999 999999 999999 15827 999999 999999 999999 999999 999999 999999 999999 999999 999999 999999 999999 999999 10842 999999 999999 999999 999999 999999 999999 999999 999999 999999 999999 999999 999999 999999 12711 999999 999999 999999 999999 999999 999999 999999 999999 14559 999999 999999 999999 999999 999999 999999 999999 999999 999999 999999 999999 999999 999999 999999 999999 13506 999999 999999 999999 999999 999999 999999 999999 999999 999999 999999 999999 999999 999999 13658 999999 999999 999999 999999 999999 999999 999999 999999 999999 999999 999999 999999 999999 999999 999999 999999 999999 19548 999999 999999 999999 999999 999999 999999 999999 999999 15905 999999 999999 999999 999999 999999 999999 999999 999999 999999 999999 999999 999999 999999 999999 999999 999999 999999 16629 999999 999999 999999 999999 999999 12056 999999 999999 999999 999999 999999 999999 999999 999999 999999 999999 999999 999999 999999 999999 999999 999999 999999 999999 999999 999999 999999 999999 999999 999999 999999 999999 14700 999999 999999 13776 999999 19581 999999 999999 999999 999999
999999 999999 999999 999999 999999 999999 999999 999999 999999 999999 999999 999999 999999 999999 999999 999999 999999 999999 999999 999999 999999 999999 999999 999999 999999 999999 999999 999999 999999 999999 999999 999999 999999 999999 999999 999999 999999 999999 999999 999999 999999 999999 999999 999999 999999 999999 999999 999999 999999 999999 999999 999999 999999 999999 999999 999999 999999 999999 999999 999999 999999 999999 999999 999999 999999 999999 999999 999999 999999 999999 999999 999999 999999 999999 999999 999999 999999 999999 999999 999999 999999 999999 999999 999999 999999 999999 999999 999999 999999 999999 999999 999999 999999 999999 999999 999999 999999 999999 999999 999999 999999 999999 999999 999999 999999 999999 999999 999999 999999 999999 999999 999999 999999 999999 999999 999999 999999 999999 999999 999999 999999 999999 999999 999999 999999 999999 999999 0 999999 999999 999999 999999 999999 999999 999999 999999 999999 999999 999999 999999 999999 999999 999999 999999 999999 999999 999999 999999 999999 999999 999999 999999 999999 999999 999999 999999 999999 999999 999999 999999 999999 999999 999999 999999 999999 999999 999999 999999 999999 999999 999999 999999 999999 999999 999999 999999 999999 999999 999999 999999 999999 999999 11822 999999 999999 999999 999999 999999 17767 999999 999999 15669 999999 999999 999999 999999 999999 999999 999999 999999 999999 13357 999999 999999 999999 999999 999999 999999 999999 999999 999999 999999 999999 999999 999999 999999 999999 999999 999999 999999 999999 999999 12758 999999 999999 999999 999999 999999 11671 999999 999999 999999 14550 999999 999999 999999 999999 18846 18023 999999 999999 999999 999999 999999 999999 999999 999999 999999 999999 999999 999999 999999 999999 15785 999999 999999 999999 999999 19678 999999 999999 999999 999999 999999 999999 999999 11827 999999 999999 999999 999999 999999 999999 999999 999999 999999 999999 999999 999999 999999 999999 999999 999999 999999 999999 999999 999999 999999 18187 999999 999999 999999 999999 999999 999999 999999 999999 999999 11506 999999 999999 999999 999999 999999 999999 13270 999999 999999 999999 999999 999999 12725 999999 999999 999999 999999 999999 999999 999999 999999 12701 999999 999999 999999 999999 999999 999999 999999 999999 999999 999999 999999 999999 999999 999999 999999 999999 999999 999999 999999 999999 999999 999999 999999 999999 999999 999999 999999 999999 14900 999999 999999 999999 999999 999999 999999 999999 999999 999999 999999 999999 999999
999999 999999 999999 999999 999999 999999 999999 999999 999999 999999 999999 999999 999999 999999 999999 999999 999999 999999 999999 999999 999999 999999 999999 999999 999999 999999 999999 999999 999999 999999 999999 999999 999999 999999 999999 999999 999999 999999 999999 999999 999999 999999 999999 999999 999999 999999 999999 999999 999999 999999 999999 999999 999999 999999 999999 999999 999999 999999 999999 999999 999999 999999 999999 999999 999999 999999 999999 999999 999999 999999 999999 999999 999999 999999 999999 999999 999999 999999 999999 999999 999999 999999 999999 999999 999999 999999 999999 999999 999999 999999 999999 999999 999999 999999 999999 999999 999999 999999 999999 999999 999999 999999 999999 999999 999999 999999 999999 999999 999999 999999 999999 999999 999999 999999 999999 999999 999999 999999 999999 999999 999999 999999 999999 999999 999999 999999 999999 999999 0 999999 999999 999999 999999 999999 999999 999999 999999 999999 999999 999999 999999 999999 999999 999999 999999 999999 999999 999999 999999 999999 999999 999999 999999 999999 999999 999999 999999 999999 999999 999999 999999 999999 999999 999999 999999 999999 999999 999999 999999 999999 999999 999999 999999 999999 999999 999999 999999 999999 999999 999999 999999 999999 19006 999999 999999 999999 999999 999999 15900 999999 999999 17003 999999 999999 999999 999999 999999 999999 999999 999999 999999 18133 999999 999999 999999 999999 999999 999999 999999 999999 999999 999999 999999 999999 999999 999999 999999 999999 999999 999999 999999 999999 17205 999999 999999 999999 999999 999999 11605 999999 999999 999999 12462 999999 999999 999999 999999 14371 17411 999999 999999 999999 999999 999999 999999 999999 999999 999999 999999 999999 999999 999999 999999 13912 999999 999999 999999 999999 18026 999999 999999 999999 999999 999999 999999 999999 16998 999999 999999 999999 999999 999999 999999 999999 999999 999999 999999 999999 999999 999999 999999 999999 999999 999999 999999 999999 999999 999999 10491 999999 999999 999999 999999 999999 999999 999999 999999 999999 13316 999999 999999 999999 999999 999999 999999 13006 999999 999999 999999 999999 999999 11186 999999 999999 999999 999999 999999 999999 999999 999999 18617 999999 999999 999999 999999 999999 999999 999999 999999 999999 999999 999999 999999 999999 999999 999999 999999 999999 999999 999999 999999 999999 999999 999999 999999 999999 999999 999999 999999 19189 999999 999999 999999 999999 999999 999999 999999 999999 999999 999999 999999 999999
999999 999999 999999 999999 999999 999999 999999 999999 999999 999999 999999 999999 999999 999999 999999 999999 999999 999999 999999 999999 999999 999999 999999 999999 999999 999999 999999 999999 999999 999999 999999 999999 999999 999999 999999 999999 999999 999999 999999 999999 999999 999999 999999 999999 999999 999999 999999 999999 999999 999999 999999 999999 999999 999999 999999 999999 999999 999999 999999 999999 999999 999999 999999 999999 999999 999999 999999 999999 999999 999999 999999 999999 999999 999999 999999 999999 999999 999999 999999 999999 999999 999999 999999 999999 999999 999999 999999 999999 999999 999999 999999 999999 999999 999999 999999 999999 999999 999999 999999 999999 999999 999999 999999 999999 999999 999999 999999 999999 999999 999999 999999 999999 999999 999999 999999 999999 999999 999999 999999 999999 999999 999999 999999 999999 999999 999999 999999 999999 999999 0 999999 999999 999999 999999 999999 999999 999999 999999 999999 999999 999999 999999 999999 999999 999999 999999 999999 999999 999999 999999 999999 999999 999999 999999 999999 999999 999999 999999 999999 999999 999999 999999 999999 999999 999999 999999 999999 999999 999999 999999 999999 999999 999999 999999 999999 999999 999999 999999 999999 999999 999999 999999 16208 999999 999999 999999 999999 999999 13611 999999 999999 13805 999999 999999 999999 999999 999999 999999 999999 999999 999999 15084 999999 999999 999999 999999 999999 999999 999999 999999 999999 999999 999999 999999 999999 999999 999999 999999 999999 999999 999999 999999 17874 999999 999999 999999 999999 999999 10063 999999 999999 999999 18429 999999 999999 999999 999999 10982 11514 999999 999999 999999 999999 999999 999999 999999 999999 999999 999999 999999 999999 999999 999999 18501 999999 999999 999999 999999 16088 999999 999999 999999 999999 999999 999999 999999 12455 999999 999999 999999 999999 999999 999999 999999 999999 999999 999999 999999 999999 999999 999999 999999 999999 999999 999999 999999 999999 999999 19330 999999 999999 999999 999999 999999 999999 999999 999999 999999 13937 999999 999999 999999 999999 999999 999999 15532 999999 999999 999999 999999 999999 10148 999999 999999 999999 999999 999999 999999 999999 999999 17679 999999 999999 999999 999999 999999 999999 999999 999999 999999 999999 999999 999999 999999 999999 999999 999999 999999 999999 999999 999999 999999 999999 999999 999999 999999 999999 999999 999999 19058 999999 999999 999999 999999 999999 999999 999999 999999 999999 999999 999999 999999
999999 999999 999999 999999 999999 999999 999999 999999 999999 999999 999999 999999 999999 999999 999999 999999 999999 999999 999999 999999 999999 999999 999999 999999 999999 999999 999999 999999 999999 999999 999999 999999 999999 999999 999999 999999 999999 999999 999999 999999 999999 999999 999999 999999 999999 999999 999999 999999 999999 999999 999999 999999 999999 999999 999999 999999 999999 999999 999999 999999 999999 999999 999999 999999 999999 999999 999999 999999 999999 999999 999999 999999 999999 999999 999999 999999 999999 999999 999999 999999 999999 999999 999999 999999 999999 999999 999999 999999 999999 999999 999999 999999 999999 999999 999999 999999 999999 999999 999999 999999 999999 999999 999999 999999 999999 999999 999999 999999 999999 999999 999999 999999 999999 999999 999999 999999 999999 999999 999999 999999 999999 999999 999999 999999 999999 999999 999999 999999 999999 999999 0 999999 999999 999999 999999 999999 999999 999999 999999 999999 999999 999999 999999 999999 999999 999999 999999 999999 999999 999999 999999 999999 999999 999999 999999 999999 999999 999999 999999 999999 999999 999999 999999 999999 999999 999999 999999 999999 999999 999999 999999 999999 999999 999999 999999 999999 999999 999999 999999 999999 999999 999999 16943 999999 999999 999999 999999 999999 17692 999999 999999 16493 999999 999999 999999 999999 999999 999999 999999 999999 999999 16307 999999 999999 999999 999999 999999 999999 999999 999999 999999 999999 999999 999999 999999 999999 999999 999999 999999 999999 999999 999999 10630 999999 999999 999999 999999 999999 10413 999999 999999 999999 13081 999999 999999 999999 999999 19145 17508 999999 999999 999999 999999 999999 999999 999999 999999 999999 999999 999999 999999 999999 999999 16188 999999 999999 999999 999999 12540 999999 999999 999999 999999 999999 999999 999999 11185 999999 999999 999999 999999 999999 999999 999999 999999 999999 999999 999999 999999 999999 999999 999999 999999 999999 999999 999999 999999 999999 11739 999999 999999 999999 999999 999999 999999 999999 999999 999999 11814 999999 999999 999999 999999 999999 999999 10761 999999 999999 999999 999999 999999 12987 999999 999999 999999 999999 999999 999999 999999 999999 12232 999999 999999 999999 999999 999999 999999 999999 999999 999999 999999 999999 999999 999999 999999 999999 999999 999999 999999 999999 999999 999999 999999 999999 999999 999999 999999 999999 999999 15043 999999 999999 999999 999999 999999 999999 999999 999999 999999 999999 999999 999999
999999 999999 999999 999999 999999 999999 999999 999999 999999 999999 999999 999999 999999 999999 999999 999999 999999 999999 999999 999999 999999 999999 999999 999999 999999 999999 999999 999999 999999 999999 999999 999999 999999 999999 999999 999999 999999 999999 999999 999999 999999 999999 999999 999999 999999 999999 999999 999999 999999 999999 999999 999999 999999 999999 999999 999999 999999 999999 999999 999999 999999 999999 999999 999999 999999 999999 999999 999999 999999 999999 999999 999999 999999 999999 999999 999999 999999 999999 999999 999999 999999 999999 999999 999999 999999 999999 999999 999999 999999 999999 999999 999999 999999 999999 999999 999999 999999 999999 999999 999999 999999 999999 999999 999999 999999 999999 999999 999999 999999 999999 999999 999999 999999 999999 999999 999999 999999 999999 999999 999999 999999 999999 999999 999999 999999 999999 999999 999999 999999 999999 999999 0 999999 999999 999999 999999 999999 999999 999999 999999 999999 999999 999999 999999 999999 999999 999999 999999 999999 999999 999999 999999 999999 999999 999999 999999 999999 999999 999999 999999 999999 999999 999999 999999 999999 999999 999999 999999 999999 999999 999999 999999 999999 999999 999999 999999 999999 999999 999999 999999 999999 999999 19058 999999 999999 999999 999999 999999 10595 999999 999999 19239 999999 999999 999999 999999 999999 999999 999999 999999 999999 10259 999999 999999 999999 999999 999999 999999 999999 999999 999999 999999 999999 999999 999999 999999 999999 999999 999999 999999 999999 999999 13106 999999 999999 999999 999999 999999 15429 999999 999999 999999 10481 999999 999999 999999 999999 15941 19204 999999 999999 999999 999999 999999 999999 999999 999999 999999 999999 999999 999999 999999 999999 10483 999999 999999 999999 999999 13203 999999 999999 999999 999999 999999 999999 999999 12683 999999 999999 999999 999999 999999 999999 999999 999999 999999 999999 999999 999999 999999 999999 999999 999999 999999 999999 999999 999999 999999 17610 999999 999999 999999 999999 999999 999999 999999 999999 999999 11692 999999 999999 999999 999999 999999 999999 16901 999999 999999 999999 999999 999999 18148 999999 999999 999999 999999 999999 999999 999999 999999 15750 999999 999999 999999 999999 999999 999999 999999 999999 999999 999999 999999 999999 999999 999999 999999 999999 999999 999999 999999 999999 999999 999999 999999 999999 999999 999999 999999 999999 19065 999999 999999 999999 999999 999999 999999 999999 999999 999999 999999 999999 999999
999999 999999 999999 999999 999999 999999 999999 999999 999999 999999 999999 999999 999999 999999 999999 999999 999999 999999 999999 999999 999999 999999 999999 999999 999999 999999 999999 999999 999999 999999 999999 999999 999999 999999 999999 999999 999999 999999 999999 999999 999999 999999 999999 999999 999999 999999 999999 999999 999999 999999 999999 999999 999999 999999 999999 999999 999999 999999 999999 999999 999999 999999 999999 999999 999999 999999 999999 999999 999999 999999 999999 999999 999999 999999 999999 999999 999999 999999 999999 999999 999999 999999 999999 999999 999999 999999 999999 999999 999999 999999 999999 999999 999999 999999 999999 999999 999999 999999 999999 999999 999999 999999 999999 999999 999999 999999 999999 999999 999999 999999 999999 999999 999999 999999 999999 999999 999999 999999 999999 999999 999999 999999 999999 999999 999999 999999 999999 999999 999999 999999 999999 999999 0 999999 999999 999999 999999 999999 999999 999999 999999 999999 999999 999999 999999 999999 999999 999999 999999 999999 999999 999999 999999 999999 999999 999999 999999 999999 999999 999999 999999 999999 999999 999999 999999 999999 999999 999999 999999 999999 999999 999999 999999 999999 999999 999999 999999 999999 999999 999999 999999 999999 17278 999999 999999 999999 999999 999999 18110 999999 999999 17038 999999 999999 999999 999999 999999 999999 999999 999999 999999 14329 999999 999999 999999 999999 999999 999999 999999 999999 999999 999999 999999 999999 999999 999999 999999 999999 999999 999999 999999 999999 14719 999999 999999 999999 999999 999999 13316 999999 999999 999999 10018 999999 999999 999999 999999 11958 19681 999999 999999 999999 999999 999999 999999 999999 999999 999999 999999 999999 999999 999999 999999 15747 999999 999999 999999 999999 17352 999999 999999 999999 999999 999999 999999 999999 11141 999999 999999 999999 999999 999999 999999 999999 999999 999999 999999 999999 999999 999999 999999 999999 999999 999999 999999 999999 999999 999999 19482 999999 999999 999999 999999 999999 999999 999999 999999 999999 18343 999999 999999 999999 999999 999999 999999 10779 999999 999999 999999 999999 999999 15022 999999 999999 999999 999999 999999 999999 999999 999999 16240 999999 999999 999999 999999 999999 999999 999999 999999 999999 999999 999999 999999 999999 999999 999999 999999 999999 999999 999999 999999 999999 999999 999999 999999 999999 999999 999999 999999 14520 999999 999999 999999 999999 999999 999999 999999 999999 999999 999999 999999 999999
999999 999999 999999 999999 999999 999999 999999 999999 999999 999999 999999 999999 999999 999999 999999 999999 999999 999999 999999 999999 999999 999999 999999 999999 999999 999999 999999 999999 999999 999999 999999 999999 999999 999999 999999 999999 999999 999999 999999 999999 999999 999999 999999 999999 999999 999999 999999 999999 999999 999999 999999 999999 999999 999999 999999 999999 999999 999999 999999 999999 999999 999999 999999 999999 999999 999999 999999 999999 999999 999999 999999 999999 999999 999999 999999 999999 999999 999999 999999 999999 999999 999999 999999 999999 999999 999999 999999 999999 999999 999999 999999 999999 999999 999999 999999 999999 999999 999999 999999 999999 999999 999999 999999 999999 999999 999999 999999 999999 999999 999999 999999 999999 999999 999999 999999 999999 999999 999999 999999 999999 999999 999999 999999 999999 999999 999999 999999 999999 999999 999999 999999 999999 999999 0 999999 999999 999999 999999 999999 999999 999999 999999 999999 999999 999999 999999 999999 999999 999999 999999 999999 999999 999999 999999 999999 999999 999999 999999 999999 999999 999999 999999 999999 999999 999999 999999 999999 999999 999999 999999 999999 999999 999999 999999 999999 999999 999999 999999 999999 999999 999999 999999 12758 999999 999999 999999 999999 999999 16129 999999 999999 15686 999999 999999 999999 999999 999999 999999 999999 999999 999999 13351 999999 999999 999999 999999 999999 999999 999999 999999 999999 999999 999999 999999 999999 999999 999999 999999 999999 999999 999999 999999 14171 999999 999999 999999 999999 999999 14326 999999 999999 999999 10547 999999 999999 999999 999999 10156 19899 999999 999999 999999 999999 999999 999999 999999 999999 999999 999999 999999 999999 999999 999999 13451 999999 999999 999999 999999 11524 999999 999999 999999 999999 999999 999999 999999 16792 999999 999999 999999 999999 999999 999999 999999 999999 999999 999999 999999 999999 999999 999999 999999 999999 999999 999999 999999 999999 999999 13564 999999 999999 999999 999999 999999 999999 999999 999999 999999 10163 999999 999999 999999 999999 999999 999999 13000 999999 999999 999999 999999 999999 13841 999999 999999 999999 999999 999999 999999 999999 999999 18555 999999 999999 999999 999999 999999 999999 999999 999999 999999 999999 999999 999999 999999 999999 999999 999999 999999 999999 999999 999999 999999 999999 999999 999999 999999 999999 999999 999999 13407 999999 999999 999999 999999 999999 999999 999999 999999 999999 999999 999999 999999
999999 999999 999999 999999 999999 999999 999999 999999 999999 999999 999999 999999 999999 999999 999999 999999 999999 999999 999999 999999 999999 999999 999999 999999 999999 999999 999999 999999 999999 999999 999999 999999 999999 999999 999999 999999 999999 999999 999999 999999 999999 999999 999999 999999 999999 999999 999999 999999 999999 999999 999999 999999 999999 999999 999999 999999 999999 999999 999999 999999 999999 999999 999999 999999 999999 999999 999999 999999 999999 999999 999999 999999 999999 999999 999999 999999 999999 999999 999999 999999 999999 999999 999999 999999 999999 999999 999999 999999 999999 999999 999999 999999 999999 999999 999999 999999 999999 999999 999999 999999 999999 999999 999999 999999 999999 999999 999999 999999 999999 999999 999999 999999 999999 999999 999999 999999 999999 999999 999999 999999 999999 999999 999999 999999 999999 999999 999999 999999 999999 999999 999999 999999 999999 999999 0 999999 999999 999999 999999 999999 999999 999999 999999 999999 999999 999999 999999 999999 999999 999999 999999 999999 999999 999999 999999 999999 999999 999999 999999 999999 999999 999999 999999 999999 999999 999999 999999 999999 999999 999999 999999 999999 999999 999999 999999 999999 999999 999999 999999 999999 999999 999999 12415 999999 999999 999999 999999 999999 11545 999999 999999 19673 999999 999999 999999 999999 999999 999999 999999 999999 999999 15084 999999 999999 999999 999999 999999 999999 999999 999999 999999 999999 999999 999999 999999 999999 999999 999999 999999 999999 999999 999999 13997 999999 999999 999999 999999 999999 19621 999999 999999 999999 18122 999999 999999 999999 999999 16017 12154 999999 999999 999999 999999 999999 999999 999999 999999 999999 999999 999999 999999 999999 999999 11081 999999 999999 999999 999999 17832 999999 999999 999999 999999 999999 999999 999999 16486 999999 999999 999999 999999 999999 999999 999999 999999 999999 999999 999999 999999 999999 999999 999999 999999 999999 999999 999999 999999 999999 13987 999999 999999 999999 999999 999999 999999 999999 999999 999999 11388 999999 999999 999999 999999 999999 999999 16382 999999 999999 999999 999999 999999 10057 999999 999999 999999 999999 999999 999999 999999 999999 18681 999999 999999 999999 999999 999999 999999 999999 999999 999999 999999 999999 999999 999999 999999 999999 999999 999999 999999 999999 999999 999999 999999 999999 999999 999999 999999 999999 999999 11934 999999 999999 999999 999999 999999 999999 999999 999999 999999 999999 999999 999999
999999 999999 999999 999999 999999 999999 999999 999999 999999 999999 999999 999999 999999 999999 999999 999999 999999 999999 999999 999999 999999 999999 999999 999999 999999 999999 999999 999999 999999 999999 999999 999999 999999 999999 999999 999999 999999 999999 999999 999999 999999 999999 999999 999999 999999 999999 999999 999999 999999 999999 999999 999999 999999 999999 999999 999999 999999 999999 999999 999999 999999 999999 999999 999999 999999 999999 999999 999999 999999 999999 999999 999999 999999 999999 999999 999999 999999 999999 999999 999999 999999 999999 999999 999999 999999 999999 999999 999999 999999 999999 999999 999999 999999 999999 999999 999999 999999 999999 999999 999999 999999 999999 999999 999999 999999 999999 999999 999999 999999 999999 999999 999999 999999 999999 999999 999999 999999 999999 999999 999999 999999 999999 999999 999999 999999 999999 999999 999999 999999 999999 999999 999999 999999 999999 999999 0 999999 999999 999999 999999 999999 999999 999999 999999 999999 999999 999999 999999 999999 999999 999999 999999 999999 999999 999999 999999 999999 999999 999999 999999 999999 999999 999999 999999 999999 999999 999999 999999 999999 999999 999999 999999 999999 999999 999999 999999 999999 999999 999999 999999 999999 999999 15167 999999 999999 999999 999999 999999 17077 999999 999999 14277 999999 999999 999999 999999 999999 999999 999999 999999 999999 16161 999999 999999 999999 999999 999999 999999 999999 999999 999999 999999 999999 999999 999999 999999 999999 999999 999999 999999 999999 999999 16835 999999 999999 999999 999999 999999 17562 999999 999999 999999 12349 999999 999999 999999 999999 19751 12100 999999 999999 999999 999999 999999 999999 999999 999999 999999 999999 999999 999999 999999 999999 19417 999999 999999 999999 999999 16374 999999 999999 999999 999999 999999 999999 999999 13935 999999 999999 999999 999999 999999 999999 999999 999999 999999 999999 999999 999999 999999 999999 999999 999999 999999 999999 999999 999999 999999 17350 999999 999999 999999 999999 999999 999999 999999 999999 999999 10976 999999 999999 999999 999999 999999 999999 12745 999999 999999 999999 999999 999999 13985 999999 999999 999999 999999 999999 999999 999999 999999 15498 999999 999999 999999 999999 999999 999999 999999 999999 999999 999999 999999 999999 999999 999999 999999 999999 999999 999999 999999 999999 999999 999999 999999 999999 999999 999999 999999 999999 14514 999999 999999 999999 999999 999999 999999 999999 999999 999999 999999 999999 999999
999999 999999 999999 999999 999999 999999 999999 999999 999999 999999 999999 999999 999999 999999 999999 999999 999999 999999 999999 999999 999999 999999 999999 999999 999999 999999 999999 999999 999999 999999 999999 999999 999999 999999 999999 999999 999999 999999 999999 999999 999999 999999 999999 999999 999999 999999 999999 999999 999999 999999 999999 999999 999999 999999 999999 999999 999999 999999 999999 999999 999999 999999 999999 999999 999999 999999 999999 999999 999999 999999 999999 999999 999999 999999 999999 999999 999999 999999 999999 999999 999999 999999 999999 999999 999999 999999 999999 999999 999999 999999 999999 999999 999999 999999 999999 999999 999999 999999 999999 999999 999999 999999 999999 999999 999999 999999 999999 999999 999999 999999 999999 999999 999999 999999 999999 999999 999999 999999 999999 999999 999999 999999 999999 999999 999999 999999 999999 999999 999999 999999 999999 999999 999999 999999 999999 999999 0 999999 999999 999999 999999 999999 999999 999999 999999 999999 999999 999999 999999 999999 999999 999999 999999 999999 999999 999999 999999 999999 999999 999999 999999 999999 999999 999999 999999 999999 999999 999999 999999 999999 999999 999999 999999 999999 999999 999999 999999 999999 999999 999999 999999 999999 15063 999999 999999 999999 999999 999999 11456 999999 999999 11104 999999 999999 999999 999999 999999 999999 999999 999999 999999 13801 999999 999999 999999 999999 999999 999999 999999 999999 999999 999999 999999 999999 999999 999999 999999 999999 999999 999999 999999 999999 18342 999999 999999 999999 999999 999999 11188 999999 999999 999999 11080 999999 999999 999999 999999 11502 18219 999999 999999 999999 999999 999999 999999 999999 999999 999999 999999 999999 999999 999999 999999 10550 999999 999999 999999 999999 18436 999999 999999 999999 999999 999999 999999 999999 19493 999999 999999 999999 999999 999999 999999 999999 999999 999999 999999 999999 999999 999999 999999 999999 999999 999999 999999 999999 999999 999999 12641 999999 999999 999999 999999 999999 999999 999999 999999 999999 18238 999999 999999 999999 999999 999999 999999 13349 999999 999999 999999 999999 999999 11138 999999 999999 999999 999999 999999 999999 999999 999999 18408 999999 999999 999999 999999 999999 999999 999999 999999 999999 999999 999999 999999 999999 999999 999999 999999 999999 999999 999999 999999 999999 999999 999999 999999 999999 999999 999999 999999 17286 999999 999999 999999 999999 999999 999999 999999 999999 999999 999999 999999 999999
999999 999999 999999 999999 999999 999999 999999 999999 999999 999999 999999 999999 999999 999999 999999 999999 999999 999999 999999 999999 999999 999999 999999 999999 999999 999999 999999 999999 999999 999999 999999 999999 999999 999999 999999 999999 999999 999999 999999 999999 999999 999999 999999 999999 999999 999999 999999 999999 999999 999999 999999 999999 999999 999999 999999 999999 999999 999999 999999 999999 999999 999999 999999 999999 999999 999999 999999 999999 999999 999999 999999 999999 999999 999999 999999 999999 999999 999999 999999 999999 999999 999999 999999 999999 999999 999999 999999 999999 999999 999999 999999 999999 999999 999999 999999 999999 999999 999999 999999 999999 999999 999999 999999 999999 999999 999999 999999 999999 999999 999999 999999 999999 999999 999999 999999 999999 999999 999999 999999 999999 999999 999999 999999 999999 999999 999999 999999 999999 999999 999999 999999 999999 999999 999999 999999 999999 999999 0 999999 999999 999999 999999 999999 999999 999999 999999 999999 999999 999999 999999 999999 999999 999999 999999 999999 999999 999999 999999 999999 999999 999999 999999 999999 999999 999999 999999 999999 999999 999999 999999 999999 999999 999999 999999 999999 999999 999999 999999 999999 999999 999999 999999 16685 999999 999999 999999 999999 999999 13455 999999 999999 18305 999999 999999 999999 999999 999999 999999 999999 999999 999999 13958 999999 999999 999999 999999 999999 999999 999999 999999 999999 999999 999999 999999 999999 999999 999999 999999 999999 999999 999999 999999 14700 999999 999999 999999 999999 999999 11520 999999 999999 999999 18326 999999 999999 999999 999999 13625 10701 999999 999999 999999 999999 999999 999999 999999 999999 999999 999999 999999 999999 999999 999999 19585 999999 999999 999999 999999 19035 999999 999999 999999 999999 999999 999999 999999 16293 999999 999999 999999 999999 999999 999999 999999 999999 999999 999999 999999 999999 999999 999999 999999 999999 999999 999999 999999 999999 999999 17594 999999 999999 999999 999999 999999 999999 999999 999999 999999 16022 999999 999999 999999 999999 999999 999999 10160 999999 999999 999999 999999 999999 12681 999999 999999 999999 999999 999999 999999 999999 999999 13063 999999 999999 999999 999999 999999 999999 999999 999999 999999 999999 999999 999999 999999 999999 999999 999999 999999 999999 999999 999999 999999 999999 999999 999999 999999 999999 999999 999999 19837 999999 999999 999999 999999 999999 999999 999999 999999 999999 999999 999999 999999
999999 999999 999999 999999 999999 999999 999999 999999 999999 999999 999999 999999 999999 999999 999999 999999 999999 999999 999999 999999 999999 999999 999999 999999 999999 999999 999999 999999 999999 999999 999999 999999 999999 999999 999999 999999 999999 999999 999999 999999 999999 999999 999999 999999 999999 999999 999999 999999 999999 999999 999999 999999 999999 999999 999999 999999 999999 999999 999999 999999 999999 999999 999999 999999 999999 999999 999999 999999 999999 999999 999999 999999 999999 999999 999999 999999 999999 999999 999999 999999 999999 999999 999999 999999 999999 999999 999999 999999 999999 999999 999999 999999 999999 999999 999999 999999 999999 999999 999999 999999 999999 999999 999999 999999 999999 999999 999999 999999 999999 999999 999999 999999 999999 999999 999999 999999 999999 999999 999999 999999 999999 999999 999999 999999 999999 999999 999999 999999 999999 999999 999999 999999 999999 999999 999999 999999 999999 999999 0 999999 999999 999999 999999 999999 999999 999999 999999 999999 999999 999999 999999 999999 999999 999999 999999 999999 999999 999999 999999 999999 999999 999999 999999 999999 999999 999999 999999 999999 999999 999999 999999 999999 999999 999999 999999 999999 999999 999999 999999 999999 999999 999999 11569 999999 999999 999999 999999 999999 14709 999999 999999 14998 999999 999999 999999 999999 999999 999999 999999 999999 999999 15285 999999 999999 999999 999999 999999 999999 999999 999999 999999 999999 999999 999999 999999 999999 999999 999999 999999 999999 999999 999999 19668 999999 999999 999999 999999 999999 18288 999999 999999 999999 17685 999999 999999 999999 999999 18460 12984 999999 999999 999999 999999 999999 999999 999999 999999 999999 999999 999999 999999 999999 999999 10632 999999 999999 999999 999999 12475 999999 999999 999999 999999 999999 999999 999999 17059 999999 999999 999999 999999 999999 999999 999999 999999 999999 999999 999999 999999 999999 999999 999999 999999 999999 999999 999999 999999 999999 18565 999999 999999 999999 999999 999999 999999 999999 999999 999999 10575 999999 999999 999999 999999 999999 999999 12818 999999 999999 999999 999999 999999 13601 999999 999999 999999 999999 999999 999999 999999 999999 13951 999999 999999 999999 999999 999999 999999 999999 999999 999999 999999 999999 999999 999999 999999 999999 999999 999999 999999 999999 999999 999999 999999 999999 999999 999999 999999 999999 999999 10859 999999 999999 999999 999999 999999 999999 999999 999999 999999 999999 999999 999999
999999 999999 999999 999999 999999 999999 999999 999999 999999 999999 999999 999999 999999 999999 999999 999999 999999 999999 999999 999999 999999 999999 999999 999999 999999 999999 999999 999999 999999 999999 999999 999999 999999 999999 999999 999999 999999 999999 999999 999999 999999 999999 999999 999999 999999 999999 999999 999999 999999 999999 999999 999999 999999 999999 999999 999999 999999 999999 999999 999999 999999 999999 999999 999999 999999 999999 999999 999999 999999 999999 999999 999999 999999 999999 999999 999999 999999 999999 999999 999999 999999 999999 999999 999999 999999 999999 999999 999999 999999 999999 999999 999999 999999 999999 999999 999999 999999 999999 999999 999999 999999 999999 999999 999999 999999 999999 999999 999999 999999 999999 999999 999999 999999 999999 999999 999999 999999 999999 999999 999999 999999 999999 999999 999999 999999 999999 999999 999999 999999 999999 999999 999999 999999 999999 999999 999999 999999 999999 999999 0 999999 999999 999999 999999 999999 999999 999999 999999 999999 999999 999999 999999 999999 999999 999999 999999 999999 999999 999999 999999 999999 999999 999999 999999 999999 999999 999999 999999 999999 999999 999999 999999 999999 999999 999999 999999 999999 999999 999999 999999 999999 999999 10275 999999 999999 999999 999999 999999 15809 999999 999999 11218 999999 999999 999999 999999 999999 999999 999999 999999 999999 11548 999999 999999 999999 999999 999999 999999 999999 999999 999999 999999 999999 999999 999999 999999 999999 999999 999999 999999 999999 999999 18751 999999 999999 999999 999999 999999 16992 999999 999999 999999 19940 999999 999999 999999 999999 11450 19938 999999 999999 999999 999999 999999 999999 999999 999999 999999 999999 999999 999999 999999 999999 14047 999999 999999 999999 999999 11370 999999 999999 999999 999999 999999 999999 999999 15719 999999 999999 999999 999999 999999 999999 999999 999999 999999 999999 999999 999999 999999 999999 999999 999999 999999 999999 999999 999999 999999 11522 999999 999999 999999 999999 999999 999999 999999 999999 999999 18728 999999 999999 999999 999999 999999 999999 13092 999999 999999 999999 999999 999999 19354 999999 999999 999999 999999 999999 999999 999999 999999 14205 999999 999999 999999 999999 999999 999999 999999 999999 999999 999999 999999 999999 999999 999999 999999 999999 999999 999999 999999 999999 999999 999999 999999 999999 999999 999999 999999 999999 17090 999999 999999 999999 999999 999999 999999 999999 999999 999999 999999 999999 999999
999999 999999 999999 999999 999999 999999 999999 999999 999999 999999 999999 999999 999999 999999 999999 999999 999999 999999 999999 999999 999999 999999 999999 999999 999999 999999 999999 999999 999999 999999 999999 999999 999999 999999 999999 999999 999999 999999 999999 999999 999999 999999 999999 999999 999999 999999 999999 999999 999999 999999 999999 999999 999999 999999 999999 999999 999999 999999 999999 999999 999999 999999 999999 999999 999999 999999 999999 999999 999999 999999 999999 999999 999999 999999 999999 999999 999999 999999 999999 999999 999999 999999 999999 999999 999999 999999 999999 999999 999999 999999 999999 999999 999999 999999 999999 999999 999999 999999 999999 999999 999999 999999 999999 999999 999999 999999 999999 999999 999999 999999 999999 999999 999999 999999 999999 999999 999999 999999 999999 999999 999999 999999 999999 999999 999999 999999 999999 999999 999999 999999 999999 999999 999999 999999 999999 999999 999999 999999 999999 999999 0 999999 999999 999999 999999 999999 999999 999999 999999 999999 999999 999999 999999 999999 999999 999999 999999 999999 999999 999999 999999 999999 999999 999999 999999 999999 999999 999999 999999 999999 999999 999999 999999 999999 999999 999999 999999 999999 999999 999999 999999 999999 15092 999999 999999 999999 999999 999999 19894 999999 999999 17718 999999 999999 999999 999999 999999 999999 999999 999999 999999 17685 999999 999999 999999 999999 999999 999999 999999 999999 999999 999999 999999 999999 999999 999999 999999 999999 999999 999999 999999 999999 13816 999999 999999 999999 999999 999999 14908 999999 999999 999999 18179 999999 999999 999999 999999 10690 10134 999999 999999 999999 999999 999999 999999 999999 999999 999999 999999 999999 999999 999999 999999 16218 999999 999999 999999 999999 14584 999999 999999 999999 999999 999999 999999 999999 13776 999999 999999 999999 999999 999999 999999 999999 999999 999999 999999 999999 999999 999999 999999 999999 999999 999999 999999 999999 999999 999999 12566 999999 999999 999999 999999 999999 999999 999999 999999 999999 14122 999999 999999 999999 999999 999999 999999 13627 999999 999999 999999 999999 999999 13355 999999 999999 999999 999999 999999 999999 999999 999999 16001 999999 999999 999999 999999 999999 999999 999999 999999 999999 999999 999999 999999 999999 999999 999999 999999 999999 999999 999999 999999 999999 999999 999999 999999 999999 999999 999999 999999 10132 999999 999999 999999 999999 999999 999999 999999 999999 999999 999999 999999 999999
999999 999999 999999 999999 999999 999999 999999 999999 999999 999999 999999 999999 999999 999999 999999 999999 999999 999999 999999 999999 999999 999999 999999 999999 999999 999999 999999 999999 999999 999999 999999 999999 999999 999999 999999 999999 999999 999999 999999 999999 999999 999999 999999 999999 999999 999999 999999 999999 999999 999999 999999 999999 999999 999999 999999 999999 999999 999999 999999 999999 999999 999999 999999 999999 999999 999999 999999 999999 999999 999999 999999 999999 999999 999999 999999 999999 999999 999999 999999 999999 999999 999999 999999 999999 999999 999999 999999 999999 999999 999999 999999 999999 999999 999999 999999 999999 999999 999999 999999 999999 999999 999999 999999 999999 999999 999999 999999 999999 999999 999999 999999 999999 999999 999999 999999 999999 999999 999999 999999 999999 999999 999999 999999 999999 999999 999999 999999 999999 999999 999999 999999 999999 999999 999999 999999 999999 999999 999999 999999 999999 999999 0 999999 999999 999999 999999 999999 999999 999999 999999 999999 999999 999999 999999 999999 999999 999999 999999 999999 999999 999999 999999 999999 999999 999999 999999 999999 999999 999999 999999 999999 999999 999999 999999 999999 999999 999999 999999 999999 999999 999999 999999 16002 999999 999999 999999 999999 999999 12522 999999 999999 11549 999999 999999 999999 999999 999999 999999 999999 999999 999999 11234 999999 999999 999999 999999 999999 999999 999999 999999 999999 999999 999999 999999 999999 999999 999999 999999 999999 999999 999999 999999 12497 999999 999999 999999 999999 999999 17432 999999 999999 999999 12212 999999 999999 999999 999999 11133 14882 999999 999999 999999 999999 999999 999999 999999 999999 999999 999999 999999 999999 999999 999999 12700 999999 999999 999999 999999 14163 999999 999999 999999 999999 999999 999999 999999 17330 999999 999999 999999 999999 999999 999999 999999 999999 999999 999999 999999 999999 999999 999999 999999 999999 999999 999999 999999 999999 999999 17398 999999 999999 999999 999999 999999 999999 999999 999999 999999 18237 999999 999999 999999 999999 999999 999999 13944 999999 999999 999999 999999 999999 17122 999999 999999 999999 999999 999999 999999 999999 999999 12148 999999 999999 999999 999999 999999 999999 999999 999999 999999 999999 999999 999999 999999 999999 999999 999999 999999 999999 999999 999999 999999 999999 999999 999999 999999 999999 999999 999999 11872 999999 999999 999999 999999 999999 999999 999999 999999 999999 999999 999999 999999
999999 999999 999999 999999 999999 999999 999999 999999 999999 999999 999999 999999 999999 999999 999999 999999 999999 999999 999999 999999 999999 999999 999999 999999 999999 999999 999999 999999 999999 999999 999999 999999 999999 999999 999999 999999 999999 999999 999999 999999 999999 999999 999999 999999 999999 999999 999999 999999 999999 999999 999999 999999 999999 999999 999999 999999 999999 999999 999999 999999 999999 999999 999999 999999 999999 999999 999999 999999 999999 999999 999999 999999 999999 999999 999999 999999 999999 999999 999999 999999 999999 999999 999999 999999 999999 999999 999999 999999 999999 999999 999999 999999 999999 999999 999999 999999 999999 999999 999999 999999 999999 999999 999999 999999 999999 999999 999999 999999 999999 999999 999999 999999 999999 999999 999999 999999 999999 999999 999999 999999 999999 999999 999999 999999 999999 999999 999999 999999 999999 999999 999999 999999 999999 999999 999999 999999 999999 999999 999999 999999 999999 999999 0 999999 999999 999999 999999 999999 999999 999999 999999 999999 999999 999999 999999 999999 999999 999999 999999 999999 999999 999999 999999 999999 999999 999999 999999 999999 999999 999999 999999 999999 999999 999999 999999 999999 999999 999999 999999 999999 999999 999999 14163 999999 999999 999999 999999 999999 10868 999999 999999 18963 999999 999999 999999 999999 999999 999999 999999 999999 999999 14342 999999 999999 999999 999999 999999 999999 999999 999999 999999 999999 999999 999999 999999 999999 999999 999999 999999 999999 999999 999999 12546 999999 999999 999999 999999 999999 16054 999999 999999 999999 19649 999999 999999 999999 999999 12981 15690 999999 999999 999999 999999 999999 999999 999999 999999 999999 999999 999999 999999 999999 999999 11250 999999 999999 999999 999999 15665 999999 999999 999999 999999 999999 999999 999999 11647 999999 999999 999999 999999 999999 999999 999999 999999 999999 999999 999999 999999 999999 999999 999999 999999 999999 999999 999999 999999 999999 16130 999999 999999 999999 999999 999999 999999 999999 999999 999999 13936 999999 999999 999999 999999 999999 999999 16131 999999 999999 999999 999999 999999 17459 999999 999999 999999 999999 999999 999999 999999 999999 19692 999999 999999 999999 999999 999999 999999 999999 999999 999999 999999 999999 999999 999999 999999 999999 999999 999999 999999 999999 999999 999999 999999 999999 999999 999999 999999 999999 999999 17418 999999 999999 999999 999999 999999 999999 999999 999999 999999 999999 999999 999999
999999 999999 999999 999999 999999 999999 999999 999999 999999 999999 999999 999999 999999 999999 999999 999999 999999 999999 999999 999999 999999 999999 999999 999999 999999 999999 999999 999999 999999 999999 999999 999999 999999 999999 999999 999999 999999 999999 999999 999999 999999 999999 999999 999999 999999 999999 999999 999999 999999 999999 999999 999999 999999 999999 999999 999999 999999 999999 999999 999999 999999 999999 999999 999999 999999 999999 999999 999999 999999 999999 999999 999999 999999 999999 999999 999999 999999 999999 999999 999999 999999 999999 999999 999999 999999 999999 999999 999999 999999 999999 999999 999999 999999 999999 999999 999999 999999 999999 999999 999999 999999 999999 999999 999999 999999 999999 999999 999999 999999 999999 999999 999999 999999 999999 999999 999999 999999 999999 999999 999999 999999 999999 999999 999999 999999 999999 999999 999999 999999 999999 999999 999999 999999 999999 999999 999999 999999 999999 999999 999999 999999 999999 999999 0 999999 999999 999999 999999 999999 999999 999999 999999 999999 999999 999999 999999 999999 999999 999999 999999 999999 999999 999999 999999 999999 999999 999999 999999 999999 999999 999999 999999 999999 999999 999999 999999 999999 999999 999999 999999 999999 999999 18861 999999 999999 999999 999999 999999 14354 999999 999999 17880 999999 999999 999999 999999 999999 999999 999999 999999 999999 15391 999999 999999 999999 999999 999999 999999 999999 999999 999999 999999 999999 999999 999999 999999 999999 999999 999999 999999 999999 999999 19068 999999 999999 999999 999999 999999 19877 999999 999999 999999 11849 999999 999999 999999 999999 11597 15940 999999 999999 999999 999999 999999 999999 999999 999999 999999 999999 999999 999999 999999 999999 19552 999999 999999 999999 999999 17506 999999 999999 999999 999999 999999 999999 999999 14283 999999 999999 999999 999999 999999 999999 999999 999999 999999 999999 999999 999999 999999 999999 999999 999999 999999 999999 999999 999999 999999 12553 999999 999999 999999 999999 999999 999999 999999 999999 999999 13900 999999 999999 999999 999999 999999 999999 19682 999999 999999 999999 999999 999999 10031 999999 999999 999999 999999 999999 999999 999999 999999 10096 999999 999999 999999 999999 999999 999999 999999 999999 999999 999999 999999 999999 999999 999999 999999 999999 999999 999999 999999 999999 999999 999999 999999 999999 999999 999999 999999 999999 14795 999999 999999 999999 999999 999999 999999 999999 999999 999999 999999 999999 999999
999999 999999 999999 999999 999999 999999 999999 999999 999999 999999 999999 999999 999999 999999 999999 999999 999999 999999 999999 999999 999999 999999 999999 999999 999999 999999 999999 999999 999999 999999 999999 999999 999999 999999 999999 999999 999999 999999 999999 999999 999999 999999 999999 999999 999999 999999 999999 999999 999999 999999 999999 999999 999999 999999 999999 999999 999999 999999 999999 999999 999999 999999 999999 999999 999999 999999 999999 999999 999999 999999 999999 999999 999999 999999 999999 999999 999999 999999 999999 999999 999999 999999 999999 999999 999999 999999 999999 999999 999999 999999 999999 999999 999999 999999 999999 999999 999999 999999 999999 999999 999999 999999 999999 999999 999999 999999 999999 999999 999999 999999 999999 999999 999999 999999 999999 999999 999999 999999 999999 999999 999999 999999 999999 999999 999999 999999 999999 999999 999999 999999 999999 999999 999999 999999 999999 999999 999999 999999 999999 999999 999999 999999 999999 999999 0 999999 999999 999999 999999 999999 999999 999999 999999 999999 999999 999999 999999 999999 999999 999999 999999 999999 999999 999999 999999 999999 999999 999999 999999 999999 999999 999999 999999 999999 999999 999999 999999 999999 999999 999999 999999 999999 13426 999999 999999 999999 999999 999999 18653 999999 999999 10251 999999 999999 999999 999999 999999 999999 999999 999999 999999 13522 999999 999999 999999 999999 999999 999999 999999 999999 999999 999999 999999 999999 999999 999999 999999 999999 999999 999999 999999 999999 13084 999999 999999 999999 999999 999999 13525 999999 999999 999999 13541 999999 999999 999999 999999 11579 15757 999999 999999 999999 999999 999999 999999 999999 999999 999999 999999 999999 999999 999999 999999 11264 999999 999999 999999 999999 11141 999999 999999 999999 999999 999999 999999 999999 10396 999999 999999 999999 999999 999999 999999 999999 999999 999999 999999 999999 999999 999999 999999 999999 999999 999999 999999 999999 999999 999999 10393 999999 999999 999999 999999 999999 999999 999999 999999 999999 13455 999999 999999 999999 999999 999999 999999 16801 999999 999999 999999 999999 999999 10894 999999 999999 999999 999999 999999 999999 999999 999999 15227 999999 999999 999999 999999 999999 999999 999999 999999 999999 999999 999999 999999 999999 999999 999999 999999 999999 999999 999999 999999 999999 999999 999999 999999 999999 999999 999999 999999 15074 999999 999999 999999 999999 999999 999999 999999 999999 999999 999999 999999 999999
999999 999999 999999 999999 999999 999999 999999 999999 999999 999999 999999 999999 999999 999999 999999 999999 999999 999999 999999 999999 999999 999999 999999 999999 999999 999999 999999 999999 999999 999999 999999 999999 999999 999999 999999 999999 999999 999999 999999 999999 999999 999999 999999 999999 999999 999999 999999 999999 999999 999999 999999 999999 999999 999999 999999 999999 999999 999999 999999 999999 999999 999999 999999 999999 999999 999999 999999 999999 999999 999999 999999 999999 999999 999999 999999 999999 999999 999999 999999 999999 999999 999999 999999 999999 999999 999999 999999 999999 999999 999999 999999 999999 999999 999999 999999 999999 999999 999999 999999 999999 999999 999999 999999 999999 999999 999999 999999 999999 999999 999999 999999 999999 999999 999999 999999 999999 999999 999999 999999 999999 999999 999999 999999 999999 999999 999999 999999 999999 999999 999999 999999 999999 999999 999999 999999 999999 999999 999999 999999 999999 999999 999999 999999 999999 999999 0 999999 999999 999999 999999 999999 999999 999999 999999 999999 999999 999999 999999 999999 999999 999999 999999 999999 999999 999999 999999 999999 999999 999999 999999 999999 999999 999999 999999 999999 999999 999999 999999 999999 999999 999999 999999 999999 999999 999999 999999 999999 16732 999999 999999 999999 999999 13257 999999 999999 999999 999999 999999 999999 999999 999999 999999 999999 999999 999999 999999 999999 999999 999999 999999 13466 999999 999999 999999 999999 11105 999999 999999 999999 999999 999999 999999 999999 999999 11068 999999 999999 999999 999999 999999 999999 999999 999999 999999 999999 999999 999999 999999 999999 13013 999999 12011 999999 999999 999999 999999 18208 999999 999999 11414 999999 16660 999999 999999 999999 999999 999999 999999 999999 999999 999999 999999 999999 999999 999999 999999 999999 999999 999999 999999 999999 999999 999999 999999 999999 999999 999999 999999 999999 999999 999999 999999 999999 999999 999999 999999 999999 17644 999999 999999 10085 17353 999999 999999 999999 999999 999999 999999 999999 999999 999999 999999 999999 999999 999999 999999 999999 999999 999999 999999 999999 999999 999999 999999 999999 999999 999999 999999 15570 999999 999999 999999 999999 999999 999999 999999 999999 999999 999999 999999 11633 999999 999999 999999 999999 999999 999999 999999 999999 999999 999999 18929 999999 999999 999999 17817 999999 13656 999999 999999 999999 999999 999999 999999 999999 999999 999999 999999 999999 999999 999999 999999
999999 999999 999999 999999 999999 999999 999999 999999 999999 999999 999999 999999 999999 999999 999999 999999 999999 999999 999999 999999 999999 999999 999999 999999 999999 999999 999999 999999 999999 999999 999999 999999 999999 999999 999999 999999 999999 999999 999999 999999 999999 999999 999999 999999 999999 999999 999999 999999 999999 999999 999999 999999 999999 999999 999999 999999 999999 999999 999999 999999 999999 999999 999999 999999 999999 999999 999999 999999 999999 999999 999999 999999 999999 999999 999999 999999 999999 999999 999999 999999 999999 999999 999999 999999 999999 999999 999999 999999 999999 999999 999999 999999 999999 999999 999999 999999 999999 999999 999999 999999 999999 999999 999999 999999 999999 999999 999999 999999 999999 999999 999999 999999 999999 999999 999999 999999 999999 999999 999999 999999 999999 999999 999999 999999 999999 999999 999999 999999 999999 999999 999999 999999 999999 999999 999999 999999 999999 999999 999999 999999 999999 999999 999999 999999 999999 999999 0 999999 999999 999999 999999 999999 999999 999999 999999 999999 999999 999999 999999 999999 999999 999999 999999 999999 999999 999999 999999 999999 999999 999999 999999 999999 999999 999999 999999 999999 999999 999999 999999 999999 999999 999999 999999 999999 999999 999999 999999 12977 999999 999999 999999 999999 15261 999999 999999 999999 999999 999999 999999 999999 999999 999999 999999 999999 999999 999999 999999 999999 999999 999999 17864 999999 999999 999999 999999 15823 999999 999999 999999 999999 999999 999999 999999 999999 17604 999999 999999 999999 999999 999999 999999 999999 999999 999999 999999 999999 999999 999999 999999 11631 999999 13460 999999 999999 999999 999999 11456 999999 999999 19134 999999 10389 999999 999999 999999 999999 999999 999999 999999 999999 999999 999999 999999 999999 999999 999999 999999 999999 999999 999999 999999 999999 999999 999999 999999 999999 999999 999999 999999 999999 999999 999999 999999 999999 999999 999999 999999 18909 999999 999999 16221 13575 999999 999999 999999 999999 999999 999999 999999 999999 999999 999999 999999 999999 999999 999999 999999 999999 999999 999999 999999 999999 999999 999999 999999 999999 999999 999999 18694 999999 999999 999999 999999 999999 999999 999999 999999 999999 999999 999999 19520 999999 999999 999999 999999 999999 999999 999999 999999 999999 999999 19508 999999 999999 999999 11739 999999 15897 999999 999999 999999 999999 999999 999999 999999 999999 999999 999999 999999 999999 999999 999999
999999 999999 999999 999999 999999 999999 999999 999999 999999 999999 999999 999999 999999 999999 999999 999999 999999 999999 999999 999999 999999 999999 999999 999999 999999 999999 999999 999999 999999 999999 999999 999999 999999 999999 999999 999999 999999 999999 999999 999999 999999 999999 999999 999999 999999 999999 999999 999999 999999 999999 999999 999999 999999 999999 999999 999999 999999 999999 999999 999999 999999 999999 999999 999999 999999 999999 999999 999999 999999 999999 999999 999999 999999 999999 999999 999999 999999 999999 999999 999999 999999 999999 999999 999999 999999 999999 999999 999999 999999 999999 999999 999999 999999 999999 999999 999999 999999 999999 999999 999999 999999 999999 999999 999999 999999 999999 999999 999999 999999 999999 999999 999999 999999 999999 999999 999999 999999 999999 999999 999999 999999 999999 999999 999999 999999 999999 999999 999999 999999 999999 999999 999999 999999 999999 999999 999999 999999 999999 999999 999999 999999 999999 999999 999999 999999 999999 999999 0 999999 999999 999999 999999 999999 999999 999999 999999 999999 999999 999999 999999 999999 999999 999999 999999 999999 999999 999999 999999 999999 999999 999999 999999 999999 999999 999999 999999 999999 999999 999999 999999 999999 999999 999999 999999 999999 999999 999999 15157 999999 999999 999999 999999 17933 999999 999999 999999 999999 999999 999999 999999 999999 999999 999999 999999 999999 999999 999999 999999 999999 999999 11402 999999 999999 999999 999999 14500 999999 999999 999999 999999 999999 999999 999999 999999 17265 999999 999999 999999 999999 999999 999999 999999 999999 999999 999999 999999 999999 999999 999999 13932 999999 11314 999999 999999 999999 999999 16172 999999 999999 16315 999999 13436 999999 999999 999999 999999 999999 999999 999999 999999 999999 999999 999999 999999 999999 999999 999999 999999 999999 999999 999999 999999 999999 999999 999999 999999 999999 999999 999999 999999 999999 999999 999999 999999 999999 999999 999999 14332 999999 999999 15870 15129 999999 999999 999999 999999 999999 999999 999999 999999 999999 999999 999999 999999 999999 999999 999999 999999 999999 999999 999999 999999 999999 999999 999999 999999 999999 999999 13435 999999 999999 999999 999999 999999 999999 999999 999999 999999 999999 999999 11832 999999 999999 999999 999999 999999 999999 999999 999999 999999 999999 14387 999999 999999 999999 11573 999999 18930 999999 999999 999999 999999 999999 999999 999999 999999 999999 999999 999999 999999 999999 999999
999999 999999 999999 999999 999999 999999 999999 999999 999999 999999 999999 999999 999999 999999 999999 999999 999999 999999 999999 999999 999999 999999 999999 999999 999999 999999 999999 999999 999999 999999 999999 999999 999999 999999 999999 999999 999999 999999 999999 999999 999999 999999 999999 999999 999999 999999 999999 999999 999999 999999 999999 999999 999999 999999 999999 999999 999999 999999 999999 999999 999999 999999 999999 999999 999999 999999 999999 999999 999999 999999 999999 999999 999999 999999 999999 999999 999999 999999 999999 999999 999999 999999 999999 999999 999999 999999 999999 999999 999999 999999 999999 999999 999999 999999 999999 999999 999999 999999 999999 999999 999999 999999 999999 999999 999999 999999 999999 999999 999999 999999 999999 999999 999999 999999 999999 999999 999999 999999 999999 999999 999999 999999 999999 999999 999999 999999 999999 999999 999999 999999 999999 999999 999999 999999 999999 999999 999999 999999 999999 999999 999999 999999 999999 999999 999999 999999 999999 999999 0 999999 999999 999999 999999 999999 999999 999999 999999 999999 999999 999999 999999 999999 999999 999999 999999 999999 999999 999999 999999 999999 999999 999999 999999 999999 999999 999999 999999 999999 999999 999999 999999 999999 999999 999999 999999 999999 999999 11213 999999 999999 999999 999999 16040 999999 999999 999999 999999 999999 999999 999999 999999 999999 999999 999999 999999 999999 999999 999999 999999 999999 11639 999999 999999 999999 999999 17991 999999 999999 999999 999999 999999 999999 999999 999999 14463 999999 999999 999999 999999 999999 999999 999999 999999 999999 999999 999999 999999 999999 999999 11290 999999 15464 999999 999999 999999 999999 12578 999999 999999 10229 999999 10793 999999 999999 999999 999999 999999 999999 999999 999999 999999 999999 999999 999999 999999 999999 999999 999999 999999 999999 999999 999999 999999 999999 999999 999999 999999 999999 999999 999999 999999 999999 999999 999999 999999 999999 999999 14735 999999 999999 17187 12035 999999 999999 999999 999999 999999 999999 999999 999999 999999 999999 999999 999999 999999 999999 999999 999999 999999 999999 999999 999999 999999 999999 999999 999999 999999 999999 12640 999999 999999 999999 999999 999999 999999 999999 999999 999999 999999 999999 13582 999999 999999 999999 999999 999999 999999 999999 999999 999999 999999 13485 999999 999999 999999 16044 999999 18259 999999 999999 999999 999999 999999 999999 999999 999999 999999 999999 999999 999999 999999 999999
999999 999999 999999 999999 999999 999999 999999 999999 999999 999999 999999 999999 999999 999999 999999 999999 999999 999999 999999 999999 999999 999999 999999 999999 999999 999999 999999 999999 999999 999999 999999 999999 999999 999999 999999 999999 999999 999999 999999 999999 999999 999999 999999 999999 999999 999999 999999 999999 999999 999999 999999 999999 999999 999999 999999 999999 999999 999999 999999 999999 999999 999999 999999 999999 999999 999999 999999 999999 999999 999999 999999 999999 999999 999999 999999 999999 999999 999999 999999 999999 999999 999999 999999 999999 999999 999999 999999 999999 999999 999999 999999 999999 999999 999999 999999 999999 999999 999999 999999 999999 999999 999999 999999 999999 999999 999999 999999 999999 999999 999999 999999 999999 999999 999999 999999 999999 999999 999999 999999 999999 999999 999999 999999 999999 999999 999999 999999 999999 999999 999999 999999 999999 999999 999999 999999 999999 999999 999999 999999 999999 999999 999999 999999 999999 999999 999999 999999 999999 999999 0 999999 999999 999999 999999 999999 999999 999999 999999 999999 999999 999999 999999 999999 999999 999999 999999 999999 999999 999999 999999 999999 999999 999999 999999 999999 999999 999999 999999 999999 999999 999999 999999 999999 999999 999999 999999 999999 15643 999999 999999 999999 999999 13208 999999 999999 999999 999999 999999 999999 999999 999999 999999 999999 999999 999999 999999 999999 999999 999999 999999 17859 999999 999999 999999 999999 11482 999999 999999 999999 999999 999999 999999 999999 999999 12167 999999 999999 999999 999999 999999 999999 999999 999999 999999 999999 999999 999999 999999 999999 14004 999999 11488 999999 999999 999999 999999 19050 999999 999999 18379 999999 12907 999999 999999 999999 999999 999999 999999 999999 999999 999999 999999 999999 999999 999999 999999 999999 999999 999999 999999 999999 999999 999999 999999 999999 999999 999999 999999 999999 999999 999999 999999 999999 999999 999999 999999 999999 14373 999999 999999 11272 16114 999999 999999 999999 999999 999999 999999 999999 999999 999999 999999 999999 999999 999999 999999 999999 999999 999999 999999 999999 999999 999999 999999 999999 999999 999999 999999 11309 999999 999999 999999 999999 999999 999999 999999 999999 999999 999999 999999 12464 999999 999999 999999 999999 999999 999999 999999 999999 999999 999999 16490 999999 999999 999999 12116 999999 13691 999999 999999 999999 999999 999999 999999 999999 999999 999999 999999 999999 999999 999999 999999
999999 999999 999999 999999 999999 999999 999999 999999 999999 999999 999999 999999 999999 999999 999999 999999 999999 999999 999999 999999 999999 999999 999999 999999 999999 999999 999999 999999 999999 999999 999999 999999 999999 999999 999999 999999 999999 999999 999999 999999 999999 999999 999999 999999 999999 999999 999999 999999 999999 999999 999999 999999 999999 999999 999999 999999 999999 999999 999999 999999 999999 999999 999999 999999 999999 999999 999999 999999 999999 999999 999999 999999 999999 999999 999999 999999 999999 999999 999999 999999 999999 999999 999999 999999 999999 999999 999999 999999 999999 999999 999999 999999 999999 999999 999999 999999 999999 999999 999999 999999 999999 999999 999999 999999 999999 999999 999999 999999 999999 999999 999999 999999 999999 999999 999999 999999 999999 999999 999999 999999 999999 999999 999999 999999 999999 999999 999999 999999 999999 999999 999999 999999 999999 999999 999999 999999 999999 999999 999999 999999 999999 999999 999999 999999 999999 999999 999999 999999 999999 999999 0 999999 999999 999999 999999 999999 999999 999999 999999 999999 999999 999999 999999 999999 999999 999999 999999 999999 999999 999999 999999 999999 999999 999999 999999 999999 999999 999999 999999 999999 999999 999999 999999 999999 999999 999999 999999 16588 999999 999999 999999 999999 13031 999999 999999 999999 999999 999999 999999 999999 999999 999999 999999 999999 999999 999999 999999 999999 999999 999999 13627 999999 999999 999999 999999 18158 999999 999999 999999 999999 999999 999999 999999 999999 10370 999999 999999 999999 999999 999999 999999 999999 999999 999999 999999 999999 999999 999999 999999 13826 999999 11348 999999 999999 999999 999999 15010 999999 999999 16742 999999 14791 999999 999999 999999 999999 999999 999999 999999 999999 999999 999999 999999 999999 999999 999999 999999 999999 999999 999999 999999 999999 999999 999999 999999 999999 999999 999999 999999 999999 999999 999999 999999 999999 999999 999999 999999 15879 999999 999999 17870 15782 999999 999999 999999 999999 999999 999999 999999 999999 999999 999999 999999 999999 999999 999999 999999 999999 999999 999999 999999 999999 999999 999999 999999 999999 999999 999999 18342 999999 999999 999999 999999 999999 999999 999999 999999 999999 999999 999999 15615 999999 999999 999999 999999 999999 999999 999999 999999 999999 999999 19403 999999 999999 999999 17740 999999 17407 999999 999999 999999 999999 999999 999999 999999 999999 999999 999999 999999 999999 999999 999999
999999 999999 999999 999999 999999 999999 999999 999999 999999 999999 999999 999999 999999 999999 999999 999999 999999 999999 999999 999999 999999 999999 999999 999999 999999 999999 999999 999999 999999 999999 999999 999999 999999 999999 999999 999999 999999 999999 999999 999999 999999 999999 999999 999999 999999 999999 999999 999999 999999 999999 999999 999999 999999 999999 999999 999999 999999 999999 999999 999999 999999 999999 999999 999999 999999 999999 999999 999999 999999 999999 999999 999999 999999 999999 999999 999999 999999 999999 999999 999999 999999 999999 999999 999999 999999 999999 999999 999999 999999 999999 999999 999999 999999 999999 999999 999999 999999 999999 999999 999999 999999 999999 999999 999999 999999 999999 999999 999999 999999 999999 999999 999999 999999 999999 999999 999999 999999 999999 999999 999999 999999 999999 999999 999999 999999 999999 999999 999999 999999 999999 999999 999999 999999 999999 999999 999999 999999 999999 999999 999999 999999 999999 999999 999999 999999 999999 999999 999999 999999 999999 999999 0 999999 999999 999999 999999 999999 999999 999999 999999 999999 999999 999999 999999 999999 999999 999999 999999 999999 999999 999999 999999 999999 999999 999999 999999 999999 999999 999999 999999 999999 999999 999999 999999 999999 999999 999999 12871 999999 999999 999999 999999 19071 999999 999999 999999 999999 999999 999999 999999 999999 999999 999999 999999 999999 999999 999999 999999 999999 999999 15719 999999 999999 999999 999999 11114 999999 999999 999999 999999 999999 999999 999999 999999 17438 999999 999999 999999 999999 999999 999999 999999 999999 999999 999999 999999 999999 999999 999999 15589 999999 18457 999999 999999 999999 999999 17717 999999 999999 14504 999999 11962 999999 999999 999999 999999 999999 999999 999999 999999 999999 999999 999999 999999 999999 999999 999999 999999 999999 999999 999999 999999 999999 999999 999999 999999 999999 999999 999999 999999 999999 999999 999999 999999 999999 999999 999999 14382 999999 999999 15804 17724 999999 999999 999999 999999 999999 999999 999999 999999 999999 999999 999999 999999 999999 999999 999999 999999 999999 999999 999999 999999 999999 999999 999999 999999 999999 999999 12142 999999 999999 999999 999999 999999 999999 999999 999999 999999 999999 999999 11022 999999 999999 999999 999999 999999 999999 999999 999999 999999 999999 18649 999999 999999 999999 13972 999999 14600 999999 999999 999999 999999 999999 999999 999999 999999 999999 999999 999999 999999 999999 999999
999999 999999 999999 999999 999999 999999 999999 999999 999999 999999 999999 999999 999999 999999 999999 999999 999999 999999 999999 999999 999999 999999 999999 999999 999999 999999 999999 999999 999999 999999 999999 999999 999999 999999 999999 999999 999999 999999 999999 999999 999999 999999 999999 999999 999999 999999 999999 999999 999999 999999 999999 999999 999999 999999 999999 999999 999999 999999 999999 999999 999999 999999 999999 999999 999999 999999 999999 999999 999999 999999 999999 999999 999999 999999 999999 999999 999999 999999 999999 999999 999999 999999 999999 999999 999999 999999 999999 999999 999999 999999 999999 999999 999999 999999 999999 999999 999999 999999 999999 999999 999999 999999 999999 999999 999999 999999 999999 999999 999999 999999 999999 999999 999999 999999 999999 999999 999999 999999 999999 999999 999999 999999 999999 999999 999999 999999 999999 999999 999999 999999 999999 999999 999999 999999 999999 999999 999999 999999 999999 999999 999999 999999 999999 999999 999999 999999 999999 999999 999999 999999 999999 999999 0 999999 999999 999999 999999 999999 999999 999999 999999 999999 999999 999999 999999 999999 999999 999999 999999 999999 999999 999999 999999 999999 999999 999999 999999 999999 999999 999999 999999 999999 999999 999999 999999 999999 999999 10104 999999 999999 999999 999999 19398 999999 999999 999999 999999 999999 999999 999999 999999 999999 999999 999999 999999 999999 999999 999999 999999 999999 15435 999999 999999 999999 999999 14715 999999 999999 999999 999999 999999 999999 999999 999999 11665 999999 999999 999999 999999 999999 999999 999999 999999 999999 999999 999999 999999 999999 999999 18390 999999 11361 999999 999999 999999 999999 19789 999999 999999 13792 999999 18890 999999 999999 999999 999999 999999 999999 999999 999999 999999 999999 999999 999999 999999 999999 999999 999999 999999 999999 999999 999999 999999 999999 999999 999999 999999 999999 999999 999999 999999 999999 999999 999999 999999 999999 999999 15501 999999 999999 13722 17712 999999 999999 999999 999999 999999 999999 999999 999999 999999 999999 999999 999999 999999 999999 999999 999999 999999 999999 999999 999999 999999 999999 999999 999999 999999 999999 18001 999999 999999 999999 999999 999999 999999 999999 999999 999999 999999 999999 18832 999999 999999 999999 999999 999999 999999 999999 999999 999999 999999 17505 999999 999999 999999 12899 999999 18063 999999 999999 999999 999999 999999 999999 999999 999999 999999 999999 999999 999999 999999 999999
999999 999999 999999 999999 999999 999999 999999 999999 999999 999999 999999 999999 999999 999999 999999 999999 999999 999999 999999 999999 999999 999999 999999 999999 999999 999999 999999 999999 999999 999999 999999 999999 999999 999999 999999 999999 999999 999999 999999 999999 999999 999999 999999 999999 999999 999999 999999 999999 999999 999999 999999 999999 999999 999999 999999 999999 999999 999999 999999 999999 999999 999999 999999 999999 999999 999999 999999 999999 999999 999999 999999 999999 999999 999999 999999 999999 999999 999999 999999 999999 999999 999999 999999 999999 999999 999999 999999 999999 999999 999999 999999 999999 999999 999999 999999 999999 999999 999999 999999 999999 999999 999999 999999 999999 999999 999999 999999 999999 999999 999999 999999 999999 999999 999999 999999 999999 999999 999999 999999 999999 999999 999999 999999 999999 999999 999999 999999 999999 999999 999999 999999 999999 999999 999999 999999 999999 999999 999999 999999 999999 999999 999999 999999 999999 999999 999999 999999 999999 999999 999999 999999 999999 999999 0 999999 999999 999999 999999 999999 999999 999999 999999 999999 999999 999999 999999 999999 999999 999999 999999 999999 999999 999999 999999 999999 999999 999999 999999 999999 999999 999999 999999 999999 999999 999999 999999 999999 18445 999999 999999 999999 999999 18444 999999 999999 999999 999999 999999 999999 999999 999999 999999 999999 999999 999999 999999 999999 999999 999999 999999 14080 999999 999999 999999 999999 15745 999999 999999 999999 999999 999999 999999 999999 999999 17059 999999 999999 999999 999999 999999 999999 999999 999999 999999 999999 999999 999999 999999 999999 19415 999999 10411 999999 999999 999999 999999 10220 999999 999999 11894 999999 12614 999999 999999 999999 999999 999999 999999 999999 999999 999999 999999 999999 999999 999999 999999 999999 999999 999999 999999 999999 999999 999999 999999 999999 999999 999999 999999 999999 999999 999999 999999 999999 999999 999999 999999 999999 12100 999999 999999 17484 10828 999999 999999 999999 999999 999999 999999 999999 999999 999999 999999 999999 999999 999999 999999 999999 999999 999999 999999 999999 999999 999999 999999 999999 999999 999999 999999 14995 999999 999999 999999 999999 999999 999999 999999 999999 999999 999999 999999 18020 999999 999999 999999 999999 999999 999999 999999 999999 999999 999999 17699 999999 999999 999999 14649 999999 15363 999999 999999 999999 999999 999999 999999 999999 999999 999999 999999 999999 999999 999999 999999
999999 999999 999999 999999 999999 999999 999999 999999 999999 999999 999999 999999 999999 999999 999999 999999 999999 999999 999999 999999 999999 999999 999999 999999 999999 999999 999999 999999 999999 999999 999999 999999 999999 999999 999999 999999 999999 999999 999999 999999 999999 999999 999999 999999 999999 999999 999999 999999 999999 999999 999999 999999 999999 999999 999999 999999 999999 999999 999999 999999 999999 999999 999999 999999 999999 999999 999999 999999 999999 999999 999999 999999 999999 999999 999999 999999 999999 999999 999999 999999 999999 999999 999999 999999 999999 999999 999999 999999 999999 999999 999999 999999 999999 999999 999999 999999 999999 999999 999999 999999 999999 999999 999999 999999 999999 999999 999999 999999 999999 999999 999999 999999 999999 999999 999999 999999 999999 999999 999999 999999 999999 999999 999999 999999 999999 999999 999999 999999 999999 999999 999999 999999 999999 999999 999999 999999 999999 999999 999999 999999 999999 999999 999999 999999 999999 999999 999999 999999 999999 999999 999999 999999 999999 999999 0 999999 999999 999999 999999 999999 999999 999999 999999 999999 999999 999999 999999 999999 999999 999999 999999 999999 999999 999999 999999 999999 999999 999999 999999 999999 999999 999999 999999 999999 999999 999999 999999 14534 999999 999999 999999 999999 17748 999999 999999 999999 999999 999999 999999 999999 999999 999999 999999 999999 999999 999999 999999 999999 999999 999999 18998 999999 999999 999999 999999 14935 999999 999999 999999 999999 999999 999999 999999 999999 13124 999999 999999 999999 999999 999999 999999 999999 999999 999999 999999 999999 999999 999999 999999 14799 999999 11933 999999 999999 999999 999999 12777 999999 999999 19412 999999 12331 999999 999999 999999 999999 999999 999999 999999 999999 999999 999999 999999 999999 999999 999999 999999 999999 999999 999999 999999 999999 999999 999999 999999 999999 999999 999999 999999 999999 999999 999999 999999 999999 999999 999999 999999 12078 999999 999999 17773 15658 999999 999999 999999 999999 999999 999999 999999 999999 999999 999999 999999 999999 999999 999999 999999 999999 999999 999999 999999 999999 999999 999999 999999 999999 999999 999999 11341 999999 999999 999999 999999 999999 999999 999999 999999 999999 999999 999999 12941 999999 999999 999999 999999 999999 999999 999999 999999 999999 999999 18631 999999 999999 999999 10670 999999 14274 999999 999999 999999 999999 999999 999999 999999 999999 999999 999999 999999 999999 999999 999999
999999 999999 999999 999999 999999 999999 999999 999999 999999 999999 999999 999999 999999 999999 999999 999999 999999 999999 999999 999999 999999 999999 999999 999999 999999 999999 999999 999999 999999 999999 999999 999999 999999 999999 999999 999999 999999 999999 999999 999999 999999 999999 999999 999999 999999 999999 999999 999999 999999 999999 999999 999999 999999 999999 999999 999999 999999 999999 999999 999999 999999 999999 999999 999999 999999 999999 999999 999999 999999 999999 999999 999999 999999 999999 999999 999999 999999 999999 999999 999999 999999 999999 999999 999999 999999 999999 999999 999999 999999 999999 999999 999999 999999 999999 999999 999999 999999 999999 999999 999999 999999 999999 999999 999999 999999 999999 999999 999999 999999 999999 999999 999999 999999 999999 999999 999999 999999 999999 999999 999999 999999 999999 999999 999999 999999 999999 999999 999999 999999 999999 999999 999999 999999 999999 999999 999999 999999 999999 999999 999999 999999 999999 999999 999999 999999 999999 999999 999999 999999 999999 999999 999999 999999 999999 999999 0 999999 999999 999999 999999 999999 999999 999999 999999 999999 999999 999999 999999 999999 999999 999999 999999 999999 999999 999999 999999 999999 999999 999999 999999 999999 999999 999999 999999 999999 999999 999999 16647 999999 999999 999999 999999 19981 999999 999999 999999 999999 999999 999999 999999 999999 999999 999999 999999 999999 999999 999999 999999 999999 999999 10060 999999 999999 999999 999999 13851 999999 999999 999999 999999 999999 999999 999999 999999 12627 999999 999999 999999 999999 999999 999999 999999 999999 999999 999999 999999 999999 999999 999999 19052 999999 13329 999999 999999 999999 999999 10255 999999 999999 12210 999999 18706 999999 999999 999999 999999 999999 999999 999999 999999 999999 999999 999999 999999 999999 999999 999999 999999 999999 999999 999999 999999 999999 999999 999999 999999 999999 999999 999999 999999 999999 999999 999999 999999 999999 999999 999999 15134 999999 999999 18755 19542 999999 999999 999999 999999 999999 999999 999999 999999 999999 999999 999999 999999 999999 999999 999999 999999 999999 999999 999999 999999 999999 999999 999999 999999 999999 999999 14765 999999 999999 999999 999999 999999 999999 999999 999999 999999 999999 999999 12636 999999 999999 999999 999999 999999 999999 999999 999999 999999 999999 15465 999999 999999 999999 14255 999999 16977 999999 999999 999999 999999 999999 999999 999999 999999 999999 999999 999999 999999 999999 999999
999999 999999 999999 999999 999999 999999 999999 999999 999999 999999 999999 999999 999999 999999 999999 999999 999999 999999 999999 999999 999999 999999 999999 999999 999999 999999 999999 999999 999999 999999 999999 999999 999999 999999 999999 999999 999999 999999 999999 999999 999999 999999 999999 999999 999999 999999 999999 999999 999999 999999 999999 999999 999999 999999 999999 999999 999999 999999 999999 999999 999999 999999 999999 999999 999999 999999 999999 999999 999999 999999 999999 999999 999999 999999 999999 999999 999999 999999 999999 999999 999999 999999 999999 999999 999999 999999 999999 999999 999999 999999 999999 999999 999999 999999 999999 999999 999999 999999 999999 999999 999999 999999 999999 999999 999999 999999 999999 999999 999999 999999 999999 999999 999999 999999 999999 999999 999999 999999 999999 999999 999999 999999 999999 999999 999999 999999 999999 999999 999999 999999 999999 999999 999999 999999 999999 999999 999999 999999 999999 999999 999999 999999 999999 999999 999999 999999 999999 999999 999999 999999 999999 999999 999999 999999 999999 999999 0 999999 999999 999999 999999 999999 999999 999999 999999 999999 999999 999999 999999 999999 999999 999999 999999 999999 999999 999999 999999 999999 999999 999999 999999 999999 999999 999999 999999 999999 999999 17104 999999 999999 999999 999999 18582 999999 999999 999999 999999 999999 999999 999999 999999 999999 999999 999999 999999 999999 999999 999999 999999 999999 18950 999999 999999 999999 999999 15001 999999 999999 999999 999999 999999 999999 999999 999999 12131 999999 999999 999999 999999 999999 999999 999999 999999 999999 999999 999999 999999 999999 999999 11520 999999 17416 999999 999999 999999 999999 16045 999999 999999 11972 999999 18768 999999 999999 999999 999999 999999 999999 999999 999999 999999 999999 999999 999999 999999 999999 999999 999999 999999 999999 999999 999999 999999 999999 999999 999999 999999 999999 999999 999999 999999 999999 999999 999999 999999 999999 999999 14074 999999 999999 14835 17856 999999 999999 999999 999999 999999 999999 999999 999999 999999 999999 999999 999999 999999 999999 999999 999999 999999 999999 999999 999999 999999 999999 999999 999999 999999 999999 17806 999999 999999 999999 999999 999999 999999 999999 999999 999999 999999 999999 16290 999999 999999 999999 999999 999999 999999 999999 999999 999999 999999 14662 999999 999999 999999 11659 999999 16259 999999 999999 999999 999999 999999 999999 999999 999999 999999 999999 999999 999999 999999 999999
999999 999999 999999 999999 999999 999999 999999 999999 999999 999999 999999 999999 999999 999999 999999 999999 999999 999999 999999 999999 999999 999999 999999 999999 999999 999999 999999 999999 999999 999999 999999 999999 999999 999999 999999 999999 999999 999999 999999 999999 999999 999999 999999 999999 999999 999999 999999 999999 999999 999999 999999 999999 999999 999999 999999 999999 999999 999999 999999 999999 999999 999999 999999 999999 999999 999999 999999 999999 999999 999999 999999 999999 999999 999999 999999 999999 999999 999999 999999 999999 999999 999999 999999 999999 999999 999999 999999 999999 999999 999999 999999 999999 999999 999999 999999 999999 999999 999999 999999 999999 999999 999999 999999 999999 999999 999999 999999 999999 999999 999999 999999 999999 999999 999999 999999 999999 999999 999999 999999 999999 999999 999999 999999 999999 999999 999999 999999 999999 999999 999999 999999 999999 999999 999999 999999 999999 999999 999999 999999 999999 999999 999999 999999 999999 999999 999999 999999 999999 999999 999999 999999 999999 999999 999999 999999 999999 999999 0 999999 999999 999999 999999 999999 999999 999999 999999 999999 999999 999999 999999 999999 999999 999999 999999 999999 999999 999999 999999 999999 999999 999999 999999 999999 999999 999999 999999 999999 17999 999999 999999 999999 999999 14349 999999 999999 999999 999999 999999 999999 999999 999999 999999 999999 999999 999999 999999 999999 999999 999999 999999 14205 999999 999999 999999 999999 13125 999999 999999 999999 999999 999999 999999 999999 999999 19281 999999 999999 999999 999999 999999 999999 999999 999999 999999 999999 999999 999999 999999 999999 19036 999999 18730 999999 999999 999999 999999 15442 999999 999999 14809 999999 14893 999999 999999 999999 999999 999999 999999 999999 999999 999999 999999 999999 999999 999999 999999 999999 999999 999999 999999 999999 999999 999999 999999 999999 999999 999999 999999 999999 999999 999999 999999 999999 999999 999999 999999 999999 16280 999999 999999 17336 18108 999999 999999 999999 999999 999999 999999 999999 999999 999999 999999 999999 999999 999999 999999 999999 999999 999999 999999 999999 999999 999999 999999 999999 999999 999999 999999 12888 999999 999999 999999 999999 999999 999999 999999 999999 999999 999999 999999 18364 999999 999999 999999 999999 999999 999999 999999 999999 999999 999999 14207 999999 999999 999999 14609 999999 10921 999999 999999 999999 999999 999999 999999 999999 999999 999999 999999 999999 999999 999999 999999
999999 999999 999999 999999 999999 999999 999999 999999 999999 999999 999999 999999 999999 999999 999999 999999 999999 999999 999999 999999 999999 999999 999999 999999 999999 999999 999999 999999 999999 999999 999999 999999 999999 999999 999999 999999 999999 999999 999999 999999 999999 999999 999999 999999 999999 999999 999999 999999 999999 999999 999999 999999 999999 999999 999999 999999 999999 999999 999999 999999 999999 999999 999999 999999 999999 999999 999999 999999 999999 999999 999999 999999 999999 999999 999999 999999 999999 999999 999999 999999 999999 999999 999999 999999 999999 999999 999999 999999 999999 999999 999999 999999 999999 999999 999999 999999 999999 999999 999999 999999 999999 999999 999999 999999 999999 999999 999999 999999 999999 999999 999999 999999 999999 999999 999999 999999 999999 999999 999999 999999 999999 999999 999999 999999 999999 999999 999999 999999 999999 999999 999999 999999 999999 999999 999999 999999 999999 999999 999999 999999 999999 999999 999999 999999 999999 999999 999999 999999 999999 999999 999999 999999 999999 999999 999999 999999 999999 999999 0 999999 999999 999999 999999 999999 999999 999999 999999 999999 999999 999999 999999 999999 999999 999999 999999 999999 999999 999999 999999 999999 999999 999999 999999 999999 999999 999999 999999 12086 999999 999999 999999 999999 19059 999999 999999 999999 999999 999999 999999 999999 999999 999999 999999 999999 999999 999999 999999 999999 999999 999999 16058 999999 999999 999999 999999 17356 999999 999999 999999 999999 999999 999999 999999 999999 16904 999999 999999 999999 999999 999999 999999 999999 999999 999999 999999 999999 999999 999999 999999 17984 999999 12536 999999 999999 999999 999999 15737 999999 999999 15872 999999 12569 999999 999999 999999 999999 999999 999999 999999 999999 999999 999999 999999 999999 999999 999999 999999 999999 999999 999999 999999 999999 999999 999999 999999 999999 999999 999999 999999 999999 999999 999999 999999 999999 999999 999999 999999 13893 999999 999999 19189 17526 999999 999999 999999 999999 999999 999999 999999 999999 999999 999999 999999 999999 999999 999999 999999 999999 999999 999999 999999 999999 999999 999999 999999 999999 999999 999999 14110 999999 999999 999999 999999 999999 999999 999999 999999 999999 999999 999999 17003 999999 999999 999999 999999 999999 999999 999999 999999 999999 999999 13251 999999 999999 999999 13606 999999 14089 999999 999999 999999 999999 999999 999999 999999 999999 999999 999999 999999 999999 999999 999999
999999 999999 999999 999999 999999 999999 999999 999999 999999 999999 999999 999999 999999 999999 999999 999999 999999 999999 999999 999999 999999 999999 999999 999999 999999 999999 999999 999999 999999 999999 999999 999999 999999 999999 999999 999999 999999 999999 999999 999999 999999 999999 999999 999999 999999 999999 999999 999999 999999 999999 999999 999999 999999 999999 999999 999999 999999 999999 999999 999999 999999 999999 999999 999999 999999 999999 999999 999999 999999 999999 999999 999999 999999 999999 999999 999999 999999 999999 999999 999999 999999 999999 999999 999999 999999 999999 999999 999999 999999 999999 999999 999999 999999 999999 999999 999999 999999 999999 999999 999999 999999 999999 999999 999999 999999 999999 999999 999999 999999 999999 999999 999999 999999 999999 999999 999999 999999 999999 999999 999999 999999 999999 999999 999999 999999 999999 999999 999999 999999 999999 999999 999999 999999 999999 999999 999999 999999 999999 999999 999999 999999 999999 999999 999999 999999 999999 999999 999999 999999 999999 999999 999999 999999 999999 999999 999999 999999 999999 999999 0 999999 999999 999999 999999 999999 999999 999999 999999 999999 999999 999999 999999 999999 999999 999999 999999 999999 999999 999999 999999 999999 999999 999999 999999 999999 999999 999999 14947 999999 999999 999999 999999 13714 999999 999999 999999 999999 999999 999999 999999 999999 999999 999999 999999 999999 999999 999999 999999 999999 999999 15494 999999 999999 999999 999999 13480 999999 999999 999999 999999 999999 999999 999999 999999 15993 999999 999999 999999 999999 999999 999999 999999 999999 999999 999999 999999 999999 999999 999999 18060 999999 18247 999999 999999 999999 999999 18774 999999 999999 15165 999999 11071 999999 999999 999999 999999 999999 999999 999999 999999 999999 999999 999999 999999 999999 999999 999999 999999 999999 999999 999999 999999 999999 999999 999999 999999 999999 999999 999999 999999 999999 999999 999999 999999 999999 999999 999999 18236 999999 999999 15253 19881 999999 999999 999999 999999 999999 999999 999999 999999 999999 999999 999999 999999 999999 999999 999999 999999 999999 999999 999999 999999 999999 999999 999999 999999 999999 999999 13814 999999 999999 999999 999999 999999 999999 999999 999999 999999 999999 999999 10929 999999 999999 999999 999999 999999 999999 999999 999999 999999 999999 15128 999999 999999 999999 19789 999999 19998 999999 999999 999999 999999 999999 999999 999999 999999 999999 999999 999999 999999 999999 999999
999999 999999 999999 999999 999999 999999 999999 999999 999999 999999 999999 999999 999999 999999 999999 999999 999999 999999 999999 999999 999999 999999 999999 999999 999999 999999 999999 999999 999999 999999 999999 999999 999999 999999 999999 999999 999999 999999 999999 999999 999999 999999 999999 999999 999999 999999 999999 999999 999999 999999 999999 999999 999999 999999 999999 999999 999999 999999 999999 999999 999999 999999 999999 999999 999999 999999 999999 999999 999999 999999 999999 999999 999999 999999 999999 999999 999999 999999 999999 999999 999999 999999 999999 999999 999999 999999 999999 999999 999999 999999 999999 999999 999999 999999 999999 999999 999999 999999 999999 999999 999999 999999 999999 999999 999999 999999 999999 999999 999999 999999 999999 999999 999999 999999 999999 999999 999999 999999 999999 999999 999999 999999 999999 999999 999999 999999 999999 999999 999999 999999 999999 999999 999999 999999 999999 999999 999999 999999 999999 999999 999999 999999 999999 999999 999999 999999 999999 999999 999999 999999 999999 999999 999999 999999 999999 999999 999999 999999 999999 999999 0 999999 999999 999999 999999 999999 999999 999999 999999 999999 999999 999999 999999 999999 999999 999999 999999 999999 999999 999999 999999 999999 999999 999999 999999 999999 999999 19187 999999 999999 999999 999999 18409 999999 999999 999999 999999 999999 999999 999999 999999 999999 999999 999999 999999 999999 999999 999999 999999 999999 13550 999999 999999 999999 999999 11822 999999 999999 999999 999999 999999 999999 999999 999999 13758 999999 999999 999999 999999 999999 999999 999999 999999 999999 999999 999999 999999 999999 999999 16567 999999 11785 999999 999999 999999 999999 17060 999999 999999 10699 999999 16297 999999 999999 999999 999999 999999 999999 999999 999999 999999 999999 999999 999999 999999 999999 999999 999999 999999 999999 999999 999999 999999 999999 999999 999999 999999 999999 999999 999999 999999 999999 999999 999999 999999 999999 999999 12923 999999 999999 19781 13360 999999 999999 999999 999999 999999 999999 999999 999999 999999 999999 999999 999999 999999 999999 999999 999999 999999 999999 999999 999999 999999 999999 999999 999999 999999 999999 12071 999999 999999 999999 999999 999999 999999 999999 999999 999999 999999 999999 17203 999999 999999 999999 999999 999999 999999 999999 999999 999999 999999 17159 999999 999999 999999 15804 999999 12768 999999 999999 999999 999999 999999 999999 999999 999999 999999 999999 999999 999999 999999 999999
999999 999999 999999 999999 999999 999999 999999 999999 999999 999999 999999 999999 999999 999999 999999 999999 999999 999999 999999 999999 999999 999999 999999 999999 999999 999999 999999 999999 999999 999999 999999 999999 999999 999999 999999 999999 999999 999999 999999 999999 999999 999999 999999 999999 999999 999999 999999 999999 999999 999999 999999 999999 999999 999999 999999 999999 999999 999999 999999 999999 999999 999999 999999 999999 999999 999999 999999 999999 999999 999999 999999 999999 999999 999999 999999 999999 999999 999999 999999 999999 999999 999999 999999 999999 999999 999999 999999 999999 999999 999999 999999 999999 999999 999999 999999 999999 999999 999999 999999 999999 999999 999999 999999 999999 999999 999999 999999 999999 999999 999999 999999 999999 999999 999999 999999 999999 999999 999999 999999 999999 999999 999999 999999 999999 999999 999999 999999 999999 999999 999999 999999 999999 999999 999999 999999 999999 999999 999999 999999 999999 999999 999999 999999 999999 999999 999999 999999 999999 999999 999999 999999 999999 999999 999999 999999 999999 999999 999999 999999 999999 999999 0 999999 999999 999999 999999 999999 999999 999999 999999 999999 999999 999999 999999 999999 999999 999999 999999 999999 999999 999999 999999 999999 999999 999999 999999 999999 18377 999999 999999 999999 999999 11884 999999 999999 999999 999999 999999 999999 999999 999999 999999 999999 999999 999999 999999 999999 999999 999999 999999 19214 999999 999999 999999 999999 16904 999999 999999 999999 999999 999999 999999 999999 999999 14143 999999 999999 999999 999999 999999 999999 999999 999999 999999 999999 999999 999999 999999 999999 16615 999999 10248 999999 999999 999999 999999 11649 999999 999999 14895 999999 16057 999999 999999 999999 999999 999999 999999 999999 999999 999999 999999 999999 999999 999999 999999 999999 999999 999999 999999 999999 999999 999999 999999 999999 999999 999999 999999 999999 999999 999999 999999 999999 999999 999999 999999 999999 19147 999999 999999 16035 10099 999999 999999 999999 999999 999999 999999 999999 999999 999999 999999 999999 999999 999999 999999 999999 999999 999999 999999 999999 999999 999999 999999 999999 999999 999999 999999 10833 999999 999999 999999 999999 999999 999999 999999 999999 999999 999999 999999 13517 999999 999999 999999 999999 999999 999999 999999 999999 999999 999999 13887 999999 999999 999999 16521 999999 11756 999999 999999 999999 999999 999999 999999 999999 999999 999999 999999 999999 999999 999999 999999
999999 999999 999999 999999 999999 999999 999999 999999 999999 999999 999999 999999 999999 999999 999999 999999 999999 999999 999999 999999 999999 999999 999999 999999 999999 999999 999999 999999 999999 999999 999999 999999 999999 999999 999999 999999 999999 999999 999999 999999 999999 999999 999999 999999 999999 999999 999999 999999 999999 999999 999999 999999 999999 999999 999999 999999 999999 999999 999999 999999 999999 999999 999999 999999 999999 999999 999999 999999 999999 999999 999999 999999 999999 999999 999999 999999 999999 999999 999999 999999 999999 999999 999999 999999 999999 999999 999999 999999 999999 999999 999999 999999 999999 999999 999999 999999 999999 999999 999999 999999 999999 999999 999999 999999 999999 999999 999999 999999 999999 999999 999999 999999 999999 999999 999999 999999 999999 999999 999999 999999 999999 999999 999999 999999 999999 999999 999999 999999 999999 999999 999999 999999 999999 999999 999999 999999 999999 999999 999999 999999 999999 999999 999999 999999 999999 999999 999999 999999 999999 999999 999999 999999 999999 999999 999999 999999 999999 999999 999999 999999 999999 999999 0 999999 999999 999999 999999 999999 999999 999999 999999 999999 999999 999999 999999 999999 999999 999999 999999 999999 999999 999999 999999 999999 999999 999999 999999 13728 999999 999999 999999 999999 11096 999999 999999 999999 999999 999999 999999 999999 999999 999999 999999 999999 999999 999999 999999 999999 999999 999999 17779 999999 999999 999999 999999 13924 999999 999999 999999 999999 999999 999999 999999 999999 16577 999999 999999 999999 999999 999999 999999 999999 999999 999999 999999 999999 999999 999999 999999 17874 999999 15204 999999 999999 999999 999999 15893 999999 999999 10570 999999 16886 999999 999999 999999 999999 999999 999999 999999 999999 999999 999999 999999 999999 999999 999999 999999 999999 999999 999999 999999 999999 999999 999999 999999 999999 999999 999999 999999 999999 999999 999999 999999 999999 999999 999999 999999 19078 999999 999999 12329 18335 999999 999999 999999 999999 999999 999999 999999 999999 999999 999999 999999 999999 999999 999999 999999 999999 999999 999999 999999 999999 999999 999999 999999 999999 999999 999999 16365 999999 999999 999999 999999 999999 999999 999999 999999 999999 999999 999999 10767 999999 999999 999999 999999 999999 999999 999999 999999 999999 999999 11684 999999 999999 999999 15691 999999 13920 999999 999999 999999 999999 999999 999999 999999 999999 999999 999999 999999 999999 999999 999999
999999 999999 999999 999999 999999 999999 999999 999999 999999 999999 999999 999999 999999 999999 999999 999999 999999 999999 999999 999999 999999 999999 999999 999999 999999 999999 999999 999999 999999 999999 999999 999999 999999 999999 999999 999999 999999 999999 999999 999999 999999 999999 999999 999999 999999 999999 999999 999999 999999 999999 999999 999999 999999 999999 999999 999999 999999 999999 999999 999999 999999 999999 999999 999999 999999 999999 999999 999999 999999 999999 999999 999999 999999 999999 999999 999999 999999 999999 999999 999999 999999 999999 999999 999999 999999 999999 999999 999999 999999 999999 999999 999999 999999 999999 999999 999999 999999 999999 999999 999999 999999 999999 999999 999999 999999 999999 999999 999999 999999 999999 999999 999999 999999 999999 999999 999999 999999 999999 999999 999999 999999 999999 999999 999999 999999 999999 999999 999999 999999 999999 999999 999999 999999 999999 999999 999999 999999 999999 999999 999999 999999 999999 999999 999999 999999 999999 999999 999999 999999 999999 999999 999999 999999 999999 999999 999999 999999 999999 999999 999999 999999 999999 999999 0 999999 999999 999999 999999 999999 999999 999999 999999 999999 999999 999999 999999 999999 999999 999999 999999 999999 999999 999999 999999 999999 19877 17321 999999 999999 999999 999999 999999 999999 999999 999999 999999 999999 999999 999999 999999 999999 999999 999999 15786 999999 999999 999999 999999 999999 999999 999999 999999 999999 12477 19456 999999 999999 999999 999999 999999 999999 999999 999999 999999 999999 999999 999999 999999 999999 17202 999999 999999 999999 999999 999999 999999 999999 999999 999999 999999 999999 999999 999999 999999 999999 999999 999999 999999 999999 999999 999999 999999 999999 999999 999999 999999 999999 999999 999999 999999 999999 999999 999999 999999 17547 999999 999999 14877 999999 999999 999999 999999 999999 17840 999999 999999 999999 999999 999999 12528 999999 999999 12058 999999 999999 999999 999999 999999 999999 999999 999999 999999 999999 999999 999999 999999 999999 999999 999999 999999 999999 999999 999999 999999 18046 999999 999999 999999 999999 999999 12080 999999 999999 999999 999999 999999 11189 999999 999999 999999 999999 16799 999999 999999 17214 999999 999999 999999 999999 999999 999999 999999 11774 999999 999999 999999 999999 999999 999999 999999 10772 999999 999999 999999 999999 999999 999999 999999 999999 999999 999999 999999 999999 999999 999999 999999 999999 999999 999999 999999 999999 999999
999999 999999 999999 999999 999999 999999 999999 999999 999999 999999 999999 999999 999999 999999 999999 999999 999999 999999 999999 999999 999999 999999 999999 999999 999999 999999 999999 999999 999999 999999 999999 999999 999999 999999 999999 999999 999999 999999 999999 999999 999999 999999 999999 999999 999999 999999 999999 999999 999999 999999 999999 999999 999999 999999 999999 999999 999999 999999 999999 999999 999999 999999 999999 999999 999999 999999 999999 999999 999999 999999 999999 999999 999999 999999 999999 999999 999999 999999 999999 999999 999999 999999 999999 999999 999999 999999 999999 999999 999999 999999 999999 999999 999999 999999 999999 999999 999999 999999 999999 999999 999999 999999 999999 999999 999999 999999 999999 999999 999999 999999 999999 999999 999999 999999 999999 999999 999999 999999 999999 999999 999999 999999 999999 999999 999999 999999 999999 999999 999999 999999 999999 999999 999999 999999 999999 999999 999999 999999 999999 999999 999999 999999 999999 999999 999999 999999 999999 999999 999999 999999 999999 999999 999999 999999 999999 999999 999999 999999 999999 999999 999999 999999 999999 999999 0 999999 999999 999999 999999 999999 999999 999999 999999 999999 999999 999999 999999 999999 999999 999999 999999 999999 999999 999999 999999 15955 13068 999999 999999 999999 999999 999999 999999 999999 999999 999999 999999 999999 999999 999999 999999 999999 999999 14897 999999 999999 999999 999999 999999 999999 999999 999999 999999 18707 15587 999999 999999 999999 999999 999999 999999 999999 999999 999999 999999 999999 999999 999999 999999 14459 999999 999999 999999 999999 999999 999999 999999 999999 999999 999999 999999 999999 999999 999999 999999 999999 999999 999999 999999 999999 999999 999999 999999 999999 999999 999999 999999 999999 999999 999999 999999 999999 999999 999999 14404 999999 999999 19487 999999 999999 999999 999999 999999 19191 999999 999999 999999 999999 999999 11371 999999 999999 16005 999999 999999 999999 999999 999999 999999 999999 999999 999999 999999 999999 999999 999999 999999 999999 999999 999999 999999 999999 999999 999999 11566 999999 999999 999999 999999 999999 13896 999999 999999 999999 999999 999999 19558 999999 999999 999999 999999 19641 999999 999999 19141 999999 999999 999999 999999 999999 999999 999999 16465 999999 999999 999999 999999 999999 999999 999999 14764 999999 999999 999999 999999 999999 999999 999999 999999 999999 999999 999999 999999 999999 999999 999999 999999 999999 999999 999999 999999 999999
999999 999999 999999 999999 999999 999999 999999 999999 999999 999999 999999 999999 999999 999999 999999 999999 999999 999999 999999 999999 999999 999999 999999 999999 999999 999999 999999 999999 999999 999999 999999 999999 999999 999999 999999 999999 999999 999999 999999 999999 999999 999999 999999 999999 999999 999999 999999 999999 999999 999999 999999 999999 999999 999999 999999 999999 999999 999999 999999 999999 999999 999999 999999 999999 999999 999999 999999 999999 999999 999999 999999 999999 999999 999999 999999 999999 999999 999999 999999 999999 999999 999999 999999 999999 999999 999999 999999 999999 999999 999999 999999 999999 999999 999999 999999 999999 999999 999999 999999 999999 999999 999999 999999 999999 999999 999999 999999 999999 999999 999999 999999 999999 999999 999999 999999 999999 999999 999999 999999 999999 999999 999999 999999 999999 999999 999999 999999 999999 999999 999999 999999 999999 999999 999999 999999 999999 999999 999999 999999 999999 999999 999999 999999 999999 999999 999999 999999 999999 999999 999999 999999 999999 999999 999999 999999 999999 999999 999999 999999 999999 999999 999999 999999 999999 999999 0 999999 999999 999999 999999 999999 999999 999999 999999 999999 999999 999999 999999 999999 999999 999999 999999 999999 999999 999999 18747 18468 999999 999999 999999 999999 999999 999999 999999 999999 999999 999999 999999 999999 999999 999999 999999 999999 12980 999999 999999 999999 999999 999999 999999 999999 999999 999999 14072 17498 999999 999999 999999 999999 999999 999999 999999 999999 999999 999999 999999 999999 999999 999999 11292 999999 999999 999999 999999 999999 999999 999999 999999 999999 999999 999999 999999 999999 999999 999999 999999 999999 999999 999999 999999 999999 999999 999999 999999 999999 999999 999999 999999 999999 999999 999999 999999 999999 999999 18774 999999 999999 14902 999999 999999 999999 999999 999999 15497 999999 999999 999999 999999 999999 12742 999999 999999 16892 999999 999999 999999 999999 999999 999999 999999 999999 999999 999999 999999 999999 999999 999999 999999 999999 999999 999999 999999 999999 999999 15538 999999 999999 999999 999999 999999 13478 999999 999999 999999 999999 999999 14779 999999 999999 999999 999999 17612 999999 999999 17777 999999 999999 999999 999999 999999 999999 999999 17817 999999 999999 999999 999999 999999 999999 999999 11989 999999 999999 999999 999999 999999 999999 999999 999999 999999 999999 999999 999999 999999 999999 999999 999999 999999 999999 999999 999999 999999
999999 999999 999999 999999 999999 999999 999999 999999 999999 999999 999999 999999 999999 999999 999999 999999 999999 999999 999999 999999 999999 999999 999999 999999 999999 999999 999999 999999 999999 999999 999999 999999 999999 999999 999999 999999 999999 999999 999999 999999 999999 999999 999999 999999 999999 999999 999999 999999 999999 999999 999999 999999 999999 999999 999999 999999 999999 999999 999999 999999 999999 999999 999999 999999 999999 999999 999999 999999 999999 999999 999999 999999 999999 999999 999999 999999 999999 999999 999999 999999 999999 999999 999999 999999 999999 999999 999999 999999 999999 999999 999999 999999 999999 999999 999999 999999 999999 999999 999999 999999 999999 999999 999999 999999 999999 999999 999999 999999 999999 999999 999999 999999 999999 999999 999999 999999 999999 999999 999999 999999 999999 999999 999999 999999 999999 999999 999999 999999 999999 999999 999999 999999 999999 999999 999999 999999 999999 999999 999999 999999 999999 999999 999999 999999 999999 999999 999999 999999 999999 999999 999999 999999 999999 999999 999999 999999 999999 999999 999999 999999 999999 999999 999999 999999 999999 999999 0 999999 999999 999999 999999 999999 999999 999999 999999 999999 999999 999999 999999 999999 999999 999999 999999 999999 999999 10245 17592 999999 999999 999999 999999 999999 999999 999999 999999 999999 999999 999999 999999 999999 999999 999999 999999 11756 999999 999999 999999 999999 999999 999999 999999 999999 999999 19298 15693 999999 999999 999999 999999 999999 999999 999999 999999 999999 999999 999999 999999 999999 999999 18410 999999 999999 999999 999999 999999 999999 999999 999999 999999 999999 999999 999999 999999 999999 999999 999999 999999 999999 999999 999999 999999 999999 999999 999999 999999 999999 999999 999999 999999 999999 999999 999999 999999 999999 19928 999999 999999 17940 999999 999999 999999 999999 999999 13529 999999 999999 999999 999999 999999 14739 999999 999999 10937 999999 999999 999999 999999 999999 999999 999999 999999 999999 999999 999999 999999 999999 999999 999999 999999 999999 999999 999999 999999 999999 12776 999999 999999 999999 999999 999999 13514 999999 999999 999999 999999 999999 11243 999999 999999 999999 999999 13091 999999 999999 13680 999999 999999 999999 999999 999999 999999 999999 17553 999999 999999 999999 999999 999999 999999 999999 12430 999999 999999 999999 999999 999999 999999 999999 999999 999999 999999 999999 999999 999999 999999 999999 999999 999999 999999 999999 999999 999999
999999 999999 999999 999999 999999 999999 999999 999999 999999 999999 999999 999999 999999 999999 999999 999999 999999 999999 999999 999999 999999 999999 999999 999999 999999 999999 999999 999999 999999 999999 999999 999999 999999 999999 999999 999999 999999 999999 999999 999999 999999 999999 999999 999999 999999 999999 999999 999999 999999 999999 999999 999999 999999 999999 999999 999999 999999 999999 999999 999999 999999 999999 999999 999999 999999 999999 999999 999999 999999 999999 999999 999999 999999 999999 999999 999999 999999 999999 999999 999999 999999 999999 999999 999999 999999 999999 999999 999999 999999 999999 999999 999999 999999 999999 999999 999999 999999 999999 999999 999999 999999 999999 999999 999999 999999 999999 999999 999999 999999 999999 999999 999999 999999 999999 999999 999999 999999 999999 999999 999999 999999 999999 999999 999999 999999 999999 999999 999999 999999 999999 999999 999999 999999 999999 999999 999999 999999 999999 999999 999999 999999 999999 999999 999999 999999 999999 999999 999999 999999 999999 999999 999999 999999 999999 999999 999999 999999 999999 999999 999999 999999 999999 999999 999999 999999 999999 999999 0 999999 999999 999999 999999 999999 999999 999999 999999 999999 999999 999999 999999 999999 999999 999999 999999 999999 15664 18562 999999 999999 999999 999999 999999 999999 999999 999999 999999 999999 999999 999999 999999 999999 999999 999999 17023 999999 999999 999999 999999 999999 999999 999999 999999 999999 16702 19037 999999 999999 999999 999999 999999 999999 999999 999999 999999 999999 999999 999999 999999 999999 18634 999999 999999 999999 999999 999999 999999 999999 999999 999999 999999 999999 999999 999999 999999 999999 999999 999999 999999 999999 999999 999999 999999 999999 999999 999999 999999 999999 999999 999999 999999 999999 999999 999999 999999 18525 999999 999999 16304 999999 999999 999999 999999 999999 15134 999999 999999 999999 999999 999999 15290 999999 999999 10727 999999 999999 999999 999999 999999 999999 999999 999999 999999 999999 999999 999999 999999 999999 999999 999999 999999 999999 999999 999999 999999 18201 999999 999999 999999 999999 999999 16005 999999 999999 999999 999999 999999 13019 999999 999999 999999 999999 10054 999999 999999 15104 999999 999999 999999 999999 999999 999999 999999 10987 999999 999999 999999 999999 999999 999999 999999 16231 999999 999999 999999 999999 999999 999999 999999 999999 999999 999999 999999 999999 999999 999999 999999 999999 999999 999999 999999 999999 999999
999999 999999 999999 999999 999999 999999 999999 999999 999999 999999 999999 999999 999999 999999 999999 999999 999999 999999 999999 999999 999999 999999 999999 999999 999999 999999 999999 999999 999999 999999 999999 999999 999999 999999 999999 999999 999999 999999 999999 999999 999999 999999 999999 999999 999999 999999 999999 999999 999999 999999 999999 999999 999999 999999 999999 999999 999999 999999 999999 999999 999999 999999 999999 999999 999999 999999 999999 999999 999999 999999 999999 999999 999999 999999 999999 999999 999999 999999 999999 999999 999999 999999 999999 999999 999999 999999 999999 999999 999999 999999 999999 999999 999999 999999 999999 999999 999999 999999 999999 999999 999999 999999 999999 999999 999999 999999 999999 999999 999999 999999 999999 999999 999999 999999 999999 999999 999999 999999 999999 999999 999999 999999 999999 999999 999999 999999 999999 999999 999999 999999 999999 999999 999999 999999 999999 999999 999999 999999 999999 999999 999999 999999 999999 999999 999999 999999 999999 999999 999999 999999 999999 999999 999999 999999 999999 999999 999999 999999 999999 999999 999999 999999 999999 999999 999999 999999 999999 999999 0 999999 999999 999999 999999 999999 999999 999999 999999 999999 999999 999999 999999 999999 999999 999999 999999 12861 16294 999999 999999 999999 999999 999999 999999 999999 999999 999999 999999 999999 999999 999999 999999 999999 999999 15453 999999 999999 999999 999999 999999 999999 999999 999999 999999 12962 18832 999999 999999 999999 999999 999999 999999 999999 999999 999999 999999 999999 999999 999999 999999 10951 999999 999999 999999 999999 999999 999999 999999 999999 999999 999999 999999 999999 999999 999999 999999 999999 999999 999999 999999 999999 999999 999999 999999 999999 999999 999999 999999 999999 999999 999999 999999 999999 999999 999999 17261 999999 999999 10274 999999 999999 999999 999999 999999 17311 999999 999999 999999 999999 999999 13518 999999 999999 11092 999999 999999 999999 999999 999999 999999 999999 999999 999999 999999 999999 999999 999999 999999 999999 999999 999999 999999 999999 999999 999999 15622 999999 999999 999999 999999 999999 16470 999999 999999 999999 999999 999999 15368 999999 999999 999999 999999 18742 999999 999999 14351 999999 999999 999999 999999 999999 999999 999999 14651 999999 999999 999999 999999 999999 999999 999999 18568 999999 999999 999999 999999 999999 999999 999999 999999 999999 999999 999999 999999 999999 999999 999999 999999 999999 999999 999999 999999 999999
999999 999999 999999 999999 999999 999999 999999 999999 999999 999999 999999 999999 999999 999999 999999 999999 999999 999999 999999 999999 999999 999999 999999 999999 999999 999999 999999 999999 999999 999999 999999 999999 999999 999999 999999 999999 999999 999999 999999 999999 999999 999999 999999 999999 999999 999999 999999 999999 999999 999999 999999 999999 999999 999999 999999 999999 999999 999999 999999 999999 999999 999999 999999 999999 999999 999999 999999 999999 999999 999999 999999 999999 999999 999999 999999 999999 999999 999999 999999 999999 999999 999999 999999 999999 999999 999999 999999 999999 999999 999999 999999 999999 999999 999999 999999 999999 999999 999999 999999 999999 999999 999999 999999 999999 999999 999999 999999 999999 999999 999999 999999 999999 999999 999999 999999 999999 999999 999999 999999 999999 999999 999999 999999 999999 999999 999999 999999 999999 999999 999999 999999 999999 999999 999999 999999 999999 999999 999999 999999 999999 999999 999999 999999 999999 999999 999999 999999 999999 999999 999999 999999 999999 999999 999999 999999 999999 999999 999999 999999 999999 999999 999999 999999 999999 999999 999999 999999 999999 999999 0 999999 999999 999999 999999 999999 999999 999999 999999 999999 999999 999999 999999 999999 999999 999999 11764 17971 999999 999999 999999 999999 999999 999999 999999 999999 999999 999999 999999 999999 999999 999999 999999 999999 13793 999999 999999 999999 999999 999999 999999 999999 999999 999999 18330 17315 999999 999999 999999 999999 999999 999999 999999 999999 999999 999999 999999 999999 999999 999999 18486 999999 999999 999999 999999 999999 999999 999999 999999 999999 999999 999999 999999 999999 999999 999999 999999 999999 999999 999999 999999 999999 999999 999999 999999 999999 999999 999999 999999 999999 999999 999999 999999 999999 999999 14175 999999 999999 13858 999999 999999 999999 999999 999999 10646 999999 999999 999999 999999 999999 17544 999999 999999 19557 999999 999999 999999 999999 999999 999999 999999 999999 999999 999999 999999 999999 999999 999999 999999 999999 999999 999999 999999 999999 999999 14974 999999 999999 999999 999999 999999 11321 999999 999999 999999 999999 999999 14617 999999 999999 999999 999999 17910 999999 999999 17199 999999 999999 999999 999999 999999 999999 999999 17690 999999 999999 999999 999999 999999 999999 999999 17181 999999 999999 999999 999999 999999 999999 999999 999999 999999 999999 999999 999999 999999 999999 999999 999999 999999 999999 999999 999999 999999
999999 999999 999999 999999 999999 999999 999999 999999 999999 999999 999999 999999 999999 999999 999999 999999 999999 999999 999999 999999 999999 999999 999999 999999 999999 999999 999999 999999 999999 999999 999999 999999 999999 999999 999999 999999 999999 999999 999999 999999 999999 999999 999999 999999 999999 999999 999999 999999 999999 999999 999999 999999 999999 999999 999999 999999 999999 999999 999999 999999 999999 999999 999999 999999 999999 999999 999999 999999 999999 999999 999999 999999 999999 999999 999999 999999 999999 999999 999999 999999 999999 999999 999999 999999 999999 999999 999999 999999 999999 999999 999999 999999 999999 999999 999999 999999 999999 999999 999999 999999 999999 999999 999999 999999 999999 999999 999999 999999 999999 999999 999999 999999 999999 999999 999999 999999 999999 999999 999999 999999 999999 999999 999999 999999 999999 999999 999999 999999 999999 999999 999999 999999 999999 999999 999999 999999 999999 999999 999999 999999 999999 999999 999999 999999 999999 999999 999999 999999 999999 999999 999999 999999 999999 999999 999999 999999 999999 999999 999999 999999 999999 999999 999999 999999 999999 999999 999999 999999 999999 999999 0 999999 999999 999999 999999 999999 999999 999999 999999 999999 999999 999999 999999 999999 999999 16155 13946 999999 999999 999999 999999 999999 999999 999999 999999 999999 999999 999999 999999 999999 999999 999999 999999 11098 999999 999999 999999 999999 999999 999999 999999 999999 999999 11026 19298 999999 999999 999999 999999 999999 999999 999999 999999 999999 999999 999999 999999 999999 999999 20000 999999 999999 999999 999999 999999 999999 999999 999999 999999 999999 999999 999999 999999 999999 999999 999999 999999 999999 999999 999999 999999 999999 999999 999999 999999 999999 999999 999999 999999 999999 999999 999999 999999 999999 13556 999999 999999 14658 999999 999999 999999 999999 999999 18485 999999 999999 999999 999999 999999 10044 999999 999999 12480 999999 999999 999999 999999 999999 999999 999999 999999 999999 999999 999999 999999 999999 999999 999999 999999 999999 999999 999999 999999 999999 18685 999999 999999 999999 999999 999999 19887 999999 999999 999999 999999 999999 18128 999999 999999 999999 999999 19807 999999 999999 10736 999999 999999 999999 999999 999999 999999 999999 13555 999999 999999 999999 999999 999999 999999 999999 17461 999999 999999 999999 999999 999999 999999 999999 999999 999999 999999 999999 999999 999999 999999 999999 999999 999999 999999 999999 999999 999999
999999 999999 999999 999999 999999 999999 999999 999999 999999 999999 999999 999999 999999 999999 999999 999999 999999 999999 999999 999999 999999 999999 999999 999999 999999 999999 999999 999999 999999 999999 999999 999999 999999 999999 999999 999999 999999 999999 999999 999999 999999 999999 999999 999999 999999 999999 999999 999999 999999 999999 999999 999999 999999 999999 999999 999999 999999 999999 999999 999999 999999 999999 999999 999999 999999 999999 999999 999999 999999 999999 999999 999999 999999 999999 999999 999999 999999 999999 999999 999999 999999 999999 999999 999999 999999 999999 999999 999999 999999 999999 999999 999999 999999 999999 999999 999999 999999 999999 999999 999999 999999 999999 999999 999999 999999 999999 999999 999999 999999 999999 999999 999999 999999 999999 999999 999999 999999 999999 999999 999999 999999 999999 999999 999999 999999 999999 999999 999999 999999 999999 999999 999999 999999 999999 999999 999999 999999 999999 999999 999999 999999 999999 999999 999999 999999 999999 999999 999999 999999 999999 999999 999999 999999 999999 999999 999999 999999 999999 999999 999999 999999 999999 999999 999999 999999 999999 999999 999999 999999 999999 999999 0 999999 999999 999999 999999 999999 999999 999999 999999 999999 999999 999999 999999 999999 18363 19321 999999 999999 999999 999999 999999 999999 999999 999999 999999 999999 999999 999999 999999 999999 999999 999999 16660 999999 999999 999999 999999 999999 999999 999999 999999 999999 15700 17351 999999 999999 999999 999999 999999 999999 999999 999999 999999 999999 999999 999999 999999 999999 13600 999999 999999 999999 999999 999999 999999 999999 999999 999999 999999 999999 999999 999999 999999 999999 999999 999999 999999 999999 999999 999999 999999 999999 999999 999999 999999 999999 999999 999999 999999 999999 999999 999999 999999 13482 999999 999999 16264 999999 999999 999999 999999 999999 12580 999999 999999 999999 999999 999999 17173 999999 999999 19916 999999 999999 999999 999999 999999 999999 999999 999999 999999 999999 999999 999999 999999 999999 999999 999999 999999 999999 999999 999999 999999 10386 999999 999999 999999 999999 999999 17867 999999 999999 999999 999999 999999 15917 999999 999999 999999 999999 19449 999999 999999 19199 999999 999999 999999 999999 999999 999999 999999 13544 999999 999999 999999 999999 999999 999999 999999 17889 999999 999999 999999 999999 999999 999999 999999 999999 999999 999999 999999 999999 999999 999999 999999 999999 999999 999999 999999 999999 999999
999999 999999 999999 999999 999999 999999 999999 999999 999999 999999 999999 999999 999999 999999 999999 999999 999999 999999 999999 999999 999999 999999 999999 999999 999999 999999 999999 999999 999999 999999 999999 999999 999999 999999 999999 999999 999999 999999 999999 999999 999999 999999 999999 999999 999999 999999 999999 999999 999999 999999 999999 999999 999999 999999 999999 999999 999999 999999 999999 999999 999999 999999 999999 999999 999999 999999 999999 999999 999999 999999 999999 999999 999999 999999 999999 999999 999999 999999 999999 999999 999999 999999 999999 999999 999999 999999 999999 999999 999999 999999 999999 999999 999999 999999 999999 999999 999999 999999 999999 999999 999999 999999 999999 999999 999999 999999 999999 999999 999999 999999 999999 999999 999999 999999 999999 999999 999999 999999 999999 999999 999999 999999 999999 999999 999999 999999 999999 999999 999999 999999 999999 999999 999999 999999 999999 999999 999999 999999 999999 999999 999999 999999 999999 999999 999999 999999 999999 999999 999999 999999 999999 999999 999999 999999 999999 999999 999999 999999 999999 999999 999999 999999 999999 999999 999999 999999 999999 999999 999999 999999 999999 999999 0 999999 999999 999999 999999 999999 999999 999999 999999 999999 999999 999999 999999 11938 15401 999999 999999 999999 999999 999999 999999 999999 999999 999999 999999 999999 999999 999999 999999 999999 999999 13495 999999 999999 999999 999999 999999 999999 999999 999999 999999 15482 18560 999999 999999 999999 999999 999999 999999 999999 999999 999999 999999 999999 999999 999999 999999 19650 999999 999999 999999 999999 999999 999999 999999 999999 999999 999999 999999 999999 999999 999999 999999 999999 999999 999999 999999 999999 999999 999999 999999 999999 999999 999999 999999 999999 999999 999999 999999 999999 999999 999999 13295 999999 999999 13098 999999 999999 999999 999999 999999 19742 999999 999999 999999 999999 999999 14677 999999 999999 18015 999999 999999 999999 999999 999999 999999 999999 999999 999999 999999 999999 999999 999999 999999 999999 999999 999999 999999 999999 999999 999999 17216 999999 999999 999999 999999 999999 19102 999999 999999 999999 999999 999999 10962 999999 999999 999999 999999 17757 999999 999999 18523 999999 999999 999999 999999 999999 999999 999999 11510 999999 999999 999999 999999 999999 999999 999999 12858 999999 999999 999999 999999 999999 999999 999999 999999 999999 999999 999999 999999 999999 999999 999999 999999 999999 999999 999999 999999 999999
999999 999999 999999 999999 999999 999999 999999 999999 999999 999999 999999 999999 999999 999999 999999 999999 999999 999999 999999 999999 999999 999999 999999 999999 999999 999999 999999 999999 999999 999999 999999 999999 999999 999999 999999 999999 999999 999999 999999 999999 999999 999999 999999 999999 999999 999999 999999 999999 999999 999999 999999 999999 999999 999999 999999 999999 999999 999999 999999 999999 999999 999999 999999 999999 999999 999999 999999 999999 999999 999999 999999 999999 999999 999999 999999 999999 999999 999999 999999 999999 999999 999999 999999 999999 999999 999999 999999 999999 999999 999999 999999 999999 999999 999999 999999 999999 999999 999999 999999 999999 999999 999999 999999 999999 999999 999999 999999 999999 999999 999999 999999 999999 999999 999999 999999 999999 999999 999999 999999 999999 999999 999999 999999 999999 999999 999999 999999 999999 999999 999999 999999 999999 999999 999999 999999 999999 999999 999999 999999 999999 999999 999999 999999 999999 999999 999999 999999 999999 999999 999999 999999 999999 999999 999999 999999 999999 999999 999999 999999 999999 999999 999999 999999 999999 999999 999999 999999 999999 999999 999999 999999 999999 999999 0 999999 999999 999999 999999 999999 999999 999999 999999 999999 999999 999999 16724 12083 999999 999999 999999 999999 999999 999999 999999 999999 999999 999999 999999 999999 999999 999999 999999 999999 19221 999999 999999 999999 999999 999999 999999 999999 999999 999999 11926 19832 999999 999999 999999 999999 999999 999999 999999 999999 999999 999999 999999 999999 999999 999999 19913 999999 999999 999999 999999 999999 999999 999999 999999 999999 999999 999999 999999 999999 999999 999999 999999 999999 999999 999999 999999 999999 999999 999999 999999 999999 999999 999999 999999 999999 999999 999999 999999 999999 999999 12239 999999 999999 10221 999999 999999 999999 999999 999999 17972 999999 999999 999999 999999 999999 17677 999999 999999 11534 999999 999999 999999 999999 999999 999999 999999 999999 999999 999999 999999 999999 999999 999999 999999 999999 999999 999999 999999 999999 999999 12769 999999 999999 999999 999999 999999 13578 999999 999999 999999 999999 999999 16434 999999 999999 999999 999999 17199 999999 999999 17313 999999 999999 999999 999999 999999 999999 999999 17855 999999 999999 999999 999999 999999 999999 999999 18699 999999 999999 999999 999999 999999 999999 999999 999999 999999 999999 999999 999999 999999 999999 999999 999999 999999 999999 999999 999999 999999
999999 999999 999999 999999 999999 999999 999999 999999 999999 999999 999999 999999 999999 999999 999999 999999 999999 999999 999999 999999 999999 999999 999999 999999 999999 999999 999999 999999 999999 999999 999999 999999 999999 999999 999999 999999 999999 999999 999999 999999 999999 999999 999999 999999 999999 999999 999999 999999 999999 999999 999999 999999 999999 999999 999999 999999 999999 999999 999999 999999 999999 999999 999999 999999 999999 999999 999999 999999 999999 999999 999999 999999 999999 999999 999999 999999 999999 999999 999999 999999 999999 999999 999999 999999 999999 999999 999999 999999 999999 999999 999999 999999 999999 999999 999999 999999 999999 999999 999999 999999 999999 999999 999999 999999 999999 999999 999999 999999 999999 999999 999999 999999 999999 999999 999999 999999 999999 999999 999999 999999 999999 999999 999999 999999 999999 999999 999999 999999 999999 999999 999999 999999 999999 999999 999999 999999 999999 999999 999999 999999 999999 999999 999999 999999 999999 999999 999999 999999 999999 999999 999999 999999 999999 999999 999999 999999 999999 999999 999999 999999 999999 999999 999999 999999 999999 999999 999999 999999 999999 999999 999999 999999 999999 999999 0 999999 999999 999999 999999 999999 999999 999999 999999 999999 999999 12697 10686 999999 999999 999999 999999 999999 999999 999999 999999 999999 999999 999999 999999 999999 999999 999999 999999 11416 999999 999999 999999 999999 999999 999999 999999 999999 999999 12902 14857 999999 999999 999999 999999 999999 999999 999999 999999 999999 999999 999999 999999 999999 999999 17043 999999 999999 999999 999999 999999 999999 999999 999999 999999 999999 999999 999999 999999 999999 999999 999999 999999 999999 999999 999999 999999 999999 999999 999999 999999 999999 999999 999999 999999 999999 999999 999999 999999 999999 18011 999999 999999 15847 999999 999999 999999 999999 999999 15917 999999 999999 999999 999999 999999 13116 999999 999999 10630 999999 999999 999999 999999 999999 999999 999999 999999 999999 999999 999999 999999 999999 999999 999999 999999 999999 999999 999999 999999 999999 19633 999999 999999 999999 999999 999999 18360 999999 999999 999999 999999 999999 16070 999999 999999 999999 999999 19365 999999 999999 15282 999999 999999 999999 999999 999999 999999 999999 14406 999999 999999 999999 999999 999999 999999 999999 16253 999999 999999 999999 999999 999999 999999 999999 999999 999999 999999 999999 999999 999999 999999 999999 999999 999999 999999 999999 999999 999999
999999 999999 999999 999999 999999 999999 999999 999999 999999 999999 999999 999999 999999 999999 999999 999999 999999 999999 999999 999999 999999 999999 999999 999999 999999 999999 999999 999999 999999 999999 999999 999999 999999 999999 999999 999999 999999 999999 999999 999999 999999 999999 999999 999999 999999 999999 999999 999999 999999 999999 999999 999999 999999 999999 999999 999999 999999 999999 999999 999999 999999 999999 999999 999999 999999 999999 999999 999999 999999 999999 999999 999999 999999 999999 999999 999999 999999 999999 999999 999999 999999 999999 999999 999999 999999 999999 999999 999999 999999 999999 999999 999999 999999 999999 999999 999999 999999 999999 999999 999999 999999 999999 999999 999999 999999 999999 999999 999999 999999 999999 999999 999999 999999 999999 999999 999999 999999 999999 999999 999999 999999 999999 999999 999999 999999 999999 999999 999999 999999 999999 999999 999999 999999 999999 999999 999999 999999 999999 999999 999999 999999 999999 999999 999999 999999 999999 999999 999999 999999 999999 999999 999999 999999 999999 999999 999999 999999 999999 999999 999999 999999 999999 999999 999999 999999 999999 999999 999999 999999 999999 999999 999999 999999 999999 999999 0 999999 999999 999999 999999 999999 999999 999999 999999 999999 14310 15061 999999 999999 999999 999999 999999 999999 999999 999999 999999 999999 999999 999999 999999 999999 999999 999999 15287 999999 999999 999999 999999 999999 999999 999999 999999 999999 17248 19973 999999 999999 999999 999999 999999 999999 999999 999999 999999 999999 999999 999999 999999 999999 19608 999999 999999 999999 999999 999999 999999 999999 999999 999999 999999 999999 999999 999999 999999 999999 999999 999999 999999 999999 999999 999999 999999 999999 999999 999999 999999 999999 999999 999999 999999 999999 999999 999999 999999 13833 999999 999999 16793 999999 999999 999999 999999 999999 10333 999999 999999 999999 999999 999999 16452 999999 999999 17656 999999 999999 999999 999999 999999 999999 999999 999999 999999 999999 999999 999999 999999 999999 999999 999999 999999 999999 999999 999999 999999 18535 999999 999999 999999 999999 999999 18404 999999 999999 999999 999999 999999 16608 999999 999999 999999 999999 18624 999999 999999 12060 999999 999999 999999 999999 999999 999999 999999 18227 999999 999999 999999 999999 999999 999999 999999 16185 999999 999999 999999 999999 999999 999999 999999 999999 999999 999999 999999 999999 999999 999999 999999 999999 999999 999999 999999 999999 999999
999999 999999 999999 999999 999999 999999 999999 999999 999999 999999 999999 999999 999999 999999 999999 999999 999999 999999 999999 999999 999999 999999 999999 999999 999999 999999 999999 999999 999999 999999 999999 999999 999999 999999 999999 999999 999999 999999 999999 999999 999999 999999 999999 999999 999999 999999 999999 999999 999999 999999 999999 999999 999999 999999 999999 999999 999999 999999 999999 999999 999999 999999 999999 999999 999999 999999 999999 999999 999999 999999 999999 999999 999999 999999 999999 999999 999999 999999 999999 999999 999999 999999 999999 999999 999999 999999 999999 999999 999999 999999 999999 999999 999999 999999 999999 999999 999999 999999 999999 999999 999999 999999 999999 999999 999999 999999 999999 999999 999999 999999 999999 999999 999999 999999 999999 999999 999999 999999 999999 999999 999999 999999 999999 999999 999999 999999 999999 999999 999999 999999 999999 999999 999999 999999 999999 999999 999999 999999 999999 999999 999999 999999 999999 999999 999999 999999 999999 999999 999999 999999 999999 999999 999999 999999 999999 999999 999999 999999 999999 999999 999999 999999 999999 999999 999999 999999 999999 999999 999999 999999 999999 999999 999999 999999 999999 999999 0 999999 999999 999999 999999 999999 999999 999999 999999 14697 18220 999999 999999 999999 999999 999999 999999 999999 999999 999999 999999 999999 999999 999999 999999 999999 999999 14383 999999 999999 999999 999999 999999 999999 999999 999999 999999 12958 11596 999999 999999 999999 999999 999999 999999 999999 999999 999999 999999 999999 999999 999999 999999 19703 999999 999999 999999 999999 999999 999999 999999 999999 999999 999999 999999 999999 999999 999999 999999 999999 999999 999999 999999 999999 999999 999999 999999 999999 999999 999999 999999 999999 999999 999999 999999 999999 999999 999999 15799 999999 999999 11515 999999 999999 999999 999999 999999 18250 999999 999999 999999 999999 999999 15637 999999 999999 18592 999999 999999 999999 999999 999999 999999 999999 999999 999999 999999 999999 999999 999999 999999 999999 999999 999999 999999 999999 999999 999999 17560 999999 999999 999999 999999 999999 11406 999999 999999 999999 999999 999999 15972 999999 999999 999999 999999 19542 999999 999999 19590 999999 999999 999999 999999 999999 999999 999999 18451 999999 999999 999999 999999 999999 999999 999999 18486 999999 999999 999999 999999 999999 999999 999999 999999 999999 999999 999999 999999 999999 999999 999999 999999 999999 999999 999999 999999 999999
999999 999999 999999 999999 999999 999999 999999 999999 999999 999999 999999 999999 999999 999999 999999 999999 999999 999999 999999 999999 999999 999999 999999 999999 999999 999999 999999 999999 999999 999999 999999 999999 999999 999999 999999 999999 999999 999999 999999 999999 999999 999999 999999 999999 999999 999999 999999 999999 999999 999999 999999 999999 999999 999999 999999 999999 999999 999999 999999 999999 999999 999999 999999 999999 999999 999999 999999 999999 999999 999999 999999 999999 999999 999999 999999 999999 999999 999999 999999 999999 999999 999999 999999 999999 999999 999999 999999 999999 999999 999999 999999 999999 999999 999999 999999 999999 999999 999999 999999 999999 999999 999999 999999 999999 999999 999999 999999 999999 999999 999999 999999 999999 999999 999999 999999 999999 999999 999999 999999 999999 999999 999999 999999 999999 999999 999999 999999 999999 999999 999999 999999 999999 999999 999999 999999 999999 999999 999999 999999 999999 999999 999999 999999 999999 999999 999999 999999 999999 999999 999999 999999 999999 999999 999999 999999 999999 999999 999999 999999 999999 999999 999999 999999 999999 999999 999999 999999 999999 999999 999999 999999 999999 999999 999999 999999 999999 999999 0 999999 999999 999999 999999 999999 999999 999999 19843 16648 999999 999999 999999 999999 999999 999999 999999 999999 999999 999999 999999 999999 999999 999999 999999 999999 15239 999999 999999 999999 999999 999999 999999 999999 999999 999999 19174 12792 999999 999999 999999 999999 999999 999999 999999 999999 999999 999999 999999 999999 999999 999999 11398 999999 999999 999999 999999 999999 999999 999999 999999 999999 999999 999999 999999 999999 999999 999999 999999 999999 999999 999999 999999 999999 999999 999999 999999 999999 999999 999999 999999 999999 999999 999999 999999 999999 999999 15881 999999 999999 15691 999999 999999 999999 999999 999999 10563 999999 999999 999999 999999 999999 12401 999999 999999 14628 999999 999999 999999 999999 999999 999999 999999 999999 999999 999999 999999 999999 999999 999999 999999 999999 999999 999999 999999 999999 999999 16796 999999 999999 999999 999999 999999 19555 999999 999999 999999 999999 999999 10075 999999 999999 999999 999999 12056 999999 999999 18425 999999 999999 999999 999999 999999 999999 999999 13305 999999 999999 999999 999999 999999 999999 999999 19901 999999 999999 999999 999999 999999 999999 999999 999999 999999 999999 999999 999999 999999 999999 999999 999999 999999 999999 999999 999999 999999
999999 999999 999999 999999 999999 999999 999999 999999 999999 999999 999999 999999 999999 999999 999999 999999 999999 999999 999999 999999 999999 999999 999999 999999 999999 999999 999999 999999 999999 999999 999999 999999 999999 999999 999999 999999 999999 999999 999999 999999 999999 999999 999999 999999 999999 999999 999999 999999 999999 999999 999999 999999 999999 999999 999999 999999 999999 999999 999999 999999 999999 999999 999999 999999 999999 999999 999999 999999 999999 999999 999999 999999 999999 999999 999999 999999 999999 999999 999999 999999 999999 999999 999999 999999 999999 999999 999999 999999 999999 999999 999999 999999 999999 999999 999999 999999 999999 999999 999999 999999 999999 999999 999999 999999 999999 999999 999999 999999 999999 999999 999999 999999 999999 999999 999999 999999 999999 999999 999999 999999 999999 999999 999999 999999 999999 999999 999999 999999 999999 999999 999999 999999 999999 999999 999999 999999 999999 999999 999999 999999 999999 999999 999999 999999 999999 999999 999999 999999 999999 999999 999999 999999 999999 999999 999999 999999 999999 999999 999999 999999 999999 999999 999999 999999 999999 999999 999999 999999 999999 999999 999999 999999 999999 999999 999999 999999 999999 999999 0 999999 999999 999999 999999 999999 999999 16388 11500 999999 999999 999999 999999 999999 999999 999999 999999 999999 999999 999999 999999 999999 999999 999999 999999 12169 999999 999999 999999 999999 999999 999999 999999 999999 999999 17405 15657 999999 999999 999999 999999 999999 999999 999999 999999 999999 999999 999999 999999 999999 999999 14950 999999 999999 999999 999999 999999 999999 999999 999999 999999 999999 999999 999999 999999 999999 999999 999999 999999 999999 999999 999999 999999 999999 999999 999999 999999 999999 999999 999999 999999 999999 999999 999999 999999 999999 14363 999999 999999 17074 999999 999999 999999 999999 999999 15877 999999 999999 999999 999999 999999 16279 999999 999999 11587 999999 999999 999999 999999 999999 999999 999999 999999 999999 999999 999999 999999 999999 999999 999999 999999 999999 999999 999999 999999 999999 19634 999999 999999 999999 999999 999999 16608 999999 999999 999999 999999 999999 14766 999999 999999 999999 999999 11299 999999 999999 10241 999999 999999 999999 999999 999999 999999 999999 19891 999999 999999 999999 999999 999999 999999 999999 18288 999999 999999 999999 999999 999999 999999 999999 999999 999999 999999 999999 999999 999999 999999 999999 999999 999999 999999 999999 999999 999999
999999 999999 999999 999999 999999 999999 999999 999999 999999 999999 999999 999999 999999 999999 999999 999999 999999 999999 999999 999999 999999 999999 999999 999999 999999 999999 999999 999999 999999 999999 999999 999999 999999 999999 999999 999999 999999 999999 999999 999999 999999 999999 999999 999999 999999 999999 999999 999999 999999 999999 999999 999999 999999 999999 999999 999999 999999 999999 999999 999999 999999 999999 999999 999999 999999 999999 999999 999999 999999 999999 999999 999999 999999 999999 999999 999999 999999 999999 999999 999999 999999 999999 999999 999999 999999 999999 999999 999999 999999 999999 999999 999999 999999 999999 999999 999999 999999 999999 999999 999999 999999 999999 999999 999999 999999 999999 999999 999999 999999 999999 999999 999999 999999 999999 999999 999999 999999 999999 999999 999999 999999 999999 999999 999999 999999 999999 999999 999999 999999 999999 999999 999999 999999 999999 999999 999999 999999 999999 999999 999999 999999 999999 999999 999999 999999 999999 999999 999999 999999 999999 999999 999999 999999 999999 999999 999999 999999 999999 999999 999999 999999 999999 999999 999999 999999 999999 999999 999999 999999 999999 999999 999999 999999 999999 999999 999999 999999 999999 999999 0 999999 999999 999999 999999 999999 17344 19974 999999 999999 999999 999999 999999 999999 999999 999999 999999 999999 999999 999999 999999 999999 999999 999999 15733 999999 999999 999999 999999 999999 999999 999999 999999 999999 14611 19625 999999 999999 999999 999999 999999 999999 999999 999999 999999 999999 999999 999999 999999 999999 11395 999999 999999 999999 999999 999999 999999 999999 999999 999999 999999 999999 999999 999999 999999 999999 999999 999999 999999 999999 999999 999999 999999 999999 999999 999999 999999 999999 999999 999999 999999 999999 999999 999999 999999 12366 999999 999999 15584 999999 999999 999999 999999 999999 16570 999999 999999 999999 999999 999999 15223 999999 999999 19998 999999 999999 999999 999999 999999 999999 999999 999999 999999 999999 999999 999999 999999 999999 999999 999999 999999 999999 999999 999999 999999 11297 999999 999999 999999 999999 999999 19117 999999 999999 999999 999999 999999 10785 999999 999999 999999 999999 18149 999999 999999 15654 999999 999999 999999 999999 999999 999999 999999 19710 999999 999999 999999 999999 999999 999999 999999 12645 999999 999999 999999 999999 999999 999999 999999 999999 999999 999999 999999 999999 999999 999999 999999 999999 999999 999999 999999 999999 999999
999999 999999 999999 999999 999999 999999 999999 999999 999999 999999 999999 999999 999999 999999 999999 999999 999999 999999 999999 999999 999999 999999 999999 999999 999999 999999 999999 999999 999999 999999 999999 999999 999999 999999 999999 999999 999999 999999 999999 999999 999999 999999 999999 999999 999999 999999 999999 999999 999999 999999 999999 999999 999999 999999 999999 999999 999999 999999 999999 999999 999999 999999 999999 999999 999999 999999 999999 999999 999999 999999 999999 999999 999999 999999 999999 999999 999999 999999 999999 999999 999999 999999 999999 999999 999999 999999 999999 999999 999999 999999 999999 999999 999999 999999 999999 999999 999999 999999 999999 999999 999999 999999 999999 999999 999999 999999 999999 999999 999999 999999 999999 999999 999999 999999 999999 999999 999999 999999 999999 999999 999999 999999 999999 999999 999999 999999 999999 999999 999999 999999 999999 999999 999999 999999 999999 999999 999999 999999 999999 999999 999999 999999 999999 999999 999999 999999 999999 999999 999999 999999 999999 999999 999999 999999 999999 999999 999999 999999 999999 999999 999999 999999 999999 999999 999999 999999 999999 999999 999999 999999 999999 999999 999999 999999 999999 999999 999999 999999 999999 999999 0 999999 999999 999999 999999 18813 13508 999999 999999 999999 999999 999999 999999 999999 999999 999999 999999 999999 999999 999999 999999 999999 999999 16033 999999 999999 999999 999999 999999 999999 999999 999999 999999 17672 16296 999999 999999 999999 999999 999999 999999 999999 999999 999999 999999 999999 999999 999999 999999 14299 999999 999999 999999 999999 999999 999999 999999 999999 999999 999999 999999 999999 999999 999999 999999 999999 999999 999999 999999 999999 999999 999999 999999 999999 999999 999999 999999 999999 999999 999999 999999 999999 999999 999999 12875 999999 999999 14700 999999 999999 999999 999999 999999 17898 999999 999999 999999 999999 999999 15195 999999 999999 17119 999999 999999 999999 999999 999999 999999 999999 999999 999999 999999 999999 999999 999999 999999 999999 999999 999999 999999 999999 999999 999999 19895 999999 999999 999999 999999 999999 16479 999999 999999 999999 999999 999999 19678 999999 999999 999999 999999 12861 999999 999999 16109 999999 999999 999999 999999 999999 999999 999999 13905 999999 999999 999999 999999 999999 999999 999999 10286 999999 999999 999999 999999 999999 999999 999999 999999 999999 999999 999999 999999 999999 999999 999999 999999 999999 999999 999999 999999 999999
999999 13168 17439 11974 19409 14941 10557 12359 18570 15138 17250 11178 16902 13911 13665 14000 19701 13750 11095 18995 17432 16793 12800 15221 11944 13382 17045 16579 15692 13926 17502 12597 10714 10436 11051 11685 13602 18825 11846 14637 13520 14714 11166 14718 18765 13958 14098 17754 16182 13341 15616 12854 15877 13588 12862 10654 16147 12990 13763 13153 12886 10225 16336 18310 19458 14322 17062 10114 18147 14766 19231 10388 15966 17469 12704 19257 18734 11990 18611 13576 11257 17673 12752 10997 12981 17746 10607 18715 19046 12262 16872 15250 18130 17050 13789 18873 13945 13242 19967 12117 18548 10216 16420 14043 12850 14812 17873 18538 18558 12836 15700 14691 10877 12618 11389 12057 18925 12191 11848 16415 19251 15613 12410 14624 13033 12857 17455 16805 10494 19721 15614 17281 13834 16637 16808 14792 15131 12576 15698 13780 13993 10624 11000 13729 17181 10127 13448 10223 18145 11974 18490 17056 14221 18197 19502 19477 13751 10820 12751 18053 10956 10034 10402 11551 11840 17513 12325 18824 10890 16563 18587 11519 19866 18015 11338 15985 12932 10588 18113 19957 10720 0 999999 999999 999999 999999 999999 999999 999999 999999 999999 999999 999999 999999 999999 999999 999999 999999 999999 999999 999999 999999 999999 999999 999999 999999 999999 999999 999999 999999 999999 999999 999999 999999 999999 999999 999999 999999 999999 999999 999999 999999 999999 999999 999999 999999 999999 999999 999999 999999 999999 999999 999999 999999 999999 999999 999999 999999 999999 999999 999999 999999 999999 999999 999999 999999 999999 999999 999999 999999 999999 999999 999999 999999 999999 999999 999999 999999 999999 999999 999999 999999 999999 999999 999999 999999 999999 999999 999999 999999 999999 999999 999999 999999 999999 999999 999999 999999 999999 999999 999999 999999 999999 999999 999999 999999 999999 999999 999999 999999 999999 999999 999999 999999 999999 999999 999999 999999 999999 999999 999999 999999 999999 999999 999999 999999 999999 999999 999999 999999 999999 999999 999999 999999 999999 999999 999999 999999 999999 999999 999999 999999 999999 999999 999999 999999 999999 999999 999999 999999 999999 999999 999999 999999 999999 999999 999999 999999 999999 999999 999999 999999 999999 999999 999999 999999 999999 999999 999999 999999 999999 999999 999999 999999 999999 999999 999999 999999 999999 999999 999999 9477
999999 13557 19294 17680 18658 10265 10264 12090 13845 17258 15842 14275 14884 10392 16663 15844 16876 19692 18266 13584 17669 19843 18433 15966 10972 16347 12240 12716 12983 13997 10926 14664 10418 19499 17971 12953 17434 18695 10653 16110 15699 12998 12377 15909 11317 17742 11596 14085 13575 15728 14560 12837 18764 10954 17383 19122 16754 18426 19858 14424 10922 18690 12190 10763 12762 11612 12928 11337 15350 10535 13288 12505 12118 14126 14489 16533 19836 10653 16693 15510 10828 13958 13112 19002 19990 17405 18234 18738 17716 16217 18266 14107 17753 13462 17992 19833 19555 10802 13350 15298 12510 11305 19065 17061 19602 17012 15669 11973 17012 10047 13833 14396 15999 16326 18043 10946 15813 11468 14939 18239 17443 17535 11423 10853 15975 12777 15892 11822 19006 16208 16943 19058 17278 12758 12415 15167 15063 16685 11569 10275 15092 16002 14163 18861 13426 10074 13298 19069 17696 19633 10087 19186 19692 10491 10301 10972 18416 14602 11755 14911 14447 14823 12694 14542 14915 14520 19810 17681 11562 12090 13340 15903 15788 15478 19089 17223 12071 14150 13861 16794 16309 999999 0 999999 999999 999999 999999 999999 999999 999999 999999 999999 999999 999999 999999 999999 999999 999999 999999 999999 999999 999999 999999 999999 999999 999999 999999 999999 999999 999999 999999 999999 999999 999999 999999 999999 999999 999999 999999 999999 999999 999999 999999 999999 999999 999999 999999 999999 999999 999999 999999 999999 999999 999999 999999 999999 999999 999999 999999 999999 999999 999999 999999 999999 999999 999999 999999 999999 999999 999999 999999 999999 999999 999999 999999 999999 999999 999999 999999 999999 999999 999999 999999 999999 999999 999999 999999 999999 999999 999999 999999 999999 999999 999999 999999 999999 999999 999999 999999 999999 999999 999999 999999 999999 999999 999999 999999 999999 999999 999999 999999 999999 999999 999999 999999 999999 999999 999999 999999 999999 999999 999999 999999 999999 999999 999999 999999 999999 999999 999999 999999 999999 999999 999999 999999 999999 999999 999999 999999 999999 999999 999999 999999 999999 999999 999999 999999 999999 999999 999999 999999 999999 999999 999999 999999 999999 999999 999999 999999 999999 999999 999999 999999 999999 999999 999999 999999 999999 999999 999999 999999 999999 999999 999999 999999 999999 999999 999999 999999 999999 999999 12671
999999 12038 13198 18814 17142 13005 15338 18559 15502 12215 10759 16773 13259 12933 18819 13003 19272 16278 17956 18478 19062 13521 18390 12181 16814 18058 18398 19324 14698 13978 11137 13868 10684 13251 12231 10522 13867 16600 12940 18009 10390 15596 19434 10171 17814 19033 18253 14871 16111 12426 19629 13234 12448 10917 15348 19977 14859 19145 10639 17276 17460 14938 12453 19608 13018 15293 12803 16958 19237 16822 12850 19389 15390 17523 16850 10826 13794 10670 17765 14231 16903 13402 13619 14391 10984 14619 11030 17763 15495 17579 15262 10140 17174 15184 13932 13388 11916 13003 18225 15318 18404 16739 11840 18254 15979 14342 13679 18423 19914 16806 11504 14803 13567 18136 17977 15797 19064 19708 17965 10266 12538 14699 13461 15450 11901 11610 18532 10242 11728 13203 12511 18582 17421 15393 14532 14907 10732 11729 19217 18953 17702 13579 15903 11595 14326 12359 16536 17722 12626 17909 11415 10495 15557 15133 19762 12091 18905 16426 17540 13313 17049 11232 12041 11049 17635 12437 19561 11618 17776 11982 10234 13871 15636 17275 12892 12794 13796 10137 13326 11911 19097 999999 999999 0 999999 999999 999999 999999 999999 999999 999999 999999 999999 999999 999999 999999 999999 999999 999999 999999 999999 999999 999999 999999 999999 999999 999999 999999 999999 999999 999999 999999 999999 999999 999999 999999 999999 999999 999999 999999 999999 999999 999999 999999 999999 999999 999999 999999 999999 999999 999999 999999 999999 999999 999999 999999 999999 999999 999999 999999 999999 999999 999999 999999 999999 999999 999999 999999 999999 999999 999999 999999 999999 999999 999999 999999 999999 999999 999999 999999 999999 999999 999999 999999 999999 999999 999999 999999 999999 999999 999999 999999 999999 999999 999999 999999 999999 999999 999999 999999 999999 999999 999999 999999 999999 999999 999999 999999 999999 999999 999999 999999 999999 999999 999999 999999 999999 999999 999999 999999 999999 999999 999999 999999 999999 999999 999999 999999 999999 999999 999999 999999 999999 999999 999999 999999 999999 999999 999999 999999 999999 999999 999999 999999 999999 999999 999999 999999 999999 999999 999999 999999 999999 999999 999999 999999 999999 999999 999999 999999 999999 999999 999999 999999 999999 999999 999999 999999 999999 999999 999999 999999 999999 999999 999999 999999 999999 999999 999999 999999 999999 8818
999999 15518 15745 18375 15534 18862 10774 16115 17644 19361 16484 10412 15470 16797 11192 16864 10331 15991 11501 17541 13262 19239 15676 10558 18834 11587 11121 15432 14943 11314 19190 13125 14631 17337 10780 12044 16882 15870 16289 16711 16551 13453 10619 16107 13802 12428 17790 12709 18247 14726 12728 17963 11374 11677 14455 16411 18944 11246 13359 10348 12981 13442 14095 15295 15163 11079 11250 11976 16456 11913 19314 16126 11224 15507 11025 18212 15884 13228 15661 10445 18720 15411 10385 18653 17404 13773 14788 19169 14953 14798 13463 13437 16736 15805 12098 18072 10281 14083 16598 17822 18519 16154 17433 17861 13256 15555 13202 18448 16584 12043 17166 17818 14629 14404 17768 10696 13218 19729 16396 18333 12562 15827 13969 17712 18115 13647 18368 13775 13936 10272 11494 10451 14532 10654 18840 11718 15954 10009 11746 17971 13180 19206 11235 19251 17518 10615 10378 18915 16914 15739 10843 10026 15697 14952 17037 13788 11345 19198 13467 13792 18686 14589 15616 16404 15507 14181 11272 11182 17182 15038 16529 13607 11972 13191 18555 19725 11673 18257 11986 17319 18186 999999 999999 999999 0 999999 999999 999999 999999 999999 999999 999999 999999 999999 999999 999999 999999 999999 999999 999999 999999 999999 999999 999999 999999 999999 999999 999999 999999 999999 999999 999999 999999 999999 999999 999999 999999 999999 999999 999999 999999 999999 999999 999999 999999 999999 999999 999999 999999 999999 999999 999999 999999 999999 999999 999999 999999 999999 999999 999999 999999 999999 999999 999999 999999 999999 999999 999999 999999 999999 999999 999999 999999 999999 999999 999999 999999 999999 999999 999999 999999 999999 999999 999999 999999 999999 999999 999999 999999 999999 999999 999999 999999 999999 999999 999999 999999 999999 999999 999999 999999 999999 999999 999999 999999 999999 999999 999999 999999 999999 999999 999999 999999 999999 999999 999999 999999 999999 999999 999999 999999 999999 999999 999999 999999 999999 999999 999999 999999 999999 999999 999999 999999 999999 999999 999999 999999 999999 999999 999999 999999 999999 999999 999999 999999 999999 999999 999999 999999 999999 999999 999999 999999 999999 999999 999999 999999 999999 999999 999999 999999 999999 999999 999999 999999 999999 999999 999999 999999 999999 999999 999999 999999 999999 999999 999999 999999 999999 999999 999999 999999 7113
999999 12430 10109 10521 10166 18910 19321 18724 10581 14272 13392 16863 10379 16069 19638 15775 13165 19374 19463 16767 16357 12838 17703 11949 17675 15628 15724 14757 11089 17803 17471 15315 18502 18007 17955 18724 14555 16873 12100 15779 10961 15246 10898 16459 11063 17441 17730 15246 12589 19209 15772 13392 18800 11893 19307 17836 17899 10006 14107 15450 11349 16819 18288 18540 13104 17934 11616 12729 12370 14095 19649 17153 18229 15617 12259 19348 12032 14851 13965 17388 18003 10862 18233 13310 18501 16684 14575 16946 14402 14148 14694 17797 12693 11480 11187 17502 16235 13047 18562 13489 14370 14962 10314 19138 18882 12670 11175 13702 13141 14141 17354 15969 16897 15602 11622 19200 11816 12226 10563 11166 16812 17446 19793 11750 19134 10994 16188 10445 11300 19089 18236 15317 19276 12516 10497 10613 14430 12846 17252 11339 14840 10073 13347 11205 11799 14322 12020 18802 19102 15640 17257 18605 13234 10627 13236 17316 10996 19630 13597 16008 10155 10050 18791 19877 15955 18747 10245 15664 12861 11764 16155 18363 11938 16724 12697 14310 14697 19843 16388 17344 18813 999999 999999 999999 999999 0 999999 999999 999999 999999 999999 999999 999999 999999 999999 999999 999999 999999 999999 999999 999999 999999 999999 999999 999999 999999 999999 999999 999999 999999 999999 999999 999999 999999 999999 999999 999999 999999 999999 999999 999999 999999 999999 999999 999999 999999 999999 999999 999999 999999 999999 999999 999999 999999 999999 999999 999999 999999 999999 999999 999999 999999 999999 999999 999999 999999 999999 999999 999999 999999 999999 999999 999999 999999 999999 999999 999999 999999 999999 999999 999999 999999 999999 999999 999999 999999 999999 999999 999999 999999 999999 999999 999999 999999 999999 999999 999999 999999 999999 999999 999999 999999 999999 999999 999999 999999 999999 999999 999999 999999 999999 999999 999999 999999 999999 999999 999999 999999 999999 999999 999999 999999 999999 999999 999999 999999 999999 999999 999999 999999 999999 999999 999999 999999 999999 999999 999999 999999 999999 999999 999999 999999 999999 999999 999999 999999 999999 999999 999999 999999 999999 999999 999999 999999 999999 999999 999999 999999 999999 999999 999999 999999 999999 999999 999999 999999 999999 999999 999999 999999 999999 999999 999999 999999 999999 999999 999999 999999 999999 999999 999999 9511
999999 17447 19063 10892 15556 19349 17434 17310 16456 17246 12713 15595 11601 10203 15689 19716 13858 14765 15827 17467 18397 11417 14612 11355 12416 18860 15334 18563 11516 17995 13600 18797 14681 10698 13613 15201 18684 14251 10452 16614 17989 18110 11726 13933 10698 10701 13301 12896 10684 18808 11587 19701 11100 18803 19356 19999 10890 11843 10979 11271 11947 12180 13304 19878 14393 15959 16293 17668 12319 18034 17775 19692 15783 10483 14656 11430 13159 12794 14487 18410 15277 15930 10284 17164 13818 10975 15771 14810 14992 17553 17637 11054 13807 11404 14452 13862 10931 15388 15476 13326 11613 18491 18008 14891 16127 17526 19757 10087 13861 14509 16504 12692 13974 10406 10882 12662 13463 16810 19480 18496 15121 14798 14891 15965 11507 16106 11861 18922 12945 15760 12808 15593 14400 12120 15268 14460 13701 13578 18299 17924 17977 10786 14996 17652 13771 18150 16918 17834 11341 15586 18549 18910 15948 13445 10439 19270 18882 18679 18775 13199 13921 16751 19954 17321 13068 18468 17592 18562 16294 17971 13946 19321 15401 12083 10686 15061 18220 16648 11500 19974 13508 999999 999999 999999 999999 999999 0 999999 999999 999999 999999 999999 999999 999999 999999 999999 999999 999999 999999 999999 999999 999999 999999 999999 999999 999999 999999 999999 999999 999999 999999 999999 999999 999999 999999 999999 999999 999999 999999 999999 999999 999999 999999 999999 999999 999999 999999 999999 999999 999999 999999 999999 999999 999999 999999 999999 999999 999999 999999 999999 999999 999999 999999 999999 999999 999999 999999 999999 999999 999999 999999 999999 999999 999999 999999 999999 999999 999999 999999 999999 999999 999999 999999 999999 999999 999999 999999 999999 999999 999999 999999 999999 999999 999999 999999 999999 999999 999999 999999 999999 999999 999999 999999 999999 999999 999999 999999 999999 999999 999999 999999 999999 999999 999999 999999 999999 999999 999999 999999 999999 999999 999999 999999 999999 999999 999999 999999 999999 999999 999999 999999 999999 999999 999999 999999 999999 999999 999999 999999 999999 999999 999999 999999 999999 999999 999999 999999 999999 999999 999999 999999 999999 999999 999999 999999 999999 999999 999999 999999 999999 999999 999999 999999 999999 999999 999999 999999 999999 999999 999999 999999 999999 999999 999999 999999 999999 999999 999999 999999 999999 999999 8166
999999 10908 13310 12448 19727 10957 13116 13341 16952 17526 16989 14199 17063 11742 17524 12624 17721 16559 19735 14741 10079 17505 17145 12259 10534 16115 16383 11730 12979 14590 12335 11352 12555 16176 12025 13505 12235 18372 14591 10025 16008 16750 15779 11675 16016 16975 13129 12832 17355 11678 14413 18125 13677 14379 16036 18375 14857 18544 16068 13719 14078 10765 18803 13629 17806 18211 14511 13178 14198 17794 10442 18125 16856 18330 10770 18348 15193 13946 16218 13469 14813 18779 10109 10736 14923 18001 17131 13567 15664 15731 19057 18740 19401 10026 19267 15524 16930 18801 17150 19383 13596 18461 16394 11236 17450 14060 14537 14721 17498 10545 12680 14917 10814 11379 13315 11727 14516 19123 11698 11100 12115 18426 12454 11780 11170 16550 13861 14572 14538 15033 17485 16896 18508 13060 18867 16046 15908 18033 18344 11118 13270 14014 13730 12205 11777 16732 12977 15157 11213 15643 16588 12871 10104 18445 14534 16647 17104 17999 12086 14947 19187 18377 13728 13996 12827 19528 14466 12590 15238 13367 16483 17624 19459 13667 17845 12334 16304 14175 18827 11255 10041 999999 999999 999999 999999 999999 999999 0 999999 999999 999999 999999 999999 999999 999999 999999 999999 999999 999999 999999 999999 999999 999999 999999 999999 999999 999999 999999 999999 999999 999999 999999 999999 999999 999999 999999 999999 999999 999999 999999 999999 999999 999999 999999 999999 999999 999999 999999 999999 999999 999999 999999 999999 999999 999999 999999 999999 999999 999999 999999 999999 999999 999999 999999 999999 999999 999999 999999 999999 999999 999999 999999 999999 999999 999999 999999 999999 999999 999999 999999 999999 999999 999999 999999 999999 999999 999999 999999 999999 999999 999999 999999 999999 999999 999999 999999 999999 999999 999999 999999 999999 999999 999999 999999 999999 999999 999999 999999 999999 999999 999999 999999 999999 999999 999999 999999 999999 999999 999999 999999 999999 999999 999999 999999 999999 999999 999999 999999 999999 999999 999999 999999 999999 999999 999999 999999 999999 999999 999999 999999 999999 999999 999999 999999 999999 999999 999999 999999 999999 999999 999999 999999 999999 999999 999999 999999 999999 999999 999999 999999 999999 999999 999999 999999 999999 999999 999999 999999 999999 999999 999999 999999 999999 999999 999999 999999 999999 999999 999999 999999 999999 13095
999999 11548 18777 16344 16396 18180 11606 12424 19692 11325 11493 19605 19597 11306 18442 19456 15647 19693 15740 12326 18271 15353 19556 16252 17131 10922 19460 10485 19237 15574 15895 11836 16602 19800 19479 17860 14480 19014 17178 12387 15885 17312 16520 12369 18480 15107 16898 12484 18488 15159 15497 16856 18590 16374 11790 19691 12048 12668 19277 17088 12283 13343 17993 11936 12200 18600 17006 14354 15722 16118 17789 13158 14011 16122 15717 19739 16679 19409 19739 17668 10257 16950 13123 17465 19372 19225 15265 19629 14853 13855 19532 19175 15909 18924 18426 11300 12153 19381 17413 10729 16347 16081 10166 10540 13880 16279 19443 16849 13093 17840 10255 11604 10563 13477 14914 18558 19023 19362 19162 10525 11375 16341 19529 18712 14032 16024 14883 17767 15900 13611 17692 10595 18110 16129 11545 17077 11456 13455 14709 15809 19894 12522 10868 14354 18653 10784 13783 14409 17971 13810 17479 14393 10265 10723 15712 11260 12186 11294 15411 19227 15980 12878 15426 10138 18646 18131 10886 16234 10284 16617 19204 12084 12885 13473 16278 13931 12225 15893 11056 15009 14806 999999 999999 999999 999999 999999 999999 999999 0 999999 999999 999999 999999 999999 999999 999999 999999 999999 999999 999999 999999 999999 999999 999999 999999 999999 999999 999999 999999 999999 999999 999999 999999 999999 999999 999999 999999 999999 999999 999999 999999 999999 999999 999999 999999 999999 999999 999999 999999 999999 999999 999999 999999 999999 999999 999999 999999 999999 999999 999999 999999 999999 999999 999999 999999 999999 999999 999999 999999 999999 999999 999999 999999 999999 999999 999999 999999 999999 999999 999999 999999 999999 999999 999999 999999 999999 999999 999999 999999 999999 999999 999999 999999 999999 999999 999999 999999 999999 999999 999999 999999 999999 999999 999999 999999 999999 999999 999999 999999 999999 999999 999999 999999 999999 999999 999999 999999 999999 999999 999999 999999 999999 999999 999999 999999 999999 999999 999999 999999 999999 999999 999999 999999 999999 999999 999999 999999 999999 999999 999999 999999 999999 999999 999999 999999 999999 999999 999999 999999 999999 999999 999999 999999 999999 999999 999999 999999 999999 999999 999999 999999 999999 999999 999999 999999 999999 999999 999999 999999 999999 999999 999999 999999 999999 999999 999999 999999 999999 999999 999999 999999 14895
999999 12099 10634 12218 16013 14320 14265 16996 19944 15169 18106 10578 17860 16496 11757 11620 12139 12860 10373 18872 12682 19195 12355 17248 18486 19343 11947 14222 13575 15858 10674 17372 13724 18815 10074 13770 11581 10954 16338 15116 11498 16448 19273 16826 10384 12985 15741 14622 12250 18216 14358 15384 15470 12852 16159 16607 16243 13266 14005 16083 17293 11844 11240 13183 16435 14578 11524 14144 12322 16390 14936 16991 14706 16355 11378 19252 10853 19722 11664 14686 14923 14743 14456 15675 12404 15011 16267 14870 11933 17972 15099 12424 18128 18932 13544 16036 15314 13216 11845 19587 16704 12851 10636 11964 13079 11739 13305 18562 18713 12905 13290 10943 18280 10186 19877 19183 19268 18514 11778 15228 16564 12417 10568 11482 17131 16184 11607 16792 10781 18570 15376 19462 10957 13793 12913 10402 14233 10467 15446 18617 10850 17390 10769 17909 15846 12716 13536 12629 10158 14128 14479 12601 11255 16269 15275 15937 14824 11545 11741 11425 17928 11856 12124 16010 15872 11748 11755 11940 11734 14197 17519 10520 12399 11297 11451 15095 15217 18114 12181 19323 13312 999999 999999 999999 999999 999999 999999 999999 999999 0 999999 999999 999999 999999 999999 999999 999999 999999 999999 999999 999999 999999 999999 999999 999999 999999 999999 999999 999999 999999 999999 999999 999999 999999 999999 999999 999999 999999 999999 999999 999999 999999 999999 999999 999999 999999 999999 999999 999999 999999 999999 999999 999999 999999 999999 999999 999999 999999 999999 999999 999999 999999 999999 999999 999999 999999 999999 999999 999999 999999 999999 999999 999999 999999 999999 999999 999999 999999 999999 999999 999999 999999 999999 999999 999999 999999 999999 999999 999999 999999 999999 999999 999999 999999 999999 999999 999999 999999 999999 999999 999999 999999 999999 999999 999999 999999 999999 999999 999999 999999 999999 999999 999999 999999 999999 999999 999999 999999 999999 999999 999999 999999 999999 999999 999999 999999 999999 999999 999999 999999 999999 999999 999999 999999 999999 999999 999999 999999 999999 999999 999999 999999 999999 999999 999999 999999 999999 999999 999999 999999 999999 999999 999999 999999 999999 999999 999999 999999 999999 999999 999999 999999 999999 999999 999999 999999 999999 999999 999999 999999 999999 999999 999999 999999 999999 999999 999999 999999 999999 999999 999999 5202
999999 12090 14540 17644 14121 13075 12518 11377 10821 12362 14488 12998 19287 16268 12095 15125 10397 18660 16686 13414 15780 11695 18344 18756 14340 10445 19013 11276 13739 16727 18742 15655 14285 16567 10347 16594 11005 10072 18427 19781 12261 13374 13236 15838 14028 15369 17966 10484 10968 10254 16813 12998 16584 15429 17975 14302 16364 13780 19345 14115 15529 17553 17682 15838 12286 17244 12340 15671 16447 14499 14400 15020 17140 17684 11388 15973 13594 19573 13586 11066 13445 16383 18993 14691 10773 16764 12311 12714 16905 13858 16303 13678 12649 14709 14491 10124 15665 13653 13372 18567 10744 16323 19615 13712 18409 17849 15842 19954 11536 19572 16098 12695 16946 11559 14564 14905 13228 16538 11367 16860 14664 12951 17246 16567 17033 16460 16144 11579 16692 19847 16967 18537 16734 13742 19918 12850 11269 19177 11822 15514 17605 19201 16804 19794 12036 16024 13390 11975 12002 18167 12465 16091 16291 10061 13125 12753 10303 14608 16929 17568 14427 10032 18804 10578 13180 10229 12012 19225 10839 16935 11314 16147 13806 17170 16694 10465 17009 11292 15901 19042 14475 999999 999999 999999 999999 999999 999999 999999 999999 999999 0 999999 999999 999999 999999 999999 999999 999999 999999 999999 999999 999999 999999 999999 999999 999999 999999 999999 999999 999999 999999 999999 999999 999999 999999 999999 999999 999999 999999 999999 999999 999999 999999 999999 999999 999999 999999 999999 999999 999999 999999 999999 999999 999999 999999 999999 999999 999999 999999 999999 999999 999999 999999 999999 999999 999999 999999 999999 999999 999999 999999 999999 999999 999999 999999 999999 999999 999999 999999 999999 999999 999999 999999 999999 999999 999999 999999 999999 999999 999999 999999 999999 999999 999999 999999 999999 999999 999999 999999 999999 999999 999999 999999 999999 999999 999999 999999 999999 999999 999999 999999 999999 999999 999999 999999 999999 999999 999999 999999 999999 999999 999999 999999 999999 999999 999999 999999 999999 999999 999999 999999 999999 999999 999999 999999 999999 999999 999999 999999 999999 999999 999999 999999 999999 999999 999999 999999 999999 999999 999999 999999 999999 999999 999999 999999 999999 999999 999999 999999 999999 999999 999999 999999 999999 999999 999999 999999 999999 999999 999999 999999 999999 999999 999999 999999 999999 999999 999999 999999 999999 999999 8336
999999 15636 18724 14618 16550 16593 15903 13010 12378 13236 10170 14067 10075 13572 16793 17170 13263 16092 19554 15009 16641 15972 18254 17355 16549 18943 15199 10885 17183 19888 18981 13664 17063 11263 18105 14313 10685 14011 13698 10289 13166 19159 15100 12332 13127 17772 12391 19921 13476 11470 17181 12437 11231 14540 11892 13429 11909 12312 12488 18059 17347 18978 14877 17119 19326 19242 14426 14672 13855 19466 11054 16178 13101 10003 14209 12271 19190 19418 18201 18272 15083 14442 17948 19776 13692 11855 18958 14744 16852 15481 14657 19307 17279 11996 11016 14422 14337 14521 11655 17598 17357 16239 17043 12290 13598 12212 13766 18224 17637 16297 19322 15314 10150 10093 16512 11831 17978 11084 15584 16749 12950 18620 16045 14043 13433 19569 17439 15669 17003 13805 16493 19239 17038 15686 19673 14277 11104 18305 14998 11218 17718 11549 18963 17880 10251 12907 14126 17130 12482 13890 16986 10024 16022 14693 13322 10407 13104 13119 19926 16897 15749 15916 14755 15927 17364 10664 18554 18495 17503 19657 13984 10709 15377 10714 16318 16508 11162 12126 12941 12629 12694 999999 999999 999999 999999 999999 999999 999999 999999 999999 999999 0 999999 999999 999999 999999 999999 999999 999999 999999 999999 999999 999999 999999 999999 999999 999999 999999 999999 999999 999999 999999 999999 999999 999999 999999 999999 999999 999999 999999 999999 999999 999999 999999 999999 999999 999999 999999 999999 999999 999999 999999 999999 999999 999999 999999 999999 999999 999999 999999 999999 999999 999999 999999 999999 999999 999999 999999 999999 999999 999999 999999 999999 999999 999999 999999 999999 999999 999999 999999 999999 999999 999999 999999 999999 999999 999999 999999 999999 999999 999999 999999 999999 999999 999999 999999 999999 999999 999999 999999 999999 999999 999999 999999 999999 999999 999999 999999 999999 999999 999999 999999 999999 999999 999999 999999 999999 999999 999999 999999 999999 999999 999999 999999 999999 999999 999999 999999 999999 999999 999999 999999 999999 999999 999999 999999 999999 999999 999999 999999 999999 999999 999999 999999 999999 999999 999999 999999 999999 999999 999999 999999 999999 999999 999999 999999 999999 999999 999999 999999 999999 999999 999999 999999 999999 999999 999999 999999 999999 999999 999999 999999 999999 999999 999999 999999 999999 999999 999999 999999 999999 12082
999999 12097 11419 12395 17821 18566 15091 17893 18256 13474 15199 16874 14028 12934 13943 14245 10294 13766 15277 10048 19862 13010 13853 10857 17968 18098 10551 11998 19042 16911 17082 19068 18945 19846 17640 14465 14122 14696 18124 18433 16622 10355 11518 19808 16962 10945 18033 14411 13166 12638 17836 14960 13471 14481 19532 10832 19077 10083 17249 19098 13762 12635 13970 17670 15401 19458 12785 10490 10007 18824 16539 10400 12508 10463 18886 19338 18028 18913 19387 15598 15641 12673 18009 17367 16686 14101 10947 18963 18218 17911 10706 19780 15027 15995 19588 18570 14448 14674 17621 17248 15572 19336 18527 15977 13270 13830 14521 18168 18540 12341 18841 19532 14501 16950 11769 12788 12608 18832 11661 18232 11735 12047 11983 12315 10291 15165 14819 11317 11116 17109 14332 12499 19729 14053 10265 15543 17304 12420 14660 10112 13047 12028 14805 10758 18822 13257 15261 17933 16040 13208 13031 19071 19398 18444 17748 19981 18582 14349 19059 13714 18409 11884 11096 15517 19128 16717 18273 19574 13824 16009 12861 17909 12847 17273 11454 18777 17031 14368 18595 18194 16627 999999 999999 999999 999999 999999 999999 999999 999999 999999 999999 999999 0 999999 999999 999999 999999 999999 999999 999999 999999 999999 999999 999999 999999 999999 999999 999999 999999 999999 999999 999999 999999 999999 999999 999999 999999 999999 999999 999999 999999 999999 999999 999999 999999 999999 999999 999999 999999 999999 999999 999999 999999 999999 999999 999999 999999 999999 999999 999999 999999 999999 999999 999999 999999 999999 999999 999999 999999 999999 999999 999999 999999 999999 999999 999999 999999 999999 999999 999999 999999 999999 999999 999999 999999 999999 999999 999999 999999 999999 999999 999999 999999 999999 999999 999999 999999 999999 999999 999999 999999 999999 999999 999999 999999 999999 999999 999999 999999 999999 999999 999999 999999 999999 999999 999999 999999 999999 999999 999999 999999 999999 999999 999999 999999 999999 999999 999999 999999 999999 999999 999999 999999 999999 999999 999999 999999 999999 999999 999999 999999 999999 999999 999999 999999 999999 999999 999999 999999 999999 999999 999999 999999 999999 999999 999999 999999 999999 999999 999999 999999 999999 999999 999999 999999 999999 999999 999999 999999 999999 999999 999999 999999 999999 999999 999999 999999 999999 999999 999999 999999 9681
999999 11251 17901 16143 14478 11348 14037 18396 18178 12880 14629 17000 15383 15554 10057 14339 13184 10134 17932 19573 19440 16683 14588 17539 15816 12302 18303 13261 19065 12958 15242 16174 12223 17977 14081 14770 12265 19893 13964 13879 10468 11851 19010 13162 12508 12852 10870 18802 10218 19594 12451 15095 19169 12581 14706 19868 13668 16738 14557 15697 10662 17208 10694 12501 15275 14383 17495 18105 14092 18087 16292 13583 12666 15780 14733 19399 12629 14475 16024 18723 18761 19810 12066 10011 14917 15533 17295 17231 15362 16307 15803 13533 10408 12861 10423 16600 14942 11362 16235 13138 14423 13949 13879 15407 10749 19924 17224 10477 14277 17787 17281 17878 15704 15177 14314 13411 13455 19650 19211 15037 10673 18801 15119 12135 15486 15983 15781 14113 14162 12834 17511 19370 12237 13226 13269 15595 11911 15014 10784 19511 10608 15930 10877 11318 17420 13721 14695 18890 15512 19360 16495 14257 11543 18816 16175 16837 10903 13016 10959 11761 16632 16762 12568 19095 19586 16056 19556 19491 16158 16760 14851 16307 10085 19182 16063 13017 16436 17897 11725 13961 13324 999999 999999 999999 999999 999999 999999 999999 999999 999999 999999 999999 999999 0 999999 999999 999999 999999 999999 999999 999999 999999 999999 999999 999999 999999 999999 999999 999999 999999 999999 999999 999999 999999 999999 999999 999999 999999 999999 999999 999999 999999 999999 999999 999999 999999 999999 999999 999999 999999 999999 999999 999999 999999 999999 999999 999999 999999 999999 999999 999999 999999 999999 999999 999999 999999 999999 999999 999999 999999 999999 999999 999999 999999 999999 999999 999999 999999 999999 999999 999999 999999 999999 999999 999999 999999 999999 999999 999999 999999 999999 999999 999999 999999 999999 999999 999999 999999 999999 999999 999999 999999 999999 999999 999999 999999 999999 999999 999999 999999 999999 999999 999999 999999 999999 999999 999999 999999 999999 999999 999999 999999 999999 999999 999999 999999 999999 999999 999999 999999 999999 999999 999999 999999 999999 999999 999999 999999 999999 999999 999999 999999 999999 999999 999999 999999 999999 999999 999999 999999 999999 999999 999999 999999 999999 999999 999999 999999 999999 999999 999999 999999 999999 999999 999999 999999 999999 999999 999999 999999 999999 999999 999999 999999 999999 999999 999999 999999 999999 999999 999999 5106
999999 12779 12203 14091 10681 15595 16872 11228 13606 12376 17071 13806 13701 12592 16617 14689 10032 17458 18197 18983 19863 19790 14103 11585 10863 13378 17752 12476 13882 19869 17092 18735 12199 15632 12621 10929 17018 16678 19261 14369 13739 16276 11021 11486 15526 15586 18328 16584 15106 10519 18301 10700 14990 17062 11728 19054 14458 16522 18379 14718 12261 14048 15386 13686 11159 19455 15613 19855 11880 14867 10555 17027 10521 15066 19163 10801 15041 10887 19694 11836 16147 14002 10911 19987 13694 12201 12027 17884 17653 14366 12673 17474 13258 17807 10899 19274 17881 14104 12967 18625 14418 19580 19614 10392 16870 10600 15000 14900 11577 11437 15325 13042 17973 11700 13680 16901 11608 18935 12972 14921 19302 11215 19313 10048 19191 12832 18028 11112 12377 11679 13149 15575 15112 14704 16877 11095 19331 10958 10735 17310 17264 16165 11780 19596 12198 13837 14229 14609 12377 18727 19573 13924 16797 18308 13738 10592 11622 16870 19400 17846 16216 11145 15642 19621 17785 12132 12265 11157 11697 15205 12466 16146 15085 13098 14995 18888 15869 13431 12071 18295 10344 999999 999999 999999 999999 999999 999999 999999 999999 999999 999999 999999 999999 999999 0 999999 999999 999999 999999 999999 999999 999999 999999 999999 999999 999999 999999 999999 999999 999999 999999 999999 999999 999999 999999 999999 999999 999999 999999 999999 999999 999999 999999 999999 999999 999999 999999 999999 999999 999999 999999 999999 999999 999999 999999 999999 999999 999999 999999 999999 999999 999999 999999 999999 999999 999999 999999 999999 999999 999999 999999 999999 999999 999999 999999 999999 999999 999999 999999 999999 999999 999999 999999 999999 999999 999999 999999 999999 999999 999999 999999 999999 999999 999999 999999 999999 999999 999999 999999 999999 999999 999999 999999 999999 999999 999999 999999 999999 999999 999999 999999 999999 999999 999999 999999 999999 999999 999999 999999 999999 999999 999999 999999 999999 999999 999999 999999 999999 999999 999999 999999 999999 999999 999999 999999 999999 999999 999999 999999 999999 999999 999999 999999 999999 999999 999999 999999 999999 999999 999999 999999 999999 999999 999999 999999 999999 999999 999999 999999 999999 999999 999999 999999 999999 999999 999999 999999 999999 999999 999999 999999 999999 999999 999999 999999 999999 999999 999999 999999 999999 999999 9658
999999 15728 15986 18035 14386 18742 19970 16103 10482 13156 10678 18068 15481 19815 13085 16901 13730 16071 18261 18988 11234 12085 11817 11630 19797 16679 18519 15490 10782 11527 11617 12788 11287 13710 18021 17444 16365 12060 17858 17756 13598 10753 14549 11923 13724 17377 15391 17600 17779 13636 14686 15062 10382 12843 16839 16471 19466 11954 13587 19165 18827 12557 15758 16803 14689 16708 13784 13026 14520 18287 12648 15161 18409 14449 16239 18978 15280 13883 15075 18255 17020 14322 19214 14238 11759 16281 11133 14235 16664 14549 17389 17138 16885 17880 13479 10718 18067 11753 15707 13556 18133 12594 11537 19345 19739 18762 15508 18791 19042 14483 14747 10440 14788 18297 10983 12883 19216 15405 10693 17038 12229 19270 15024 19257 14062 17829 15246 15393 19225 10667 19769 17684 17048 16966 11005 13691 15960 18012 10924 15204 18776 12096 13242 11278 18926 16036 17995 13914 16627 14114 11360 11402 16824 13543 15722 14587 15947 16689 19920 11540 12441 12120 12337 15467 18441 11595 14801 19882 12636 11128 19777 19219 13154 19316 19599 19800 19864 11506 19992 18972 13264 999999 999999 999999 999999 999999 999999 999999 999999 999999 999999 999999 999999 999999 999999 0 999999 999999 999999 999999 999999 999999 999999 999999 999999 999999 999999 999999 999999 999999 999999 999999 999999 999999 999999 999999 999999 999999 999999 999999 999999 999999 999999 999999 999999 999999 999999 999999 999999 999999 999999 999999 999999 999999 999999 999999 999999 999999 999999 999999 999999 999999 999999 999999 999999 999999 999999 999999 999999 999999 999999 999999 999999 999999 999999 999999 999999 999999 999999 999999 999999 999999 999999 999999 999999 999999 999999 999999 999999 999999 999999 999999 999999 999999 999999 999999 999999 999999 999999 999999 999999 999999 999999 999999 999999 999999 999999 999999 999999 999999 999999 999999 999999 999999 999999 999999 999999 999999 999999 999999 999999 999999 999999 999999 999999 999999 999999 999999 999999 999999 999999 999999 999999 999999 999999 999999 999999 999999 999999 999999 999999 999999 999999 999999 999999 999999 999999 999999 999999 999999 999999 999999 999999 999999 999999 999999 999999 999999 999999 999999 999999 999999 999999 999999 999999 999999 999999 999999 999999 999999 999999 999999 999999 999999 999999 999999 999999 999999 999999 999999 999999 6516
999999 16590 19274 16336 10035 16438 12248 14785 11104 16232 17783 19364 16824 19272 11734 15439 16698 18736 15035 18641 11949 11952 14166 10838 13271 12597 16624 17262 10662 13602 17248 12050 14939 10654 14503 14828 17435 18820 11749 10174 18669 12975 15605 10894 13384 15867 13673 17964 15531 11523 11553 13307 10915 18140 12937 13689 17156 16746 14339 16374 10604 14378 17590 15644 14437 19846 11722 11728 11710 18184 19459 17960 11583 17705 11777 13745 11816 14087 10610 18365 11837 10458 12987 14296 14966 17953 17666 17102 13757 12933 17588 12444 14023 16342 14729 16125 10605 13859 19491 16710 19223 18965 16134 11521 13680 10997 16318 10748 17459 15808 17399 10109 11432 16434 11322 16330 13924 19267 14680 12625 17031 10182 17198 13778 16982 15612 16256 18292 12366 10096 16015 19206 14471 19046 12995 19292 12211 17258 19052 16608 18994 10618 17481 11982 14247 16269 13071 14876 17739 15911 14994 10701 19376 13211 17481 16799 13429 16472 17239 10293 11303 18737 18227 17198 16621 18966 15172 14660 18835 13118 17514 15013 15175 16305 17680 17870 16375 15708 15024 15536 18582 999999 999999 999999 999999 999999 999999 999999 999999 999999 999999 999999 999999 999999 999999 999999 0 999999 999999 999999 999999 999999 999999 999999 999999 999999 999999 999999 999999 999999 999999 999999 999999 999999 999999 999999 999999 999999 999999 999999 999999 999999 999999 999999 999999 999999 999999 999999 999999 999999 999999 999999 999999 999999 999999 999999 999999 999999 999999 999999 999999 999999 999999 999999 999999 999999 999999 999999 999999 999999 999999 999999 999999 999999 999999 999999 999999 999999 999999 999999 999999 999999 999999 999999 999999 999999 999999 999999 999999 999999 999999 999999 999999 999999 999999 999999 999999 999999 999999 999999 999999 999999 999999 999999 999999 999999 999999 999999 999999 999999 999999 999999 999999 999999 999999 999999 999999 999999 999999 999999 999999 999999 999999 999999 999999 999999 999999 999999 999999 999999 999999 999999 999999 999999 999999 999999 999999 999999 999999 999999 999999 999999 999999 999999 999999 999999 999999 999999 999999 999999 999999 999999 999999 999999 999999 999999 999999 999999 999999 999999 999999 999999 999999 999999 999999 999999 999999 999999 999999 999999 999999 999999 999999 999999 999999 999999 999999 999999 999999 999999 999999 8271
999999 17534 18704 18227 18535 12307 14588 14507 17822 17139 19405 16328 14289 13102 13585 19068 17007 15111 10710 14948 15071 17620 16659 14131 13208 14017 15680 14270 19263 13899 19957 12261 17735 16458 11719 17296 18245 17670 16043 13946 18641 12440 10334 13043 17814 13873 13707 15205 15775 14662 13339 12823 10207 14127 19952 18584 17584 13403 19465 18269 14423 10829 10597 16804 10014 10438 15710 13068 18594 11722 14954 17725 17064 18768 17572 18124 12985 10110 19604 14904 11955 17766 11179 15317 14856 17717 12989 14476 10883 17330 15274 18849 11304 10832 19626 18184 16733 11144 15551 17683 18988 11830 17031 15057 17592 17228 15173 17373 12179 19171 19154 14247 18395 11331 13803 16908 18879 16749 16231 16511 16347 10127 12997 16618 18059 17063 15534 15532 12635 11575 16926 14931 14251 17842 10913 16868 19381 13276 14378 15443 19880 17365 18029 12073 17159 16138 19151 10586 13478 17000 13524 18530 11912 17755 18463 13919 17536 17209 19212 18221 17637 12336 18006 12681 18050 15174 14838 12328 16423 13426 15207 17423 17575 16832 18043 15811 18624 12002 10548 19844 13133 999999 999999 999999 999999 999999 999999 999999 999999 999999 999999 999999 999999 999999 999999 999999 999999 0 999999 999999 999999 999999 999999 999999 999999 999999 999999 999999 999999 999999 999999 999999 999999 999999 999999 999999 999999 999999 999999 999999 999999 999999 999999 999999 999999 999999 999999 999999 999999 999999 999999 999999 999999 999999 999999 999999 999999 999999 999999 999999 999999 999999 999999 999999 999999 999999 999999 999999 999999 999999 999999 999999 999999 999999 999999 999999 999999 999999 999999 999999 999999 999999 999999 999999 999999 999999 999999 999999 999999 999999 999999 999999 999999 999999 999999 999999 999999 999999 999999 999999 999999 999999 999999 999999 999999 999999 999999 999999 999999 999999 999999 999999 999999 999999 999999 999999 999999 999999 999999 999999 999999 999999 999999 999999 999999 999999 999999 999999 999999 999999 999999 999999 999999 999999 999999 999999 999999 999999 999999 999999 999999 999999 999999 999999 999999 999999 999999 999999 999999 999999 999999 999999 999999 999999 999999 999999 999999 999999 999999 999999 999999 999999 999999 999999 999999 999999 999999 999999 999999 999999 999999 999999 999999 999999 999999 999999 999999 999999 999999 999999 999999 10452
999999 19962 17448 17129 14632 13013 15347 15855 18009 16732 13572 16448 12219 10777 13867 19170 12056 12159 17346 13698 16861 14237 12360 15375 16641 18564 11285 13592 10451 10525 11455 19217 15005 13133 17009 15376 10749 10467 10183 18757 18868 11784 19824 17536 19215 13149 10660 13681 14931 10559 18473 18525 19248 16215 12555 17913 17938 16809 18583 15700 18453 12446 15628 11647 14483 17779 19102 13037 13655 14333 14006 17738 12888 16823 15452 19759 14552 14577 17513 19186 16322 13061 18699 12739 16134 13378 16971 12627 14914 13534 18525 18921 11894 14503 15863 17764 14404 19240 14173 19393 19374 13498 12367 11256 14839 18964 17363 13040 10998 11196 11667 12877 10958 13529 11655 15982 17414 11098 14964 19738 10306 12623 17961 18915 17875 12707 11625 19672 14977 13074 14385 13772 13309 13143 16759 15777 10312 14216 10606 19552 14940 17514 14041 18899 17113 17112 19481 11298 11353 15299 16792 14827 19052 11700 15331 10470 11811 17535 13483 11091 15419 11110 18298 11689 18079 16316 17808 17009 16614 11672 13911 18682 11534 12097 13656 19180 14421 15335 12092 11851 19406 999999 999999 999999 999999 999999 999999 999999 999999 999999 999999 999999 999999 999999 999999 999999 999999 999999 0 999999 999999 999999 999999 999999 999999 999999 999999 999999 999999 999999 999999 999999 999999 999999 999999 999999 999999 999999 999999 999999 999999 999999 999999 999999 999999 999999 999999 999999 999999 999999 999999 999999 999999 999999 999999 999999 999999 999999 999999 999999 999999 999999 999999 999999 999999 999999 999999 999999 999999 999999 999999 999999 999999 999999 999999 999999 999999 999999 999999 999999 999999 999999 999999 999999 999999 999999 999999 999999 999999 999999 999999 999999 999999 999999 999999 999999 999999 999999 999999 999999 999999 999999 999999 999999 999999 999999 999999 999999 999999 999999 999999 999999 999999 999999 999999 999999 999999 999999 999999 999999 999999 999999 999999 999999 999999 999999 999999 999999 999999 999999 999999 999999 999999 999999 999999 999999 999999 999999 999999 999999 999999 999999 999999 999999 999999 999999 999999 999999 999999 999999 999999 999999 999999 999999 999999 999999 999999 999999 999999 999999 999999 999999 999999 999999 999999 999999 999999 999999 999999 999999 999999 999999 999999 999999 999999 999999 999999 999999 999999 999999 999999 6818
999999 12184 15159 15152 18540 16416 14593 13005 11751 19143 19608 19386 10121 12312 10514 18772 13384 10023 15224 13254 17674 14173 11728 15997 16930 14201 16989 11127 17323 16908 11347 18005 18030 12563 15422 17963 10247 17441 16028 11420 13341 15368 19319 17729 17671 14003 13467 12482 10207 14341 12926 18861 18847 17099 11761 10438 12791 15818 10844 10525 19509 17606 18042 18755 10143 16163 17094 12588 12556 15567 12967 19370 16226 13676 13259 16023 13064 13264 13167 13707 15661 13337 17455 15150 16521 16628 19032 13784 19547 13840 10141 10479 16632 11097 19534 12592 12193 12350 12014 11979 14693 15383 12681 16420 14198 15219 19193 13263 17224 11761 16325 18510 19267 18666 12676 16789 18981 19609 19141 13154 19263 10671 13990 19450 18583 19410 16841 15377 14150 13448 19406 12445 13667 17304 13782 19702 15148 15421 11542 13213 17554 10710 11344 17113 11428 16218 18068 15022 11718 16456 15154 10969 19464 17078 18079 11198 12433 13778 14063 15465 14171 12885 19304 16700 17496 19937 19422 18713 15056 17915 14660 17359 12777 18792 13764 10970 10136 17668 13897 15125 18594 999999 999999 999999 999999 999999 999999 999999 999999 999999 999999 999999 999999 999999 999999 999999 999999 999999 999999 0 999999 999999 999999 999999 999999 999999 999999 999999 999999 999999 999999 999999 999999 999999 999999 999999 999999 999999 999999 999999 999999 999999 999999 999999 999999 999999 999999 999999 999999 999999 999999 999999 999999 999999 999999 999999 999999 999999 999999 999999 999999 999999 999999 999999 999999 999999 999999 999999 999999 999999 999999 999999 999999 999999 999999 999999 999999 999999 999999 999999 999999 999999 999999 999999 999999 999999 999999 999999 999999 999999 999999 999999 999999 999999 999999 999999 999999 999999 999999 999999 999999 999999 999999 999999 999999 999999 999999 999999 999999 999999 999999 999999 999999 999999 999999 999999 999999 999999 999999 999999 999999 999999 999999 999999 999999 999999 999999 999999 999999 999999 999999 999999 999999 999999 999999 999999 999999 999999 999999 999999 999999 999999 999999 999999 999999 999999 999999 999999 999999 999999 999999 999999 999999 999999 999999 999999 999999 999999 999999 999999 999999 999999 999999 999999 999999 999999 999999 999999 999999 999999 999999 999999 999999 999999 999999 999999 999999 999999 999999 999999 999999 7685
999999 12127 14293 19522 19905 11373 15897 16716 10166 17708 11813 12057 11114 16895 12780 19650 17926 19193 16761 14802 12985 16422 12998 15920 10227 12828 14315 15223 12673 17928 15637 18088 17689 15744 13454 12203 12479 18777 16051 14760 17528 14528 19640 15041 14300 16560 10845 15570 14026 11479 10165 10224 17639 14598 12853 16846 12542 14184 13069 14621 10674 10927 11215 19755 13134 14315 14022 10146 17381 13188 12147 16013 16590 18542 15342 19739 19275 14967 16374 18360 12469 10136 18425 14908 13615 16270 10060 11984 18658 14891 19210 10556 14113 18659 13446 13308 10151 17387 10074 14233 13543 18161 15445 13397 16516 19720 11960 13426 17527 16210 13195 16604 10503 12183 13513 17525 13349 10525 11951 15835 10658 15176 10966 17673 18358 13371 18131 18655 17395 18454 15932 11087 17332 17720 11495 17952 17898 16985 14704 16571 16153 12804 18242 14216 15371 18137 16952 13911 17488 18988 11440 11007 15561 11555 11586 14487 13580 11708 11311 18468 16993 12052 14994 10190 11937 12414 17348 16745 19439 11278 14046 15054 17099 18807 15465 11004 12690 12053 18707 17645 17427 999999 999999 999999 999999 999999 999999 999999 999999 999999 999999 999999 999999 999999 999999 999999 999999 999999 999999 999999 0 999999 999999 999999 999999 999999 999999 999999 999999 999999 999999 999999 999999 999999 999999 999999 999999 999999 999999 999999 999999 999999 999999 999999 999999 999999 999999 999999 999999 999999 999999 999999 999999 999999 999999 999999 999999 999999 999999 999999 999999 999999 999999 999999 999999 999999 999999 999999 999999 999999 999999 999999 999999 999999 999999 999999 999999 999999 999999 999999 999999 999999 999999 999999 999999 999999 999999 999999 999999 999999 999999 999999 999999 999999 999999 999999 999999 999999 999999 999999 999999 999999 999999 999999 999999 999999 999999 999999 999999 999999 999999 999999 999999 999999 999999 999999 999999 999999 999999 999999 999999 999999 999999 999999 999999 999999 999999 999999 999999 999999 999999 999999 999999 999999 999999 999999 999999 999999 999999 999999 999999 999999 999999 999999 999999 999999 999999 999999 999999 999999 999999 999999 999999 999999 999999 999999 999999 999999 999999 999999 999999 999999 999999 999999 999999 999999 999999 999999 999999 999999 999999 999999 999999 999999 999999 999999 999999 999999 999999 999999 999999 11949
999999 10437 14998 15600 18493 11515 12912 10766 16893 11839 11494 18450 10852 19133 11456 13362 15930 12054 19042 12519 14663 18087 16093 19080 11733 18361 13241 11639 14108 10654 11568 15369 18971 12747 18979 16489 14690 11133 18870 16763 10934 10724 17294 19603 15153 14092 15039 10701 17037 14878 17290 12302 16212 12522 15519 18419 14555 13303 19155 16412 20000 10563 11043 14118 16253 11922 14200 11755 10705 16450 17365 19953 19990 12190 11592 16405 10116 15564 15785 17152 19261 14487 17185 18121 11578 13211 15799 18788 15322 17133 13330 10970 10780 11727 13990 12406 12517 10785 19076 13466 13495 11511 17751 18992 19111 12386 19183 16722 18612 13896 15586 19383 13618 13318 11588 13735 19953 14181 11437 11205 14488 18188 11519 14997 15805 14320 15866 13357 18133 15084 16307 10259 14329 13351 15084 16161 13801 13958 15285 11548 17685 11234 14342 15391 13522 19846 19662 12440 13784 15597 17709 19326 19948 11288 12609 12087 15444 14310 13086 16360 14910 18956 11178 13329 11382 16714 12471 12343 10342 18038 19246 10300 14218 10681 17003 14146 10462 18138 15356 18522 10573 999999 999999 999999 999999 999999 999999 999999 999999 999999 999999 999999 999999 999999 999999 999999 999999 999999 999999 999999 999999 0 999999 999999 999999 999999 999999 999999 999999 999999 999999 999999 999999 999999 999999 999999 999999 999999 999999 999999 999999 999999 999999 999999 999999 999999 999999 999999 999999 999999 999999 999999 999999 999999 999999 999999 999999 999999 999999 999999 999999 999999 999999 999999 999999 999999 999999 999999 999999 999999 999999 999999 999999 999999 999999 999999 999999 999999 999999 999999 999999 999999 999999 999999 999999 999999 999999 999999 999999 999999 999999 999999 999999 999999 999999 999999 999999 999999 999999 999999 999999 999999 999999 999999 999999 999999 999999 999999 999999 999999 999999 999999 999999 999999 999999 999999 999999 999999 999999 999999 999999 999999 999999 999999 999999 999999 999999 999999 999999 999999 999999 999999 999999 999999 999999 999999 999999 999999 999999 999999 999999 999999 999999 999999 999999 999999 999999 999999 999999 999999 999999 999999 999999 999999 999999 999999 999999 999999 999999 999999 999999 999999 999999 999999 999999 999999 999999 999999 999999 999999 999999 999999 999999 999999 999999 999999 999999 999999 999999 999999 999999 13697
999999 13647 10283 10414 13059 14610 19046 13667 19727 17295 17879 13156 13137 10621 12067 16229 13420 18890 10998 15790 18282 12420 18371 19292 18805 14750 18242 12152 13706 13196 12540 18081 12850 18947 15494 17970 19654 11516 11534 11708 16591 15441 16630 13498 16821 16990 19461 14729 13598 14118 15701 14548 17783 10168 16700 11212 18638 18587 17903 16272 18756 17865 10192 19866 14957 14600 16590 13274 10112 14655 12018 18852 12853 18227 13748 16753 19607 10743 13384 13542 13330 13001 10669 16799 13973 16151 16494 15899 14638 11583 16967 10313 18726 16126 14612 18334 17143 15902 19659 14882 13726 12480 13090 14908 17664 14025 14912 19902 16607 16811 12249 16218 14581 14406 18999 19938 19060 19516 12282 16072 12265 11336 16453 17061 10689 10102 13165 19228 18341 17391 18039 17440 10165 11891 18172 10616 11777 15187 16167 17334 15755 13879 13838 17791 12013 10465 14212 11692 10673 18891 12033 19764 18845 18996 12634 10968 18852 19877 10450 18248 17653 15963 13440 16785 10941 13518 11700 11291 16264 12834 11464 19537 17748 19355 11254 14218 19970 10798 10623 13044 11546 999999 999999 999999 999999 999999 999999 999999 999999 999999 999999 999999 999999 999999 999999 999999 999999 999999 999999 999999 999999 999999 0 999999 999999 999999 999999 999999 999999 999999 999999 999999 999999 999999 999999 999999 999999 999999 999999 999999 999999 999999 999999 999999 999999 999999 999999 999999 999999 999999 999999 999999 999999 999999 999999 999999 999999 999999 999999 999999 999999 999999 999999 999999 999999 999999 999999 999999 999999 999999 999999 999999 999999 999999 999999 999999 999999 999999 999999 999999 999999 999999 999999 999999 999999 999999 999999 999999 999999 999999 999999 999999 999999 999999 999999 999999 999999 999999 999999 999999 999999 999999 999999 999999 999999 999999 999999 999999 999999 999999 999999 999999 999999 999999 999999 999999 999999 999999 999999 999999 999999 999999 999999 999999 999999 999999 999999 999999 999999 999999 999999 999999 999999 999999 999999 999999 999999 999999 999999 999999 999999 999999 999999 999999 999999 999999 999999 999999 999999 999999 999999 999999 999999 999999 999999 999999 999999 999999 999999 999999 999999 999999 999999 999999 999999 999999 999999 999999 999999 999999 999999 999999 999999 999999 999999 999999 999999 999999 999999 999999 999999 5048
999999 16402 15677 17679 16269 14709 19458 17800 15889 10584 19330 15192 13227 16200 14158 16244 19361 16637 11598 15968 13652 10365 19417 15144 19533 11566 18106 14305 17500 14939 17993 16876 17774 10090 15622 16008 12570 11497 12154 13551 12821 12590 12285 12550 15173 15124 18836 11119 19705 18755 19489 11596 16484 10568 19342 18647 12367 16407 19473 15484 14534 17687 17822 18635 15549 12697 17783 13974 16337 18943 19434 15981 17033 11894 14642 16281 12902 19606 17268 12751 17795 13965 13315 12365 12355 14489 10951 17913 18513 11772 12731 15471 13622 12298 18670 14077 11127 11254 13352 18966 10370 12525 16002 18777 11300 11270 12262 10320 15994 12772 18816 14875 19201 15187 14261 18928 12678 14443 14151 13741 12457 12503 18029 19582 17487 13811 13717 11046 14329 18306 14879 11294 10678 10718 15304 11490 14306 19937 12457 12589 12649 19514 12191 17283 16848 15242 13662 19135 15699 12321 11533 19199 17115 17259 14451 13257 18304 15238 15220 14328 11024 16486 10410 15786 14897 12980 11756 17023 15453 13793 11098 16660 13495 19221 11416 15287 14383 15239 12169 15733 16033 999999 999999 999999 999999 999999 999999 999999 999999 999999 999999 999999 999999 999999 999999 999999 999999 999999 999999 999999 999999 999999 999999 0 999999 999999 999999 999999 999999 999999 999999 999999 999999 999999 999999 999999 999999 999999 999999 999999 999999 999999 999999 999999 999999 999999 999999 999999 999999 999999 999999 999999 999999 999999 999999 999999 999999 999999 999999 999999 999999 999999 999999 999999 999999 999999 999999 999999 999999 999999 999999 999999 999999 999999 999999 999999 999999 999999 999999 999999 999999 999999 999999 999999 999999 999999 999999 999999 999999 999999 999999 999999 999999 999999 999999 999999 999999 999999 999999 999999 999999 999999 999999 999999 999999 999999 999999 999999 999999 999999 999999 999999 999999 999999 999999 999999 999999 999999 999999 999999 999999 999999 999999 999999 999999 999999 999999 999999 999999 999999 999999 999999 999999 999999 999999 999999 999999 999999 999999 999999 999999 999999 999999 999999 999999 999999 999999 999999 999999 999999 999999 999999 999999 999999 999999 999999 999999 999999 999999 999999 999999 999999 999999 999999 999999 999999 999999 999999 999999 999999 999999 999999 999999 999999 999999 999999 999999 999999 999999 999999 999999 6025
999999 11311 11347 13988 10413 12323 16257 12293 13560 16473 19156 17312 12189 14099 18939 16263 11622 12524 19296 10101 16155 15131 12507 12303 19256 12729 18044 15533 17746 10347 17213 10837 14877 12347 11388 14823 14452 16045 12889 10932 18846 12740 18163 18951 11089 15270 15036 16324 14035 11818 12231 16640 16637 16833 10604 13108 17213 14353 13366 15561 11190 12858 10888 10733 16434 15600 11068 12904 12008 18705 18928 13661 19620 11513 10561 17641 16353 18187 11931 18164 12025 11083 15631 17229 12154 11706 12024 10049 16599 13408 10887 13731 14898 17188 13182 17240 18648 14890 19024 13269 11282 15469 12109 17260 10651 17352 13892 16744 17946 19532 19207 14417 16501 13061 14890 18508 17868 10602 17790 11518 11563 11503 17472 14699 18260 10604 18439 17900 14183 13945 17306 15364 18869 15352 12873 11422 13869 12899 13939 15406 12718 14811 18471 19799 16092 17431 19016 16749 13284 15402 17326 17285 14003 16876 17170 12255 15714 19823 11915 11606 15569 17070 12208 12626 16440 12636 15789 12526 18342 15104 14483 13397 14430 14832 18568 19458 11290 19531 17642 19383 18303 999999 999999 999999 999999 999999 999999 999999 999999 999999 999999 999999 999999 999999 999999 999999 999999 999999 999999 999999 999999 999999 999999 999999 0 999999 999999 999999 999999 999999 999999 999999 999999 999999 999999 999999 999999 999999 999999 999999 999999 999999 999999 999999 999999 999999 999999 999999 999999 999999 999999 999999 999999 999999 999999 999999 999999 999999 999999 999999 999999 999999 999999 999999 999999 999999 999999 999999 999999 999999 999999 999999 999999 999999 999999 999999 999999 999999 999999 999999 999999 999999 999999 999999 999999 999999 999999 999999 999999 999999 999999 999999 999999 999999 999999 999999 999999 999999 999999 999999 999999 999999 999999 999999 999999 999999 999999 999999 999999 999999 999999 999999 999999 999999 999999 999999 999999 999999 999999 999999 999999 999999 999999 999999 999999 999999 999999 999999 999999 999999 999999 999999 999999 999999 999999 999999 999999 999999 999999 999999 999999 999999 999999 999999 999999 999999 999999 999999 999999 999999 999999 999999 999999 999999 999999 999999 999999 999999 999999 999999 999999 999999 999999 999999 999999 999999 999999 999999 999999 999999 999999 999999 999999 999999 999999 999999 999999 999999 999999 999999 999999 14498
999999 10587 15766 17875 14339 18506 15683 15225 18994 14022 16187 12000 16959 16867 18384 19752 10216 10581 17246 15235 16552 15506 18825 12271 10037 16895 10014 16270 19747 10224 14689 12904 10034 17742 14075 17845 10894 17807 13609 14099 13285 13620 16825 12195 11603 17159 13954 10004 15202 17196 15509 16017 10614 15332 11428 15676 12612 16545 19319 16372 16356 17393 18245 18140 18816 12901 18735 19848 10646 10379 18658 15209 14771 11990 19873 18753 12043 15742 13996 10849 18440 14226 15056 11987 13695 10014 10995 19242 16878 18697 14704 17077 17600 11842 17951 15977 19128 14211 12961 19960 11431 11445 12962 17338 14314 10205 18843 12382 10091 19481 10661 12935 16702 13013 10961 18050 16703 14363 14902 10255 10997 15023 11786 15982 14248 11402 18230 18866 17766 15714 18548 19706 15806 17632 13851 19467 11825 11742 13710 17881 15372 10568 10279 19026 10571 15944 18815 18235 13786 13325 14783 12480 15212 12419 15027 11800 18003 12554 12515 18169 14618 12022 15036 15676 18414 10364 18692 14367 11150 19106 18623 18747 14915 16034 13118 16869 16025 17091 14638 10347 13516 999999 999999 999999 999999 999999 999999 999999 999999 999999 999999 999999 999999 999999 999999 999999 999999 999999 999999 999999 999999 999999 999999 999999 999999 0 999999 999999 999999 999999 999999 999999 999999 999999 999999 999999 999999 999999 999999 999999 999999 999999 999999 999999 999999 999999 999999 999999 999999 999999 999999 999999 999999 999999 999999 999999 999999 999999 999999 999999 999999 999999 999999 999999 999999 999999 999999 999999 999999 999999 999999 999999 999999 999999 999999 999999 999999 999999 999999 999999 999999 999999 999999 999999 999999 999999 999999 999999 999999 999999 999999 999999 999999 999999 999999 999999 999999 999999 999999 999999 999999 999999 999999 999999 999999 999999 999999 999999 999999 999999 999999 999999 999999 999999 999999 999999 999999 999999 999999 999999 999999 999999 999999 999999 999999 999999 999999 999999 999999 999999 999999 999999 999999 999999 999999 999999 999999 999999 999999 999999 999999 999999 999999 999999 999999 999999 999999 999999 999999 999999 999999 999999 999999 999999 999999 999999 999999 999999 999999 999999 999999 999999 999999 999999 999999 999999 999999 999999 999999 999999 999999 999999 999999 999999 999999 999999 999999 999999 999999 999999 999999 13407
999999 19424 11525 12104 14131 10277 10706 15465 15145 12898 13526 15247 19160 19053 11808 11045 14133 16914 14845 16940 19249 17911 17461 16589 13532 19860 16751 19013 10836 14233 17397 13421 19896 13128 10756 16870 17855 19524 11252 13142 15691 14859 18600 15101 12052 10919 15508 13468 10628 19849 16280 13369 17096 16397 13860 10009 11695 10972 11863 15466 13957 18723 17523 18926 19891 16205 10538 15434 10221 16887 11013 18931 15107 11029 13291 11999 15110 11399 17940 19195 16137 13380 17808 18228 12245 18524 13552 14121 15667 16175 10328 19920 16647 19988 17144 10382 14697 18221 14671 19046 17233 17623 12895 15437 16658 15549 10959 13565 15488 14823 14785 11634 19494 18495 17256 11765 11350 11387 11923 10595 10144 16693 19098 13751 14952 12842 14143 18970 14832 10864 13876 15109 14175 14529 16229 18199 13663 13112 17548 11806 16357 12201 17170 12951 17360 16903 14334 14971 14601 19732 13189 16334 10754 15099 10424 18957 18936 10892 11532 19833 10750 19652 10172 13105 17220 17473 18219 18275 18832 16265 12790 15262 15224 15363 16888 19622 11565 14954 18706 13875 15780 999999 999999 999999 999999 999999 999999 999999 999999 999999 999999 999999 999999 999999 999999 999999 999999 999999 999999 999999 999999 999999 999999 999999 999999 999999 0 999999 999999 999999 999999 999999 999999 999999 999999 999999 999999 999999 999999 999999 999999 999999 999999 999999 999999 999999 999999 999999 999999 999999 999999 999999 999999 999999 999999 999999 999999 999999 999999 999999 999999 999999 999999 999999 999999 999999 999999 999999 999999 999999 999999 999999 999999 999999 999999 999999 999999 999999 999999 999999 999999 999999 999999 999999 999999 999999 999999 999999 999999 999999 999999 999999 999999 999999 999999 999999 999999 999999 999999 999999 999999 999999 999999 999999 999999 999999 999999 999999 999999 999999 999999 999999 999999 999999 999999 999999 999999 999999 999999 999999 999999 999999 999999 999999 999999 999999 999999 999999 999999 999999 999999 999999 999999 999999 999999 999999 999999 999999 999999 999999 999999 999999 999999 999999 999999 999999 999999 999999 999999 999999 999999 999999 999999 999999 999999 999999 999999 999999 999999 999999 999999 999999 999999 999999 999999 999999 999999 999999 999999 999999 999999 999999 999999 999999 999999 999999 999999 999999 999999 999999 999999 8995
999999 19592 11594 15838 13451 16520 19776 16090 11642 15878 11478 10796 17231 12996 10607 12854 19179 16062 15854 19094 10333 17111 13829 13443 18745 16733 18185 15026 16904 18760 15179 12763 15051 18905 13889 14312 15018 15111 17584 10185 18114 10164 14274 18602 16443 16481 19002 14206 13926 12371 18740 16553 18699 14877 11982 10665 14379 17975 17037 11328 16167 19763 15013 12753 17373 18833 12646 10517 14545 13190 19989 19393 18035 18402 15258 19512 17724 13613 11420 17076 11465 10467 14999 11752 16026 14346 19311 19059 19000 11718 18602 16979 17157 19551 14219 13182 16999 15713 10248 18536 14286 16251 17002 15263 18516 17954 15414 13771 17752 18189 16105 14559 19442 13462 19833 19381 14487 11986 14720 11072 10427 13052 13858 18288 14270 16060 10348 10176 14025 18072 14858 13853 13458 15671 13586 12559 13878 14237 16683 11639 13140 18305 19097 19891 13201 16634 15820 11824 10559 17512 13151 12524 17391 19477 17370 10227 14184 17377 14662 10778 17996 14038 16413 15077 17208 12367 13884 19223 15755 10977 19141 15442 19122 11295 11456 11585 11560 10483 14009 18664 11990 999999 999999 999999 999999 999999 999999 999999 999999 999999 999999 999999 999999 999999 999999 999999 999999 999999 999999 999999 999999 999999 999999 999999 999999 999999 999999 0 999999 999999 999999 999999 999999 999999 999999 999999 999999 999999 999999 999999 999999 999999 999999 999999 999999 999999 999999 999999 999999 999999 999999 999999 999999 999999 999999 999999 999999 999999 999999 999999 999999 999999 999999 999999 999999 999999 999999 999999 999999 999999 999999 999999 999999 999999 999999 999999 999999 999999 999999 999999 999999 999999 999999 999999 999999 999999 999999 999999 999999 999999 999999 999999 999999 999999 999999 999999 999999 999999 999999 999999 999999 999999 999999 999999 999999 999999 999999 999999 999999 999999 999999 999999 999999 999999 999999 999999 999999 999999 999999 999999 999999 999999 999999 999999 999999 999999 999999 999999 999999 999999 999999 999999 999999 999999 999999 999999 999999 999999 999999 999999 999999 999999 999999 999999 999999 999999 999999 999999 999999 999999 999999 999999 999999 999999 999999 999999 999999 999999 999999 999999 999999 999999 999999 999999 999999 999999 999999 999999 999999 999999 999999 999999 999999 999999 999999 999999 999999 999999 999999 999999 999999 7335
999999 19817 13299 19468 13317 19591 11065 18968 13264 14528 15648 18503 12195 16527 19489 12357 15962 17538 19876 13183 15662 16242 13903 19810 13399 11183 10979 14123 14190 10883 10199 11343 15741 15951 17636 17146 11417 12323 15236 13376 12159 11870 19247 16620 13716 13408 16490 12062 10385 10949 17504 11120 13485 18223 10245 16982 18385 16038 14981 19198 13406 15168 12429 12896 15708 12490 14823 16280 10421 11536 14786 10662 15486 18473 18352 10541 19489 17493 19501 19133 16134 15995 17054 10690 11293 19310 17185 16273 18289 18456 18237 19770 12421 19938 19840 10169 12443 13493 19178 11389 13121 17033 14612 10062 17990 10804 13534 19012 18055 18487 15237 16565 19307 16424 15357 14963 13427 15297 10414 18459 12897 16187 10813 10749 13910 19513 15827 18192 14644 19763 15652 11671 16907 14873 15901 14929 15296 17866 12366 11235 11693 13931 18488 10019 19821 14576 16926 18872 10159 18601 18025 10398 18612 11289 18856 10050 11932 12902 12190 12650 18341 15050 16991 14871 12145 11077 17930 10129 17364 10514 16449 11200 16143 13026 11879 18599 16929 19827 15726 12994 11711 999999 999999 999999 999999 999999 999999 999999 999999 999999 999999 999999 999999 999999 999999 999999 999999 999999 999999 999999 999999 999999 999999 999999 999999 999999 999999 999999 0 999999 999999 999999 999999 999999 999999 999999 999999 999999 999999 999999 999999 999999 999999 999999 999999 999999 999999 999999 999999 999999 999999 999999 999999 999999 999999 999999 999999 999999 999999 999999 999999 999999 999999 999999 999999 999999 999999 999999 999999 999999 999999 999999 999999 999999 999999 999999 999999 999999 999999 999999 999999 999999 999999 999999 999999 999999 999999 999999 999999 999999 999999 999999 999999 999999 999999 999999 999999 999999 999999 999999 999999 999999 999999 999999 999999 999999 999999 999999 999999 999999 999999 999999 999999 999999 999999 999999 999999 999999 999999 999999 999999 999999 999999 999999 999999 999999 999999 999999 999999 999999 999999 999999 999999 999999 999999 999999 999999 999999 999999 999999 999999 999999 999999 999999 999999 999999 999999 999999 999999 999999 999999 999999 999999 999999 999999 999999 999999 999999 999999 999999 999999 999999 999999 999999 999999 999999 999999 999999 999999 999999 999999 999999 999999 999999 999999 999999 999999 999999 999999 999999 999999 9160
999999 13536 15040 15251 19381 15641 16523 13070 16572 19282 19960 17340 11752 12811 10984 11506 13883 15956 12925 18918 17968 18058 18941 12671 17879 11491 15955 16719 14179 15676 11768 18788 14752 14858 19150 19032 10652 15880 17576 10238 10568 12672 15520 10212 13413 13020 12593 11073 10914 16883 10866 17049 11056 11169 15466 19416 14371 15751 15384 13119 17448 10499 14878 13084 18248 13223 16981 14544 11093 15094 12333 13685 15817 17364 13211 15928 17823 19530 17417 17454 15256 12089 17426 17767 14469 14494 19763 11086 15046 15661 19689 10057 18752 18095 14569 10550 17746 12197 13977 13845 19726 16223 11763 13294 16795 15701 18286 12059 17410 16259 18560 11250 18995 18900 12472 16636 12226 16063 17869 13084 17542 11142 12729 12862 13326 14455 19869 11488 16160 11557 15553 10104 12400 14302 15529 10096 14001 18739 19388 18811 12647 16081 14745 13535 11077 17373 10578 19226 14315 15986 15683 18513 11722 13263 12950 19691 14811 18769 10915 19298 12302 15471 10902 15394 19969 13222 15609 14322 17127 18599 18002 12055 13223 17407 17306 10566 13148 13392 17970 12077 12249 999999 999999 999999 999999 999999 999999 999999 999999 999999 999999 999999 999999 999999 999999 999999 999999 999999 999999 999999 999999 999999 999999 999999 999999 999999 999999 999999 999999 0 999999 999999 999999 999999 999999 999999 999999 999999 999999 999999 999999 999999 999999 999999 999999 999999 999999 999999 999999 999999 999999 999999 999999 999999 999999 999999 999999 999999 999999 999999 999999 999999 999999 999999 999999 999999 999999 999999 999999 999999 999999 999999 999999 999999 999999 999999 999999 999999 999999 999999 999999 999999 999999 999999 999999 999999 999999 999999 999999 999999 999999 999999 999999 999999 999999 999999 999999 999999 999999 999999 999999 999999 999999 999999 999999 999999 999999 999999 999999 999999 999999 999999 999999 999999 999999 999999 999999 999999 999999 999999 999999 999999 999999 999999 999999 999999 999999 999999 999999 999999 999999 999999 999999 999999 999999 999999 999999 999999 999999 999999 999999 999999 999999 999999 999999 999999 999999 999999 999999 999999 999999 999999 999999 999999 999999 999999 999999 999999 999999 999999 999999 999999 999999 999999 999999 999999 999999 999999 999999 999999 999999 999999 999999 999999 999999 999999 999999 999999 999999 999999 999999 5834
999999 15996 14969 19956 18594 18972 12710 16122 18088 13997 16569 13246 15642 17172 18158 14405 16550 14671 15106 17527 19966 13113 13471 13713 16741 15161 15454 17629 11221 17218 14265 13176 15869 19290 10390 19473 16071 19218 11441 17572 19882 13245 18484 14475 17399 11586 16864 19488 18927 16091 16761 16032 12331 10168 17728 11773 14045 16594 19754 19093 16420 16905 18723 13287 10188 12146 14422 17174 12065 11794 12878 16825 12353 16749 12712 13243 13525 12606 10563 15403 17022 19519 16470 11395 17313 19185 19553 11266 14692 15655 19426 11767 15922 17150 19835 18604 15442 10597 10747 12263 15260 10629 11877 16671 17634 14852 16577 18374 16932 17693 12018 15454 16846 15683 14574 13559 19790 13793 16628 17230 12908 17920 19148 19219 19246 15620 11629 10537 12545 14203 12350 12810 19765 14585 10380 12498 16672 14870 17883 14142 10721 19188 14624 13045 11798 13466 17864 11402 11639 17859 13627 15719 15435 14080 18998 10060 18950 14205 16058 15494 13550 19214 17779 10610 19735 17396 13254 14709 19166 16384 17430 11129 19073 16269 13767 17637 16763 13378 18234 13364 13901 999999 999999 999999 999999 999999 999999 999999 999999 999999 999999 999999 999999 999999 999999 999999 999999 999999 999999 999999 999999 999999 999999 999999 999999 999999 999999 999999 999999 999999 0 999999 999999 999999 999999 999999 999999 999999 999999 999999 999999 999999 999999 999999 999999 999999 999999 999999 999999 999999 999999 999999 999999 999999 999999 999999 999999 999999 999999 999999 999999 999999 999999 999999 999999 999999 999999 999999 999999 999999 999999 999999 999999 999999 999999 999999 999999 999999 999999 999999 999999 999999 999999 999999 999999 999999 999999 999999 999999 999999 999999 999999 999999 999999 999999 999999 999999 999999 999999 999999 999999 999999 999999 999999 999999 999999 999999 999999 999999 999999 999999 999999 999999 999999 999999 999999 999999 999999 999999 999999 999999 999999 999999 999999 999999 999999 999999 999999 999999 999999 999999 999999 999999 999999 999999 999999 999999 999999 999999 999999 999999 999999 999999 999999 999999 999999 999999 999999 999999 999999 999999 999999 999999 999999 999999 999999 999999 999999 999999 999999 999999 999999 999999 999999 999999 999999 999999 999999 999999 999999 999999 999999 999999 999999 999999 999999 999999 999999 999999 999999 999999 5113
999999 14308 14461 10598 11876 12415 11252 10993 12370 15040 19213 12771 17925 17215 14484 19256 15669 18903 19145 16137 15171 18347 17916 12199 10188 12004 13031 14452 19755 12634 17409 19087 11745 16540 16758 11367 16407 15167 14487 13333 19670 16023 16960 14333 10137 11991 11618 17748 14659 18515 19218 19936 13982 17392 14867 13279 14743 11086 15064 14803 14904 16782 11298 11544 19018 11884 12705 19819 16339 18587 10583 19114 10588 13749 16465 10894 17886 15647 16088 14042 15496 16183 12411 16942 17196 13966 15973 12037 14029 13215 16392 14677 10636 11086 13104 10196 17357 13019 16719 15707 11235 19548 11589 13653 18446 12446 15120 18833 18709 16030 15150 14989 12993 16776 12091 17190 10367 15762 12553 16228 18840 18461 13419 16519 15652 14455 15703 19378 12093 14943 11845 16282 19595 12847 14196 15431 18512 10517 18127 17723 11128 14280 13865 15558 13209 11526 12334 11222 15639 16022 10592 10391 10902 16853 15409 10258 13545 13759 12606 13241 16697 17841 15201 14473 12918 10131 12057 19717 11974 18086 16604 19813 16068 11625 11790 10641 14809 17010 15297 14050 14030 999999 999999 999999 999999 999999 999999 999999 999999 999999 999999 999999 999999 999999 999999 999999 999999 999999 999999 999999 999999 999999 999999 999999 999999 999999 999999 999999 999999 999999 999999 0 999999 999999 999999 999999 999999 999999 999999 999999 999999 999999 999999 999999 999999 999999 999999 999999 999999 999999 999999 999999 999999 999999 999999 999999 999999 999999 999999 999999 999999 999999 999999 999999 999999 999999 999999 999999 999999 999999 999999 999999 999999 999999 999999 999999 999999 999999 999999 999999 999999 999999 999999 999999 999999 999999 999999 999999 999999 999999 999999 999999 999999 999999 999999 999999 999999 999999 999999 999999 999999 999999 999999 999999 999999 999999 999999 999999 999999 999999 999999 999999 999999 999999 999999 999999 999999 999999 999999 999999 999999 999999 999999 999999 999999 999999 999999 999999 999999 999999 999999 999999 999999 999999 999999 999999 999999 999999 999999 999999 999999 999999 999999 999999 999999 999999 999999 999999 999999 999999 999999 999999 999999 999999 999999 999999 999999 999999 999999 999999 999999 999999 999999 999999 999999 999999 999999 999999 999999 999999 999999 999999 999999 999999 999999 999999 999999 999999 999999 999999 999999 12457
999999 16396 15344 10359 16942 11764 19047 16980 13006 17567 17256 17053 18320 13597 14479 14159 17512 15410 10526 11558 12855 17150 19738 15252 14094 17707 15831 17246 11237 10575 18585 16759 13998 15413 18513 11778 15796 17189 15503 12566 18465 10673 18777 10617 13397 16173 19688 10870 14558 18852 15973 15049 16972 12354 18732 17865 15177 10527 14654 17656 12459 16866 13803 10680 17622 13759 13893 19537 11670 19705 12345 17482 17240 12075 14724 18524 15151 17326 11265 14217 17022 12891 10522 12109 10553 15564 14280 15558 16289 14760 18557 11127 12631 15698 13947 17687 12592 18442 18198 17445 18762 16571 16925 12116 10830 15944 18299 11721 14377 15842 11203 13468 16137 18322 15339 12699 13260 19590 14019 14887 11380 16531 16613 12851 13036 16777 16437 10024 17713 11346 10390 14014 17505 13642 14576 19368 14744 16107 14490 11747 16789 15128 13616 12568 15928 13378 15969 11110 13340 13849 14562 13220 15236 11183 19638 17331 11051 11994 13380 15299 11602 13514 16931 13777 12677 15047 11579 10000 14320 10186 18471 14342 19932 10657 19582 17610 12895 15433 17162 13316 17829 999999 999999 999999 999999 999999 999999 999999 999999 999999 999999 999999 999999 999999 999999 999999 999999 999999 999999 999999 999999 999999 999999 999999 999999 999999 999999 999999 999999 999999 999999 999999 0 999999 999999 999999 999999 999999 999999 999999 999999 999999 999999 999999 999999 999999 999999 999999 999999 999999 999999 999999 999999 999999 999999 999999 999999 999999 999999 999999 999999 999999 999999 999999 999999 999999 999999 999999 999999 999999 999999 999999 999999 999999 999999 999999 999999 999999 999999 999999 999999 999999 999999 999999 999999 999999 999999 999999 999999 999999 999999 999999 999999 999999 999999 999999 999999 999999 999999 999999 999999 999999 999999 999999 999999 999999 999999 999999 999999 999999 999999 999999 999999 999999 999999 999999 999999 999999 999999 999999 999999 999999 999999 999999 999999 999999 999999 999999 999999 999999 999999 999999 999999 999999 999999 999999 999999 999999 999999 999999 999999 999999 999999 999999 999999 999999 999999 999999 999999 999999 999999 999999 999999 999999 999999 999999 999999 999999 999999 999999 999999 999999 999999 999999 999999 999999 999999 999999 999999 999999 999999 999999 999999 999999 999999 999999 999999 999999 999999 999999 999999 9683
999999 13398 14511 15237 19063 18945 14284 13609 14990 16954 18417 19704 14233 12355 18405 13650 18309 15638 19053 10084 14568 14645 12113 12780 15239 19668 19383 17714 15797 11374 12424 15165 17600 11667 15872 16525 11804 11983 14319 15665 16983 13358 18977 15935 18205 19725 13709 16281 15221 18077 16385 15536 11006 14493 13603 17941 19437 13570 12327 17942 15297 18976 19248 13747 10393 12511 19757 17812 19693 10970 14225 12241 11286 16773 11392 19644 14175 18185 10109 16815 19353 18468 18725 16275 17284 12112 18707 18865 13540 16038 18376 15108 10964 19584 16514 13449 13751 11041 17464 12396 17509 15350 13761 15946 13191 15637 12338 18552 16094 15169 14535 18792 13318 17539 18633 10372 12716 11008 19720 10053 11478 15696 11950 13725 18651 10334 19790 12481 18890 12216 14351 15935 12862 14697 11199 11497 16815 14446 15600 18201 14572 18341 11684 10737 11141 17628 15471 11242 19284 13429 19547 12663 16336 10562 16612 10462 11149 15295 14988 17738 10524 16927 18049 12477 18707 14072 19298 16702 12962 18330 11026 15700 15482 11926 12902 17248 12958 19174 17405 14611 17672 999999 999999 999999 999999 999999 999999 999999 999999 999999 999999 999999 999999 999999 999999 999999 999999 999999 999999 999999 999999 999999 999999 999999 999999 999999 999999 999999 999999 999999 999999 999999 999999 0 999999 999999 999999 999999 999999 999999 999999 999999 999999 999999 999999 999999 999999 999999 999999 999999 999999 999999 999999 999999 999999 999999 999999 999999 999999 999999 999999 999999 999999 999999 999999 999999 999999 999999 999999 999999 999999 999999 999999 999999 999999 999999 999999 999999 999999 999999 999999 999999 999999 999999 999999 999999 999999 999999 999999 999999 999999 999999 999999 999999 999999 999999 999999 999999 999999 999999 999999 999999 999999 999999 999999 999999 999999 999999 999999 999999 999999 999999 999999 999999 999999 999999 999999 999999 999999 999999 999999 999999 999999 999999 999999 999999 999999 999999 999999 999999 999999 999999 999999 999999 999999 999999 999999 999999 999999 999999 999999 999999 999999 999999 999999 999999 999999 999999 999999 999999 999999 999999 999999 999999 999999 999999 999999 999999 999999 999999 999999 999999 999999 999999 999999 999999 999999 999999 999999 999999 999999 999999 999999 999999 999999 999999 999999 999999 999999 999999 999999 11224
999999 19731 19169 10345 16108 13586 16374 16699 11184 19409 13081 11837 16985 13441 17933 14219 13727 10678 17168 19562 11782 15279 14977 13895 16267 13989 14246 11641 13475 11742 10553 13183 15826 15459 13183 19451 18095 15436 18951 19186 17955 12976 12263 15018 10896 11043 14617 16391 18542 18357 13049 12037 16384 13310 14344 15821 10797 18164 19398 17175 16186 18358 19176 18821 18289 13547 14729 18012 16743 11855 14685 15756 13928 12617 14644 16468 18856 17899 15167 14989 12120 14323 19436 17131 11979 19076 17649 18347 19119 11062 14538 17540 19188 12046 12164 13419 10546 10128 16779 17895 13131 19187 17472 16686 17038 14257 10903 15497 18419 18826 18981 13018 12097 12309 15074 16212 11375 17953 15865 16609 13991 17470 11114 18805 17243 15092 12418 13456 10743 10051 19030 11189 12783 11341 17016 16572 19005 18145 10498 11102 12915 18665 17057 13886 17343 18346 13595 17732 17404 18327 16922 15779 14332 10403 17961 11931 15501 14748 17128 13549 17962 11377 13074 19456 15587 17498 15693 19037 18832 17315 19298 17351 18560 19832 14857 19973 11596 12792 15657 19625 16296 999999 999999 999999 999999 999999 999999 999999 999999 999999 999999 999999 999999 999999 999999 999999 999999 999999 999999 999999 999999 999999 999999 999999 999999 999999 999999 999999 999999 999999 999999 999999 999999 999999 0 999999 999999 999999 999999 999999 999999 999999 999999 999999 999999 999999 999999 999999 999999 999999 999999 999999 999999 999999 999999 999999 999999 999999 999999 999999 999999 999999 999999 999999 999999 999999 999999 999999 999999 999999 999999 999999 999999 999999 999999 999999 999999 999999 999999 999999 999999 999999 999999 999999 999999 999999 999999 999999 999999 999999 999999 999999 999999 999999 999999 999999 999999 999999 999999 999999 999999 999999 999999 999999 999999 999999 999999 999999 999999 999999 999999 999999 999999 999999 999999 999999 999999 999999 999999 999999 999999 999999 999999 999999 999999 999999 999999 999999 999999 999999 999999 999999 999999 999999 999999 999999 999999 999999 999999 999999 999999 999999 999999 999999 999999 999999 999999 999999 999999 999999 999999 999999 999999 999999 999999 999999 999999 999999 999999 999999 999999 999999 999999 999999 999999 999999 999999 999999 999999 999999 999999 999999 999999 999999 999999 999999 999999 999999 999999 999999 999999 5247
999999 10054 18532 11861 18152 11176 13556 16167 14581 10500 14397 16118 17461 12250 15290 15117 17607 14489 15988 15949 12422 18702 10792 19384 12639 11406 10691 16468 12053 11515 17582 15900 17093 15962 17316 10613 18571 11979 19966 17824 15060 17075 17121 12730 10934 12183 12519 13608 16682 12437 15168 12245 19554 13495 18351 12434 13366 17979 10045 10466 19565 16158 13066 18210 16685 16054 17161 11077 18344 16960 14995 13873 11200 18626 11079 10738 12563 14010 15515 14952 11274 12913 16237 14038 19045 14490 19318 10036 15229 16104 10001 18015 17331 10789 19992 17906 19345 15509 10789 17639 18088 17043 17701 15897 15395 10591 18908 11358 16379 18378 15163 10082 10674 19346 15606 16427 16775 12788 10708 16625 15542 19704 11967 15650 19343 11559 17112 14913 11810 11440 12774 12785 19535 17465 16710 13196 17639 15081 10201 10298 17972 10358 11138 14107 12682 11105 15823 14500 17991 11482 18158 11114 14715 15745 14935 13851 15001 13125 17356 13480 11822 16904 13924 11091 16781 10562 11811 10065 18943 15928 19443 19791 10074 15048 15636 13521 16875 10577 19240 17208 11742 999999 999999 999999 999999 999999 999999 999999 999999 999999 999999 999999 999999 999999 999999 999999 999999 999999 999999 999999 999999 999999 999999 999999 999999 999999 999999 999999 999999 999999 999999 999999 999999 999999 999999 0 999999 999999 999999 999999 999999 999999 999999 999999 999999 999999 999999 999999 999999 999999 999999 999999 999999 999999 999999 999999 999999 999999 999999 999999 999999 999999 999999 999999 999999 999999 999999 999999 999999 999999 999999 999999 999999 999999 999999 999999 999999 999999 999999 999999 999999 999999 999999 999999 999999 999999 999999 999999 999999 999999 999999 999999 999999 999999 999999 999999 999999 999999 999999 999999 999999 999999 999999 999999 999999 999999 999999 999999 999999 999999 999999 999999 999999 999999 999999 999999 999999 999999 999999 999999 999999 999999 999999 999999 999999 999999 999999 999999 999999 999999 999999 999999 999999 999999 999999 999999 999999 999999 999999 999999 999999 999999 999999 999999 999999 999999 999999 999999 999999 999999 999999 999999 999999 999999 999999 999999 999999 999999 999999 999999 999999 999999 999999 999999 999999 999999 999999 999999 999999 999999 999999 999999 999999 999999 999999 999999 999999 999999 999999 999999 999999 10585
999999 11131 16388 16542 16931 15924 13508 19877 17154 19103 11194 19642 11231 18909 15999 15655 15916 16199 14189 16290 10343 12798 16434 16615 19246 17081 13406 18859 10120 18913 17125 15871 16995 15254 11307 15473 15972 12963 13033 18922 18201 18621 16816 17015 10889 10154 18834 17555 12850 16915 11345 11877 11930 14157 16266 15354 16967 18584 11087 10803 14170 15197 15516 15938 17025 13533 15963 15984 19928 15639 14825 11843 17956 10495 18912 15792 18024 14361 16369 13066 13627 11734 16251 18993 17829 18461 18509 10803 13685 12446 19190 10330 19160 17256 19704 15350 14414 12722 11630 11631 16488 11231 10918 13407 13280 19611 10163 10970 14804 15372 10909 11353 18725 18245 13447 11401 15504 12318 12829 16168 17272 10877 19391 16751 10660 19744 18978 12765 13662 14988 10422 17538 16731 12681 11835 12722 18363 16197 19756 15118 11018 17253 14349 12461 12031 13776 15746 17368 18051 19531 12242 14578 19030 11743 12656 10409 12362 10375 15125 11761 13662 13580 18870 12347 14046 13710 18843 19895 16758 10145 14021 11585 13808 16543 17201 15263 10766 16858 11009 18053 18146 999999 999999 999999 999999 999999 999999 999999 999999 999999 999999 999999 999999 999999 999999 999999 999999 999999 999999 999999 999999 999999 999999 999999 999999 999999 999999 999999 999999 999999 999999 999999 999999 999999 999999 999999 0 999999 999999 999999 999999 999999 999999 999999 999999 999999 999999 999999 999999 999999 999999 999999 999999 999999 999999 999999 999999 999999 999999 999999 999999 999999 999999 999999 999999 999999 999999 999999 999999 999999 999999 999999 999999 999999 999999 999999 999999 999999 999999 999999 999999 999999 999999 999999 999999 999999 999999 999999 999999 999999 999999 999999 999999 999999 999999 999999 999999 999999 999999 999999 999999 999999 999999 999999 999999 999999 999999 999999 999999 999999 999999 999999 999999 999999 999999 999999 999999 999999 999999 999999 999999 999999 999999 999999 999999 999999 999999 999999 999999 999999 999999 999999 999999 999999 999999 999999 999999 999999 999999 999999 999999 999999 999999 999999 999999 999999 999999 999999 999999 999999 999999 999999 999999 999999 999999 999999 999999 999999 999999 999999 999999 999999 999999 999999 999999 999999 999999 999999 999999 999999 999999 999999 999999 999999 999999 999999 999999 999999 999999 999999 999999 5537
999999 15675 12258 10067 14121 17022 16573 11543 16760 11954 14093 13877 13980 16172 11218 18000 14732 19138 13519 11396 15260 13811 17142 11853 12348 13074 12968 13868 11107 13242 14708 10061 13613 15469 10022 10778 15263 10844 10079 19076 15700 17100 18095 11000 18625 18008 15086 18748 18800 18114 18742 12028 16947 12651 16644 12536 19762 10924 10180 18016 18062 11261 16468 16184 10219 10567 19670 17943 13208 19645 19054 14966 12767 16063 19251 16664 12921 18039 11604 12807 17919 13931 14659 11459 19024 11619 11830 11932 16373 10788 11997 10231 17148 11622 18717 11378 10268 19391 13029 11479 15698 15918 19181 17167 19363 16133 10289 12697 15113 12084 14358 13887 16669 11394 12046 17760 12575 10611 18282 11832 17504 11363 18617 13514 16157 14677 10219 11710 15582 18724 15271 18421 12450 16204 17460 14473 11141 19996 10034 13504 12887 11772 12055 18831 11202 18900 17920 19803 14481 16711 14737 11646 10213 19417 13029 11943 15437 10909 11858 17967 19009 15083 19783 16981 12266 18264 13059 13093 13558 10678 18975 17238 15347 12606 19161 19627 14487 15148 12563 10383 14187 999999 999999 999999 999999 999999 999999 999999 999999 999999 999999 999999 999999 999999 999999 999999 999999 999999 999999 999999 999999 999999 999999 999999 999999 999999 999999 999999 999999 999999 999999 999999 999999 999999 999999 999999 999999 0 999999 999999 999999 999999 999999 999999 999999 999999 999999 999999 999999 999999 999999 999999 999999 999999 999999 999999 999999 999999 999999 999999 999999 999999 999999 999999 999999 999999 999999 999999 999999 999999 999999 999999 999999 999999 999999 999999 999999 999999 999999 999999 999999 999999 999999 999999 999999 999999 999999 999999 999999 999999 999999 999999 999999 999999 999999 999999 999999 999999 999999 999999 999999 999999 999999 999999 999999 999999 999999 999999 999999 999999 999999 999999 999999 999999 999999 999999 999999 999999 999999 999999 999999 999999 999999 999999 999999 999999 999999 999999 999999 999999 999999 999999 999999 999999 999999 999999 999999 999999 999999 999999 999999 999999 999999 999999 999999 999999 999999 999999 999999 999999 999999 999999 999999 999999 999999 999999 999999 999999 999999 999999 999999 999999 999999 999999 999999 999999 999999 999999 999999 999999 999999 999999 999999 999999 999999 999999 999999 999999 999999 999999 999999 14670
999999 10473 15166 16443 17796 11521 13740 12418 11538 17799 11357 19367 10091 10198 13651 18590 17593 11167 13374 12660 17865 17510 12506 12416 11062 11215 19344 17452 14754 12215 11597 12601 15429 10737 13436 10819 16818 12587 10838 16841 10866 12176 14312 17526 11115 16663 19305 19722 15193 16025 11387 12586 16693 18838 13658 10593 16751 10413 14879 17280 15839 10736 18766 14071 15700 16977 11313 15344 10453 18866 17489 14780 16002 15613 16357 19227 19516 19388 13699 16539 19496 14682 12030 11424 19781 13059 19878 14259 16001 18676 13613 13905 16189 19100 13521 11253 17975 16409 10791 18222 16120 12014 10605 15388 12376 10741 17171 12101 19016 17997 11686 14895 11995 19974 13436 16753 18725 18625 17055 10048 10400 16473 13819 10994 14664 14408 12364 14419 14204 14427 10269 13101 19383 18442 13112 14388 11942 10994 19721 19557 16445 15513 10757 11822 14806 17776 11584 13813 14701 14827 10891 10601 16798 19994 16717 16724 10991 10606 18430 11673 15681 18776 18005 14773 16402 11255 15559 14498 10506 19868 13618 15718 14922 13712 18502 14649 11756 15349 17389 13078 10013 999999 999999 999999 999999 999999 999999 999999 999999 999999 999999 999999 999999 999999 999999 999999 999999 999999 999999 999999 999999 999999 999999 999999 999999 999999 999999 999999 999999 999999 999999 999999 999999 999999 999999 999999 999999 999999 0 999999 999999 999999 999999 999999 999999 999999 999999 999999 999999 999999 999999 999999 999999 999999 999999 999999 999999 999999 999999 999999 999999 999999 999999 999999 999999 999999 999999 999999 999999 999999 999999 999999 999999 999999 999999 999999 999999 999999 999999 999999 999999 999999 999999 999999 999999 999999 999999 999999 999999 999999 999999 999999 999999 999999 999999 999999 999999 999999 999999 999999 999999 999999 999999 999999 999999 999999 999999 999999 999999 999999 999999 999999 999999 999999 999999 999999 999999 999999 999999 999999 999999 999999 999999 999999 999999 999999 999999 999999 999999 999999 999999 999999 999999 999999 999999 999999 999999 999999 999999 999999 999999 999999 999999 999999 999999 999999 999999 999999 999999 999999 999999 999999 999999 999999 999999 999999 999999 999999 999999 999999 999999 999999 999999 999999 999999 999999 999999 999999 999999 999999 999999 999999 999999 999999 999999 999999 999999 999999 999999 999999 999999 10969
999999 10467 13677 19105 14658 11613 18339 19151 11553 19674 14926 14362 15469 11315 12720 10842 18068 12442 13311 18030 18149 13906 16240 18400 18044 11285 16129 18191 15137 14469 16105 12435 17728 10746 10727 19404 16264 10940 14749 18720 18856 19024 11729 17357 11653 13994 17439 19692 19652 14012 12486 15550 12182 16444 18884 17569 10616 12052 16738 16164 19220 18937 16435 13285 11452 14428 18805 18701 14839 19040 10492 17282 17911 14090 13473 17110 10222 14189 13285 10242 13916 14094 17448 15496 18860 10514 19496 14162 19938 12692 16881 18319 14285 14588 10521 11270 19940 10806 17210 13179 12356 17638 18514 11202 17023 17966 15030 12835 10782 18626 11102 15470 15071 19737 16902 17895 11775 16808 15987 19352 19267 17675 17728 15702 10316 17804 11726 16304 15318 13939 10946 18678 10152 19541 14501 14409 19342 10613 18502 14820 12502 18063 14032 17348 15711 12194 15342 15107 18214 12571 10979 15917 10848 16457 14474 12065 15628 13373 18004 13768 16864 12293 16287 17820 17347 11713 16517 18279 17478 17799 12531 14682 16129 13517 13698 11067 12604 14189 15728 15344 15370 999999 999999 999999 999999 999999 999999 999999 999999 999999 999999 999999 999999 999999 999999 999999 999999 999999 999999 999999 999999 999999 999999 999999 999999 999999 999999 999999 999999 999999 999999 999999 999999 999999 999999 999999 999999 999999 999999 0 999999 999999 999999 999999 999999 999999 999999 999999 999999 999999 999999 999999 999999 999999 999999 999999 999999 999999 999999 999999 999999 999999 999999 999999 999999 999999 999999 999999 999999 999999 999999 999999 999999 999999 999999 999999 999999 999999 999999 999999 999999 999999 999999 999999 999999 999999 999999 999999 999999 999999 999999 999999 999999 999999 999999 999999 999999 999999 999999 999999 999999 999999 999999 999999 999999 999999 999999 999999 999999 999999 999999 999999 999999 999999 999999 999999 999999 999999 999999 999999 999999 999999 999999 999999 999999 999999 999999 999999 999999 999999 999999 999999 999999 999999 999999 999999 999999 999999 999999 999999 999999 999999 999999 999999 999999 999999 999999 999999 999999 999999 999999 999999 999999 999999 999999 999999 999999 999999 999999 999999 999999 999999 999999 999999 999999 999999 999999 999999 999999 999999 999999 999999 999999 999999 999999 999999 999999 999999 999999 999999 999999 12035
999999 11328 14920 14801 13045 14492 14234 11696 19245 12413 10775 11093 13344 19314 10111 17376 16335 10738 16712 14932 12983 15014 13013 15097 11106 10884 13441 14974 12502 17395 10718 16318 11875 10036 11948 10323 17296 10559 13914 16699 14953 11489 13042 18674 14077 12229 13239 16073 14686 15402 18250 17669 10444 16328 14238 12381 11776 10171 11269 10010 14827 19614 13498 17604 11206 12503 15364 11164 11009 17567 13683 18416 12840 10216 12096 12421 15831 11628 13630 15015 17778 11666 15244 16308 16347 12991 14719 18488 12144 11935 12017 10936 15145 10004 13798 12429 16451 13142 14496 17271 19885 16201 12881 19433 16942 10447 18522 15188 17755 17567 16709 17004 17191 13045 16478 12103 10379 13076 11560 19978 19627 15563 19044 19670 16387 11903 15007 17819 12466 13967 15415 16788 19623 12054 14969 11793 18256 14583 17906 13835 16531 12069 17510 13262 19093 11710 13245 13417 10096 14768 11491 16359 15129 15944 18074 18642 14001 16301 16970 10282 16171 18399 19647 14834 14493 14983 11024 18346 10863 17451 15878 15778 12508 13874 14779 12687 11779 12952 19172 14834 16519 999999 999999 999999 999999 999999 999999 999999 999999 999999 999999 999999 999999 999999 999999 999999 999999 999999 999999 999999 999999 999999 999999 999999 999999 999999 999999 999999 999999 999999 999999 999999 999999 999999 999999 999999 999999 999999 999999 999999 0 999999 999999 999999 999999 999999 999999 999999 999999 999999 999999 999999 999999 999999 999999 999999 999999 999999 999999 999999 999999 999999 999999 999999 999999 999999 999999 999999 999999 999999 999999 999999 999999 999999 999999 999999 999999 999999 999999 999999 999999 999999 999999 999999 999999 999999 999999 999999 999999 999999 999999 999999 999999 999999 999999 999999 999999 999999 999999 999999 999999 999999 999999 999999 999999 999999 999999 999999 999999 999999 999999 999999 999999 999999 999999 999999 999999 999999 999999 999999 999999 999999 999999 999999 999999 999999 999999 999999 999999 999999 999999 999999 999999 999999 999999 999999 999999 999999 999999 999999 999999 999999 999999 999999 999999 999999 999999 999999 999999 999999 999999 999999 999999 999999 999999 999999 999999 999999 999999 999999 999999 999999 999999 999999 999999 999999 999999 999999 999999 999999 999999 999999 999999 999999 999999 999999 999999 999999 999999 999999 999999 13562
999999 10370 19333 12790 16342 12594 13450 12315 10583 13757 13941 12944 16760 15043 12550 18512 17616 14865 14615 11502 11992 13196 11446 16483 16362 19716 17468 15444 14675 11589 10403 16344 17244 10962 12186 14721 10548 13639 13637 12209 11763 11482 16703 18729 18404 12106 13751 10843 14117 19756 18070 13256 18393 14834 10407 18120 19620 10393 14423 15065 11033 16746 16570 12239 10048 17254 15794 10535 11854 19364 11782 19645 15184 12171 18193 13199 10585 11153 10393 19338 17752 15674 14643 10393 11497 18049 13011 12436 15122 17667 11948 10960 14058 19452 11238 17185 12821 13066 15160 14771 15302 13189 14615 19173 11029 11500 11729 11194 16255 17606 12942 17978 11689 15405 15688 11507 16433 14059 17279 18485 19502 17239 10004 12894 10100 16329 10842 13518 18132 14433 18658 10238 15455 19419 11684 10122 19228 18513 17030 14208 12060 18488 14429 11266 11677 13435 15016 14668 18688 16199 10193 18587 11839 11642 13212 18626 16958 17058 14396 15593 13845 12287 15296 17256 13081 17271 18211 10438 13381 12727 14728 15837 10863 17703 12538 12019 18766 15956 10138 19145 10449 999999 999999 999999 999999 999999 999999 999999 999999 999999 999999 999999 999999 999999 999999 999999 999999 999999 999999 999999 999999 999999 999999 999999 999999 999999 999999 999999 999999 999999 999999 999999 999999 999999 999999 999999 999999 999999 999999 999999 999999 0 999999 999999 999999 999999 999999 999999 999999 999999 999999 999999 999999 999999 999999 999999 999999 999999 999999 999999 999999 999999 999999 999999 999999 999999 999999 999999 999999 999999 999999 999999 999999 999999 999999 999999 999999 999999 999999 999999 999999 999999 999999 999999 999999 999999 999999 999999 999999 999999 999999 999999 999999 999999 999999 999999 999999 999999 999999 999999 999999 999999 999999 999999 999999 999999 999999 999999 999999 999999 999999 999999 999999 999999 999999 999999 999999 999999 999999 999999 999999 999999 999999 999999 999999 999999 999999 999999 999999 999999 999999 999999 999999 999999 999999 999999 999999 999999 999999 999999 999999 999999 999999 999999 999999 999999 999999 999999 999999 999999 999999 999999 999999 999999 999999 999999 999999 999999 999999 999999 999999 999999 999999 999999 999999 999999 999999 999999 999999 999999 999999 999999 999999 999999 999999 999999 999999 999999 999999 999999 999999 6754
999999 12126 19631 16762 12885 17605 12090 13559 15615 18818 13801 18642 15857 16337 18167 11392 16047 10513 12022 10396 18565 15338 19817 12863 13034 15952 11029 14413 18459 17273 18061 14472 14557 19118 11008 18254 10881 16901 17478 14875 15271 18053 16292 11740 19015 12072 17135 12262 15176 16569 14920 19980 10340 11909 17527 19115 13676 13393 13774 19917 11351 18163 12229 16143 11559 14143 15148 16452 15246 15290 15407 15692 18905 13214 19897 10257 13306 10511 10928 12026 16006 16720 12655 18939 10845 10299 13027 18107 16019 10786 12318 10016 19262 12212 18018 17129 16548 16216 12530 17491 10010 17003 19554 13085 19612 19783 14437 10270 17862 10488 16174 14798 14383 12753 10575 12994 14989 12437 13122 18360 19169 18750 15832 14537 16980 19962 17495 12758 17205 17874 10630 13106 14719 14171 13997 16835 18342 14700 19668 18751 13816 12497 12546 19068 13084 16595 17048 19904 11401 14372 12450 16677 10005 13960 17799 11282 19855 17318 15586 17703 10230 18245 12863 10634 18638 14056 11237 14141 13267 16528 10556 10078 18602 13075 14861 11744 10488 14195 12242 12915 11609 999999 999999 999999 999999 999999 999999 999999 999999 999999 999999 999999 999999 999999 999999 999999 999999 999999 999999 999999 999999 999999 999999 999999 999999 999999 999999 999999 999999 999999 999999 999999 999999 999999 999999 999999 999999 999999 999999 999999 999999 999999 0 999999 999999 999999 999999 999999 999999 999999 999999 999999 999999 999999 999999 999999 999999 999999 999999 999999 999999 999999 999999 999999 999999 999999 999999 999999 999999 999999 999999 999999 999999 999999 999999 999999 999999 999999 999999 999999 999999 999999 999999 999999 999999 999999 999999 999999 999999 999999 999999 999999 999999 999999 999999 999999 999999 999999 999999 999999 999999 999999 999999 999999 999999 999999 999999 999999 999999 999999 999999 999999 999999 999999 999999 999999 999999 999999 999999 999999 999999 999999 999999 999999 999999 999999 999999 999999 999999 999999 999999 999999 999999 999999 999999 999999 999999 999999 999999 999999 999999 999999 999999 999999 999999 999999 999999 999999 999999 999999 999999 999999 999999 999999 999999 999999 999999 999999 999999 999999 999999 999999 999999 999999 999999 999999 999999 999999 999999 999999 999999 999999 999999 999999 999999 999999 999999 999999 999999 999999 999999 8339
999999 14711 14505 19448 10675 10743 16727 12031 17556 12878 10838 11059 19309 19447 14898 19364 10752 18577 15951 15645 18046 19079 16630 17047 19370 16516 19441 14763 10063 15042 11540 17129 11517 19180 14201 19388 11668 14256 17400 19688 19553 17472 19411 10319 15629 16679 15165 12925 11365 14468 10012 15424 19416 18760 17276 16150 10130 11579 14470 10716 14562 12297 10413 17886 17338 12536 19195 12003 14274 14918 12806 18544 12788 10513 19275 12865 19483 15803 10296 12935 19234 11502 18690 19079 13306 13345 13604 19479 13696 15327 11697 11002 14436 19921 18938 17595 16937 12795 14399 13577 10639 13269 15037 14644 14415 14868 14267 11410 14773 14185 15809 14411 10931 16552 16681 13005 18699 15383 11234 18462 16178 19900 12973 13339 11376 10266 10765 12571 10488 14623 10769 19759 13358 18761 14383 16066 12004 11286 11941 18770 19094 12432 10483 12898 10641 17314 13084 17062 13802 17269 13098 19104 15631 19891 19657 10428 19053 16225 13075 15404 11930 19542 14612 14758 12347 11334 15657 10589 13285 16382 10100 19644 12645 17413 10424 19906 18178 14274 12773 17435 10674 999999 999999 999999 999999 999999 999999 999999 999999 999999 999999 999999 999999 999999 999999 999999 999999 999999 999999 999999 999999 999999 999999 999999 999999 999999 999999 999999 999999 999999 999999 999999 999999 999999 999999 999999 999999 999999 999999 999999 999999 999999 999999 0 999999 999999 999999 999999 999999 999999 999999 999999 999999 999999 999999 999999 999999 999999 999999 999999 999999 999999 999999 999999 999999 999999 999999 999999 999999 999999 999999 999999 999999 999999 999999 999999 999999 999999 999999 999999 999999 999999 999999 999999 999999 999999 999999 999999 999999 999999 999999 999999 999999 999999 999999 999999 999999 999999 999999 999999 999999 999999 999999 999999 999999 999999 999999 999999 999999 999999 999999 999999 999999 999999 999999 999999 999999 999999 999999 999999 999999 999999 999999 999999 999999 999999 999999 999999 999999 999999 999999 999999 999999 999999 999999 999999 999999 999999 999999 999999 999999 999999 999999 999999 999999 999999 999999 999999 999999 999999 999999 999999 999999 999999 999999 999999 999999 999999 999999 999999 999999 999999 999999 999999 999999 999999 999999 999999 999999 999999 999999 999999 999999 999999 999999 999999 999999 999999 999999 999999 999999 14161
999999 11538 13905 18693 14006 12680 15799 13733 16324 10738 11407 15434 15870 17227 13758 15327 15024 15949 12256 11632 13293 10510 12325 10883 18382 16620 11797 19015 13424 15103 10801 19545 17926 11142 18250 10271 12566 19179 18732 16356 14117 13780 16221 19066 14025 17439 12491 13786 16490 18265 12979 19130 15237 12812 10872 12925 14282 15795 19538 15758 17024 11949 15701 14166 10125 17790 16541 11997 14728 12341 16218 17367 13225 16315 13036 19730 18258 12362 18544 14774 19785 16952 14460 14470 17996 13113 13368 16061 12753 10237 16622 11006 18727 15059 10553 14412 18727 12839 15790 14349 11041 19038 18874 19050 15821 16677 13002 18492 15514 19018 11946 18320 13030 14454 12388 11003 11967 12856 18105 13733 13497 12374 10776 18111 17019 12868 10252 16095 19295 13754 17454 18714 10597 18088 17062 14577 14866 15519 15448 10543 11916 12536 11754 12156 19005 11068 17604 17265 14463 12167 10370 17438 11665 17059 13124 12627 12131 19281 16904 15993 13758 14143 16577 18640 14962 19479 19889 18314 13789 11065 15679 14314 16673 17820 12472 16598 19971 19522 12331 19720 14508 999999 999999 999999 999999 999999 999999 999999 999999 999999 999999 999999 999999 999999 999999 999999 999999 999999 999999 999999 999999 999999 999999 999999 999999 999999 999999 999999 999999 999999 999999 999999 999999 999999 999999 999999 999999 999999 999999 999999 999999 999999 999999 999999 0 999999 999999 999999 999999 999999 999999 999999 999999 999999 999999 999999 999999 999999 999999 999999 999999 999999 999999 999999 999999 999999 999999 999999 999999 999999 999999 999999 999999 999999 999999 999999 999999 999999 999999 999999 999999 999999 999999 999999 999999 999999 999999 999999 999999 999999 999999 999999 999999 999999 999999 999999 999999 999999 999999 999999 999999 999999 999999 999999 999999 999999 999999 999999 999999 999999 999999 999999 999999 999999 999999 999999 999999 999999 999999 999999 999999 999999 999999 999999 999999 999999 999999 999999 999999 999999 999999 999999 999999 999999 999999 999999 999999 999999 999999 999999 999999 999999 999999 999999 999999 999999 999999 999999 999999 999999 999999 999999 999999 999999 999999 999999 999999 999999 999999 999999 999999 999999 999999 999999 999999 999999 999999 999999 999999 999999 999999 999999 999999 999999 999999 999999 999999 999999 999999 999999 999999 7072
999999 19962 15423 10664 12528 11402 10551 13383 16824 12096 16655 17111 13756 19985 14039 17460 18367 12328 19784 11687 11614 16726 18112 11399 18396 16933 11640 10940 14408 13522 18290 14840 19562 17545 16400 17526 10990 14117 16775 13953 11079 10134 10391 15024 15411 18222 13883 17786 17919 15516 13856 14358 18067 18579 17862 10463 10453 10266 11600 13131 13271 17807 16502 18901 12094 18934 10044 17304 10093 11118 15817 14491 12691 17295 14103 13557 15314 13396 13879 11731 10718 13885 17788 15914 16191 12809 12807 19802 17020 19711 14620 16773 16328 15555 11227 12022 10689 18818 10251 15159 12209 16313 19546 13987 12364 13151 12390 13533 15094 17270 19180 15280 10321 11327 14141 13533 13535 13579 17590 11332 16668 10037 13976 17226 16638 19712 14029 11665 19571 15550 18439 19259 12407 17129 19217 11331 16661 18917 13275 13982 12307 10840 10277 16604 18801 15927 14312 11821 16401 11982 19169 11111 11113 16472 12475 15782 17521 13792 12667 15056 12336 16722 19601 14658 14196 12432 18510 10376 17103 19136 15949 17198 13866 14635 17084 10418 17162 12789 17215 18455 11550 999999 999999 999999 999999 999999 999999 999999 999999 999999 999999 999999 999999 999999 999999 999999 999999 999999 999999 999999 999999 999999 999999 999999 999999 999999 999999 999999 999999 999999 999999 999999 999999 999999 999999 999999 999999 999999 999999 999999 999999 999999 999999 999999 999999 0 999999 999999 999999 999999 999999 999999 999999 999999 999999 999999 999999 999999 999999 999999 999999 999999 999999 999999 999999 999999 999999 999999 999999 999999 999999 999999 999999 999999 999999 999999 999999 999999 999999 999999 999999 999999 999999 999999 999999 999999 999999 999999 999999 999999 999999 999999 999999 999999 999999 999999 999999 999999 999999 999999 999999 999999 999999 999999 999999 999999 999999 999999 999999 999999 999999 999999 999999 999999 999999 999999 999999 999999 999999 999999 999999 999999 999999 999999 999999 999999 999999 999999 999999 999999 999999 999999 999999 999999 999999 999999 999999 999999 999999 999999 999999 999999 999999 999999 999999 999999 999999 999999 999999 999999 999999 999999 999999 999999 999999 999999 999999 999999 999999 999999 999999 999999 999999 999999 999999 999999 999999 999999 999999 999999 999999 999999 999999 999999 999999 999999 999999 999999 999999 999999 999999 7185
999999 13252 14334 17832 10092 10367 15055 15002 16680 15833 13209 16444 16525 11829 18127 17045 13489 13196 11203 14771 11395 12320 16022 11414 16812 15228 17928 13504 12672 12774 15494 16831 16871 12384 11686 10728 16801 13245 14698 18852 17879 19848 14894 13235 11113 10532 17290 15569 13886 14927 14188 12657 12215 18486 14452 13888 14204 18783 17715 15123 19636 17752 16607 12207 10807 16653 15589 10382 13135 16808 19506 11753 14590 19568 11789 16109 16593 10920 16643 15829 17734 19798 12489 10137 19288 19399 13470 17105 18165 10827 12261 15333 13234 19210 10220 18510 12597 18171 19654 12680 16654 18606 13015 19661 14669 13053 18495 11262 13864 18681 12629 15051 11251 14994 17601 12848 14437 19470 11846 10673 18409 19810 14786 18990 16435 19335 15737 12793 14321 16714 15095 10478 11887 12314 17575 16310 15759 10178 19616 17504 19032 11130 19599 12316 19779 18901 18522 17803 14070 19721 15884 15225 19173 19633 18760 14811 10035 13915 18941 14012 14993 12365 15476 12062 17172 13312 17601 17030 13995 16408 12341 13872 17127 18506 10691 18481 16724 19750 11539 16454 15375 999999 999999 999999 999999 999999 999999 999999 999999 999999 999999 999999 999999 999999 999999 999999 999999 999999 999999 999999 999999 999999 999999 999999 999999 999999 999999 999999 999999 999999 999999 999999 999999 999999 999999 999999 999999 999999 999999 999999 999999 999999 999999 999999 999999 999999 0 999999 999999 999999 999999 999999 999999 999999 999999 999999 999999 999999 999999 999999 999999 999999 999999 999999 999999 999999 999999 999999 999999 999999 999999 999999 999999 999999 999999 999999 999999 999999 999999 999999 999999 999999 999999 999999 999999 999999 999999 999999 999999 999999 999999 999999 999999 999999 999999 999999 999999 999999 999999 999999 999999 999999 999999 999999 999999 999999 999999 999999 999999 999999 999999 999999 999999 999999 999999 999999 999999 999999 999999 999999 999999 999999 999999 999999 999999 999999 999999 999999 999999 999999 999999 999999 999999 999999 999999 999999 999999 999999 999999 999999 999999 999999 999999 999999 999999 999999 999999 999999 999999 999999 999999 999999 999999 999999 999999 999999 999999 999999 999999 999999 999999 999999 999999 999999 999999 999999 999999 999999 999999 999999 999999 999999 999999 999999 999999 999999 999999 999999 999999 999999 999999 6624
999999 13203 11402 19942 12426 16963 12264 10176 15951 12122 19540 13845 10420 19387 17216 19462 15445 14044 18447 19317 19426 12224 12611 14067 16423 19443 14881 15240 10852 18196 15757 14686 12246 19553 17391 18384 19949 18491 13778 17458 16775 11913 15031 17541 17974 15798 17784 17552 14399 15263 12301 19405 18179 15317 10055 18294 15451 15354 18886 18497 19411 10162 16060 16822 15296 11978 13117 16345 19406 10268 18075 15882 11513 14307 17296 19424 14963 11176 13267 13935 19054 17336 16824 14865 15653 12206 17631 18818 15455 10466 16935 16354 12560 14807 18351 10975 19446 10056 14131 15709 11431 15142 12702 18798 14584 19139 11174 18918 17402 14084 10968 15521 17705 10371 11513 15503 16264 15859 18905 19595 16643 12464 12333 16742 13377 16388 15689 16267 18558 14867 12636 16964 10591 13149 15013 15320 13232 10463 19585 14642 12788 10494 18232 14425 10405 17369 18026 18381 11689 17389 14997 16870 10451 15744 19755 10442 18988 14269 17625 15201 12490 16049 17473 17151 17373 17870 11459 13149 11501 14759 15384 11371 13437 13391 14160 16987 17136 18814 16239 19115 19755 999999 999999 999999 999999 999999 999999 999999 999999 999999 999999 999999 999999 999999 999999 999999 999999 999999 999999 999999 999999 999999 999999 999999 999999 999999 999999 999999 999999 999999 999999 999999 999999 999999 999999 999999 999999 999999 999999 999999 999999 999999 999999 999999 999999 999999 999999 0 999999 999999 999999 999999 999999 999999 999999 999999 999999 999999 999999 999999 999999 999999 999999 999999 999999 999999 999999 999999 999999 999999 999999 999999 999999 999999 999999 999999 999999 999999 999999 999999 999999 999999 999999 999999 999999 999999 999999 999999 999999 999999 999999 999999 999999 999999 999999 999999 999999 999999 999999 999999 999999 999999 999999 999999 999999 999999 999999 999999 999999 999999 999999 999999 999999 999999 999999 999999 999999 999999 999999 999999 999999 999999 999999 999999 999999 999999 999999 999999 999999 999999 999999 999999 999999 999999 999999 999999 999999 999999 999999 999999 999999 999999 999999 999999 999999 999999 999999 999999 999999 999999 999999 999999 999999 999999 999999 999999 999999 999999 999999 999999 999999 999999 999999 999999 999999 999999 999999 999999 999999 999999 999999 999999 999999 999999 999999 999999 999999 999999 999999 999999 999999 5348
999999 19077 19219 13819 11397 17827 15410 18184 16397 11692 12618 12177 17822 15127 16230 16869 11015 17580 17508 10218 15063 15467 11927 12829 14929 15676 10285 12343 15644 19584 10076 11146 16742 19309 15842 19482 14890 11315 14300 11201 15705 13820 14013 17717 16945 17056 14540 18638 16393 10768 17651 16086 12621 12338 14907 16046 13815 13189 12705 15264 13546 15094 16822 11971 14670 19437 17756 10978 13019 19898 10631 17498 19906 12045 13594 11170 17010 16756 15379 15797 19439 12928 18220 17138 12283 10480 14154 12451 12014 12546 17736 10153 18168 18586 17406 16749 13257 11267 19433 17760 19519 14195 19697 16568 19804 13368 17738 13674 14081 13433 17491 10768 15991 15273 11150 13476 17205 19796 11806 11139 10274 12219 17317 10148 16099 18290 18398 11671 11605 10063 10413 15429 13316 14326 19621 17562 11188 11520 18288 16992 14908 17432 16054 19877 13525 12736 12684 19843 15813 17948 19293 14188 19000 11754 19568 19481 18430 19645 14987 19524 18507 15334 14958 12023 11041 17494 16245 10488 12975 10311 13873 19778 16763 16589 13930 16957 19297 15054 18304 13735 12918 999999 999999 999999 999999 999999 999999 999999 999999 999999 999999 999999 999999 999999 999999 999999 999999 999999 999999 999999 999999 999999 999999 999999 999999 999999 999999 999999 999999 999999 999999 999999 999999 999999 999999 999999 999999 999999 999999 999999 999999 999999 999999 999999 999999 999999 999999 999999 0 999999 999999 999999 999999 999999 999999 999999 999999 999999 999999 999999 999999 999999 999999 999999 999999 999999 999999 999999 999999 999999 999999 999999 999999 999999 999999 999999 999999 999999 999999 999999 999999 999999 999999 999999 999999 999999 999999 999999 999999 999999 999999 999999 999999 999999 999999 999999 999999 999999 999999 999999 999999 999999 999999 999999 999999 999999 999999 999999 999999 999999 999999 999999 999999 999999 999999 999999 999999 999999 999999 999999 999999 999999 999999 999999 999999 999999 999999 999999 999999 999999 999999 999999 999999 999999 999999 999999 999999 999999 999999 999999 999999 999999 999999 999999 999999 999999 999999 999999 999999 999999 999999 999999 999999 999999 999999 999999 999999 999999 999999 999999 999999 999999 999999 999999 999999 999999 999999 999999 999999 999999 999999 999999 999999 999999 999999 999999 999999 999999 999999 999999 999999 9293
999999 19270 16988 15393 12643 14041 16012 13271 18112 17728 12420 12235 12728 19852 12324 16828 10757 15208 17703 14049 16829 13693 15234 10870 10406 19347 17071 19055 15808 10630 14913 11811 18572 11060 11750 15404 12888 15340 18365 18181 13244 13449 19268 13635 12519 13874 10746 15585 19710 18888 19763 16264 17195 10503 13423 17239 13753 14236 17778 15443 10164 10810 18260 12234 10330 18585 13282 14848 17760 10477 11887 13870 14403 19306 17228 16587 16996 13846 12764 19862 19737 15199 19964 19247 16579 13853 17006 15355 12843 14652 18563 15790 13516 10723 12990 17698 14620 15401 16693 15125 12914 18414 13341 11840 11007 13998 17158 14656 15440 19289 17796 10331 15693 14668 15126 17877 14515 10948 17722 15116 18052 13308 15143 10010 19927 15093 16039 18645 17497 17463 19401 15615 17862 17800 19194 15333 17929 17910 17133 15364 17123 19983 17675 10368 19832 13986 19674 18036 11642 12980 16361 15556 11810 14212 18841 14495 10237 16864 10312 16184 15644 19227 10036 17202 14459 11292 18410 18634 10951 18486 20000 13600 19650 19913 17043 19608 19703 11398 14950 11395 14299 999999 999999 999999 999999 999999 999999 999999 999999 999999 999999 999999 999999 999999 999999 999999 999999 999999 999999 999999 999999 999999 999999 999999 999999 999999 999999 999999 999999 999999 999999 999999 999999 999999 999999 999999 999999 999999 999999 999999 999999 999999 999999 999999 999999 999999 999999 999999 999999 0 999999 999999 999999 999999 999999 999999 999999 999999 999999 999999 999999 999999 999999 999999 999999 999999 999999 999999 999999 999999 999999 999999 999999 999999 999999 999999 999999 999999 999999 999999 999999 999999 999999 999999 999999 999999 999999 999999 999999 999999 999999 999999 999999 999999 999999 999999 999999 999999 999999 999999 999999 999999 999999 999999 999999 999999 999999 999999 999999 999999 999999 999999 999999 999999 999999 999999 999999 999999 999999 999999 999999 999999 999999 999999 999999 999999 999999 999999 999999 999999 999999 999999 999999 999999 999999 999999 999999 999999 999999 999999 999999 999999 999999 999999 999999 999999 999999 999999 999999 999999 999999 999999 999999 999999 999999 999999 999999 999999 999999 999999 999999 999999 999999 999999 999999 999999 999999 999999 999999 999999 999999 999999 999999 999999 999999 999999 999999 999999 999999 999999 999999 9101
999999 14970 16294 19260 10658 15940 17856 12754 12030 12170 14453 10806 16996 19871 12552 12168 11386 10805 16167 15763 18241 14546 18234 12723 14374 16669 16165 19766 12977 14799 12879 15516 13768 12225 14842 13678 13461 19424 12213 10688 10159 14149 13196 10227 11888 12463 11889 10525 11579 16666 13153 17942 15198 11174 14687 19951 18143 16355 18892 16803 17928 10286 14071 19845 19093 10947 12188 12139 18377 10958 12331 14266 12160 11950 15519 14538 18013 15098 11125 19468 18272 10655 12952 15167 10652 14901 17657 19938 16422 12777 19849 16520 11001 15533 12935 18548 14420 19117 14428 18494 10101 18667 15256 14868 12155 16737 13677 10197 13837 19746 10711 10469 16662 10753 19629 19256 13338 19584 11888 19454 15256 16557 15412 10152 14910 16938 14970 16841 17153 13531 14314 16646 17668 18564 12089 16404 13998 19453 11372 16551 14859 18243 19624 10524 17021 11445 15967 12851 12421 19823 18755 12593 19243 14052 13350 19145 12687 16803 15773 10129 17255 16357 15708 12400 11642 13039 15229 16279 19282 10962 16697 11192 11767 17776 14910 19439 14881 19633 13983 10245 12348 999999 999999 999999 999999 999999 999999 999999 999999 999999 999999 999999 999999 999999 999999 999999 999999 999999 999999 999999 999999 999999 999999 999999 999999 999999 999999 999999 999999 999999 999999 999999 999999 999999 999999 999999 999999 999999 999999 999999 999999 999999 999999 999999 999999 999999 999999 999999 999999 999999 0 999999 999999 999999 999999 999999 999999 999999 999999 999999 999999 999999 999999 999999 999999 999999 999999 999999 999999 999999 999999 999999 999999 999999 999999 999999 999999 999999 999999 999999 999999 999999 999999 999999 999999 999999 999999 999999 999999 999999 999999 999999 999999 999999 999999 999999 999999 999999 999999 999999 999999 999999 999999 999999 999999 999999 999999 999999 999999 999999 999999 999999 999999 999999 999999 999999 999999 999999 999999 999999 999999 999999 999999 999999 999999 999999 999999 999999 999999 999999 999999 999999 999999 999999 999999 999999 999999 999999 999999 999999 999999 999999 999999 999999 999999 999999 999999 999999 999999 999999 999999 999999 999999 999999 999999 999999 999999 999999 999999 999999 999999 999999 999999 999999 999999 999999 999999 999999 999999 999999 999999 999999 999999 999999 999999 999999 999999 999999 999999 999999 999999 10939
999999 19986 14063 11357 14743 12918 11008 11811 16413 11760 16302 12302 17753 13389 13772 15232 15428 18668 13949 19242 16339 18074 13897 18306 18698 15722 10640 11339 19590 15202 10465 16978 13213 19379 15099 18064 13080 19497 15591 14736 15369 12555 14314 16102 11456 19842 12640 15001 18442 12383 19274 11965 18194 14854 12110 11515 14211 13455 12636 13260 11124 10969 15102 11733 10294 15342 19356 18002 10348 11362 14928 17188 12582 12711 17990 15748 15078 16624 17572 10663 18861 10050 18985 18189 19793 13531 15622 13917 14994 16955 16513 10655 10406 17359 14878 13282 11014 19105 12943 18696 19530 12550 15238 14674 11773 13298 13439 14285 16869 15872 19271 10163 19069 19089 18700 16656 13709 10679 11231 15736 10107 10359 10214 14780 18829 14852 12770 10219 15477 16911 17968 15956 18937 14764 16683 10627 17077 19162 18671 12627 17122 12064 17768 10923 14008 17085 11180 16665 17378 10051 15370 13215 15718 11050 17534 11634 17744 18633 17367 15507 15567 15775 19951 11995 18115 11139 19734 12757 13789 19069 14823 16897 12824 16803 11062 14623 14755 14555 19722 17343 10940 999999 999999 999999 999999 999999 999999 999999 999999 999999 999999 999999 999999 999999 999999 999999 999999 999999 999999 999999 999999 999999 999999 999999 999999 999999 999999 999999 999999 999999 999999 999999 999999 999999 999999 999999 999999 999999 999999 999999 999999 999999 999999 999999 999999 999999 999999 999999 999999 999999 999999 0 999999 999999 999999 999999 999999 999999 999999 999999 999999 999999 999999 999999 999999 999999 999999 999999 999999 999999 999999 999999 999999 999999 999999 999999 999999 999999 999999 999999 999999 999999 999999 999999 999999 999999 999999 999999 999999 999999 999999 999999 999999 999999 999999 999999 999999 999999 999999 999999 999999 999999 999999 999999 999999 999999 999999 999999 999999 999999 999999 999999 999999 999999 999999 999999 999999 999999 999999 999999 999999 999999 999999 999999 999999 999999 999999 999999 999999 999999 999999 999999 999999 999999 999999 999999 999999 999999 999999 999999 999999 999999 999999 999999 999999 999999 999999 999999 999999 999999 999999 999999 999999 999999 999999 999999 999999 999999 999999 999999 999999 999999 999999 999999 999999 999999 999999 999999 999999 999999 999999 999999 999999 999999 999999 999999 999999 999999 999999 999999 999999 6045
999999 14676 18810 19275 13924 16608 17454 10159 18383 19392 19496 18641 10223 11226 11328 13868 19637 12895 12872 15382 16911 14455 17862 17264 15534 18872 10672 16821 19692 13788 10498 17136 17373 11097 18899 18644 13268 11466 17011 11375 15475 18232 17724 18556 12134 13394 15910 15521 15482 11059 12395 10992 12617 18735 11871 10504 11673 18686 17228 19891 17907 15170 19945 18841 18013 14450 16899 17107 11862 15917 19198 10424 15489 10853 10563 12915 15954 19365 10458 16985 16836 15732 15149 12840 17023 15972 18405 16115 11244 19357 16224 16810 10436 11780 17599 10442 19821 15733 10426 19900 15741 18633 14066 12168 12019 11244 16712 16585 11316 16146 10888 12092 17032 12303 15326 12336 18002 18928 18715 18135 15238 13404 15064 10814 19446 10853 10643 14550 12462 18429 13081 10481 10018 10547 18122 12349 11080 18326 17685 19940 18179 12212 19649 11849 13541 13325 17109 19868 14919 11682 14101 10260 16681 16733 16163 12431 14094 16881 14051 18117 17485 10311 19905 11395 18462 17893 11664 12766 15256 19539 17382 11937 12071 13237 16514 19461 13776 11866 17911 10764 12614 999999 999999 999999 999999 999999 999999 999999 999999 999999 999999 999999 999999 999999 999999 999999 999999 999999 999999 999999 999999 999999 999999 999999 999999 999999 999999 999999 999999 999999 999999 999999 999999 999999 999999 999999 999999 999999 999999 999999 999999 999999 999999 999999 999999 999999 999999 999999 999999 999999 999999 999999 0 999999 999999 999999 999999 999999 999999 999999 999999 999999 999999 999999 999999 999999 999999 999999 999999 999999 999999 999999 999999 999999 999999 999999 999999 999999 999999 999999 999999 999999 999999 999999 999999 999999 999999 999999 999999 999999 999999 999999 999999 999999 999999 999999 999999 999999 999999 999999 999999 999999 999999 999999 999999 999999 999999 999999 999999 999999 999999 999999 999999 999999 999999 999999 999999 999999 999999 999999 999999 999999 999999 999999 999999 999999 999999 999999 999999 999999 999999 999999 999999 999999 999999 999999 999999 999999 999999 999999 999999 999999 999999 999999 999999 999999 999999 999999 999999 999999 999999 999999 999999 999999 999999 999999 999999 999999 999999 999999 999999 999999 999999 999999 999999 999999 999999 999999 999999 999999 999999 999999 999999 999999 999999 999999 999999 999999 999999 999999 999999 9742
999999 19212 18487 13529 12291 16687 12727 17449 13687 19265 16353 18982 11556 19505 18077 19543 18914 14791 12311 19208 14124 12122 14786 10315 18845 13825 13659 14259 16720 16827 14919 15959 11004 17693 16181 14117 11127 15538 17047 10783 13030 12128 13358 12781 12543 10914 18557 10265 19195 10197 17689 12126 16145 17503 17681 18255 17805 16789 15027 14877 11035 15192 14493 10770 14787 16328 18476 10073 15811 19722 14245 14169 17016 19719 17042 17638 19788 14381 14171 10410 12174 15387 11080 17530 18252 10337 12421 19853 18136 15704 12748 10892 12615 14926 12176 10773 12355 18887 13047 11017 18832 18795 17731 19540 12833 12122 16165 10187 11918 15594 19264 18706 13994 13862 15065 18398 13930 10022 16473 17629 12659 19141 14801 14371 16078 10390 14558 10794 15527 17314 11324 10072 16530 10753 14686 19110 12436 11681 14880 19676 18518 14470 13675 18510 13498 12245 14595 11171 10235 18660 10039 14460 12440 16816 10074 16080 18130 10860 17999 16843 14980 16871 16416 14813 11248 18901 11931 17967 18437 18666 19358 12761 18584 11594 14046 18528 15199 11192 18582 13559 19857 999999 999999 999999 999999 999999 999999 999999 999999 999999 999999 999999 999999 999999 999999 999999 999999 999999 999999 999999 999999 999999 999999 999999 999999 999999 999999 999999 999999 999999 999999 999999 999999 999999 999999 999999 999999 999999 999999 999999 999999 999999 999999 999999 999999 999999 999999 999999 999999 999999 999999 999999 999999 0 999999 999999 999999 999999 999999 999999 999999 999999 999999 999999 999999 999999 999999 999999 999999 999999 999999 999999 999999 999999 999999 999999 999999 999999 999999 999999 999999 999999 999999 999999 999999 999999 999999 999999 999999 999999 999999 999999 999999 999999 999999 999999 999999 999999 999999 999999 999999 999999 999999 999999 999999 999999 999999 999999 999999 999999 999999 999999 999999 999999 999999 999999 999999 999999 999999 999999 999999 999999 999999 999999 999999 999999 999999 999999 999999 999999 999999 999999 999999 999999 999999 999999 999999 999999 999999 999999 999999 999999 999999 999999 999999 999999 999999 999999 999999 999999 999999 999999 999999 999999 999999 999999 999999 999999 999999 999999 999999 999999 999999 999999 999999 999999 999999 999999 999999 999999 999999 999999 999999 999999 999999 999999 999999 999999 999999 999999 999999 11984
999999 15455 19610 15641 11012 10291 11034 11609 12395 16565 17692 13245 18803 15378 16130 14121 12052 11134 19223 17551 15817 16491 11979 10263 14742 10212 15877 19893 17669 14729 14197 16820 15837 18939 14870 14919 15370 16966 14718 14527 15322 10540 18012 14675 18375 19329 12372 13403 14542 16805 10054 13251 18682 15311 19825 10827 11308 18199 16416 12621 19194 17243 15277 18971 12880 11353 11524 13396 16692 16798 13300 13139 12545 11892 19415 16804 12473 17883 15566 14328 13291 12150 19773 15942 10898 14591 16642 10245 17466 10593 11046 10307 16918 17442 13652 11933 19939 14385 10383 12081 18341 12616 19283 18092 13462 10169 18410 17981 10784 10829 11959 19278 10882 18671 16099 13953 10059 19361 18479 13182 12220 12247 11079 16883 11179 15751 14707 14178 19373 17882 18350 11417 16427 10846 17752 15828 19288 12222 15806 12845 10125 12214 19603 11715 14665 16069 17500 17856 11938 15543 14589 14799 17322 16003 14251 19732 11493 14274 16907 12602 19781 14422 18378 14223 14024 10840 15439 19802 14035 18927 16891 19385 13758 11714 19846 14405 13843 17175 18207 17572 15467 999999 999999 999999 999999 999999 999999 999999 999999 999999 999999 999999 999999 999999 999999 999999 999999 999999 999999 999999 999999 999999 999999 999999 999999 999999 999999 999999 999999 999999 999999 999999 999999 999999 999999 999999 999999 999999 999999 999999 999999 999999 999999 999999 999999 999999 999999 999999 999999 999999 999999 999999 999999 999999 0 999999 999999 999999 999999 999999 999999 999999 999999 999999 999999 999999 999999 999999 999999 999999 999999 999999 999999 999999 999999 999999 999999 999999 999999 999999 999999 999999 999999 999999 999999 999999 999999 999999 999999 999999 999999 999999 999999 999999 999999 999999 999999 999999 999999 999999 999999 999999 999999 999999 999999 999999 999999 999999 999999 999999 999999 999999 999999 999999 999999 999999 999999 999999 999999 999999 999999 999999 999999 999999 999999 999999 999999 999999 999999 999999 999999 999999 999999 999999 999999 999999 999999 999999 999999 999999 999999 999999 999999 999999 999999 999999 999999 999999 999999 999999 999999 999999 999999 999999 999999 999999 999999 999999 999999 999999 999999 999999 999999 999999 999999 999999 999999 999999 999999 999999 999999 999999 999999 999999 999999 999999 999999 999999 999999 999999 999999 9396
999999 18635 11050 11015 19897 10341 14405 19070 12210 19425 10666 12096 12180 14847 16129 11855 16921 18334 14548 10040 17828 17866 16302 18487 15083 17918 10272 18978 19399 17183 11644 11960 11492 17083 10057 11722 13068 12194 19775 19686 10286 17334 18750 13732 12521 18452 17948 19295 14686 14442 16069 12234 19928 18117 11243 18754 13235 19812 15129 19611 18624 14320 10951 16874 12473 13901 13935 12585 16670 19646 14321 11368 19336 12712 14147 11664 17271 16475 18065 15563 14707 12403 18274 11534 18101 16315 16804 17408 16509 13156 11322 14444 17592 12416 17022 11787 16161 11311 14026 10534 14149 11097 17563 13742 11609 10333 14683 12173 12098 17750 12082 18068 19903 13999 12068 10017 11329 16070 18921 18440 15092 13619 10071 10437 15113 14736 12711 18536 10058 12197 13495 17921 19464 16821 19487 11349 18711 18123 16156 19666 18420 11865 14941 17494 14765 17921 16814 12133 19043 16379 14053 18976 10026 10960 11326 12510 14408 18709 12458 13320 15605 12092 10357 16428 12753 14279 11608 10104 10176 19551 16125 19168 15194 12866 16539 16175 10390 12216 19966 11777 10103 999999 999999 999999 999999 999999 999999 999999 999999 999999 999999 999999 999999 999999 999999 999999 999999 999999 999999 999999 999999 999999 999999 999999 999999 999999 999999 999999 999999 999999 999999 999999 999999 999999 999999 999999 999999 999999 999999 999999 999999 999999 999999 999999 999999 999999 999999 999999 999999 999999 999999 999999 999999 999999 999999 0 999999 999999 999999 999999 999999 999999 999999 999999 999999 999999 999999 999999 999999 999999 999999 999999 999999 999999 999999 999999 999999 999999 999999 999999 999999 999999 999999 999999 999999 999999 999999 999999 999999 999999 999999 999999 999999 999999 999999 999999 999999 999999 999999 999999 999999 999999 999999 999999 999999 999999 999999 999999 999999 999999 999999 999999 999999 999999 999999 999999 999999 999999 999999 999999 999999 999999 999999 999999 999999 999999 999999 999999 999999 999999 999999 999999 999999 999999 999999 999999 999999 999999 999999 999999 999999 999999 999999 999999 999999 999999 999999 999999 999999 999999 999999 999999 999999 999999 999999 999999 999999 999999 999999 999999 999999 999999 999999 999999 999999 999999 999999 999999 999999 999999 999999 999999 999999 999999 999999 999999 999999 999999 999999 999999 999999 9562
999999 12698 19238 10961 12406 10676 11731 13453 12878 15568 19689 11241 18608 10029 16816 14570 17801 15955 18731 10223 15322 16031 12848 13517 16061 12741 12184 14346 16518 12635 18245 18355 15048 14482 13998 17651 17715 19260 18140 17190 16398 19351 14595 14538 13150 18452 12940 13358 16284 10121 15227 19069 12151 16548 14509 15048 14673 14990 14703 12196 11599 12263 19583 15968 14717 14953 10290 15017 10810 13590 16794 12305 15989 15269 18109 14895 13912 14017 11444 17798 19609 12051 15554 13627 10261 13421 12072 14596 13331 10391 12103 16163 18789 13552 19774 13271 19748 18941 13252 15182 16038 14814 17240 10939 19285 16684 19092 15770 15583 14324 19463 11414 17877 13206 12453 17620 10788 19082 18195 18228 18402 19448 19287 19551 10677 13681 19755 17765 16991 19876 12616 18070 15226 12048 13190 13248 10727 11607 17441 18519 16782 11312 19370 15271 11357 15333 19973 12802 18900 19192 14340 16055 14898 12917 19598 18648 19946 15868 18737 13559 16058 16456 19145 13536 18597 13949 14684 15116 12075 15345 18291 12439 11732 19086 14153 10348 17666 18620 10665 17124 11581 999999 999999 999999 999999 999999 999999 999999 999999 999999 999999 999999 999999 999999 999999 999999 999999 999999 999999 999999 999999 999999 999999 999999 999999 999999 999999 999999 999999 999999 999999 999999 999999 999999 999999 999999 999999 999999 999999 999999 999999 999999 999999 999999 999999 999999 999999 999999 999999 999999 999999 999999 999999 999999 999999 999999 0 999999 999999 999999 999999 999999 999999 999999 999999 999999 999999 999999 999999 999999 999999 999999 999999 999999 999999 999999 999999 999999 999999 999999 999999 999999 999999 999999 999999 999999 999999 999999 999999 999999 999999 999999 999999 999999 999999 999999 999999 999999 999999 999999 999999 999999 999999 999999 999999 999999 999999 999999 999999 999999 999999 999999 999999 999999 999999 999999 999999 999999 999999 999999 999999 999999 999999 999999 999999 999999 999999 999999 999999 999999 999999 999999 999999 999999 999999 999999 999999 999999 999999 999999 999999 999999 999999 999999 999999 999999 999999 999999 999999 999999 999999 999999 999999 999999 999999 999999 999999 999999 999999 999999 999999 999999 999999 999999 999999 999999 999999 999999 999999 999999 999999 999999 999999 999999 999999 999999 999999 999999 999999 999999 999999 12537
999999 18622 15478 12721 13350 13162 19658 16059 19714 11103 11807 18298 12273 17663 19094 11572 18890 19588 15387 19260 12468 14090 19820 11750 12809 18215 14028 19514 14408 16803 16080 18532 18371 13694 11547 12099 11058 13380 15545 14054 14742 13229 13419 17105 13551 10480 12290 16857 11429 19144 17151 15249 19942 11558 12234 19457 11333 13258 12599 15546 11221 18073 19819 15628 16376 15265 11785 17975 17020 10598 13028 19507 16842 16995 11524 11626 13383 18356 17929 19098 10010 11672 17825 10444 16157 16862 15221 10726 16623 15016 10041 15335 12151 17874 18685 13187 17894 17190 14943 14642 15307 12400 10629 12093 13775 17214 11949 12838 19314 17917 16078 12523 17873 13038 12387 18453 10257 12639 18672 15564 12565 10667 10341 15511 17170 16033 11080 18846 14371 10982 19145 15941 11958 10156 16017 19751 11502 13625 18460 11450 10690 11133 12981 11597 11579 13502 13864 17007 12439 14877 13690 14627 11490 15438 17246 17843 12511 18365 16994 13362 16938 19722 14239 11061 18121 10131 14979 15673 19682 15806 13289 16613 15445 11570 11411 10601 17547 11904 16906 11573 19158 999999 999999 999999 999999 999999 999999 999999 999999 999999 999999 999999 999999 999999 999999 999999 999999 999999 999999 999999 999999 999999 999999 999999 999999 999999 999999 999999 999999 999999 999999 999999 999999 999999 999999 999999 999999 999999 999999 999999 999999 999999 999999 999999 999999 999999 999999 999999 999999 999999 999999 999999 999999 999999 999999 999999 999999 0 999999 999999 999999 999999 999999 999999 999999 999999 999999 999999 999999 999999 999999 999999 999999 999999 999999 999999 999999 999999 999999 999999 999999 999999 999999 999999 999999 999999 999999 999999 999999 999999 999999 999999 999999 999999 999999 999999 999999 999999 999999 999999 999999 999999 999999 999999 999999 999999 999999 999999 999999 999999 999999 999999 999999 999999 999999 999999 999999 999999 999999 999999 999999 999999 999999 999999 999999 999999 999999 999999 999999 999999 999999 999999 999999 999999 999999 999999 999999 999999 999999 999999 999999 999999 999999 999999 999999 999999 999999 999999 999999 999999 999999 999999 999999 999999 999999 999999 999999 999999 999999 999999 999999 999999 999999 999999 999999 999999 999999 999999 999999 999999 999999 999999 999999 999999 999999 999999 999999 999999 999999 999999 999999 8390
999999 14420 15310 11353 16040 12442 17687 19629 18929 15493 13574 13035 15718 16382 17526 19490 19747 11586 16949 18907 19671 18331 11731 11605 17625 11265 12216 14204 14644 10633 18530 11569 15048 16620 18571 17954 17953 18108 16228 10027 12225 14408 17776 10794 12310 13365 12777 15314 14021 19277 14144 19616 10540 17168 10487 17732 13280 18801 17424 15364 19127 19612 15185 17091 13143 15175 13370 13694 11174 12775 16264 12493 12487 17997 17144 14866 12806 18396 18913 10603 11103 12320 16182 12015 16554 12036 11868 17407 17166 16954 12876 11458 10507 12326 10670 10231 13487 15737 17568 11823 16337 15263 19414 18082 17997 10244 12401 17871 10864 10102 13895 11946 16608 12641 17012 14176 12504 18861 13459 15201 15646 13163 17444 19687 17974 14019 15366 18023 17411 11514 17508 19204 19681 19899 12154 12100 18219 10701 12984 19938 10134 14882 15690 15940 15757 19686 17037 18898 11443 12085 18637 13131 13093 17420 14186 19159 16013 18265 17174 16327 13770 19905 11514 12601 17933 10400 18502 11715 16694 12486 17178 18937 10134 16683 17438 17697 12900 19028 10855 13909 12580 999999 999999 999999 999999 999999 999999 999999 999999 999999 999999 999999 999999 999999 999999 999999 999999 999999 999999 999999 999999 999999 999999 999999 999999 999999 999999 999999 999999 999999 999999 999999 999999 999999 999999 999999 999999 999999 999999 999999 999999 999999 999999 999999 999999 999999 999999 999999 999999 999999 999999 999999 999999 999999 999999 999999 999999 999999 0 999999 999999 999999 999999 999999 999999 999999 999999 999999 999999 999999 999999 999999 999999 999999 999999 999999 999999 999999 999999 999999 999999 999999 999999 999999 999999 999999 999999 999999 999999 999999 999999 999999 999999 999999 999999 999999 999999 999999 999999 999999 999999 999999 999999 999999 999999 999999 999999 999999 999999 999999 999999 999999 999999 999999 999999 999999 999999 999999 999999 999999 999999 999999 999999 999999 999999 999999 999999 999999 999999 999999 999999 999999 999999 999999 999999 999999 999999 999999 999999 999999 999999 999999 999999 999999 999999 999999 999999 999999 999999 999999 999999 999999 999999 999999 999999 999999 999999 999999 999999 999999 999999 999999 999999 999999 999999 999999 999999 999999 999999 999999 999999 999999 999999 999999 999999 999999 999999 999999 999999 999999 999999 14363
999999 11513 10671 11004 10664 11729 10590 14086 17277 15781 14875 12857 17142 19020 12509 11294 16356 19866 18992 15875 18527 12884 11892 16587 15346 11372 16302 13274 13066 11862 11941 15399 14489 18192 18085 17972 11964 12515 19971 13487 13171 19444 14031 15796 18144 17107 17273 18830 13438 12465 17448 12746 10990 19406 13433 17438 15151 11160 12360 17655 19166 12731 16491 19863 15806 19879 15699 10216 15466 14685 12034 19510 17192 18683 11757 18394 16520 10939 19631 13813 19374 18824 11187 18386 15845 17879 16802 11958 14174 19449 13072 10868 19952 15372 18995 13140 14576 16204 18593 15890 11033 12957 18202 11124 17691 12361 18192 11710 14610 10301 13040 13522 13059 14105 18293 11025 14788 19284 10193 14215 13513 18203 17299 11276 18004 16495 10203 16471 10945 18015 10480 15525 17824 14165 11258 10009 17292 19612 11205 16378 17038 14887 12091 15901 11861 13013 11631 13932 11290 14004 13826 15589 18390 19415 14799 19052 11520 19036 17984 18060 16567 16615 17874 16565 12244 17405 18412 17631 15625 11889 13399 12164 10053 15408 18875 11524 18104 19739 10230 14047 10341 999999 999999 999999 999999 999999 999999 999999 999999 999999 999999 999999 999999 999999 999999 999999 999999 999999 999999 999999 999999 999999 999999 999999 999999 999999 999999 999999 999999 999999 999999 999999 999999 999999 999999 999999 999999 999999 999999 999999 999999 999999 999999 999999 999999 999999 999999 999999 999999 999999 999999 999999 999999 999999 999999 999999 999999 999999 999999 0 999999 999999 999999 999999 999999 999999 999999 999999 999999 999999 999999 999999 999999 999999 999999 999999 999999 999999 999999 999999 999999 999999 999999 999999 999999 999999 999999 999999 999999 999999 999999 999999 999999 999999 999999 999999 999999 999999 999999 999999 999999 999999 999999 999999 999999 999999 999999 999999 999999 999999 999999 999999 999999 999999 999999 999999 999999 999999 999999 999999 999999 999999 999999 999999 999999 999999 999999 999999 999999 999999 999999 999999 999999 999999 999999 999999 999999 999999 999999 999999 999999 999999 999999 999999 999999 999999 999999 999999 999999 999999 999999 999999 999999 999999 999999 999999 999999 999999 999999 999999 999999 999999 999999 999999 999999 999999 999999 999999 999999 999999 999999 999999 999999 999999 999999 999999 999999 999999 999999 999999 999999 6314
999999 14544 11837 16464 13615 15747 15786 14774 13607 16080 16111 14121 10202 14668 12421 13808 14509 16940 18467 17472 16473 17389 12479 17257 15117 17202 11494 18395 18163 15236 10712 13266 15512 12089 15777 11655 16721 18224 13050 14776 17193 10210 12871 12982 12318 13656 18575 18215 17377 12186 13448 12690 17053 18320 14880 12997 13818 15515 15719 18383 18812 11407 13287 12271 15861 12264 12168 17535 18219 19864 19834 17566 17616 18679 16332 11309 14215 19139 15318 10628 12773 17476 15962 13165 18095 10914 18161 10342 18019 14464 16824 16788 18631 11735 18797 15780 14290 14155 12492 14387 11696 11957 14858 14896 13053 10782 10582 14634 19145 13009 11849 18598 17758 14241 18456 11305 10956 11559 12276 12573 12197 19731 10361 18356 19719 11822 12204 11285 14862 16715 10014 10998 14528 12938 19537 18811 16313 18724 17853 11938 17502 14280 11935 10679 13991 17059 10163 12774 19896 14485 16927 11123 14424 18290 16510 19717 11069 18066 14093 19548 17540 15049 16462 11860 13361 13725 17702 18006 18742 15161 19642 14939 18838 13369 11385 12419 15956 14576 18816 19687 18486 999999 999999 999999 999999 999999 999999 999999 999999 999999 999999 999999 999999 999999 999999 999999 999999 999999 999999 999999 999999 999999 999999 999999 999999 999999 999999 999999 999999 999999 999999 999999 999999 999999 999999 999999 999999 999999 999999 999999 999999 999999 999999 999999 999999 999999 999999 999999 999999 999999 999999 999999 999999 999999 999999 999999 999999 999999 999999 999999 0 999999 999999 999999 999999 999999 999999 999999 999999 999999 999999 999999 999999 999999 999999 999999 999999 999999 999999 999999 999999 999999 999999 999999 999999 999999 999999 999999 999999 999999 999999 999999 999999 999999 999999 999999 999999 999999 999999 999999 999999 999999 999999 999999 999999 999999 999999 999999 999999 999999 999999 999999 999999 999999 999999 999999 999999 999999 999999 999999 999999 999999 999999 999999 999999 999999 999999 999999 999999 999999 999999 999999 999999 999999 999999 999999 999999 999999 999999 999999 999999 999999 999999 999999 999999 999999 999999 999999 999999 999999 999999 999999 999999 999999 999999 999999 999999 999999 999999 999999 999999 999999 999999 999999 999999 999999 999999 999999 999999 999999 999999 999999 999999 999999 999999 999999 999999 999999 999999 999999 999999 14693
999999 14544 10907 17273 11082 16422 13508 12563 14524 10361 11252 13057 13668 10627 14999 10068 10012 14838 16658 19446 15161 12581 13561 19133 16950 12904 16505 13693 16915 16262 13986 19134 16328 12534 16830 18568 13378 10469 15307 10268 19461 17575 19784 13965 15147 14661 16773 12661 11218 18855 11429 11323 17834 12787 14077 12759 16953 18600 15833 13016 11217 18109 10038 17619 19470 17191 19793 11002 19294 19395 11603 13300 18476 11642 14169 10348 19549 11752 16756 16351 14874 10239 15337 17871 12727 11370 10857 16345 18395 11780 11215 18013 17251 17579 13021 16873 15731 16730 11319 12833 12227 10807 10497 10257 10422 10399 12428 12877 19253 17775 16952 18268 12619 16789 16210 15772 11268 16508 10727 10338 14410 10631 16187 11730 14534 19163 11123 14288 12714 15942 17436 17399 19301 19550 17428 10569 13253 10164 14301 16379 17892 12057 16734 19088 16681 12011 13460 11314 15464 11488 11348 18457 11361 10411 11933 13329 17416 18730 12536 18247 11785 10248 15204 19757 13600 13834 17515 15084 14045 10894 11694 18765 17690 13728 11517 19204 12293 17181 12123 15666 15871 999999 999999 999999 999999 999999 999999 999999 999999 999999 999999 999999 999999 999999 999999 999999 999999 999999 999999 999999 999999 999999 999999 999999 999999 999999 999999 999999 999999 999999 999999 999999 999999 999999 999999 999999 999999 999999 999999 999999 999999 999999 999999 999999 999999 999999 999999 999999 999999 999999 999999 999999 999999 999999 999999 999999 999999 999999 999999 999999 999999 0 999999 999999 999999 999999 999999 999999 999999 999999 999999 999999 999999 999999 999999 999999 999999 999999 999999 999999 999999 999999 999999 999999 999999 999999 999999 999999 999999 999999 999999 999999 999999 999999 999999 999999 999999 999999 999999 999999 999999 999999 999999 999999 999999 999999 999999 999999 999999 999999 999999 999999 999999 999999 999999 999999 999999 999999 999999 999999 999999 999999 999999 999999 999999 999999 999999 999999 999999 999999 999999 999999 999999 999999 999999 999999 999999 999999 999999 999999 999999 999999 999999 999999 999999 999999 999999 999999 999999 999999 999999 999999 999999 999999 999999 999999 999999 999999 999999 999999 999999 999999 999999 999999 999999 999999 999999 999999 999999 999999 999999 999999 999999 999999 999999 999999 999999 999999 999999 999999 999999 9360
999999 17174 12774 13891 17960 17150 12358 10041 12421 15986 10234 14583 10868 16122 19250 19185 18007 14007 18612 10833 10419 13808 14045 10838 14791 19839 12685 18207 11743 16462 11551 10099 10880 11303 16435 13087 11206 19481 18938 19332 19589 13724 13881 16510 12626 17020 13199 19382 10404 14679 16785 14003 10515 15037 15258 15828 16729 15984 11230 17691 16658 15153 13812 13718 16994 13431 11049 11721 16675 15936 11479 13217 13137 17449 17494 12476 19174 15871 11012 11690 18727 14671 18426 16480 15600 13396 17721 10478 16184 14315 17836 18314 18839 10324 17081 15751 16772 17838 14234 15255 10938 12878 17488 12634 11054 19799 19927 10108 15192 14924 10225 14598 14977 13260 19794 19255 17778 14918 15934 12281 14121 12513 13626 16441 13390 13509 10128 15795 19740 16166 13398 17877 19955 18945 12584 11108 14460 13251 17371 19032 19567 13155 19079 17933 11161 13875 16267 16798 14009 19646 19190 18195 11914 17732 13770 14072 13132 13946 13105 12423 11028 11127 17488 13082 14558 19906 19550 10235 13544 13241 14897 13339 13515 11871 12283 17598 18387 15748 14820 17826 16465 999999 999999 999999 999999 999999 999999 999999 999999 999999 999999 999999 999999 999999 999999 999999 999999 999999 999999 999999 999999 999999 999999 999999 999999 999999 999999 999999 999999 999999 999999 999999 999999 999999 999999 999999 999999 999999 999999 999999 999999 999999 999999 999999 999999 999999 999999 999999 999999 999999 999999 999999 999999 999999 999999 999999 999999 999999 999999 999999 999999 999999 0 999999 999999 999999 999999 999999 999999 999999 999999 999999 999999 999999 999999 999999 999999 999999 999999 999999 999999 999999 999999 999999 999999 999999 999999 999999 999999 999999 999999 999999 999999 999999 999999 999999 999999 999999 999999 999999 999999 999999 999999 999999 999999 999999 999999 999999 999999 999999 999999 999999 999999 999999 999999 999999 999999 999999 999999 999999 999999 999999 999999 999999 999999 999999 999999 999999 999999 999999 999999 999999 999999 999999 999999 999999 999999 999999 999999 999999 999999 999999 999999 999999 999999 999999 999999 999999 999999 999999 999999 999999 999999 999999 999999 999999 999999 999999 999999 999999 999999 999999 999999 999999 999999 999999 999999 999999 999999 999999 999999 999999 999999 999999 999999 999999 999999 999999 999999 999999 999999 12368
999999 14381 15180 18142 17787 11223 19748 16781 10817 12748 16342 10755 15439 14574 19570 15397 19069 17503 12887 12166 11469 17596 18485 17307 12878 13493 17578 11112 14649 14702 17490 16109 16631 16801 19489 18978 14501 19574 17911 11057 14048 10406 19379 12088 11907 17707 15707 10737 10017 19205 13088 16837 17511 19033 17159 12584 18814 15146 16394 12623 11699 17702 12901 16733 12955 15685 16889 18176 14400 15500 18867 18309 11431 10537 13743 13817 15701 18273 11326 15008 10958 10111 13739 12846 19494 14882 17821 14116 10750 12113 15818 15371 11795 15157 16154 17415 19446 17254 11555 15259 12338 10702 10849 13578 17611 11375 11491 13240 18115 15219 11302 18554 11323 12359 16723 13952 11545 18566 10898 16291 14296 16401 14435 14748 17631 17008 11467 18560 17677 19269 19923 16250 15486 11561 11365 19181 13666 12797 13307 19995 12801 19636 12603 10483 13533 12190 18523 19650 11330 19927 14061 17137 12715 10756 10105 12764 19636 14933 17897 18574 17383 16976 12791 12733 14446 16857 14012 16014 12247 17755 10534 15917 11393 13741 11733 11624 13901 16143 14684 11005 13214 999999 999999 999999 999999 999999 999999 999999 999999 999999 999999 999999 999999 999999 999999 999999 999999 999999 999999 999999 999999 999999 999999 999999 999999 999999 999999 999999 999999 999999 999999 999999 999999 999999 999999 999999 999999 999999 999999 999999 999999 999999 999999 999999 999999 999999 999999 999999 999999 999999 999999 999999 999999 999999 999999 999999 999999 999999 999999 999999 999999 999999 999999 0 999999 999999 999999 999999 999999 999999 999999 999999 999999 999999 999999 999999 999999 999999 999999 999999 999999 999999 999999 999999 999999 999999 999999 999999 999999 999999 999999 999999 999999 999999 999999 999999 999999 999999 999999 999999 999999 999999 999999 999999 999999 999999 999999 999999 999999 999999 999999 999999 999999 999999 999999 999999 999999 999999 999999 999999 999999 999999 999999 999999 999999 999999 999999 999999 999999 999999 999999 999999 999999 999999 999999 999999 999999 999999 999999 999999 999999 999999 999999 999999 999999 999999 999999 999999 999999 999999 999999 999999 999999 999999 999999 999999 999999 999999 999999 999999 999999 999999 999999 999999 999999 999999 999999 999999 999999 999999 999999 999999 999999 999999 999999 999999 999999 999999 999999 999999 999999 13486
999999 14910 11882 19464 13845 10371 10104 12786 16871 12482 12440 13247 13445 12210 14344 14022 11280 18233 18321 14429 15175 19840 13864 14861 14164 11215 10374 16046 11977 18944 19187 18383 11883 14307 17007 13860 16409 19634 15704 19452 17952 18192 14889 16213 19850 11860 12517 16251 12156 15816 19933 14597 10443 19751 14997 18875 17721 15065 13666 17662 17925 17034 17013 16394 18611 14295 17920 13914 17822 17488 12826 11000 10943 10079 13567 13784 12434 10283 12953 12034 15947 19655 13718 19866 17563 11073 12411 17852 19633 14995 19792 19184 11881 13263 10754 17688 11802 12079 19381 18402 10303 16299 15421 11207 10900 16693 15154 17204 11953 18558 19843 10364 19461 13451 11005 19594 11694 19151 14894 10421 11841 12877 19129 18285 13740 15245 14559 19947 15260 13634 17458 17317 16207 13566 10692 11886 10170 12908 18277 18439 14086 18996 16638 15681 15727 11308 14739 19567 16491 11835 11448 12848 12846 12388 12612 13606 16365 16626 19388 14842 18023 17246 19262 19453 10457 14784 18909 11008 11311 11499 18846 19326 11909 11144 19933 19743 13294 17288 14152 18005 19805 999999 999999 999999 999999 999999 999999 999999 999999 999999 999999 999999 999999 999999 999999 999999 999999 999999 999999 999999 999999 999999 999999 999999 999999 999999 999999 999999 999999 999999 999999 999999 999999 999999 999999 999999 999999 999999 999999 999999 999999 999999 999999 999999 999999 999999 999999 999999 999999 999999 999999 999999 999999 999999 999999 999999 999999 999999 999999 999999 999999 999999 999999 999999 0 999999 999999 999999 999999 999999 999999 999999 999999 999999 999999 999999 999999 999999 999999 999999 999999 999999 999999 999999 999999 999999 999999 999999 999999 999999 999999 999999 999999 999999 999999 999999 999999 999999 999999 999999 999999 999999 999999 999999 999999 999999 999999 999999 999999 999999 999999 999999 999999 999999 999999 999999 999999 999999 999999 999999 999999 999999 999999 999999 999999 999999 999999 999999 999999 999999 999999 999999 999999 999999 999999 999999 999999 999999 999999 999999 999999 999999 999999 999999 999999 999999 999999 999999 999999 999999 999999 999999 999999 999999 999999 999999 999999 999999 999999 999999 999999 999999 999999 999999 999999 999999 999999 999999 999999 999999 999999 999999 999999 999999 999999 999999 999999 999999 999999 999999 999999 7279
999999 10708 19164 11227 19608 16953 15878 17565 14870 18657 16080 12206 13111 16639 13538 19614 12069 12235 19435 11355 13418 12301 10486 11823 14017 19918 15318 17162 10321 11398 15900 17677 14767 13317 13291 14550 15774 19656 10207 12604 16601 18710 10972 19262 14679 13416 12913 16982 19049 12577 15372 12088 10276 19520 13123 10483 13874 17972 19036 19516 17586 14361 17718 11390 10420 18462 19581 15526 13679 18383 10477 18852 15596 13787 17298 14245 16265 11897 17828 11408 14464 15869 18641 17699 15443 13096 16800 13944 17668 16820 11146 13517 19601 16664 13410 19123 12470 16829 19978 10344 19140 15477 10435 16756 15370 13759 10377 15787 15640 16473 13188 14869 19136 11794 13416 18335 15711 18729 13169 15224 19006 15042 16421 12228 12750 19508 18016 16541 11690 17602 15883 10977 14215 17543 16892 15096 19325 19433 13583 19468 19974 11710 16392 15126 16756 16289 19456 13667 19286 19361 13719 10662 12470 13156 18457 16583 14112 11564 14379 11917 13742 10056 10734 13388 18825 19750 18974 18910 14281 17821 16025 11611 13692 10666 17197 12176 11035 17798 15886 19170 11327 999999 999999 999999 999999 999999 999999 999999 999999 999999 999999 999999 999999 999999 999999 999999 999999 999999 999999 999999 999999 999999 999999 999999 999999 999999 999999 999999 999999 999999 999999 999999 999999 999999 999999 999999 999999 999999 999999 999999 999999 999999 999999 999999 999999 999999 999999 999999 999999 999999 999999 999999 999999 999999 999999 999999 999999 999999 999999 999999 999999 999999 999999 999999 999999 0 999999 999999 999999 999999 999999 999999 999999 999999 999999 999999 999999 999999 999999 999999 999999 999999 999999 999999 999999 999999 999999 999999 999999 999999 999999 999999 999999 999999 999999 999999 999999 999999 999999 999999 999999 999999 999999 999999 999999 999999 999999 999999 999999 999999 999999 999999 999999 999999 999999 999999 999999 999999 999999 999999 999999 999999 999999 999999 999999 999999 999999 999999 999999 999999 999999 999999 999999 999999 999999 999999 999999 999999 999999 999999 999999 999999 999999 999999 999999 999999 999999 999999 999999 999999 999999 999999 999999 999999 999999 999999 999999 999999 999999 999999 999999 999999 999999 999999 999999 999999 999999 999999 999999 999999 999999 999999 999999 999999 999999 999999 999999 999999 999999 999999 999999 14582
999999 10045 16931 19225 18320 10634 15106 10976 10599 10197 19800 16522 11025 10040 16437 15290 19166 14018 15495 16152 19636 10703 14650 13699 12835 14318 15498 10784 19066 11044 19199 10775 15305 19548 12702 16456 14244 16267 10423 17250 18678 12311 19471 11563 13467 12518 11737 14364 19856 11689 11825 15484 16738 17428 12978 11037 16341 18688 13935 17683 16629 19650 17012 17491 14068 15429 18771 16060 19196 14471 10983 18697 19843 11317 14990 13093 17748 17351 13243 18140 17679 18196 13365 15394 11816 10031 13209 15563 14880 10672 18929 12038 13709 13218 13567 15023 18438 16748 13947 18451 19663 13311 12566 19675 18461 17209 14941 11722 15264 17118 16569 18702 10302 16844 10338 12789 10964 13602 18839 11490 15341 18418 12118 17113 15751 17807 13731 16461 16316 15161 17036 10271 11416 11332 13861 14142 16183 13869 15918 15820 10808 18235 10269 12724 16642 18208 11456 16172 12578 19050 15010 17717 19789 10220 12777 10255 16045 15442 15737 18774 17060 11649 15893 16321 14625 14129 10902 16189 12866 14755 14476 17525 10258 11782 19908 10380 12532 15102 14669 10104 11391 999999 999999 999999 999999 999999 999999 999999 999999 999999 999999 999999 999999 999999 999999 999999 999999 999999 999999 999999 999999 999999 999999 999999 999999 999999 999999 999999 999999 999999 999999 999999 999999 999999 999999 999999 999999 999999 999999 999999 999999 999999 999999 999999 999999 999999 999999 999999 999999 999999 999999 999999 999999 999999 999999 999999 999999 999999 999999 999999 999999 999999 999999 999999 999999 999999 0 999999 999999 999999 999999 999999 999999 999999 999999 999999 999999 999999 999999 999999 999999 999999 999999 999999 999999 999999 999999 999999 999999 999999 999999 999999 999999 999999 999999 999999 999999 999999 999999 999999 999999 999999 999999 999999 999999 999999 999999 999999 999999 999999 999999 999999 999999 999999 999999 999999 999999 999999 999999 999999 999999 999999 999999 999999 999999 999999 999999 999999 999999 999999 999999 999999 999999 999999 999999 999999 999999 999999 999999 999999 999999 999999 999999 999999 999999 999999 999999 999999 999999 999999 999999 999999 999999 999999 999999 999999 999999 999999 999999 999999 999999 999999 999999 999999 999999 999999 999999 999999 999999 999999 999999 999999 999999 999999 999999 999999 999999 999999 999999 999999 999999 14705
999999 19579 12362 18363 19757 12664 18999 12221 17397 10168 14975 10448 18416 12637 16910 15573 12299 11741 19167 11222 14626 14174 16186 18970 11614 10417 14534 12111 11498 12760 19536 15106 12476 16653 10082 12144 15765 19857 12694 16080 10019 18276 15899 14194 18784 17219 14252 14677 17116 19177 10176 12704 19081 11847 18618 15647 13068 13821 16242 15994 11943 16593 19690 11350 13848 12351 16495 17197 18140 14286 11739 15089 16189 18241 17877 19212 16946 15837 11210 13720 19914 13521 13492 19838 15994 11357 16243 19630 11030 17105 10220 15709 19875 16910 10546 10778 17357 12354 18286 15462 17976 13510 13003 16635 17669 15523 11934 15175 15487 18194 12668 11214 10454 15566 15636 11847 17836 16352 12230 11692 18466 18312 11086 11551 10502 11642 15954 14351 16355 18394 10660 11881 15805 14700 19590 14360 18681 13786 18453 12882 13961 12846 19929 18172 11460 11691 12071 16283 11962 12363 18982 15969 13641 13850 12838 15040 15469 17179 12575 16002 16115 17170 13848 13828 11752 19768 16370 13538 13735 11490 17363 16987 13659 11984 14275 17375 11079 18330 16824 11730 17291 999999 999999 999999 999999 999999 999999 999999 999999 999999 999999 999999 999999 999999 999999 999999 999999 999999 999999 999999 999999 999999 999999 999999 999999 999999 999999 999999 999999 999999 999999 999999 999999 999999 999999 999999 999999 999999 999999 999999 999999 999999 999999 999999 999999 999999 999999 999999 999999 999999 999999 999999 999999 999999 999999 999999 999999 999999 999999 999999 999999 999999 999999 999999 999999 999999 999999 0 999999 999999 999999 999999 999999 999999 999999 999999 999999 999999 999999 999999 999999 999999 999999 999999 999999 999999 999999 999999 999999 999999 999999 999999 999999 999999 999999 999999 999999 999999 999999 999999 999999 999999 999999 999999 999999 999999 999999 999999 999999 999999 999999 999999 999999 999999 999999 999999 999999 999999 999999 999999 999999 999999 999999 999999 999999 999999 999999 999999 999999 999999 999999 999999 999999 999999 999999 999999 999999 999999 999999 999999 999999 999999 999999 999999 999999 999999 999999 999999 999999 999999 999999 999999 999999 999999 999999 999999 999999 999999 999999 999999 999999 999999 999999 999999 999999 999999 999999 999999 999999 999999 999999 999999 999999 999999 999999 999999 999999 999999 999999 999999 999999 8903
999999 14565 17273 12875 19837 19224 16954 10316 17724 11507 13571 11024 15994 16434 19154 14889 10994 13928 13469 13534 15666 15878 11022 12261 19064 13608 17282 17485 10588 17421 15047 10731 11517 11565 10020 10213 15456 15194 14500 12906 13525 10454 14982 16962 14737 14625 17390 10659 11999 11204 15622 16226 11700 17306 12360 19740 10519 19436 11169 12860 17656 15338 14705 14785 12073 12959 16296 13143 18779 12932 11205 12425 13685 10838 16545 11186 12593 16133 12571 16660 18183 18066 19360 11414 19899 15767 19400 18400 13005 19236 15129 15747 13688 17625 17940 13413 16009 12095 13034 11935 13319 10428 14416 17616 17642 10966 12475 17229 11259 14159 10643 18282 16274 12999 10727 11082 17084 15149 19833 10455 16151 18159 13641 14811 13113 14750 18089 12201 18332 14144 11986 14640 17590 17641 17266 15382 16394 10905 19711 14895 12132 14450 13529 16832 11738 13906 17165 15218 14256 12852 12228 15849 18400 14336 10155 11589 14410 16225 19646 12966 13119 10969 11237 10299 16070 14890 10509 16916 13084 15182 17193 15427 13033 11572 10103 15875 12217 16513 11970 17695 11028 999999 999999 999999 999999 999999 999999 999999 999999 999999 999999 999999 999999 999999 999999 999999 999999 999999 999999 999999 999999 999999 999999 999999 999999 999999 999999 999999 999999 999999 999999 999999 999999 999999 999999 999999 999999 999999 999999 999999 999999 999999 999999 999999 999999 999999 999999 999999 999999 999999 999999 999999 999999 999999 999999 999999 999999 999999 999999 999999 999999 999999 999999 999999 999999 999999 999999 999999 0 999999 999999 999999 999999 999999 999999 999999 999999 999999 999999 999999 999999 999999 999999 999999 999999 999999 999999 999999 999999 999999 999999 999999 999999 999999 999999 999999 999999 999999 999999 999999 999999 999999 999999 999999 999999 999999 999999 999999 999999 999999 999999 999999 999999 999999 999999 999999 999999 999999 999999 999999 999999 999999 999999 999999 999999 999999 999999 999999 999999 999999 999999 999999 999999 999999 999999 999999 999999 999999 999999 999999 999999 999999 999999 999999 999999 999999 999999 999999 999999 999999 999999 999999 999999 999999 999999 999999 999999 999999 999999 999999 999999 999999 999999 999999 999999 999999 999999 999999 999999 999999 999999 999999 999999 999999 999999 999999 999999 999999 999999 999999 999999 13208
999999 15274 17769 16202 19112 19018 12956 11269 15703 19203 20000 19851 12548 13208 18240 11163 10039 12908 16697 19806 19983 15939 14889 17297 13102 11837 13310 11645 13538 17013 19370 13068 14615 11393 10658 15144 12850 16018 16906 12694 13558 14266 19642 15516 13437 13870 11040 10547 10001 11140 11073 16899 17892 19913 16242 14490 18007 17721 13084 15904 19415 15545 18487 17093 17190 15062 13148 19556 12381 14088 14829 17255 19658 14286 17818 19402 16561 12151 11631 18207 15792 17648 15949 19104 13264 15147 10552 11211 11742 10652 11123 13039 10819 15921 19276 16740 12663 15214 18642 17961 11545 12387 12912 18412 18271 16512 12468 15784 10831 14524 17509 15318 11435 12267 19381 18489 16148 16394 10083 17636 13455 19489 16982 11198 16583 17905 15868 12077 18171 19411 15565 19160 16324 11894 11815 11715 18689 16219 14583 11730 16984 16656 16469 17339 12408 11414 19134 16315 10229 18379 16742 14504 13792 11894 19412 12210 11972 14809 15872 15165 10699 14895 10570 17654 18416 11804 17850 12250 11906 13418 13924 13619 13232 17152 15795 14458 12172 19737 15549 17248 15896 999999 999999 999999 999999 999999 999999 999999 999999 999999 999999 999999 999999 999999 999999 999999 999999 999999 999999 999999 999999 999999 999999 999999 999999 999999 999999 999999 999999 999999 999999 999999 999999 999999 999999 999999 999999 999999 999999 999999 999999 999999 999999 999999 999999 999999 999999 999999 999999 999999 999999 999999 999999 999999 999999 999999 999999 999999 999999 999999 999999 999999 999999 999999 999999 999999 999999 999999 999999 0 999999 999999 999999 999999 999999 999999 999999 999999 999999 999999 999999 999999 999999 999999 999999 999999 999999 999999 999999 999999 999999 999999 999999 999999 999999 999999 999999 999999 999999 999999 999999 999999 999999 999999 999999 999999 999999 999999 999999 999999 999999 999999 999999 999999 999999 999999 999999 999999 999999 999999 999999 999999 999999 999999 999999 999999 999999 999999 999999 999999 999999 999999 999999 999999 999999 999999 999999 999999 999999 999999 999999 999999 999999 999999 999999 999999 999999 999999 999999 999999 999999 999999 999999 999999 999999 999999 999999 999999 999999 999999 999999 999999 999999 999999 999999 999999 999999 999999 999999 999999 999999 999999 999999 999999 999999 999999 999999 999999 999999 999999 999999 14444
999999 10138 15547 18050 16998 14355 17366 19520 10682 13516 15289 18746 14311 13356 15419 20000 19399 17759 11796 14643 12518 19603 13023 10459 11239 17728 19576 17797 11692 12499 10693 14208 15470 14300 10198 11059 10961 15088 13219 12007 12465 14384 15807 17926 19683 14856 10457 15092 14597 15919 13670 11297 12254 18274 11911 10292 16873 11766 16811 15912 11735 17771 14681 18395 17650 18837 12064 13130 15464 18989 19436 12070 12854 10383 15404 19702 20000 16360 10354 17317 17483 14528 17732 13693 13688 18259 16685 14845 16404 16076 12797 16908 11149 11475 12976 13569 15899 10347 15852 10506 18194 11879 15650 11727 14124 15057 12502 11887 13247 16065 16292 15829 10676 17594 10258 17011 17953 10418 17797 15606 13850 11936 19449 11107 14862 18815 10485 12641 10999 17941 16478 11150 17954 15727 19861 13505 17926 19770 18169 17212 13506 15880 19945 18460 12276 18396 10861 12846 12250 13078 12334 16881 16276 15661 15209 14432 15851 13244 10837 13650 12416 14118 16727 18963 17442 17780 15364 15736 16171 18356 19794 18982 15369 16441 13347 18740 19705 17655 18219 15335 17464 999999 999999 999999 999999 999999 999999 999999 999999 999999 999999 999999 999999 999999 999999 999999 999999 999999 999999 999999 999999 999999 999999 999999 999999 999999 999999 999999 999999 999999 999999 999999 999999 999999 999999 999999 999999 999999 999999 999999 999999 999999 999999 999999 999999 999999 999999 999999 999999 999999 999999 999999 999999 999999 999999 999999 999999 999999 999999 999999 999999 999999 999999 999999 999999 999999 999999 999999 999999 999999 0 999999 999999 999999 999999 999999 999999 999999 999999 999999 999999 999999 999999 999999 999999 999999 999999 999999 999999 999999 999999 999999 999999 999999 999999 999999 999999 999999 999999 999999 999999 999999 999999 999999 999999 999999 999999 999999 999999 999999 999999 999999 999999 999999 999999 999999 999999 999999 999999 999999 999999 999999 999999 999999 999999 999999 999999 999999 999999 999999 999999 999999 999999 999999 999999 999999 999999 999999 999999 999999 999999 999999 999999 999999 999999 999999 999999 999999 999999 999999 999999 999999 999999 999999 999999 999999 999999 999999 999999 999999 999999 999999 999999 999999 999999 999999 999999 999999 999999 999999 999999 999999 999999 999999 999999 999999 999999 999999 999999 999999 999999 8335
999999 11331 18427 14675 19174 14498 15242 15474 13903 16451 16989 19255 19301 18269 16975 19728 12059 17816 13498 17499 13761 15155 18109 15383 13020 19996 14272 17869 16611 17050 10471 15352 10232 18741 18717 12516 12213 12964 11038 17367 18307 16283 12532 18389 12773 16324 11008 15488 18635 16425 14037 18198 13321 15347 10903 19883 19841 19708 19714 19219 16801 10507 13147 12134 19871 14295 16628 12661 10263 16962 18238 17114 11694 13106 11457 12358 13064 13138 16903 19996 18044 19994 10637 12167 19046 15315 17192 11188 19580 14547 19846 11955 12828 11264 19124 11237 15100 16021 11921 14055 17402 19384 16903 19976 12637 18757 15023 11313 19028 13913 19833 18505 17565 10651 19943 13156 18780 12085 14495 12845 13184 15331 10400 14183 17270 17361 19907 12255 10028 15191 17126 18215 17574 11148 15883 16761 17604 13146 16551 18280 15624 15081 18790 10753 12556 16660 10389 13436 10793 12907 14791 11962 18890 12614 12331 18706 18768 14893 12569 11071 16297 16057 16886 15030 12269 13017 10172 11142 17521 13372 17626 17023 13613 12373 14829 19827 14575 13099 11291 11228 15472 999999 999999 999999 999999 999999 999999 999999 999999 999999 999999 999999 999999 999999 999999 999999 999999 999999 999999 999999 999999 999999 999999 999999 999999 999999 999999 999999 999999 999999 999999 999999 999999 999999 999999 999999 999999 999999 999999 999999 999999 999999 999999 999999 999999 999999 999999 999999 999999 999999 999999 999999 999999 999999 999999 999999 999999 999999 999999 999999 999999 999999 999999 999999 999999 999999 999999 999999 999999 999999 999999 0 999999 999999 999999 999999 999999 999999 999999 999999 999999 999999 999999 999999 999999 999999 999999 999999 999999 999999 999999 999999 999999 999999 999999 999999 999999 999999 999999 999999 999999 999999 999999 999999 999999 999999 999999 999999 999999 999999 999999 999999 999999 999999 999999 999999 999999 999999 999999 999999 999999 999999 999999 999999 999999 999999 999999 999999 999999 999999 999999 999999 999999 999999 999999 999999 999999 999999 999999 999999 999999 999999 999999 999999 999999 999999 999999 999999 999999 999999 999999 999999 999999 999999 999999 999999 999999 999999 999999 999999 999999 999999 999999 999999 999999 999999 999999 999999 999999 999999 999999 999999 999999 999999 999999 999999 999999 999999 999999 999999 999999 10636
999999 10392 18353 12557 19329 15023 15560 14708 12917 13395 10246 13043 12927 11203 10548 19275 10683 13727 16790 18824 13466 18020 10478 17520 15185 10886 10080 18516 15502 10150 19520 14498 17527 11169 13639 17699 16133 17393 13884 17467 18755 14431 12364 11732 13567 14020 14417 13613 13302 19912 12874 13735 16139 10354 10989 13724 17680 15456 13794 10642 12250 19286 15167 12376 12888 18617 15465 12395 12879 13050 16894 11011 11961 19104 11867 11619 11519 14700 13488 14360 11767 18419 11798 19609 11407 11972 16019 14548 13574 19956 12753 10102 11120 17915 10225 11507 11691 12673 18917 15568 14077 18141 13016 19624 19287 10028 10472 12922 12478 19400 16654 18073 18159 11600 19750 14818 17079 17372 18501 18121 12158 14870 13449 12568 16825 18785 11171 19190 11360 14537 10705 15291 19945 18259 14532 11762 19685 15787 19828 14564 16778 11202 14825 10699 15398 10670 17914 11585 11152 10506 12064 13550 13868 13936 14415 16741 17608 13170 13763 16761 17748 18253 12691 11702 12449 10993 13078 10930 11468 17815 12850 12842 19406 12989 10639 11801 10437 17212 16677 18942 16244 999999 999999 999999 999999 999999 999999 999999 999999 999999 999999 999999 999999 999999 999999 999999 999999 999999 999999 999999 999999 999999 999999 999999 999999 999999 999999 999999 999999 999999 999999 999999 999999 999999 999999 999999 999999 999999 999999 999999 999999 999999 999999 999999 999999 999999 999999 999999 999999 999999 999999 999999 999999 999999 999999 999999 999999 999999 999999 999999 999999 999999 999999 999999 999999 999999 999999 999999 999999 999999 999999 999999 0 999999 999999 999999 999999 999999 999999 999999 999999 999999 999999 999999 999999 999999 999999 999999 999999 999999 999999 999999 999999 999999 999999 999999 999999 999999 999999 999999 999999 999999 999999 999999 999999 999999 999999 999999 999999 999999 999999 999999 999999 999999 999999 999999 999999 999999 999999 999999 999999 999999 999999 999999 999999 999999 999999 999999 999999 999999 999999 999999 999999 999999 999999 999999 999999 999999 999999 999999 999999 999999 999999 999999 999999 999999 999999 999999 999999 999999 999999 999999 999999 999999 999999 999999 999999 999999 999999 999999 999999 999999 999999 999999 999999 999999 999999 999999 999999 999999 999999 999999 999999 999999 999999 999999 999999 999999 999999 999999 999999 5481
999999 16502 16687 11197 14740 18828 11326 13637 17547 13140 11990 19346 10365 14365 11971 19867 14231 15759 11404 16871 10213 12156 19088 10891 13061 19329 15339 11635 19209 13748 12240 11392 16605 14988 13171 12587 13845 11143 12181 14194 13811 10334 11366 14405 13504 14673 12956 18052 10719 11749 17391 15186 17084 12979 11836 11567 18668 18959 14508 12452 19541 10016 16001 18637 17732 19672 18338 19495 14521 13387 19011 11652 11267 11711 13567 10592 10959 16751 18400 12144 19328 14162 19564 18219 13409 13118 14741 10672 17995 10534 16009 11157 16143 12917 11162 17699 10390 13521 12167 13310 12039 10403 16517 19326 14970 13071 18882 15130 10528 11447 14707 17781 19666 18093 16976 11084 13185 17455 18838 14385 17151 18436 13458 18867 17768 18742 15767 15785 13912 18501 16188 10483 15747 13451 11081 19417 10550 19585 10632 14047 16218 12700 11250 19552 11264 13434 15108 15996 16350 18268 18489 17460 19110 11843 19046 19607 17256 18193 11193 13283 18768 19263 14403 19813 11814 16571 16758 14109 12222 17396 15714 16716 13611 10951 18000 13991 11060 19207 10762 11338 17523 999999 999999 999999 999999 999999 999999 999999 999999 999999 999999 999999 999999 999999 999999 999999 999999 999999 999999 999999 999999 999999 999999 999999 999999 999999 999999 999999 999999 999999 999999 999999 999999 999999 999999 999999 999999 999999 999999 999999 999999 999999 999999 999999 999999 999999 999999 999999 999999 999999 999999 999999 999999 999999 999999 999999 999999 999999 999999 999999 999999 999999 999999 999999 999999 999999 999999 999999 999999 999999 999999 999999 999999 0 999999 999999 999999 999999 999999 999999 999999 999999 999999 999999 999999 999999 999999 999999 999999 999999 999999 999999 999999 999999 999999 999999 999999 999999 999999 999999 999999 999999 999999 999999 999999 999999 999999 999999 999999 999999 999999 999999 999999 999999 999999 999999 999999 999999 999999 999999 999999 999999 999999 999999 999999 999999 999999 999999 999999 999999 999999 999999 999999 999999 999999 999999 999999 999999 999999 999999 999999 999999 999999 999999 999999 999999 999999 999999 999999 999999 999999 999999 999999 999999 999999 999999 999999 999999 999999 999999 999999 999999 999999 999999 999999 999999 999999 999999 999999 999999 999999 999999 999999 999999 999999 999999 999999 999999 999999 999999 999999 9605
999999 16156 12740 15617 15110 12474 17368 17566 18962 13250 13065 18190 14629 13416 19280 16312 13037 12031 13551 17026 17565 17916 15221 18740 10760 15901 12967 18100 16885 13015 10453 18273 18247 18240 14468 16844 10423 15268 15429 19735 15926 10346 11490 12348 15645 16821 19121 10988 19565 11099 11621 15440 10039 15414 15664 18351 13716 12106 11864 16041 13362 17654 12414 17723 12986 16816 11052 15684 14231 16167 12203 16478 16469 18271 18483 18233 17977 10315 11987 18374 10465 14465 10994 10331 14852 11643 12086 12968 19164 10885 12780 18430 13978 11616 17876 11322 17262 14068 14726 18710 17370 18379 10682 12058 17997 17095 18989 16280 13367 12612 14392 17446 17604 15059 15158 13292 14160 14496 12601 12086 19262 14431 11904 11468 17801 10254 11342 19586 19094 15339 17317 10664 12015 14708 13314 16437 17984 15905 19799 16388 17950 13223 12803 13605 13860 10451 19294 14898 16677 15580 14956 19551 13967 19036 11558 13373 15646 15567 18886 16209 12357 11754 12439 15520 14362 19336 14812 12359 14007 11543 14148 19937 10311 16183 15689 18237 16618 12399 16244 11576 14143 999999 999999 999999 999999 999999 999999 999999 999999 999999 999999 999999 999999 999999 999999 999999 999999 999999 999999 999999 999999 999999 999999 999999 999999 999999 999999 999999 999999 999999 999999 999999 999999 999999 999999 999999 999999 999999 999999 999999 999999 999999 999999 999999 999999 999999 999999 999999 999999 999999 999999 999999 999999 999999 999999 999999 999999 999999 999999 999999 999999 999999 999999 999999 999999 999999 999999 999999 999999 999999 999999 999999 999999 999999 0 999999 999999 999999 999999 999999 999999 999999 999999 999999 999999 999999 999999 999999 999999 999999 999999 999999 999999 999999 999999 999999 999999 999999 999999 999999 999999 999999 999999 999999 999999 999999 999999 999999 999999 999999 999999 999999 999999 999999 999999 999999 999999 999999 999999 999999 999999 999999 999999 999999 999999 999999 999999 999999 999999 999999 999999 999999 999999 999999 999999 999999 999999 999999 999999 999999 999999 999999 999999 999999 999999 999999 999999 999999 999999 999999 999999 999999 999999 999999 999999 999999 999999 999999 999999 999999 999999 999999 999999 999999 999999 999999 999999 999999 999999 999999 999999 999999 999999 999999 999999 999999 999999 999999 999999 999999 999999 10996
999999 14789 10581 19568 14600 10855 17492 17371 19749 19905 19604 18978 11692 10521 15650 10273 16261 16921 15220 19821 13116 18312 16722 12417 10276 16992 18776 16613 13696 18201 17061 16317 10726 19226 10695 14315 10024 15485 11678 16128 15859 17331 18280 11605 15790 13544 11454 15909 13545 13639 11434 17767 16025 15103 12386 18023 15694 16792 16459 14234 12888 17730 15728 19640 18256 10053 18370 10719 13158 18737 10119 14759 18094 14417 13231 13142 15275 13808 13255 18272 14675 10384 11149 13565 15799 13502 13601 12676 12641 13861 10636 18166 16311 16068 14836 17988 10051 16940 19751 10335 14548 17742 18154 15702 16452 15517 13767 14493 13961 14393 15301 15069 12183 16457 11856 16096 18148 16803 17391 12423 11451 10419 15494 19997 11597 10699 15456 12507 14784 19080 10573 16256 19919 11145 10971 12032 13241 18387 15659 14218 19462 17412 13305 10786 17679 17601 13544 11059 18511 14226 11096 16003 10042 10845 16213 16236 13419 16509 14129 13116 10000 18615 14240 12302 16222 16838 15027 16883 14061 11702 14657 17516 11036 16806 10422 14798 12162 15136 18661 13023 12879 999999 999999 999999 999999 999999 999999 999999 999999 999999 999999 999999 999999 999999 999999 999999 999999 999999 999999 999999 999999 999999 999999 999999 999999 999999 999999 999999 999999 999999 999999 999999 999999 999999 999999 999999 999999 999999 999999 999999 999999 999999 999999 999999 999999 999999 999999 999999 999999 999999 999999 999999 999999 999999 999999 999999 999999 999999 999999 999999 999999 999999 999999 999999 999999 999999 999999 999999 999999 999999 999999 999999 999999 999999 999999 0 999999 999999 999999 999999 999999 999999 999999 999999 999999 999999 999999 999999 999999 999999 999999 999999 999999 999999 999999 999999 999999 999999 999999 999999 999999 999999 999999 999999 999999 999999 999999 999999 999999 999999 999999 999999 999999 999999 999999 999999 999999 999999 999999 999999 999999 999999 999999 999999 999999 999999 999999 999999 999999 999999 999999 999999 999999 999999 999999 999999 999999 999999 999999 999999 999999 999999 999999 999999 999999 999999 999999 999999 999999 999999 999999 999999 999999 999999 999999 999999 999999 999999 999999 999999 999999 999999 999999 999999 999999 999999 999999 999999 999999 999999 999999 999999 999999 999999 999999 999999 999999 999999 999999 999999 999999 13947
999999 19073 16698 18928 17501 10511 18063 18576 10079 11588 12334 10739 12290 16710 12196 14822 13043 19161 10851 14886 17437 12919 19210 17603 19317 15591 14961 10865 14511 18203 15666 15427 10400 14495 10934 16217 19326 12183 10391 17317 17419 14112 11679 17125 16598 10331 12072 12932 11528 18877 12395 16192 17937 16579 16813 14989 19381 18758 12123 11778 18787 11948 12656 15875 15285 18540 13200 15703 18370 14947 17390 19224 16877 10099 19737 18799 10759 10015 12592 16567 10184 11658 19347 12389 15188 13754 15998 19395 18882 13972 13250 10342 17820 11820 15450 19859 12428 19454 10542 15480 17589 10206 12135 16187 14849 10180 17148 10902 19153 17608 13807 14513 10045 18606 16617 15865 11331 16763 17268 19068 10074 12650 10818 15904 13240 15380 14116 17870 17671 13283 14399 14126 11536 10538 18001 15748 11699 15723 10456 17227 18961 16775 13493 19156 10123 15023 15016 13731 13171 13342 13342 11061 15985 19151 13640 18940 18435 10768 13913 17543 14496 10707 10365 10598 14732 19200 13519 16732 12591 19550 14721 13747 14643 18341 11054 18554 10967 15170 15478 16328 15510 999999 999999 999999 999999 999999 999999 999999 999999 999999 999999 999999 999999 999999 999999 999999 999999 999999 999999 999999 999999 999999 999999 999999 999999 999999 999999 999999 999999 999999 999999 999999 999999 999999 999999 999999 999999 999999 999999 999999 999999 999999 999999 999999 999999 999999 999999 999999 999999 999999 999999 999999 999999 999999 999999 999999 999999 999999 999999 999999 999999 999999 999999 999999 999999 999999 999999 999999 999999 999999 999999 999999 999999 999999 999999 999999 0 999999 999999 999999 999999 999999 999999 999999 999999 999999 999999 999999 999999 999999 999999 999999 999999 999999 999999 999999 999999 999999 999999 999999 999999 999999 999999 999999 999999 999999 999999 999999 999999 999999 999999 999999 999999 999999 999999 999999 999999 999999 999999 999999 999999 999999 999999 999999 999999 999999 999999 999999 999999 999999 999999 999999 999999 999999 999999 999999 999999 999999 999999 999999 999999 999999 999999 999999 999999 999999 999999 999999 999999 999999 999999 999999 999999 999999 999999 999999 999999 999999 999999 999999 999999 999999 999999 999999 999999 999999 999999 999999 999999 999999 999999 999999 999999 999999 999999 999999 999999 999999 999999 999999 999999 12213
999999 10680 16028 19758 10992 13535 11609 13910 11471 14122 18831 19199 16085 18995 12792 12070 14092 12638 19042 18795 16843 18089 16831 17726 17318 19880 17867 14789 15013 11881 16653 14914 10173 17275 18432 12937 16557 16193 14273 18595 14389 11539 11986 18392 12019 13896 13248 14526 18133 16273 12773 10260 18463 19447 14992 13510 18447 10450 12392 17733 16262 17683 19004 12694 10015 10548 18191 10087 13267 18575 13650 10375 12144 16527 14907 13026 13409 18045 18061 13826 18530 10501 12342 13420 12116 18708 12989 11905 19417 18035 12143 17524 19340 11257 15389 19303 12648 18961 11011 15366 17304 17620 16481 10316 13268 17581 17965 15481 19877 11014 11862 17044 13388 12903 10157 11682 19378 13604 12341 15181 16102 14017 15009 19925 11999 14836 14778 11765 11368 12734 11514 12355 14155 17686 13517 19401 14751 11123 18444 19239 17502 15025 16386 17882 16785 11239 16588 10943 10539 17939 13978 10728 19675 13754 12357 14826 16430 16941 18792 10233 16449 17229 15103 10435 13500 17117 16635 12064 10911 18288 10051 10947 15109 19727 19646 13001 11452 19307 17331 18406 15738 999999 999999 999999 999999 999999 999999 999999 999999 999999 999999 999999 999999 999999 999999 999999 999999 999999 999999 999999 999999 999999 999999 999999 999999 999999 999999 999999 999999 999999 999999 999999 999999 999999 999999 999999 999999 999999 999999 999999 999999 999999 999999 999999 999999 999999 999999 999999 999999 999999 999999 999999 999999 999999 999999 999999 999999 999999 999999 999999 999999 999999 999999 999999 999999 999999 999999 999999 999999 999999 999999 999999 999999 999999 999999 999999 999999 0 999999 999999 999999 999999 999999 999999 999999 999999 999999 999999 999999 999999 999999 999999 999999 999999 999999 999999 999999 999999 999999 999999 999999 999999 999999 999999 999999 999999 999999 999999 999999 999999 999999 999999 999999 999999 999999 999999 999999 999999 999999 999999 999999 999999 999999 999999 999999 999999 999999 999999 999999 999999 999999 999999 999999 999999 999999 999999 999999 999999 999999 999999 999999 999999 999999 999999 999999 999999 999999 999999 999999 999999 999999 999999 999999 999999 999999 999999 999999 999999 999999 999999 999999 999999 999999 999999 999999 999999 999999 999999 999999 999999 999999 999999 999999 999999 999999 999999 999999 999999 999999 999999 999999 14114
999999 17636 19225 13125 18619 14060 17130 11995 15420 17972 17696 19156 17117 17897 15402 15995 12906 10475 12683 18296 10722 18405 16951 14178 12532 17944 11615 15143 18096 15208 12536 17853 15417 12828 12498 17476 12192 16834 14436 19642 16800 19098 15348 16886 17663 10517 19829 13906 12378 12434 13045 18986 16408 13008 17755 13384 11677 17294 14808 10739 11524 13806 18699 17598 15919 11250 11800 14583 16826 10625 18294 15108 12859 10090 19416 15473 14808 10766 16913 12793 18770 16950 12223 19770 11717 16014 18042 12232 17950 11867 11131 15526 15949 11997 12876 19051 19898 15215 12308 14751 10338 19605 18983 14752 12545 15787 17189 15546 13228 17639 13213 11795 11199 18433 15910 11536 11295 18894 13334 14670 15826 10912 14325 13726 16035 12823 10567 19678 18026 16088 12540 13203 17352 11524 17832 16374 18436 19035 12475 11370 14584 14163 15665 17506 11141 18308 15654 15598 11794 15924 13336 12867 10086 14239 14607 17735 14244 19961 17584 10841 19342 11981 11888 18992 19242 17430 17259 15938 19575 13361 13576 19993 18519 15698 10668 10883 11887 10414 15016 12931 10496 999999 999999 999999 999999 999999 999999 999999 999999 999999 999999 999999 999999 999999 999999 999999 999999 999999 999999 999999 999999 999999 999999 999999 999999 999999 999999 999999 999999 999999 999999 999999 999999 999999 999999 999999 999999 999999 999999 999999 999999 999999 999999 999999 999999 999999 999999 999999 999999 999999 999999 999999 999999 999999 999999 999999 999999 999999 999999 999999 999999 999999 999999 999999 999999 999999 999999 999999 999999 999999 999999 999999 999999 999999 999999 999999 999999 999999 0 999999 999999 999999 999999 999999 999999 999999 999999 999999 999999 999999 999999 999999 999999 999999 999999 999999 999999 999999 999999 999999 999999 999999 999999 999999 999999 999999 999999 999999 999999 999999 999999 999999 999999 999999 999999 999999 999999 999999 999999 999999 999999 999999 999999 999999 999999 999999 999999 999999 999999 999999 999999 999999 999999 999999 999999 999999 999999 999999 999999 999999 999999 999999 999999 999999 999999 999999 999999 999999 999999 999999 999999 999999 999999 999999 999999 999999 999999 999999 999999 999999 999999 999999 999999 999999 999999 999999 999999 999999 999999 999999 999999 999999 999999 999999 999999 999999 999999 999999 999999 999999 999999 8594
999999 16419 14975 16430 15078 18363 10761 10976 15577 11417 14420 16426 13321 18374 16500 17863 10581 15771 14198 13803 17134 17394 10109 16060 17369 16525 17532 10333 19636 15529 18437 17091 18618 16670 16181 11915 14092 12039 12009 16731 17897 10920 11280 10952 12319 10754 17570 15785 14949 17649 14554 16365 11737 12357 19756 12095 17507 14925 10836 14989 17894 17828 16257 12859 10226 11769 18764 18779 13599 12976 14380 17710 14701 18625 12781 17513 16148 18837 10025 16155 10453 19387 12557 16137 17023 15405 15269 11500 11463 14342 19057 18089 19402 18470 17794 15428 17615 10300 11146 17976 15517 18006 12290 18085 14153 12230 10442 14706 19657 10323 12496 17176 16625 16707 13178 19601 18360 14149 11548 15632 11603 11567 17206 11336 15809 14707 13608 16089 19773 17619 10668 13635 11694 14710 11188 15878 12056 13129 15056 12179 12868 18062 13630 15851 18813 10374 16702 10867 11232 16866 17121 11136 10616 18741 18687 13762 12532 12606 15749 18880 14117 16359 11537 12931 18997 17968 17427 12674 16416 14065 17490 17417 15426 18142 15664 16220 13278 17247 11276 17994 11914 999999 999999 999999 999999 999999 999999 999999 999999 999999 999999 999999 999999 999999 999999 999999 999999 999999 999999 999999 999999 999999 999999 999999 999999 999999 999999 999999 999999 999999 999999 999999 999999 999999 999999 999999 999999 999999 999999 999999 999999 999999 999999 999999 999999 999999 999999 999999 999999 999999 999999 999999 999999 999999 999999 999999 999999 999999 999999 999999 999999 999999 999999 999999 999999 999999 999999 999999 999999 999999 999999 999999 999999 999999 999999 999999 999999 999999 999999 0 999999 999999 999999 999999 999999 999999 999999 999999 999999 999999 999999 999999 999999 999999 999999 999999 999999 999999 999999 999999 999999 999999 999999 999999 999999 999999 999999 999999 999999 999999 999999 999999 999999 999999 999999 999999 999999 999999 999999 999999 999999 999999 999999 999999 999999 999999 999999 999999 999999 999999 999999 999999 999999 999999 999999 999999 999999 999999 999999 999999 999999 999999 999999 999999 999999 999999 999999 999999 999999 999999 999999 999999 999999 999999 999999 999999 999999 999999 999999 999999 999999 999999 999999 999999 999999 999999 999999 999999 999999 999999 999999 999999 999999 999999 999999 999999 999999 999999 999999 999999 999999 14867
999999 16037 13726 17097 11764 15952 11536 11014 14155 15243 17119 16144 13947 16466 12713 16145 10402 18838 12910 17380 12798 13610 11550 11454 10730 15675 13319 17228 10835 16717 13872 13238 12085 11772 10701 15274 18609 12476 15479 15443 12101 13976 11000 14582 16003 18590 16413 10421 16758 11671 12786 19735 16655 14882 16235 15441 17938 12111 17102 17702 12203 11059 17984 17604 16572 11179 19174 17057 10027 11388 13798 11448 18934 15921 12311 17414 11981 15768 11690 12799 15776 13604 11453 14828 10712 12643 14615 16283 19442 18902 16166 14768 17448 18111 11211 16243 18975 10596 19587 16001 16543 15817 16098 11726 14334 14106 19130 18637 10499 15605 13418 18958 14125 16059 19461 14202 15688 10859 19657 10307 10227 19997 18887 13188 18985 18462 13506 15872 14719 17179 18919 14579 12697 14914 13298 10560 14406 17982 16529 15268 18232 11413 17563 14775 13948 10006 11582 14864 15415 19275 11395 19255 18116 12165 17941 11938 18889 15462 17920 15609 17743 16692 19552 11812 19948 13962 17965 16292 17224 13328 11505 19839 14057 16636 12605 16998 18551 16329 13294 11158 17308 999999 999999 999999 999999 999999 999999 999999 999999 999999 999999 999999 999999 999999 999999 999999 999999 999999 999999 999999 999999 999999 999999 999999 999999 999999 999999 999999 999999 999999 999999 999999 999999 999999 999999 999999 999999 999999 999999 999999 999999 999999 999999 999999 999999 999999 999999 999999 999999 999999 999999 999999 999999 999999 999999 999999 999999 999999 999999 999999 999999 999999 999999 999999 999999 999999 999999 999999 999999 999999 999999 999999 999999 999999 999999 999999 999999 999999 999999 999999 0 999999 999999 999999 999999 999999 999999 999999 999999 999999 999999 999999 999999 999999 999999 999999 999999 999999 999999 999999 999999 999999 999999 999999 999999 999999 999999 999999 999999 999999 999999 999999 999999 999999 999999 999999 999999 999999 999999 999999 999999 999999 999999 999999 999999 999999 999999 999999 999999 999999 999999 999999 999999 999999 999999 999999 999999 999999 999999 999999 999999 999999 999999 999999 999999 999999 999999 999999 999999 999999 999999 999999 999999 999999 999999 999999 999999 999999 999999 999999 999999 999999 999999 999999 999999 999999 999999 999999 999999 999999 999999 999999 999999 999999 999999 999999 999999 999999 999999 999999 999999 10861
999999 14160 12690 13314 14142 16530 18539 12764 19848 17613 13955 16029 11380 11104 18853 17885 12722 16897 18529 10119 18325 13003 10418 14446 19591 13174 10913 11827 16454 11599 18641 13549 20000 11957 11220 12262 11025 11462 17421 13962 19673 17351 11215 10507 15343 15242 11890 16859 13234 11595 14325 13187 18280 13595 18347 11047 11534 14652 10822 10005 18282 11462 14350 15882 13970 19106 17941 10359 12954 17069 19896 18485 16567 16320 11386 18935 18411 12552 15174 18659 16308 15113 16496 17595 19692 13381 18020 15269 12511 18279 10892 11772 18675 18182 15704 11846 18696 10543 14255 12235 18867 13936 15964 16332 17944 14157 12912 12305 13543 13390 19684 10639 17769 10404 13203 19150 17034 10726 17531 13729 11351 15548 18569 18204 18002 14543 16606 10360 11645 14826 15598 16928 10921 19634 17380 12565 12210 10207 10812 13334 10147 13258 17804 14981 18954 16746 10606 17786 11832 10671 16473 12045 17148 10369 19018 14256 17295 17483 17168 12175 17201 12326 16123 11001 10016 12129 11242 13953 16633 11638 10516 17822 14500 16191 16581 14215 17597 19123 11052 14701 14409 999999 999999 999999 999999 999999 999999 999999 999999 999999 999999 999999 999999 999999 999999 999999 999999 999999 999999 999999 999999 999999 999999 999999 999999 999999 999999 999999 999999 999999 999999 999999 999999 999999 999999 999999 999999 999999 999999 999999 999999 999999 999999 999999 999999 999999 999999 999999 999999 999999 999999 999999 999999 999999 999999 999999 999999 999999 999999 999999 999999 999999 999999 999999 999999 999999 999999 999999 999999 999999 999999 999999 999999 999999 999999 999999 999999 999999 999999 999999 999999 0 999999 999999 999999 999999 999999 999999 999999 999999 999999 999999 999999 999999 999999 999999 999999 999999 999999 999999 999999 999999 999999 999999 999999 999999 999999 999999 999999 999999 999999 999999 999999 999999 999999 999999 999999 999999 999999 999999 999999 999999 999999 999999 999999 999999 999999 999999 999999 999999 999999 999999 999999 999999 999999 999999 999999 999999 999999 999999 999999 999999 999999 999999 999999 999999 999999 999999 999999 999999 999999 999999 999999 999999 999999 999999 999999 999999 999999 999999 999999 999999 999999 999999 999999 999999 999999 999999 999999 999999 999999 999999 999999 999999 999999 999999 999999 999999 999999 999999 999999 7551
999999 11799 19712 11426 15983 10857 18157 12882 10832 16108 19163 17626 14428 11441 10027 16641 18240 18588 17441 18124 16759 13438 15652 10197 11399 11570 14016 15761 11288 14824 18407 17160 11985 12871 16638 14938 19793 11128 17858 14820 12200 19137 18040 19803 14182 16693 13878 10747 19587 17615 19873 19978 10059 10812 13576 11731 15225 19721 19826 11230 13926 12074 12843 19517 16162 10596 15596 16149 15730 12013 15109 17811 16723 19788 13337 19554 17633 14370 11456 17658 19844 11068 15129 14001 15417 11362 14431 13827 12672 19634 15492 11058 19313 11844 14464 14087 13286 14855 18705 17364 13359 16167 12332 19031 19809 14521 17259 10601 10721 11220 14036 14361 17532 13869 11660 10157 19800 19853 16524 14740 17102 16411 14597 13646 16529 17874 19350 10462 12039 18881 15961 14943 19996 10883 11044 15203 19280 17567 15252 12039 13081 18896 13410 12489 17849 11938 15634 10751 15667 12850 16076 15107 14972 16287 16877 11507 17922 17845 15926 19020 13219 14093 17938 10309 19725 11585 18553 18291 19661 13701 11525 14082 15315 11816 17354 10036 13021 14513 17701 12239 14636 999999 999999 999999 999999 999999 999999 999999 999999 999999 999999 999999 999999 999999 999999 999999 999999 999999 999999 999999 999999 999999 999999 999999 999999 999999 999999 999999 999999 999999 999999 999999 999999 999999 999999 999999 999999 999999 999999 999999 999999 999999 999999 999999 999999 999999 999999 999999 999999 999999 999999 999999 999999 999999 999999 999999 999999 999999 999999 999999 999999 999999 999999 999999 999999 999999 999999 999999 999999 999999 999999 999999 999999 999999 999999 999999 999999 999999 999999 999999 999999 999999 0 999999 999999 999999 999999 999999 999999 999999 999999 999999 999999 999999 999999 999999 999999 999999 999999 999999 999999 999999 999999 999999 999999 999999 999999 999999 999999 999999 999999 999999 999999 999999 999999 999999 999999 999999 999999 999999 999999 999999 999999 999999 999999 999999 999999 999999 999999 999999 999999 999999 999999 999999 999999 999999 999999 999999 999999 999999 999999 999999 999999 999999 999999 999999 999999 999999 999999 999999 999999 999999 999999 999999 999999 999999 999999 999999 999999 999999 999999 999999 999999 999999 999999 999999 999999 999999 999999 999999 999999 999999 999999 999999 999999 999999 999999 999999 999999 999999 999999 9474
999999 17487 13734 16171 19771 18979 10868 18425 18925 13034 11134 12566 12115 13486 17699 14725 14330 13783 15713 19451 12650 14652 12699 11535 14448 13843 11762 13257 17510 10594 18280 16033 14267 16520 12447 18382 10544 19398 12971 17344 18279 15941 14032 19724 16762 18625 16390 18262 15204 19732 14510 13220 19189 16882 15957 15407 12988 15933 14002 13346 16694 18367 15368 14743 16091 13331 11953 12495 18262 11764 17655 11451 12546 19453 19895 16323 16924 13198 17704 11131 11854 19613 14436 10455 11312 16077 19147 16796 10654 19236 15708 19994 11946 19518 10669 11386 17203 11983 18843 11603 15656 11047 14734 18935 12607 18541 16388 14561 18272 15017 10186 12716 12469 14821 16616 19613 15415 12060 11654 12925 14749 18580 17552 11479 10173 14552 13366 10969 11434 17338 15555 13725 17589 10784 13883 16602 10471 11328 12589 13763 17955 11021 15542 18469 18630 19542 19457 12839 19882 17407 12510 10175 19848 17694 10902 15976 12825 15366 13573 15445 12829 11422 11535 15179 12628 10104 18803 10475 12773 13617 19952 17702 17814 14178 19267 19547 15683 15080 16701 17786 11628 999999 999999 999999 999999 999999 999999 999999 999999 999999 999999 999999 999999 999999 999999 999999 999999 999999 999999 999999 999999 999999 999999 999999 999999 999999 999999 999999 999999 999999 999999 999999 999999 999999 999999 999999 999999 999999 999999 999999 999999 999999 999999 999999 999999 999999 999999 999999 999999 999999 999999 999999 999999 999999 999999 999999 999999 999999 999999 999999 999999 999999 999999 999999 999999 999999 999999 999999 999999 999999 999999 999999 999999 999999 999999 999999 999999 999999 999999 999999 999999 999999 999999 0 999999 999999 999999 999999 999999 999999 999999 999999 999999 999999 999999 999999 999999 999999 999999 999999 999999 999999 999999 999999 999999 999999 999999 999999 999999 999999 999999 999999 999999 999999 999999 999999 999999 999999 999999 999999 999999 999999 999999 999999 999999 999999 999999 999999 999999 999999 999999 999999 999999 999999 999999 999999 999999 999999 999999 999999 999999 999999 999999 999999 999999 999999 999999 999999 999999 999999 999999 999999 999999 999999 999999 999999 999999 999999 999999 999999 999999 999999 999999 999999 999999 999999 999999 999999 999999 999999 999999 999999 999999 999999 999999 999999 999999 999999 999999 999999 999999 9795
999999 12965 11249 14856 12789 13284 13354 16557 15744 16992 18734 11890 18307 16331 13252 11656 18592 13981 14503 12783 10150 11958 14737 13954 17823 13863 14080 11339 12844 10146 19991 12062 12166 18081 11296 17210 14205 16727 10940 14869 13213 19422 15200 16782 17504 12293 18840 13274 18176 13539 19345 13069 18847 18543 19779 17636 13226 18876 10795 11673 19429 17003 10345 12174 14719 16984 10758 17584 15540 16858 12152 15394 19558 11849 15908 12776 13126 10311 16488 10813 18577 15761 12633 11228 13005 18016 19773 19925 14126 19759 12387 12595 16909 17855 19060 16089 12559 13407 19050 10756 12405 15236 13578 10034 18635 12582 15986 19913 16817 12969 16319 13660 10366 17446 19832 12289 19689 16017 19957 13651 13530 17077 19068 11285 15503 18219 13752 13215 15181 14044 11791 17652 17812 10100 18722 15746 10274 15424 11256 19979 13955 12832 16535 13749 13661 14173 16546 10088 15869 16308 18680 10097 13960 15460 18362 11686 12699 15553 19136 10870 19850 19250 14285 17547 14404 18774 19928 18525 17261 14175 13556 13482 13295 12239 18011 13833 15799 15881 14363 12366 12875 999999 999999 999999 999999 999999 999999 999999 999999 999999 999999 999999 999999 999999 999999 999999 999999 999999 999999 999999 999999 999999 999999 999999 999999 999999 999999 999999 999999 999999 999999 999999 999999 999999 999999 999999 999999 999999 999999 999999 999999 999999 999999 999999 999999 999999 999999 999999 999999 999999 999999 999999 999999 999999 999999 999999 999999 999999 999999 999999 999999 999999 999999 999999 999999 999999 999999 999999 999999 999999 999999 999999 999999 999999 999999 999999 999999 999999 999999 999999 999999 999999 999999 999999 0 999999 999999 999999 999999 999999 999999 999999 999999 999999 999999 999999 999999 999999 999999 999999 999999 999999 999999 999999 999999 999999 999999 999999 999999 999999 999999 999999 999999 999999 999999 999999 999999 999999 999999 999999 999999 999999 999999 999999 999999 999999 999999 999999 999999 999999 999999 999999 999999 999999 999999 999999 999999 999999 999999 999999 999999 999999 999999 999999 999999 999999 999999 999999 999999 999999 999999 999999 999999 999999 999999 999999 999999 999999 999999 999999 999999 999999 999999 999999 999999 999999 999999 999999 999999 999999 999999 999999 999999 999999 999999 999999 999999 999999 999999 999999 999999 6756
999999 13754 14824 19004 19463 18213 13757 16757 15975 15072 13038 14333 19999 10413 10212 12024 16144 10271 10262 12114 15454 17999 11480 18820 15286 11625 13296 18832 11603 11924 14346 10698 17483 19380 14658 14290 11327 12136 17510 12093 16624 13489 11260 14506 17989 10876 13060 18213 18961 17010 10192 12441 10559 10740 16903 19174 14463 18792 17280 10174 11267 19942 16468 13322 19499 19244 15294 16112 19498 18212 10858 17338 13791 19420 10572 10005 14287 10900 10893 13545 16369 13711 16247 14667 14682 19986 14493 11912 13223 11200 16563 19781 14414 18170 15511 13132 13196 11283 10834 18252 15112 12400 17641 17289 13051 15505 11668 18284 16971 18685 13204 10293 18836 19889 14426 13746 13270 16339 16278 10748 15860 13648 17903 12046 14526 10364 13059 12319 17504 10448 18201 17766 14500 13375 11401 15137 12695 15782 14100 12993 18905 16036 17380 12087 12522 11944 19204 14386 11903 17085 12069 14988 12416 19058 15436 14909 16831 15477 17958 17429 15362 19390 13764 18533 19914 13170 16622 15183 19044 16480 12926 15124 11860 17226 10750 19202 14565 14457 12793 15911 11800 999999 999999 999999 999999 999999 999999 999999 999999 999999 999999 999999 999999 999999 999999 999999 999999 999999 999999 999999 999999 999999 999999 999999 999999 999999 999999 999999 999999 999999 999999 999999 999999 999999 999999 999999 999999 999999 999999 999999 999999 999999 999999 999999 999999 999999 999999 999999 999999 999999 999999 999999 999999 999999 999999 999999 999999 999999 999999 999999 999999 999999 999999 999999 999999 999999 999999 999999 999999 999999 999999 999999 999999 999999 999999 999999 999999 999999 999999 999999 999999 999999 999999 999999 999999 0 999999 999999 999999 999999 999999 999999 999999 999999 999999 999999 999999 999999 999999 999999 999999 999999 999999 999999 999999 999999 999999 999999 999999 999999 999999 999999 999999 999999 999999 999999 999999 999999 999999 999999 999999 999999 999999 999999 999999 999999 999999 999999 999999 999999 999999 999999 999999 999999 999999 999999 999999 999999 999999 999999 999999 999999 999999 999999 999999 999999 999999 999999 999999 999999 999999 999999 999999 999999 999999 999999 999999 999999 999999 999999 999999 999999 999999 999999 999999 999999 999999 999999 999999 999999 999999 999999 999999 999999 999999 999999 999999 999999 999999 999999 999999 12698
999999 12080 12245 16426 17766 18193 11390 18616 17921 12275 14493 19435 13069 16657 10970 14815 16749 11018 13036 13460 14507 19848 17573 16857 14923 11257 15529 19852 11973 16864 11406 13473 11625 11207 10168 11662 16925 14061 15742 12459 14344 15106 16411 10100 18584 10651 12530 16427 18968 16308 13043 16944 12444 18706 15561 10091 13517 18959 14376 19952 16901 15109 19160 10315 16974 16046 11154 12366 16963 15046 16607 12536 14082 17715 19137 16439 17692 18776 15981 17723 13869 19637 11212 12796 15000 14356 13862 11501 13830 12696 14997 15980 16186 19444 18095 18464 15135 18601 11494 13381 19637 17608 15784 14820 18485 14423 13791 13197 13760 11611 17815 15214 16460 10416 15736 14598 12042 11599 10082 14245 13488 17906 12022 17612 13313 13370 16588 11827 16998 12455 11185 12683 11141 16792 16486 13935 19493 16293 17059 15719 13776 17330 11647 14283 10396 14082 10639 17500 11466 12393 12177 19527 10096 17119 15877 16097 10114 11279 19170 10085 18633 16685 19545 17556 17878 15663 17670 18998 11196 13019 12546 12464 12614 14351 16762 10731 13369 19266 19656 19287 15490 999999 999999 999999 999999 999999 999999 999999 999999 999999 999999 999999 999999 999999 999999 999999 999999 999999 999999 999999 999999 999999 999999 999999 999999 999999 999999 999999 999999 999999 999999 999999 999999 999999 999999 999999 999999 999999 999999 999999 999999 999999 999999 999999 999999 999999 999999 999999 999999 999999 999999 999999 999999 999999 999999 999999 999999 999999 999999 999999 999999 999999 999999 999999 999999 999999 999999 999999 999999 999999 999999 999999 999999 999999 999999 999999 999999 999999 999999 999999 999999 999999 999999 999999 999999 999999 0 999999 999999 999999 999999 999999 999999 999999 999999 999999 999999 999999 999999 999999 999999 999999 999999 999999 999999 999999 999999 999999 999999 999999 999999 999999 999999 999999 999999 999999 999999 999999 999999 999999 999999 999999 999999 999999 999999 999999 999999 999999 999999 999999 999999 999999 999999 999999 999999 999999 999999 999999 999999 999999 999999 999999 999999 999999 999999 999999 999999 999999 999999 999999 999999 999999 999999 999999 999999 999999 999999 999999 999999 999999 999999 999999 999999 999999 999999 999999 999999 999999 999999 999999 999999 999999 999999 999999 999999 999999 999999 999999 999999 999999 999999 7090
999999 18144 10330 15202 12822 17931 17528 14664 18727 10729 15259 11856 13377 19871 15809 17594 15835 19046 12846 13202 18823 14656 10012 10752 15150 17273 16258 19544 16706 10692 16903 10737 17751 15733 16659 17631 17898 16408 15126 16285 10813 14094 16522 10132 17485 16957 14788 17262 17671 13240 19330 19027 15392 13881 15255 10347 11697 14451 11416 12138 19626 10558 15823 17446 15415 13471 17587 14686 10587 19692 11104 12595 19024 11786 12462 19095 13819 16178 17456 13371 16321 15381 19228 15369 18946 11013 17770 10541 11122 14796 16615 13720 13896 10614 19603 12533 10965 17073 18829 11983 17414 18208 12381 18999 12375 10813 16345 18390 11774 18134 17688 11980 14122 13374 12770 11085 13900 12783 14840 10866 12718 14249 11945 14643 13251 13282 11331 11184 16044 10862 11634 14850 14797 13494 14655 16396 16875 14279 18130 18013 13559 18231 14981 15447 17391 10676 16746 17021 15179 18220 12244 13764 17142 13606 12463 10023 16765 15162 12948 14629 18108 12320 15596 14877 19487 14902 17940 16304 10274 13858 14658 16264 13098 10221 15847 16793 11515 15691 17074 15584 14700 999999 999999 999999 999999 999999 999999 999999 999999 999999 999999 999999 999999 999999 999999 999999 999999 999999 999999 999999 999999 999999 999999 999999 999999 999999 999999 999999 999999 999999 999999 999999 999999 999999 999999 999999 999999 999999 999999 999999 999999 999999 999999 999999 999999 999999 999999 999999 999999 999999 999999 999999 999999 999999 999999 999999 999999 999999 999999 999999 999999 999999 999999 999999 999999 999999 999999 999999 999999 999999 999999 999999 999999 999999 999999 999999 999999 999999 999999 999999 999999 999999 999999 999999 999999 999999 999999 0 999999 999999 999999 999999 999999 999999 999999 999999 999999 999999 999999 999999 999999 999999 999999 999999 999999 999999 999999 999999 999999 999999 999999 999999 999999 999999 999999 999999 999999 999999 999999 999999 999999 999999 999999 999999 999999 999999 999999 999999 999999 999999 999999 999999 999999 999999 999999 999999 999999 999999 999999 999999 999999 999999 999999 999999 999999 999999 999999 999999 999999 999999 999999 999999 999999 999999 999999 999999 999999 999999 999999 999999 999999 999999 999999 999999 999999 999999 999999 999999 999999 999999 999999 999999 999999 999999 999999 999999 999999 999999 999999 999999 999999 6348
999999 18035 16956 12894 16186 15540 16765 18395 13743 14118 12464 12904 16012 13237 18805 18472 12085 10390 10083 14733 17861 15805 17550 18746 12977 15269 13233 14683 16047 12297 15473 19336 12598 16683 12173 17235 19017 11782 11916 10341 10738 19338 19999 14677 12225 11693 19593 19483 18572 12498 10440 18967 12482 11608 12721 15028 10081 11397 15059 12755 17235 17364 10942 16467 19861 19127 12209 10495 12102 15413 12764 19542 17417 13034 12710 16883 16903 13703 18203 13335 18328 16258 14379 14302 19363 10317 19570 17929 11473 17719 19022 15459 12793 11288 16423 17717 13436 10416 18683 19504 15231 12775 11690 17287 17023 17909 17313 16523 18280 15284 12685 12850 12902 11094 11318 19420 13316 12535 18251 17412 16614 16579 14624 12558 14955 12084 10948 13749 15336 17624 11221 12038 17395 12870 14931 10747 19594 14301 13180 15276 15680 16252 18335 11172 13140 11093 16075 11780 16510 12121 17662 14869 12170 14264 18836 15868 17681 13893 12868 11782 19117 15963 15197 19994 18813 10497 15487 14029 16765 12803 17828 17274 16577 11580 14740 16466 16834 11247 15063 15403 10641 999999 999999 999999 999999 999999 999999 999999 999999 999999 999999 999999 999999 999999 999999 999999 999999 999999 999999 999999 999999 999999 999999 999999 999999 999999 999999 999999 999999 999999 999999 999999 999999 999999 999999 999999 999999 999999 999999 999999 999999 999999 999999 999999 999999 999999 999999 999999 999999 999999 999999 999999 999999 999999 999999 999999 999999 999999 999999 999999 999999 999999 999999 999999 999999 999999 999999 999999 999999 999999 999999 999999 999999 999999 999999 999999 999999 999999 999999 999999 999999 999999 999999 999999 999999 999999 999999 999999 0 999999 999999 999999 999999 999999 999999 999999 999999 999999 999999 999999 999999 999999 999999 999999 999999 999999 999999 999999 999999 999999 999999 999999 999999 999999 999999 999999 999999 999999 999999 999999 999999 999999 999999 999999 999999 999999 999999 999999 999999 999999 999999 999999 999999 999999 999999 999999 999999 999999 999999 999999 999999 999999 999999 999999 999999 999999 999999 999999 999999 999999 999999 999999 999999 999999 999999 999999 999999 999999 999999 999999 999999 999999 999999 999999 999999 999999 999999 999999 999999 999999 999999 999999 999999 999999 999999 999999 999999 999999 999999 999999 999999 6734
999999 14338 14810 15571 14303 17712 10095 13149 13209 17116 15018 12941 16267 14888 13792 15615 14878 19762 18108 16815 10453 16209 15755 19260 18276 14831 14156 10200 11006 11213 19497 14579 18564 17980 15894 15218 16532 17366 11154 18250 11490 16525 12512 15485 16214 10718 12869 11436 12320 16822 16309 13512 10734 10115 10563 17099 12325 12526 10859 18918 15930 19133 14704 18213 14377 10221 13822 17101 10303 13863 18692 11255 12140 17053 15493 16970 17352 16850 13802 12717 15177 17899 14611 15576 13304 18792 12099 11523 13359 10491 13473 13844 10041 12843 12827 14939 10004 13274 17368 14025 16149 13863 18904 14654 17529 18111 11943 13951 13894 12426 17407 12411 17246 14112 18748 13360 11438 16807 11062 15039 17024 16959 18828 15146 19301 16728 10747 12818 12981 13037 15786 17271 10990 16166 16717 18506 13408 12371 12364 10227 10160 15371 14966 18005 17569 17348 16439 13725 18118 16923 10860 19837 14100 14120 17498 16904 17917 11604 10454 10716 12155 14717 12270 12372 15889 19137 19343 10502 15975 18345 16441 13574 18412 19412 19483 18868 10479 11273 11686 17792 16243 999999 999999 999999 999999 999999 999999 999999 999999 999999 999999 999999 999999 999999 999999 999999 999999 999999 999999 999999 999999 999999 999999 999999 999999 999999 999999 999999 999999 999999 999999 999999 999999 999999 999999 999999 999999 999999 999999 999999 999999 999999 999999 999999 999999 999999 999999 999999 999999 999999 999999 999999 999999 999999 999999 999999 999999 999999 999999 999999 999999 999999 999999 999999 999999 999999 999999 999999 999999 999999 999999 999999 999999 999999 999999 999999 999999 999999 999999 999999 999999 999999 999999 999999 999999 999999 999999 999999 999999 0 999999 999999 999999 999999 999999 999999 999999 999999 999999 999999 999999 999999 999999 999999 999999 999999 999999 999999 999999 999999 999999 999999 999999 999999 999999 999999 999999 999999 999999 999999 999999 999999 999999 999999 999999 999999 999999 999999 999999 999999 999999 999999 999999 999999 999999 999999 999999 999999 999999 999999 999999 999999 999999 999999 999999 999999 999999 999999 999999 999999 999999 999999 999999 999999 999999 999999 999999 999999 999999 999999 999999 999999 999999 999999 999999 999999 999999 999999 999999 999999 999999 999999 999999 999999 999999 999999 999999 999999 999999 999999 999999 6427
999999 19519 11285 10646 17128 12046 13593 17954 11127 12977 16090 17009 11899 13272 16544 16785 11445 18097 17836 13694 11393 18114 12510 17421 17210 17878 15878 13569 15436 16075 11256 13096 18316 19968 19697 11109 12163 16656 15284 17100 15383 11570 13168 10664 17711 12792 10206 14036 10398 10964 18453 10353 13985 18275 12167 13045 15457 14952 11122 11158 16022 14467 16211 16145 11616 18591 10393 10125 15361 13236 10028 15740 19388 12215 14867 14507 19118 16289 14578 11291 18900 15123 18405 15856 17753 19829 19210 14044 12109 19897 11952 11532 16732 13049 17695 15919 14130 14791 10589 10461 11204 13547 10027 14705 19344 11776 18751 11617 16503 13147 11302 12267 18080 16507 14696 10724 10136 19914 16903 17089 14885 12392 19023 11980 15534 13285 12216 16778 15085 15980 12655 12103 11064 18202 14946 19893 14722 18496 14419 17456 11966 17264 19568 19889 19402 12234 17867 18650 10141 15896 13473 11063 15192 18287 10773 15069 16214 19058 11068 14406 19191 18540 13684 16557 15041 10357 17933 10005 12795 18183 10727 16226 19177 10237 19036 11713 17168 15335 12456 19175 19402 999999 999999 999999 999999 999999 999999 999999 999999 999999 999999 999999 999999 999999 999999 999999 999999 999999 999999 999999 999999 999999 999999 999999 999999 999999 999999 999999 999999 999999 999999 999999 999999 999999 999999 999999 999999 999999 999999 999999 999999 999999 999999 999999 999999 999999 999999 999999 999999 999999 999999 999999 999999 999999 999999 999999 999999 999999 999999 999999 999999 999999 999999 999999 999999 999999 999999 999999 999999 999999 999999 999999 999999 999999 999999 999999 999999 999999 999999 999999 999999 999999 999999 999999 999999 999999 999999 999999 999999 999999 0 999999 999999 999999 999999 999999 999999 999999 999999 999999 999999 999999 999999 999999 999999 999999 999999 999999 999999 999999 999999 999999 999999 999999 999999 999999 999999 999999 999999 999999 999999 999999 999999 999999 999999 999999 999999 999999 999999 999999 999999 999999 999999 999999 999999 999999 999999 999999 999999 999999 999999 999999 999999 999999 999999 999999 999999 999999 999999 999999 999999 999999 999999 999999 999999 999999 999999 999999 999999 999999 999999 999999 999999 999999 999999 999999 999999 999999 999999 999999 999999 999999 999999 999999 999999 999999 999999 999999 999999 999999 999999 13263
999999 14032 13609 19364 18644 14213 16252 13250 18124 17593 11930 19408 11356 14217 13016 18130 17012 17578 10566 13781 18913 19242 15242 16159 12511 13908 10361 17314 19408 13745 11689 11848 18082 12555 18770 10956 11569 12772 13442 11197 18996 19103 19474 19106 18886 13434 18611 16785 15675 11769 14298 10864 11211 16364 12387 13183 16975 14215 16490 18054 17049 10884 15758 16091 19831 15369 12351 15127 17942 18793 14675 16600 15569 14307 12487 10839 18873 17754 12863 16967 15169 18267 15597 14539 14785 13686 12607 13349 19024 18406 10766 19954 13869 14225 12198 10382 13866 16549 18665 13896 11353 12826 18961 13638 16167 14094 11664 12265 19395 10960 10760 14240 18573 13494 15629 11514 15330 17632 19700 14662 18339 18633 17564 16111 15914 15967 15683 18698 10881 11199 16844 16567 17989 10326 10145 15782 17218 18823 13802 12558 16129 19980 17585 10289 11793 18116 11697 17110 10573 10092 17507 16402 17819 17962 11326 12804 10828 13877 15113 12532 15470 14741 15390 18113 15369 14549 11117 13467 14307 11463 13855 10495 18548 11415 19155 13174 17082 16157 18634 15095 14281 999999 999999 999999 999999 999999 999999 999999 999999 999999 999999 999999 999999 999999 999999 999999 999999 999999 999999 999999 999999 999999 999999 999999 999999 999999 999999 999999 999999 999999 999999 999999 999999 999999 999999 999999 999999 999999 999999 999999 999999 999999 999999 999999 999999 999999 999999 999999 999999 999999 999999 999999 999999 999999 999999 999999 999999 999999 999999 999999 999999 999999 999999 999999 999999 999999 999999 999999 999999 999999 999999 999999 999999 999999 999999 999999 999999 999999 999999 999999 999999 999999 999999 999999 999999 999999 999999 999999 999999 999999 999999 0 999999 999999 999999 999999 999999 999999 999999 999999 999999 999999 999999 999999 999999 999999 999999 999999 999999 999999 999999 999999 999999 999999 999999 999999 999999 999999 999999 999999 999999 999999 999999 999999 999999 999999 999999 999999 999999 999999 999999 999999 999999 999999 999999 999999 999999 999999 999999 999999 999999 999999 999999 999999 999999 999999 999999 999999 999999 999999 999999 999999 999999 999999 999999 999999 999999 999999 999999 999999 999999 999999 999999 999999 999999 999999 999999 999999 999999 999999 999999 999999 999999 999999 999999 999999 999999 999999 999999 999999 999999 10616
999999 16545 15334 10444 12696 14315 11207 13289 14591 14440 19760 16225 14827 11603 15268 15291 11416 17029 13924 19092 10967 15797 18236 16255 11453 11888 18583 19030 11568 12977 16621 17986 14722 14471 13726 17310 10225 18920 13839 14469 15167 12517 13646 18264 19851 19181 10949 12746 18237 12298 14028 15590 13677 14492 18412 19324 15442 12414 11016 15465 19150 18674 17211 13238 11837 13573 18165 19252 19870 10152 17280 13014 16710 15983 14094 18951 13923 11387 16630 14457 17206 15188 12401 16925 14841 15216 10148 17652 10203 11407 14926 18158 13648 11780 10198 14438 12329 16249 19168 12910 10274 16502 11488 13123 12986 10871 10389 16048 12042 13744 10097 12659 10688 18771 18201 13901 11492 16005 12072 11027 18024 10586 10151 10049 11268 16474 11774 15827 16786 18183 16800 15312 12746 17843 11952 15911 16426 15293 13155 11402 10886 16786 15681 12394 18752 13347 18090 12503 10929 13972 10189 17329 12655 18117 11640 18111 19517 11620 17505 12961 11841 11869 12751 18048 17552 11211 11285 15773 17575 14086 10797 17599 16323 18402 13049 17704 11359 18280 10995 15271 16142 999999 999999 999999 999999 999999 999999 999999 999999 999999 999999 999999 999999 999999 999999 999999 999999 999999 999999 999999 999999 999999 999999 999999 999999 999999 999999 999999 999999 999999 999999 999999 999999 999999 999999 999999 999999 999999 999999 999999 999999 999999 999999 999999 999999 999999 999999 999999 999999 999999 999999 999999 999999 999999 999999 999999 999999 999999 999999 999999 999999 999999 999999 999999 999999 999999 999999 999999 999999 999999 999999 999999 999999 999999 999999 999999 999999 999999 999999 999999 999999 999999 999999 999999 999999 999999 999999 999999 999999 999999 999999 999999 0 999999 999999 999999 999999 999999 999999 999999 999999 999999 999999 999999 999999 999999 999999 999999 999999 999999 999999 999999 999999 999999 999999 999999 999999 999999 999999 999999 999999 999999 999999 999999 999999 999999 999999 999999 999999 999999 999999 999999 999999 999999 999999 999999 999999 999999 999999 999999 999999 999999 999999 999999 999999 999999 999999 999999 999999 999999 999999 999999 999999 999999 999999 999999 999999 999999 999999 999999 999999 999999 999999 999999 999999 999999 999999 999999 999999 999999 999999 999999 999999 999999 999999 999999 999999 999999 999999 999999 999999 14091
999999 15041 12708 19466 11421 13589 15225 17588 11480 15934 15747 11122 11184 15267 17729 11686 11362 17298 10292 19895 10209 18703 17404 16184 13056 18418 19932 12196 13460 11811 17877 18104 12890 18402 14712 14071 13618 17397 17201 19359 17298 11826 18759 11247 12981 12489 14494 19696 14007 10207 17565 17543 15587 11705 12133 19546 11325 18213 16976 18372 11770 14437 11728 18474 16721 13802 15977 16499 13403 15652 19491 18996 12381 19173 19074 10652 10678 14093 15375 17657 14715 19079 10329 16289 10483 14416 11016 12526 15897 17698 15204 11535 19454 17772 11277 15631 17175 12089 16588 14169 14500 16609 17152 17857 13862 17758 12837 15745 18524 14864 16634 19974 15101 13035 12737 18484 18480 14446 10724 12778 17997 12331 15325 11587 17663 10735 18613 17992 15674 14705 10087 15024 14132 12383 16523 11747 12177 18586 19036 16630 12278 11453 18812 17121 17066 19403 11135 16086 18158 18296 15657 19652 17511 17162 14066 11661 15605 11072 18412 17330 17139 13208 11213 17840 19191 15497 13529 15134 17311 10646 18485 12580 19742 17972 15917 10333 18250 10563 15877 16570 17898 999999 999999 999999 999999 999999 999999 999999 999999 999999 999999 999999 999999 999999 999999 999999 999999 999999 999999 999999 999999 999999 999999 999999 999999 999999 999999 999999 999999 999999 999999 999999 999999 999999 999999 999999 999999 999999 999999 999999 999999 999999 999999 999999 999999 999999 999999 999999 999999 999999 999999 999999 999999 999999 999999 999999 999999 999999 999999 999999 999999 999999 999999 999999 999999 999999 999999 999999 999999 999999 999999 999999 999999 999999 999999 999999 999999 999999 999999 999999 999999 999999 999999 999999 999999 999999 999999 999999 999999 999999 999999 999999 999999 0 999999 999999 999999 999999 999999 999999 999999 999999 999999 999999 999999 999999 999999 999999 999999 999999 999999 999999 999999 999999 999999 999999 999999 999999 999999 999999 999999 999999 999999 999999 999999 999999 999999 999999 999999 999999 999999 999999 999999 999999 999999 999999 999999 999999 999999 999999 999999 999999 999999 999999 999999 999999 999999 999999 999999 999999 999999 999999 999999 999999 999999 999999 999999 999999 999999 999999 999999 999999 999999 999999 999999 999999 999999 999999 999999 999999 999999 999999 999999 999999 999999 999999 999999 999999 999999 999999 999999 6803
999999 16656 17377 15429 14436 11045 10032 11349 12548 16563 11071 12363 18735 19098 19236 13634 19244 15472 12147 17777 12723 12559 16741 15365 19066 17392 19809 10741 18079 19650 15155 17994 19291 11716 19052 14191 18971 19968 19755 17905 10890 11380 11387 10072 10447 11740 19396 10025 13852 14047 14799 13332 17475 11653 18622 12920 14566 10558 10019 17507 13716 13231 16152 13792 10010 10460 12149 14727 19373 10256 13008 19365 13595 18631 13597 15866 11270 16674 17308 14962 12096 17978 12943 19079 14182 19118 15585 17858 18996 18190 17716 14610 12057 13314 15112 19096 11661 17318 14820 13714 16694 12025 17046 19752 11622 18759 16150 18651 10650 11602 11049 16614 16664 12379 18072 17358 16410 16150 14903 17150 11268 11466 12186 16925 10989 12276 13658 15318 18609 10673 15717 16428 12317 17820 14178 11342 10280 12389 15288 13900 17426 16882 16279 15644 12837 11298 10064 17736 18695 17244 15942 12065 19024 12886 11312 11826 10219 14967 14327 15905 19980 19504 19201 16268 18093 18065 11289 15009 14587 15447 14569 10939 15566 17018 13394 19183 19303 19353 16359 14321 12632 999999 999999 999999 999999 999999 999999 999999 999999 999999 999999 999999 999999 999999 999999 999999 999999 999999 999999 999999 999999 999999 999999 999999 999999 999999 999999 999999 999999 999999 999999 999999 999999 999999 999999 999999 999999 999999 999999 999999 999999 999999 999999 999999 999999 999999 999999 999999 999999 999999 999999 999999 999999 999999 999999 999999 999999 999999 999999 999999 999999 999999 999999 999999 999999 999999 999999 999999 999999 999999 999999 999999 999999 999999 999999 999999 999999 999999 999999 999999 999999 999999 999999 999999 999999 999999 999999 999999 999999 999999 999999 999999 999999 999999 0 999999 999999 999999 999999 999999 999999 999999 999999 999999 999999 999999 999999 999999 999999 999999 999999 999999 999999 999999 999999 999999 999999 999999 999999 999999 999999 999999 999999 999999 999999 999999 999999 999999 999999 999999 999999 999999 999999 999999 999999 999999 999999 999999 999999 999999 999999 999999 999999 999999 999999 999999 999999 999999 999999 999999 999999 999999 999999 999999 999999 999999 999999 999999 999999 999999 999999 999999 999999 999999 999999 999999 999999 999999 999999 999999 999999 999999 999999 999999 999999 999999 999999 999999 999999 999999 999999 7438
999999 18559 14433 17786 11347 10173 19012 18464 12373 13234 18935 19883 19008 18074 12340 14039 15712 14757 16986 11606 18010 14112 13768 14162 11399 19377 11446 14591 13906 16944 17079 10269 19348 13921 15572 14583 19248 18980 16571 19137 10596 14751 19607 11726 12811 10290 13084 19627 12743 18716 11606 16988 12882 11044 15145 10603 12392 11340 18163 12134 14865 15280 11827 10019 14723 17672 16966 13847 11572 16060 14940 12867 18048 11204 13074 11474 11087 11551 16543 10971 14452 17224 13750 15048 11718 13669 14969 17983 17475 19096 14342 15740 13579 19765 11362 12355 14214 16988 18228 10249 17779 13653 11990 13807 11980 11297 19017 14347 11419 10087 11092 15331 14497 12048 16848 17088 19320 18099 12875 10992 13079 16920 15731 11009 18532 14943 19606 19162 19816 15338 15548 15314 12100 12077 14109 15272 19468 12186 15090 17524 13029 18605 11198 12167 14407 10899 15917 18971 14013 17668 13954 11840 16484 18144 10152 12435 17532 10773 15888 12508 10529 16171 19845 11318 18937 14938 11660 14466 16824 17732 17091 12266 17902 13608 15460 15361 18058 12822 15375 12723 15007 999999 999999 999999 999999 999999 999999 999999 999999 999999 999999 999999 999999 999999 999999 999999 999999 999999 999999 999999 999999 999999 999999 999999 999999 999999 999999 999999 999999 999999 999999 999999 999999 999999 999999 999999 999999 999999 999999 999999 999999 999999 999999 999999 999999 999999 999999 999999 999999 999999 999999 999999 999999 999999 999999 999999 999999 999999 999999 999999 999999 999999 999999 999999 999999 999999 999999 999999 999999 999999 999999 999999 999999 999999 999999 999999 999999 999999 999999 999999 999999 999999 999999 999999 999999 999999 999999 999999 999999 999999 999999 999999 999999 999999 999999 0 999999 999999 999999 999999 999999 999999 999999 999999 999999 999999 999999 999999 999999 999999 999999 999999 999999 999999 999999 999999 999999 999999 999999 999999 999999 999999 999999 999999 999999 999999 999999 999999 999999 999999 999999 999999 999999 999999 999999 999999 999999 999999 999999 999999 999999 999999 999999 999999 999999 999999 999999 999999 999999 999999 999999 999999 999999 999999 999999 999999 999999 999999 999999 999999 999999 999999 999999 999999 999999 999999 999999 999999 999999 999999 999999 999999 999999 999999 999999 999999 999999 999999 999999 999999 999999 13043
999999 14162 11091 10657 18412 19556 18969 14490 11229 18277 14564 11289 17322 12114 17266 18014 13312 13562 15177 13026 19755 16047 14422 10348 19018 16899 11439 11461 18587 18782 14941 17232 18028 11157 16463 16986 17900 14518 18372 13204 10953 13888 18080 15653 16993 11610 16491 13753 17331 16713 14839 19492 17410 18580 16177 18041 13261 13477 11019 10923 16715 16329 10221 19282 19609 10741 16316 18231 16235 15360 12166 14724 12819 13065 17011 18813 19215 19567 17494 16335 13181 18593 13409 11936 17151 16394 19835 14566 18845 18735 10556 13877 13027 16998 11759 15884 14942 13636 13858 12974 11694 11315 11116 11059 18295 16756 18198 12194 18389 12486 11458 11206 15216 14248 11297 16920 17951 12172 16965 16595 10001 14680 14127 16815 13751 16364 16809 14515 17989 10966 12141 11168 18986 19916 19006 16538 17245 13115 16172 10370 17650 12815 16045 11679 11273 18380 15743 18110 18671 10240 14267 13713 13240 12051 13035 12785 14523 13320 14189 16126 11344 11691 18724 19031 16554 19929 17912 12025 13662 18067 11182 11203 10056 18321 12086 17604 17030 19337 11603 11512 18122 999999 999999 999999 999999 999999 999999 999999 999999 999999 999999 999999 999999 999999 999999 999999 999999 999999 999999 999999 999999 999999 999999 999999 999999 999999 999999 999999 999999 999999 999999 999999 999999 999999 999999 999999 999999 999999 999999 999999 999999 999999 999999 999999 999999 999999 999999 999999 999999 999999 999999 999999 999999 999999 999999 999999 999999 999999 999999 999999 999999 999999 999999 999999 999999 999999 999999 999999 999999 999999 999999 999999 999999 999999 999999 999999 999999 999999 999999 999999 999999 999999 999999 999999 999999 999999 999999 999999 999999 999999 999999 999999 999999 999999 999999 999999 0 999999 999999 999999 999999 999999 999999 999999 999999 999999 999999 999999 999999 999999 999999 999999 999999 999999 999999 999999 999999 999999 999999 999999 999999 999999 999999 999999 999999 999999 999999 999999 999999 999999 999999 999999 999999 999999 999999 999999 999999 999999 999999 999999 999999 999999 999999 999999 999999 999999 999999 999999 999999 999999 999999 999999 999999 999999 999999 999999 999999 999999 999999 999999 999999 999999 999999 999999 999999 999999 999999 999999 999999 999999 999999 999999 999999 999999 999999 999999 999999 999999 999999 999999 999999 11998
999999 11152 19080 14746 13746 13393 11687 17563 14841 12776 15314 18130 10589 13786 16482 15277 19926 19266 18932 16865 15596 11911 16492 12888 17457 16086 19539 10231 15796 10317 10119 19991 10901 11260 14506 16973 19798 18206 18179 13858 10665 10844 13977 18016 12657 18372 14343 11095 12844 16129 10761 19922 10663 19773 15867 18063 12632 10510 14459 12307 14581 16141 17671 13835 12764 19901 10131 10063 12566 15097 18168 14965 12470 14244 11831 19048 16338 13365 16437 11165 14807 10288 18792 11110 19626 12611 15365 15898 16563 14648 17989 19509 11718 13443 12098 15658 19952 12473 12935 11688 11777 18655 17588 14732 10975 15241 17272 12969 14811 14251 15138 14687 13290 14525 10563 13385 14314 19146 17333 12404 14408 10840 11875 19273 14255 12700 18995 12984 15596 14642 13301 17543 16608 15550 16767 17488 14157 17730 15575 12382 12299 13893 12183 10129 19048 12179 13311 16630 17498 14185 11859 10151 12147 14479 12317 16871 14035 10200 19970 14955 17822 15629 11314 18833 16610 13668 16196 16286 10784 19958 16624 16131 14604 12270 11658 13353 10335 15986 14410 10016 19676 999999 999999 999999 999999 999999 999999 999999 999999 999999 999999 999999 999999 999999 999999 999999 999999 999999 999999 999999 999999 999999 999999 999999 999999 999999 999999 999999 999999 999999 999999 999999 999999 999999 999999 999999 999999 999999 999999 999999 999999 999999 999999 999999 999999 999999 999999 999999 999999 999999 999999 999999 999999 999999 999999 999999 999999 999999 999999 999999 999999 999999 999999 999999 999999 999999 999999 999999 999999 999999 999999 999999 999999 999999 999999 999999 999999 999999 999999 999999 999999 999999 999999 999999 999999 999999 999999 999999 999999 999999 999999 999999 999999 999999 999999 999999 999999 0 999999 999999 999999 999999 999999 999999 999999 999999 999999 999999 999999 999999 999999 999999 999999 999999 999999 999999 999999 999999 999999 999999 999999 999999 999999 999999 999999 999999 999999 999999 999999 999999 999999 999999 999999 999999 999999 999999 999999 999999 999999 999999 999999 999999 999999 999999 999999 999999 999999 999999 999999 999999 999999 999999 999999 999999 999999 999999 999999 999999 999999 999999 999999 999999 999999 999999 999999 999999 999999 999999 999999 999999 999999 999999 999999 999999 999999 999999 999999 999999 999999 999999 999999 12410
999999 19933 11461 11364 12707 13109 19771 12569 13784 14295 11522 15093 16635 19802 19617 10168 18417 11411 14163 19003 17549 17797 17766 12555 17858 15534 11238 11871 17638 14787 16205 17760 11217 17737 19111 14401 14274 19312 16652 18061 12650 18908 18365 19486 16243 19774 14081 11859 14532 17504 17816 16677 18846 18062 17847 14394 18066 13022 18162 16249 10243 17521 14008 13614 16235 17153 17164 15669 10979 18528 13298 10542 11287 15025 16268 16934 17130 19598 13538 13747 12569 11022 16679 11456 19264 11544 11981 11045 11305 14856 16430 16413 12000 12086 16950 14508 18786 15264 16957 15551 17269 10464 14721 18619 17306 11183 14952 14584 10232 13656 11203 14133 11841 14672 11443 12486 19482 10366 12729 19475 13977 12279 19023 10588 14056 12798 14469 14008 14117 17477 18071 13002 19370 12313 17220 11499 14965 14848 16943 18721 11772 10201 13498 12288 12625 18122 12991 15379 13327 15240 16752 13002 11120 14613 15567 18745 10206 17262 11564 13972 14875 15267 13062 13084 14914 15509 17579 10678 19554 20000 16859 15878 15898 17204 16755 18573 16424 12750 15217 14748 12615 999999 999999 999999 999999 999999 999999 999999 999999 999999 999999 999999 999999 999999 999999 999999 999999 999999 999999 999999 999999 999999 999999 999999 999999 999999 999999 999999 999999 999999 999999 999999 999999 999999 999999 999999 999999 999999 999999 999999 999999 999999 999999 999999 999999 999999 999999 999999 999999 999999 999999 999999 999999 999999 999999 999999 999999 999999 999999 999999 999999 999999 999999 999999 999999 999999 999999 999999 999999 999999 999999 999999 999999 999999 999999 999999 999999 999999 999999 999999 999999 999999 999999 999999 999999 999999 999999 999999 999999 999999 999999 999999 999999 999999 999999 999999 999999 999999 0 999999 999999 999999 999999 999999 999999 999999 999999 999999 999999 999999 999999 999999 999999 999999 999999 999999 999999 999999 999999 999999 999999 999999 999999 999999 999999 999999 999999 999999 999999 999999 999999 999999 999999 999999 999999 999999 999999 999999 999999 999999 999999 999999 999999 999999 999999 999999 999999 999999 999999 999999 999999 999999 999999 999999 999999 999999 999999 999999 999999 999999 999999 999999 999999 999999 999999 999999 999999 999999 999999 999999 999999 999999 999999 999999 999999 999999 999999 999999 999999 999999 999999 11819
999999 14197 19356 13958 16984 13161 19040 12922 14893 17423 16814 16057 16257 17145 17608 13014 12234 18149 13815 11191 16030 17847 18832 15232 13339 10512 18361 13917 12252 11798 11283 15582 14792 17760 12312 16657 11672 13963 12101 13299 11817 10982 12628 17493 10571 19584 15866 15762 15263 19274 18091 11059 13265 19233 10689 18845 10481 16096 13870 10786 11193 10798 18952 17958 13441 13966 19041 18940 12267 13538 15856 10932 16164 10860 16290 13532 13522 19922 19785 12835 18496 17071 18495 15832 13790 16262 14403 18600 10554 10817 13823 13962 19622 19720 10607 16596 15707 13474 18615 10400 15027 16185 14761 18942 16224 16450 13838 19564 13657 19922 19793 11715 15299 19925 16977 16257 12131 10252 17442 13490 13431 15516 15548 18780 13008 12789 11499 13277 15663 19269 18711 17069 17883 16783 13703 16124 15069 10107 14797 10040 11605 19107 15279 16922 19214 10961 19637 15793 18771 15759 10379 12739 11605 16629 17703 19602 12188 15647 12169 14955 12516 16811 16155 12528 11371 12742 14739 15290 13518 17544 10044 17173 14677 17677 13116 16452 15637 12401 16279 15223 15195 999999 999999 999999 999999 999999 999999 999999 999999 999999 999999 999999 999999 999999 999999 999999 999999 999999 999999 999999 999999 999999 999999 999999 999999 999999 999999 999999 999999 999999 999999 999999 999999 999999 999999 999999 999999 999999 999999 999999 999999 999999 999999 999999 999999 999999 999999 999999 999999 999999 999999 999999 999999 999999 999999 999999 999999 999999 999999 999999 999999 999999 999999 999999 999999 999999 999999 999999 999999 999999 999999 999999 999999 999999 999999 999999 999999 999999 999999 999999 999999 999999 999999 999999 999999 999999 999999 999999 999999 999999 999999 999999 999999 999999 999999 999999 999999 999999 999999 0 999999 999999 999999 999999 999999 999999 999999 999999 999999 999999 999999 999999 999999 999999 999999 999999 999999 999999 999999 999999 999999 999999 999999 999999 999999 999999 999999 999999 999999 999999 999999 999999 999999 999999 999999 999999 999999 999999 999999 999999 999999 999999 999999 999999 999999 999999 999999 999999 999999 999999 999999 999999 999999 999999 999999 999999 999999 999999 999999 999999 999999 999999 999999 999999 999999 999999 999999 999999 999999 999999 999999 999999 999999 999999 999999 999999 999999 999999 999999 999999 999999 13415
999999 15846 11718 14179 17129 14835 15781 18603 18974 17843 10765 17354 11365 18628 12203 10867 11084 18801 18019 16474 17312 19987 19295 10352 13229 15310 13505 12630 14119 18429 10343 15238 19226 18624 18454 14960 17168 11551 14584 10755 18229 19084 12594 13584 13814 18699 11555 11519 13349 14117 12953 12477 17582 16450 13705 17449 11335 13081 14782 16741 18571 16318 19162 10109 12113 14905 10147 11191 15655 18843 14256 12427 19990 13613 15895 11019 10782 10208 17626 19252 18772 12416 14581 14804 15406 11161 15319 11318 10232 10149 10889 12149 17394 19052 15054 19981 17087 14551 12884 18439 16016 19073 19698 15215 17692 15557 15092 11810 12119 11798 16604 10794 13762 16606 10632 16872 13528 16378 12089 12137 17146 13070 12028 18857 11457 12439 11522 17581 12727 10586 12851 19934 11038 10248 10218 18909 16795 17667 15360 19642 13496 19830 18272 14604 10192 17262 13482 15761 10838 18670 14190 15768 13489 15532 17873 14981 12388 19980 16660 17150 18490 15484 13710 14755 19654 15617 16705 12927 10408 15169 15447 15391 11022 18562 16425 16697 15086 18476 18071 14424 13893 999999 999999 999999 999999 999999 999999 999999 999999 999999 999999 999999 999999 999999 999999 999999 999999 999999 999999 999999 999999 999999 999999 999999 999999 999999 999999 999999 999999 999999 999999 999999 999999 999999 999999 999999 999999 999999 999999 999999 999999 999999 999999 999999 999999 999999 999999 999999 999999 999999 999999 999999 999999 999999 999999 999999 999999 999999 999999 999999 999999 999999 999999 999999 999999 999999 999999 999999 999999 999999 999999 999999 999999 999999 999999 999999 999999 999999 999999 999999 999999 999999 999999 999999 999999 999999 999999 999999 999999 999999 999999 999999 999999 999999 999999 999999 999999 999999 999999 999999 0 999999 999999 999999 999999 999999 999999 999999 999999 999999 999999 999999 999999 999999 999999 999999 999999 999999 999999 999999 999999 999999 999999 999999 999999 999999 999999 999999 999999 999999 999999 999999 999999 999999 999999 999999 999999 999999 999999 999999 999999 999999 999999 999999 999999 999999 999999 999999 999999 999999 999999 999999 999999 999999 999999 999999 999999 999999 999999 999999 999999 999999 999999 999999 999999 999999 999999 999999 999999 999999 999999 999999 999999 999999 999999 999999 999999 999999 999999 999999 999999 10750
999999 15387 10176 15061 15376 16745 10727 12861 11421 17010 13251 12739 12610 11588 10438 13168 16980 18709 19088 10688 13528 18564 15520 16891 10170 10872 18123 18034 18891 14671 15073 17051 14248 18116 16969 19275 11349 12715 13683 14433 11277 11772 14806 14987 10858 13505 18667 19138 19317 16715 16869 19762 18800 18073 19664 15928 12135 15073 10701 17087 14140 15592 15321 19164 10468 11221 13949 11952 19029 19321 12045 17831 17458 13509 11383 14773 11633 12141 12795 14513 13478 11614 13148 18158 18941 13224 10959 16946 19170 10862 18971 11098 19513 12908 17440 11210 16212 19182 11180 18348 11518 16546 17960 16623 14318 16354 10679 19655 19192 13926 10006 11824 16538 10870 12732 10676 19009 19632 10034 18238 19705 13082 13114 16811 17155 13987 13378 16026 11530 11635 12335 11440 18185 10090 15018 10892 17863 13866 17140 18365 12880 17367 14222 16684 15666 13395 14776 11921 17436 11193 17410 16017 19258 15556 12104 10577 12325 12381 15742 11375 17809 16969 15170 18675 11283 16235 17712 19391 18591 17549 10961 10177 10250 12115 18057 18062 11624 12273 10298 19703 12811 999999 999999 999999 999999 999999 999999 999999 999999 999999 999999 999999 999999 999999 999999 999999 999999 999999 999999 999999 999999 999999 999999 999999 999999 999999 999999 999999 999999 999999 999999 999999 999999 999999 999999 999999 999999 999999 999999 999999 999999 999999 999999 999999 999999 999999 999999 999999 999999 999999 999999 999999 999999 999999 999999 999999 999999 999999 999999 999999 999999 999999 999999 999999 999999 999999 999999 999999 999999 999999 999999 999999 999999 999999 999999 999999 999999 999999 999999 999999 999999 999999 999999 999999 999999 999999 999999 999999 999999 999999 999999 999999 999999 999999 999999 999999 999999 999999 999999 999999 999999 0 999999 999999 999999 999999 999999 999999 999999 999999 999999 999999 999999 999999 999999 999999 999999 999999 999999 999999 999999 999999 999999 999999 999999 999999 999999 999999 999999 999999 999999 999999 999999 999999 999999 999999 999999 999999 999999 999999 999999 999999 999999 999999 999999 999999 999999 999999 999999 999999 999999 999999 999999 999999 999999 999999 999999 999999 999999 999999 999999 999999 999999 999999 999999 999999 999999 999999 999999 999999 999999 999999 999999 999999 999999 999999 999999 999999 999999 999999 999999 13335
999999 19230 15372 13876 18198 10050 17133 12237 16739 11284 19868 19353 14889 18013 13907 12556 13637 19114 17063 10256 13912 14697 11693 10134 16405 17007 19123 12245 18982 16630 18648 13270 17494 10986 11284 10673 14982 11357 12853 12998 10533 16677 18510 12589 15618 17857 14372 10418 17845 19922 14565 19013 13415 17718 19459 14923 19489 18156 15758 19020 18863 19018 11886 13005 18056 14437 12902 15866 17575 13367 14684 11659 16879 11696 10729 11042 12473 13824 18466 15417 17193 12518 17087 15480 14934 18792 14748 18016 12136 14257 14082 14286 18150 16716 15712 15927 10877 15825 12660 13748 14616 18958 14437 17292 17587 19269 14872 18292 10603 17265 11656 14171 14911 14008 18723 14042 16302 10313 15383 17743 11567 12301 18102 14017 16447 14476 15596 17358 16747 19779 11886 14420 17198 15338 16065 16951 16280 18977 17617 10195 13881 18171 16023 13130 13637 17963 16389 17301 18639 15262 12672 13365 18395 18245 19257 18972 18245 14353 13327 14207 19285 18087 11316 12058 16005 16892 10937 10727 11092 19557 12480 19916 18015 11534 10630 17656 18592 14628 11587 19998 17119 999999 999999 999999 999999 999999 999999 999999 999999 999999 999999 999999 999999 999999 999999 999999 999999 999999 999999 999999 999999 999999 999999 999999 999999 999999 999999 999999 999999 999999 999999 999999 999999 999999 999999 999999 999999 999999 999999 999999 999999 999999 999999 999999 999999 999999 999999 999999 999999 999999 999999 999999 999999 999999 999999 999999 999999 999999 999999 999999 999999 999999 999999 999999 999999 999999 999999 999999 999999 999999 999999 999999 999999 999999 999999 999999 999999 999999 999999 999999 999999 999999 999999 999999 999999 999999 999999 999999 999999 999999 999999 999999 999999 999999 999999 999999 999999 999999 999999 999999 999999 999999 0 999999 999999 999999 999999 999999 999999 999999 999999 999999 999999 999999 999999 999999 999999 999999 999999 999999 999999 999999 999999 999999 999999 999999 999999 999999 999999 999999 999999 999999 999999 999999 999999 999999 999999 999999 999999 999999 999999 999999 999999 999999 999999 999999 999999 999999 999999 999999 999999 999999 999999 999999 999999 999999 999999 999999 999999 999999 999999 999999 999999 999999 999999 999999 999999 999999 999999 999999 999999 999999 999999 999999 999999 999999 999999 999999 999999 999999 999999 9462
999999 18687 12664 10420 13636 11745 13651 10898 19192 19127 13692 15781 14562 12918 10990 15326 13044 18030 15121 16063 15021 11876 19123 14515 17699 13659 11496 18144 11442 13613 15425 19401 13648 18049 16780 14637 10321 18361 18470 13078 12919 15377 11910 15912 11941 17874 15354 14889 19358 12683 14766 11015 16150 19134 16451 12472 16636 13406 12482 13765 13263 16027 17413 10971 15851 13611 14305 16827 17892 10488 18145 15310 16333 18696 16816 14238 11450 11230 18918 16317 10855 13843 17997 19206 15807 14689 16482 16502 12504 12881 14880 17582 10571 17305 11969 15733 16292 18164 16003 12751 19739 11932 12453 18759 12969 11264 15533 17378 13493 14933 11956 16322 12396 16276 11849 14260 12959 18136 17766 14885 13211 19025 13260 14349 15297 14464 19257 17044 10301 16218 15840 19747 14221 15620 18144 10559 19811 17921 12754 15379 17362 18114 17346 15229 19560 10948 11007 13486 13119 14877 13333 18865 17431 11995 14529 15716 18876 15819 11412 17178 12583 13791 19105 16071 15341 18908 17173 10303 14535 11365 17366 16989 11686 19908 12511 10427 19114 19452 11629 12438 14513 999999 999999 999999 999999 999999 999999 999999 999999 999999 999999 999999 999999 999999 999999 999999 999999 999999 999999 999999 999999 999999 999999 999999 999999 999999 999999 999999 999999 999999 999999 999999 999999 999999 999999 999999 999999 999999 999999 999999 999999 999999 999999 999999 999999 999999 999999 999999 999999 999999 999999 999999 999999 999999 999999 999999 999999 999999 999999 999999 999999 999999 999999 999999 999999 999999 999999 999999 999999 999999 999999 999999 999999 999999 999999 999999 999999 999999 999999 999999 999999 999999 999999 999999 999999 999999 999999 999999 999999 999999 999999 999999 999999 999999 999999 999999 999999 999999 999999 999999 999999 999999 999999 0 999999 999999 999999 999999 999999 999999 999999 999999 999999 999999 999999 999999 999999 999999 999999 999999 999999 999999 999999 999999 999999 999999 999999 999999 999999 999999 999999 999999 999999 999999 999999 999999 999999 999999 999999 999999 999999 999999 999999 999999 999999 999999 999999 999999 999999 999999 999999 999999 999999 999999 999999 999999 999999 999999 999999 999999 999999 999999 999999 999999 999999 999999 999999 999999 999999 999999 999999 999999 999999 999999 999999 999999 999999 999999 999999 999999 999999 13157
999999 12236 10240 19431 11652 15476 11649 13373 13522 18692 19733 17376 15135 16474 13100 13008 17963 13223 14560 15045 10782 11205 18234 12885 10912 19429 12794 17443 18759 14697 15616 10844 15674 17850 11395 12840 11603 11006 19932 10236 19793 16967 17642 12114 18645 12116 14257 18064 12724 18019 11308 15671 13349 14049 15234 18774 15645 18024 11975 11468 16289 18142 17560 13907 12880 18855 15621 18523 10446 16424 11242 17216 16934 12552 11413 17509 10000 12188 11609 15946 15985 19635 11189 15966 12223 19018 14868 12592 18788 12031 19402 15166 10950 14220 13256 13948 19387 17357 12299 17571 11002 12088 18916 11004 17422 15423 13078 18597 13196 15718 19099 10127 18650 19462 14986 16506 13195 13287 13309 16253 14100 17074 19436 19930 14192 15956 18876 18948 13451 14491 10956 14553 13381 17497 17025 16359 11261 16987 13990 19751 10804 14291 10466 19171 13224 12398 12450 14660 11982 14076 11520 18857 11851 11238 16000 14157 13934 11543 17833 16597 12979 13449 13482 19334 11970 11700 17695 10601 14487 16712 17824 18098 14165 17304 19512 10713 12831 19672 13488 10573 12476 999999 999999 999999 999999 999999 999999 999999 999999 999999 999999 999999 999999 999999 999999 999999 999999 999999 999999 999999 999999 999999 999999 999999 999999 999999 999999 999999 999999 999999 999999 999999 999999 999999 999999 999999 999999 999999 999999 999999 999999 999999 999999 999999 999999 999999 999999 999999 999999 999999 999999 999999 999999 999999 999999 999999 999999 999999 999999 999999 999999 999999 999999 999999 999999 999999 999999 999999 999999 999999 999999 999999 999999 999999 999999 999999 999999 999999 999999 999999 999999 999999 999999 999999 999999 999999 999999 999999 999999 999999 999999 999999 999999 999999 999999 999999 999999 999999 999999 999999 999999 999999 999999 999999 0 999999 999999 999999 999999 999999 999999 999999 999999 999999 999999 999999 999999 999999 999999 999999 999999 999999 999999 999999 999999 999999 999999 999999 999999 999999 999999 999999 999999 999999 999999 999999 999999 999999 999999 999999 999999 999999 999999 999999 999999 999999 999999 999999 999999 999999 999999 999999 999999 999999 999999 999999 999999 999999 999999 999999 999999 999999 999999 999999 999999 999999 999999 999999 999999 999999 999999 999999 999999 999999 999999 999999 999999 999999 999999 999999 999999 9982
999999 19456 10873 19406 14518 13830 11905 19946 15662 16527 10953 10826 16160 10226 14873 16362 11857 14597 18204 18653 15978 12550 13344 18147 12407 13246 19023 15445 19711 16011 12432 12585 15727 10827 15024 15543 18069 10459 12185 19875 17479 17225 19529 17667 13407 11421 11727 19374 18116 12592 11936 14480 13758 10325 14443 11402 11691 12200 11396 10254 19607 18031 12921 12722 18144 15874 13007 17828 19179 14483 11432 18833 17636 16672 10001 15113 13008 18142 18950 12573 17137 13802 10051 18190 15785 14206 16908 19288 10340 11667 13501 10662 10548 12782 15838 12876 11440 18615 14635 16627 13573 18653 13973 12057 16310 15578 11302 13607 19045 13050 11423 13007 17553 16205 10939 14339 13361 18664 11826 16360 19588 10481 17522 16547 18831 10316 16646 16008 19859 16965 16239 14653 11277 13233 12328 13740 16640 13568 19896 16501 18718 11755 16060 13115 11148 15146 19339 10802 12547 16605 13640 19466 11234 19925 17079 16797 19476 13810 14344 10483 17908 10335 17841 14780 14492 12073 16663 13362 16245 15682 14571 13299 12804 16055 17546 18165 17399 11103 17741 11700 13042 999999 999999 999999 999999 999999 999999 999999 999999 999999 999999 999999 999999 999999 999999 999999 999999 999999 999999 999999 999999 999999 999999 999999 999999 999999 999999 999999 999999 999999 999999 999999 999999 999999 999999 999999 999999 999999 999999 999999 999999 999999 999999 999999 999999 999999 999999 999999 999999 999999 999999 999999 999999 999999 999999 999999 999999 999999 999999 999999 999999 999999 999999 999999 999999 999999 999999 999999 999999 999999 999999 999999 999999 999999 999999 999999 999999 999999 999999 999999 999999 999999 999999 999999 999999 999999 999999 999999 999999 999999 999999 999999 999999 999999 999999 999999 999999 999999 999999 999999 999999 999999 999999 999999 999999 0 999999 999999 999999 999999 999999 999999 999999 999999 999999 999999 999999 999999 999999 999999 999999 999999 999999 999999 999999 999999 999999 999999 999999 999999 999999 999999 999999 999999 999999 999999 999999 999999 999999 999999 999999 999999 999999 999999 999999 999999 999999 999999 999999 999999 999999 999999 999999 999999 999999 999999 999999 999999 999999 999999 999999 999999 999999 999999 999999 999999 999999 999999 999999 999999 999999 999999 999999 999999 999999 999999 999999 999999 999999 999999 999999 5808
999999 10111 12471 12145 17342 15400 10962 13376 11217 12305 15493 10126 10843 14414 13033 19105 10575 18193 15342 17009 13785 12925 11234 15042 15809 10060 17463 18386 13582 19796 16341 14522 11554 14281 11231 14379 13133 10952 12344 14461 12649 10307 19281 18796 17844 12446 18850 12005 14445 10117 18521 14598 12719 18327 13397 10523 19443 12464 15967 16493 11165 14776 18554 15697 13504 11186 17048 10687 15214 12037 14325 13858 16023 19008 15542 14704 17719 18052 18619 11646 13322 18335 19991 17494 17424 12004 19893 10456 13686 14903 16184 18176 17039 11768 11016 14439 12087 13754 17732 11848 18885 13148 16493 16767 18310 14410 14681 11582 19224 12385 13884 17690 13919 13097 18484 18772 18221 17334 10457 14953 15314 14602 11327 10241 19388 10864 11901 17051 15136 18127 14347 13837 10726 11380 16278 18638 14475 15409 19387 12015 15332 16274 12490 17255 12432 12372 14264 18584 12835 15957 19623 16876 17411 16840 17517 16869 14821 13270 19888 10854 17736 11236 17102 11370 19249 17417 11472 10289 14123 11429 16313 19849 16583 18943 17278 15354 19934 18803 17481 16868 13389 999999 999999 999999 999999 999999 999999 999999 999999 999999 999999 999999 999999 999999 999999 999999 999999 999999 999999 999999 999999 999999 999999 999999 999999 999999 999999 999999 999999 999999 999999 999999 999999 999999 999999 999999 999999 999999 999999 999999 999999 999999 999999 999999 999999 999999 999999 999999 999999 999999 999999 999999 999999 999999 999999 999999 999999 999999 999999 999999 999999 999999 999999 999999 999999 999999 999999 999999 999999 999999 999999 999999 999999 999999 999999 999999 999999 999999 999999 999999 999999 999999 999999 999999 999999 999999 999999 999999 999999 999999 999999 999999 999999 999999 999999 999999 999999 999999 999999 999999 999999 999999 999999 999999 999999 999999 0 999999 999999 999999 999999 999999 999999 999999 999999 999999 999999 999999 999999 999999 999999 999999 999999 999999 999999 999999 999999 999999 999999 999999 999999 999999 999999 999999 999999 999999 999999 999999 999999 999999 999999 999999 999999 999999 999999 999999 999999 999999 999999 999999 999999 999999 999999 999999 999999 999999 999999 999999 999999 999999 999999 999999 999999 999999 999999 999999 999999 999999 999999 999999 999999 999999 999999 999999 999999 999999 999999 999999 999999 999999 999999 13056
999999 16663 14326 13485 11775 19281 18408 10625 18497 13873 19732 12777 10185 14336 14482 15028 12775 18763 14404 14753 15043 19022 17604 11474 11282 18216 18547 10026 19475 13411 10939 19475 17578 11829 11957 11126 12167 17178 10480 11129 19675 12367 12217 17459 16724 15121 11806 18133 16311 17843 18387 18912 12846 16521 17852 18172 11206 16133 12516 12648 14671 17091 14338 19800 13650 10008 10243 13730 11146 13411 10980 16663 14509 11485 14916 12851 18279 19826 16969 19621 16126 19589 15586 17929 15901 16690 14411 13899 15647 10494 19754 13015 12525 11490 17165 18491 12959 18048 13033 12112 14561 18506 14746 13599 12027 11753 12511 12556 16251 10505 17649 19472 17431 18916 11668 17968 11729 12435 15881 16989 12243 16822 15555 12314 12082 11053 11395 14060 16258 10330 19758 11814 11384 19231 12028 10322 18524 16782 17068 13937 16294 15791 13530 14457 17733 17644 18909 14332 14735 14373 15879 14382 15501 12100 12078 15134 14074 16280 13893 18236 12923 19147 19078 18779 12642 11339 17927 17908 14238 19204 11046 19681 13911 11023 19850 12810 14065 14891 16367 19631 18154 999999 999999 999999 999999 999999 999999 999999 999999 999999 999999 999999 999999 999999 999999 999999 999999 999999 999999 999999 999999 999999 999999 999999 999999 999999 999999 999999 999999 999999 999999 999999 999999 999999 999999 999999 999999 999999 999999 999999 999999 999999 999999 999999 999999 999999 999999 999999 999999 999999 999999 999999 999999 999999 999999 999999 999999 999999 999999 999999 999999 999999 999999 999999 999999 999999 999999 999999 999999 999999 999999 999999 999999 999999 999999 999999 999999 999999 999999 999999 999999 999999 999999 999999 999999 999999 999999 999999 999999 999999 999999 999999 999999 999999 999999 999999 999999 999999 999999 999999 999999 999999 999999 999999 999999 999999 999999 0 999999 999999 999999 999999 999999 999999 999999 999999 999999 999999 999999 999999 999999 999999 999999 999999 999999 999999 999999 999999 999999 999999 999999 999999 999999 999999 999999 999999 999999 999999 999999 999999 999999 999999 999999 999999 999999 999999 999999 999999 999999 999999 999999 999999 999999 999999 999999 999999 999999 999999 999999 999999 999999 999999 999999 999999 999999 999999 999999 999999 999999 999999 999999 999999 999999 999999 999999 999999 999999 999999 999999 999999 999999 6361
999999 15086 10503 15420 17210 12348 18600 16085 12713 10648 10389 19216 12241 16100 14021 13531 19921 13935 12562 10653 10495 13595 19258 13006 10768 14054 11053 18897 18992 17919 13125 18106 14302 11001 18585 18152 17430 14282 12896 11627 19441 15328 17781 12886 13442 13033 15586 17855 14086 12702 17647 14113 12344 13316 16455 11917 11963 19863 10056 14000 17899 18986 12691 14245 10238 17767 18356 13665 14203 15001 16064 13569 14651 16853 11006 12008 16099 15439 12430 14341 19463 14849 16729 17310 19687 13229 16414 19372 19864 15761 14342 17015 10517 17434 14729 15087 15318 19526 16889 18766 13149 18929 12475 12819 19762 17394 11245 13482 18743 16542 15745 10377 10028 15120 11989 12273 13408 11355 19184 18051 10111 18307 16447 15282 13448 15097 18076 18187 10491 19330 11739 17610 19482 13564 13987 17350 12641 17594 18565 11522 12566 17398 16130 12553 10393 10103 17196 17164 16707 14108 10675 15579 10941 13203 15552 10142 10225 12913 10697 13400 11654 15648 15934 19089 15413 18715 11348 16157 10482 19025 10733 10081 16182 11272 10097 14700 10394 13159 15802 15102 14445 999999 999999 999999 999999 999999 999999 999999 999999 999999 999999 999999 999999 999999 999999 999999 999999 999999 999999 999999 999999 999999 999999 999999 999999 999999 999999 999999 999999 999999 999999 999999 999999 999999 999999 999999 999999 999999 999999 999999 999999 999999 999999 999999 999999 999999 999999 999999 999999 999999 999999 999999 999999 999999 999999 999999 999999 999999 999999 999999 999999 999999 999999 999999 999999 999999 999999 999999 999999 999999 999999 999999 999999 999999 999999 999999 999999 999999 999999 999999 999999 999999 999999 999999 999999 999999 999999 999999 999999 999999 999999 999999 999999 999999 999999 999999 999999 999999 999999 999999 999999 999999 999999 999999 999999 999999 999999 999999 0 999999 999999 999999 999999 999999 999999 999999 999999 999999 999999 999999 999999 999999 999999 999999 999999 999999 999999 999999 999999 999999 999999 999999 999999 999999 999999 999999 999999 999999 999999 999999 999999 999999 999999 999999 999999 999999 999999 999999 999999 999999 999999 999999 999999 999999 999999 999999 999999 999999 999999 999999 999999 999999 999999 999999 999999 999999 999999 999999 999999 999999 999999 999999 999999 999999 999999 999999 999999 999999 999999 999999 999999 10915
999999 16036 19233 14904 11641 19481 19261 11673 16887 17959 10511 15943 18762 15926 10311 13702 10324 14236 12341 10211 15102 16215 15191 10671 16714 14932 16502 15473 14356 13225 19065 15322 17049 16066 15495 15128 13841 11746 17698 11221 19053 18783 19909 12725 17122 11204 13262 16925 11195 16769 11118 12163 17857 11992 14267 12923 13250 17468 19588 13880 10370 11913 16789 14819 17525 10848 19803 17004 11866 14636 18698 11250 10979 15492 11601 15694 17885 16717 16589 19685 14796 11336 19068 15995 16785 16557 18388 10004 19784 13466 10731 17128 17946 18260 19539 12713 17776 11587 15179 12272 15944 13010 19262 16092 11576 16985 12484 17376 13749 14032 12706 11064 10445 13566 12530 19003 10336 19178 17807 16892 13693 17631 18842 14623 10180 13506 19600 18374 15983 17774 10830 19013 18210 13527 17095 10889 19331 19580 13532 14011 16071 12438 12062 18810 14429 11006 15387 17278 16211 16337 19133 19987 11835 19137 19031 10558 12959 15190 10689 15126 10572 18263 13760 15227 13977 14975 13269 19406 11201 10478 11178 11040 18408 13048 13721 19821 12919 17964 11960 14147 14282 999999 999999 999999 999999 999999 999999 999999 999999 999999 999999 999999 999999 999999 999999 999999 999999 999999 999999 999999 999999 999999 999999 999999 999999 999999 999999 999999 999999 999999 999999 999999 999999 999999 999999 999999 999999 999999 999999 999999 999999 999999 999999 999999 999999 999999 999999 999999 999999 999999 999999 999999 999999 999999 999999 999999 999999 999999 999999 999999 999999 999999 999999 999999 999999 999999 999999 999999 999999 999999 999999 999999 999999 999999 999999 999999 999999 999999 999999 999999 999999 999999 999999 999999 999999 999999 999999 999999 999999 999999 999999 999999 999999 999999 999999 999999 999999 999999 999999 999999 999999 999999 999999 999999 999999 999999 999999 999999 999999 0 999999 999999 999999 999999 999999 999999 999999 999999 999999 999999 999999 999999 999999 999999 999999 999999 999999 999999 999999 999999 999999 999999 999999 999999 999999 999999 999999 999999 999999 999999 999999 999999 999999 999999 999999 999999 999999 999999 999999 999999 999999 999999 999999 999999 999999 999999 999999 999999 999999 999999 999999 999999 999999 999999 999999 999999 999999 999999 999999 999999 999999 999999 999999 999999 999999 999999 999999 999999 999999 999999 999999 7558
999999 15925 10438 18614 18374 15797 18445 17478 16141 17093 19997 17503 15202 15745 16841 17365 18498 17738 15606 19286 10740 12153 18478 17700 13202 10817 14745 15617 17602 19320 10578 16406 15852 16263 19369 19410 16486 10459 18513 10969 19486 17201 13167 14903 14857 15775 18306 12557 11760 17931 14813 13563 18671 13904 19540 15338 18432 12637 13476 14069 14914 12581 13610 12977 16371 16905 18784 13124 17545 10680 19267 12778 17599 16507 18570 16824 11377 17967 12527 17525 10905 16209 18241 19037 10323 15847 14598 18986 17126 10538 12941 19025 19822 13144 19767 16945 11721 14007 18541 16918 14990 10569 14350 13137 11391 12306 16591 17266 14456 16903 18005 14197 10651 12621 15401 10315 15499 18367 17768 16743 14779 17637 19317 10993 15189 17342 17215 11423 19668 15033 10736 13713 17908 12189 10609 14343 16047 14207 15539 15607 17009 13288 11994 16294 17662 10085 16221 15870 17187 11272 17870 15804 13722 17484 17773 18755 14835 17336 19189 15253 19781 16035 12329 14241 18098 18064 16464 18080 17253 10246 15569 15487 16591 16218 11613 13259 18715 18374 12740 17725 16903 999999 999999 999999 999999 999999 999999 999999 999999 999999 999999 999999 999999 999999 999999 999999 999999 999999 999999 999999 999999 999999 999999 999999 999999 999999 999999 999999 999999 999999 999999 999999 999999 999999 999999 999999 999999 999999 999999 999999 999999 999999 999999 999999 999999 999999 999999 999999 999999 999999 999999 999999 999999 999999 999999 999999 999999 999999 999999 999999 999999 999999 999999 999999 999999 999999 999999 999999 999999 999999 999999 999999 999999 999999 999999 999999 999999 999999 999999 999999 999999 999999 999999 999999 999999 999999 999999 999999 999999 999999 999999 999999 999999 999999 999999 999999 999999 999999 999999 999999 999999 999999 999999 999999 999999 999999 999999 999999 999999 999999 0 999999 999999 999999 999999 999999 999999 999999 999999 999999 999999 999999 999999 999999 999999 999999 999999 999999 999999 999999 999999 999999 999999 999999 999999 999999 999999 999999 999999 999999 999999 999999 999999 999999 999999 999999 999999 999999 999999 999999 999999 999999 999999 999999 999999 999999 999999 999999 999999 999999 999999 999999 999999 999999 999999 999999 999999 999999 999999 999999 999999 999999 999999 999999 999999 999999 999999 999999 999999 999999 999999 7821
999999 11263 13023 14390 18210 10602 12077 11864 12929 11763 17643 10566 11534 12491 12626 19398 16822 12583 17582 19903 12119 10130 11416 15425 10738 11692 15632 17323 11678 10530 19421 12239 16067 19927 17507 16353 13667 17283 15334 17448 11282 17303 19818 11145 14908 13799 10222 13569 16451 14383 15954 13500 12221 13651 19006 14736 11950 10938 16327 12890 19158 19393 10091 15377 15324 14445 19177 10993 18629 19604 14415 19384 15617 10326 12494 15803 19923 13253 12587 12345 17865 14721 14799 15385 15636 10734 19633 12927 11191 18343 15360 15069 16576 18998 14714 17851 13067 12200 11921 10950 17304 16061 18890 11067 15224 18339 13664 11800 15421 17119 10594 12074 13762 19664 11922 11744 16890 11748 18002 15874 13793 14506 13437 16070 15357 15126 12628 11190 14476 19348 18251 15962 12155 13602 17232 11350 15409 17241 18821 18325 18258 19286 19768 12406 16034 17353 13575 15129 12035 16114 15782 17724 17712 10828 15658 19542 17856 18108 17526 19881 13360 10099 18335 16290 14912 15087 10347 13632 13106 18268 11503 15153 16378 19247 15876 15935 10828 15718 12321 17871 17684 999999 999999 999999 999999 999999 999999 999999 999999 999999 999999 999999 999999 999999 999999 999999 999999 999999 999999 999999 999999 999999 999999 999999 999999 999999 999999 999999 999999 999999 999999 999999 999999 999999 999999 999999 999999 999999 999999 999999 999999 999999 999999 999999 999999 999999 999999 999999 999999 999999 999999 999999 999999 999999 999999 999999 999999 999999 999999 999999 999999 999999 999999 999999 999999 999999 999999 999999 999999 999999 999999 999999 999999 999999 999999 999999 999999 999999 999999 999999 999999 999999 999999 999999 999999 999999 999999 999999 999999 999999 999999 999999 999999 999999 999999 999999 999999 999999 999999 999999 999999 999999 999999 999999 999999 999999 999999 999999 999999 999999 999999 0 999999 999999 999999 999999 999999 999999 999999 999999 999999 999999 999999 999999 999999 999999 999999 999999 999999 999999 999999 999999 999999 999999 999999 999999 999999 999999 999999 999999 999999 999999 999999 999999 999999 999999 999999 999999 999999 999999 999999 999999 999999 999999 999999 999999 999999 999999 999999 999999 999999 999999 999999 999999 999999 999999 999999 999999 999999 999999 999999 999999 999999 999999 999999 999999 999999 999999 999999 999999 999999 9796
999999 14013 13905 17328 18115 18580 15501 12569 19387 12327 15256 18618 14882 16313 11157 17497 13616 11966 14868 13929 16330 16723 13555 11765 15670 19636 16026 10211 18730 14530 13858 15155 19097 11275 13021 15993 14826 16468 15014 16902 19714 16975 16945 19343 10566 18155 16743 16185 11224 15859 12205 10547 13275 12088 10275 14512 18568 15172 15206 14728 11776 17525 10454 16006 17521 11168 15167 12541 11123 11313 16577 13702 13614 15391 10194 14920 12167 12702 12033 15114 18792 17032 17011 14586 19603 10461 17080 18964 17844 15280 18255 13503 18512 11515 13589 12124 15457 16861 17271 15683 17906 19962 17948 15064 10905 10924 16646 12561 19121 11886 13806 18504 12393 19105 12600 14129 19224 11714 16748 12455 13806 12465 15836 12047 13108 14012 19548 10867 12132 15941 15626 11437 19678 10537 11612 16405 19186 11766 17006 14968 18255 17117 14901 19135 17763 11574 12809 18965 13481 10952 12973 18689 17670 13258 11288 11582 13485 15564 18525 10545 11225 18264 19461 13629 16428 19997 13201 17104 18903 15900 19668 12197 17703 11202 16642 17975 17341 19383 16192 10542 11665 999999 999999 999999 999999 999999 999999 999999 999999 999999 999999 999999 999999 999999 999999 999999 999999 999999 999999 999999 999999 999999 999999 999999 999999 999999 999999 999999 999999 999999 999999 999999 999999 999999 999999 999999 999999 999999 999999 999999 999999 999999 999999 999999 999999 999999 999999 999999 999999 999999 999999 999999 999999 999999 999999 999999 999999 999999 999999 999999 999999 999999 999999 999999 999999 999999 999999 999999 999999 999999 999999 999999 999999 999999 999999 999999 999999 999999 999999 999999 999999 999999 999999 999999 999999 999999 999999 999999 999999 999999 999999 999999 999999 999999 999999 999999 999999 999999 999999 999999 999999 999999 999999 999999 999999 999999 999999 999999 999999 999999 999999 999999 0 999999 999999 999999 999999 999999 999999 999999 999999 999999 999999 999999 999999 999999 999999 999999 999999 999999 999999 999999 999999 999999 999999 999999 999999 999999 999999 999999 999999 999999 999999 999999 999999 999999 999999 999999 999999 999999 999999 999999 999999 999999 999999 999999 999999 999999 999999 999999 999999 999999 999999 999999 999999 999999 999999 999999 999999 999999 999999 999999 999999 999999 999999 999999 999999 999999 999999 999999 999999 14019
999999 17628 15821 10947 17391 19382 13653 11760 19289 16527 13343 16949 10720 13916 13230 14497 17938 12042 18663 11090 13007 13992 15336 16332 15372 17382 13102 11153 15476 12646 13918 19922 12142 19332 11163 12314 10748 11039 15863 13976 14904 18631 10699 12977 18095 14535 12123 17321 14676 19671 11383 12616 11493 19550 10448 13193 13906 13655 13187 12111 10351 10753 10625 16950 14911 19145 13822 12898 14495 15512 14617 11043 17433 12592 14580 10915 14651 17694 12842 11397 17695 16968 13092 16535 15480 17702 17419 12450 17302 14408 17827 17302 16230 15910 16260 13003 18034 14233 15302 14167 14457 15662 15417 13113 17694 14891 12688 10776 12761 12402 15841 18694 10058 11762 18318 10698 15522 14279 14671 18875 12074 11678 17520 12123 17644 10531 16208 14960 14008 16657 14777 12178 12032 13361 12704 13983 10533 17978 18996 16121 11138 14678 14813 11046 17593 19081 10588 19083 19101 18969 18958 11178 12355 10704 14769 12182 12483 14558 17427 13268 10737 10484 19516 14122 16866 13184 15419 10804 10246 18235 11790 18660 15995 11322 11280 14013 12809 13157 14337 15340 18987 999999 999999 999999 999999 999999 999999 999999 999999 999999 999999 999999 999999 999999 999999 999999 999999 999999 999999 999999 999999 999999 999999 999999 999999 999999 999999 999999 999999 999999 999999 999999 999999 999999 999999 999999 999999 999999 999999 999999 999999 999999 999999 999999 999999 999999 999999 999999 999999 999999 999999 999999 999999 999999 999999 999999 999999 999999 999999 999999 999999 999999 999999 999999 999999 999999 999999 999999 999999 999999 999999 999999 999999 999999 999999 999999 999999 999999 999999 999999 999999 999999 999999 999999 999999 999999 999999 999999 999999 999999 999999 999999 999999 999999 999999 999999 999999 999999 999999 999999 999999 999999 999999 999999 999999 999999 999999 999999 999999 999999 999999 999999 999999 0 999999 999999 999999 999999 999999 999999 999999 999999 999999 999999 999999 999999 999999 999999 999999 999999 999999 999999 999999 999999 999999 999999 999999 999999 999999 999999 999999 999999 999999 999999 999999 999999 999999 999999 999999 999999 999999 999999 999999 999999 999999 999999 999999 999999 999999 999999 999999 999999 999999 999999 999999 999999 999999 999999 999999 999999 999999 999999 999999 999999 999999 999999 999999 999999 999999 999999 999999 7140
999999 15290 15452 16023 11296 18112 11644 10985 15335 10834 13375 18434 12558 12846 18580 18140 14982 16714 18437 15346 17010 13883 13723 11362 15882 10176 11865 15354 14555 16322 12274 10772 12976 12895 19093 14673 14555 12581 16545 19750 10258 19148 11440 12489 18782 18374 12687 10885 11118 12385 14609 15195 16897 19479 18113 18771 15516 14341 10114 14463 16806 11092 17523 11914 11340 13267 13810 13267 17952 11748 19200 12682 14748 19319 18139 10675 15699 17043 16561 10714 19844 15656 18826 11680 16960 17386 14842 12973 13875 18139 10251 13692 10034 18715 12223 11408 18815 15182 15206 13641 16942 15129 19471 18433 18743 19604 18208 14830 11188 11655 12884 19189 12443 18675 12488 11472 13772 16443 10193 11591 12353 12142 11865 13144 13505 12672 10343 17890 16052 18659 12206 16634 19189 18860 15646 18543 11315 14509 12748 12253 12744 17347 16813 14563 11712 19595 19050 11530 13126 18773 18927 14543 13388 16320 11559 18766 16764 19264 10263 10926 14430 16454 19377 16525 16975 15479 19562 15035 15066 17133 18039 11341 15874 10679 19308 18165 13038 13023 16538 12641 14383 999999 999999 999999 999999 999999 999999 999999 999999 999999 999999 999999 999999 999999 999999 999999 999999 999999 999999 999999 999999 999999 999999 999999 999999 999999 999999 999999 999999 999999 999999 999999 999999 999999 999999 999999 999999 999999 999999 999999 999999 999999 999999 999999 999999 999999 999999 999999 999999 999999 999999 999999 999999 999999 999999 999999 999999 999999 999999 999999 999999 999999 999999 999999 999999 999999 999999 999999 999999 999999 999999 999999 999999 999999 999999 999999 999999 999999 999999 999999 999999 999999 999999 999999 999999 999999 999999 999999 999999 999999 999999 999999 999999 999999 999999 999999 999999 999999 999999 999999 999999 999999 999999 999999 999999 999999 999999 999999 999999 999999 999999 999999 999999 999999 0 999999 999999 999999 999999 999999 999999 999999 999999 999999 999999 999999 999999 999999 999999 999999 999999 999999 999999 999999 999999 999999 999999 999999 999999 999999 999999 999999 999999 999999 999999 999999 999999 999999 999999 999999 999999 999999 999999 999999 999999 999999 999999 999999 999999 999999 999999 999999 999999 999999 999999 999999 999999 999999 999999 999999 999999 999999 999999 999999 999999 999999 999999 999999 999999 999999 999999 13592
999999 11978 14326 10390 14430 17105 11287 19026 12908 18518 18673 17493 18375 13822 13888 17503 16624 10130 13392 15889 12516 10079 11546 17992 12288 16367 15418 17206 12088 19553 17475 14380 16417 17017 15081 17557 16687 16716 17756 19631 14265 14484 11088 12136 16487 12071 13587 18253 13150 16489 16794 10152 16754 12906 19770 18397 10552 18690 10240 19366 10587 10668 17973 14460 15370 12527 11697 12287 12036 12641 18840 18705 19228 18458 19529 11083 19384 17114 18265 12262 12008 19822 11701 10462 11657 12055 14632 15409 16562 19690 10616 11168 14241 12588 19981 13410 17897 10604 14220 17521 14739 14384 16188 12564 18544 16155 16955 14424 17791 10441 13897 12925 16572 15707 14096 10535 17865 15394 16191 11170 19388 19128 10969 10063 12941 15129 19269 10789 19825 10925 14200 14677 14368 12287 12291 16904 16221 17609 12351 18527 17470 11468 14548 19773 14130 10284 14928 16892 18701 11908 15142 12375 10478 15576 15778 10473 12120 15260 13147 18581 16273 15003 16583 16811 17963 19112 14780 18179 17697 11819 13785 10937 11352 19582 14483 10280 13761 10403 10191 14958 12814 999999 999999 999999 999999 999999 999999 999999 999999 999999 999999 999999 999999 999999 999999 999999 999999 999999 999999 999999 999999 999999 999999 999999 999999 999999 999999 999999 999999 999999 999999 999999 999999 999999 999999 999999 999999 999999 999999 999999 999999 999999 999999 999999 999999 999999 999999 999999 999999 999999 999999 999999 999999 999999 999999 999999 999999 999999 999999 999999 999999 999999 999999 999999 999999 999999 999999 999999 999999 999999 999999 999999 999999 999999 999999 999999 999999 999999 999999 999999 999999 999999 999999 999999 999999 999999 999999 999999 999999 999999 999999 999999 999999 999999 999999 999999 999999 999999 999999 999999 999999 999999 999999 999999 999999 999999 999999 999999 999999 999999 999999 999999 999999 999999 999999 0 999999 999999 999999 999999 999999 999999 999999 999999 999999 999999 999999 999999 999999 999999 999999 999999 999999 999999 999999 999999 999999 999999 999999 999999 999999 999999 999999 999999 999999 999999 999999 999999 999999 999999 999999 999999 999999 999999 999999 999999 999999 999999 999999 999999 999999 999999 999999 999999 999999 999999 999999 999999 999999 999999 999999 999999 999999 999999 999999 999999 999999 999999 999999 999999 999999 5671
999999 14038 12680 15976 11469 16871 12168 12232 10444 12321 13269 12749 14772 12050 19652 10826 10681 10254 14780 14109 19541 15637 19494 17011 13104 15074 11124 16475 12213 12004 10338 12259 16634 12972 16919 11569 16590 11471 14574 19360 18957 18021 12991 14843 10829 19775 10849 10179 10636 15231 11275 13424 11434 12726 18598 11654 11344 13996 13219 16770 16512 12397 17748 11303 18521 14820 19198 16109 11224 17894 13311 16984 12381 13173 14589 19864 12500 19979 12304 14787 10620 15102 10423 14356 17219 12634 11432 14762 12849 17445 13702 17170 15256 11259 12897 17767 13488 18700 13107 18798 13763 10994 15863 13277 15497 11208 18223 16247 10426 17460 14950 14523 12762 12963 16714 19539 10709 19034 19920 18314 10590 13074 17809 10368 17878 19693 10921 18493 16732 13364 18172 10320 19478 17933 14680 14339 14311 17960 13075 12751 13944 12393 13813 15750 16556 13164 17283 14944 19891 12226 10765 13417 16209 13703 16814 11276 16879 17183 13284 18145 11082 15048 18896 14626 14566 17657 14027 11235 16225 19219 16555 14543 14492 16561 10753 11504 19904 12311 19496 13861 10917 999999 999999 999999 999999 999999 999999 999999 999999 999999 999999 999999 999999 999999 999999 999999 999999 999999 999999 999999 999999 999999 999999 999999 999999 999999 999999 999999 999999 999999 999999 999999 999999 999999 999999 999999 999999 999999 999999 999999 999999 999999 999999 999999 999999 999999 999999 999999 999999 999999 999999 999999 999999 999999 999999 999999 999999 999999 999999 999999 999999 999999 999999 999999 999999 999999 999999 999999 999999 999999 999999 999999 999999 999999 999999 999999 999999 999999 999999 999999 999999 999999 999999 999999 999999 999999 999999 999999 999999 999999 999999 999999 999999 999999 999999 999999 999999 999999 999999 999999 999999 999999 999999 999999 999999 999999 999999 999999 999999 999999 999999 999999 999999 999999 999999 999999 0 999999 999999 999999 999999 999999 999999 999999 999999 999999 999999 999999 999999 999999 999999 999999 999999 999999 999999 999999 999999 999999 999999 999999 999999 999999 999999 999999 999999 999999 999999 999999 999999 999999 999999 999999 999999 999999 999999 999999 999999 999999 999999 999999 999999 999999 999999 999999 999999 999999 999999 999999 999999 999999 999999 999999 999999 999999 999999 999999 999999 999999 999999 999999 999999 13829
999999 16948 13023 14516 16734 19434 13320 19990 18313 18180 11860 18768 19331 15050 10051 16388 13669 18789 11185 13909 16446 19171 11667 12962 19636 14751 19484 16578 17026 17399 19479 14328 19475 17529 10197 17808 14517 15997 12359 17925 15442 11362 12594 16172 12656 10351 18293 14675 10696 13233 18391 15864 16806 10701 15700 10295 17976 14033 11467 12603 19180 12202 10913 13665 10907 14499 16483 16552 13524 15533 13771 15755 11779 14779 11582 12973 18480 16434 16731 16283 14629 13622 19294 18902 14083 10853 16462 18891 15865 13116 16851 11574 17080 16014 15536 10640 15841 12890 12401 17471 19274 11612 14585 10542 17117 17627 15728 13456 19104 11237 14374 14399 18505 14435 16320 11005 10719 15728 17157 14843 16974 10913 13924 18685 14033 16852 13056 13004 17734 14877 15163 10825 19366 19766 11510 19968 16566 17257 12720 14079 12977 13764 12432 11822 10613 13392 17483 12580 14601 11171 11627 15943 10036 17247 13077 10280 17039 18377 17551 16451 19628 13034 18085 16601 13399 16598 11679 17585 10526 12890 13616 14880 15065 13266 10859 13116 11514 14948 16758 14261 14355 999999 999999 999999 999999 999999 999999 999999 999999 999999 999999 999999 999999 999999 999999 999999 999999 999999 999999 999999 999999 999999 999999 999999 999999 999999 999999 999999 999999 999999 999999 999999 999999 999999 999999 999999 999999 999999 999999 999999 999999 999999 999999 999999 999999 999999 999999 999999 999999 999999 999999 999999 999999 999999 999999 999999 999999 999999 999999 999999 999999 999999 999999 999999 999999 999999 999999 999999 999999 999999 999999 999999 999999 999999 999999 999999 999999 999999 999999 999999 999999 999999 999999 999999 999999 999999 999999 999999 999999 999999 999999 999999 999999 999999 999999 999999 999999 999999 999999 999999 999999 999999 999999 999999 999999 999999 999999 999999 999999 999999 999999 999999 999999 999999 999999 999999 999999 0 999999 999999 999999 999999 999999 999999 999999 999999 999999 999999 999999 999999 999999 999999 999999 999999 999999 999999 999999 999999 999999 999999 999999 999999 999999 999999 999999 999999 999999 999999 999999 999999 999999 999999 999999 999999 999999 999999 999999 999999 999999 999999 999999 999999 999999 999999 999999 999999 999999 999999 999999 999999 999999 999999 999999 999999 999999 999999 999999 999999 999999 999999 999999 13811
999999 13275 17580 18843 11069 19372 14388 16580 13500 17290 19272 13659 13430 15443 10167 18765 11567 17101 19985 19438 11759 19458 18518 10121 14185 14532 13472 12073 14515 19759 16366 12342 17296 14194 17398 16162 14278 14121 15966 19828 10351 12090 12238 18397 17901 15262 17692 10754 16958 10322 18450 15585 14877 15308 18909 14650 12227 14043 19967 13302 17597 10703 13716 14441 13086 17038 17391 17567 12220 19076 10284 16136 11116 11151 12719 13094 14832 14306 16680 17915 15550 11454 10273 19388 13856 12023 19680 11162 13430 16591 17288 18932 12349 10953 10428 18923 11333 10132 15822 13652 15633 12838 19738 13696 11685 17998 12920 14874 19563 10608 12043 19817 18639 17862 13594 19489 16887 10056 10010 12389 18027 18060 14446 17176 18569 12558 12332 11506 13316 13937 11814 11692 18343 10163 11388 10976 18238 16022 10575 18728 14122 18237 13936 13900 13455 19162 10238 18696 14041 18503 12520 19104 14914 18964 19764 15711 16494 16699 14984 17839 17639 10465 15386 14370 16696 18332 19272 10318 12986 11222 13723 17374 13501 18801 13847 17235 18039 16843 16827 14620 11219 999999 999999 999999 999999 999999 999999 999999 999999 999999 999999 999999 999999 999999 999999 999999 999999 999999 999999 999999 999999 999999 999999 999999 999999 999999 999999 999999 999999 999999 999999 999999 999999 999999 999999 999999 999999 999999 999999 999999 999999 999999 999999 999999 999999 999999 999999 999999 999999 999999 999999 999999 999999 999999 999999 999999 999999 999999 999999 999999 999999 999999 999999 999999 999999 999999 999999 999999 999999 999999 999999 999999 999999 999999 999999 999999 999999 999999 999999 999999 999999 999999 999999 999999 999999 999999 999999 999999 999999 999999 999999 999999 999999 999999 999999 999999 999999 999999 999999 999999 999999 999999 999999 999999 999999 999999 999999 999999 999999 999999 999999 999999 999999 999999 999999 999999 999999 999999 0 999999 999999 999999 999999 999999 999999 999999 999999 999999 999999 999999 999999 999999 999999 999999 999999 999999 999999 999999 999999 999999 999999 999999 999999 999999 999999 999999 999999 999999 999999 999999 999999 999999 999999 999999 999999 999999 999999 999999 999999 999999 999999 999999 999999 999999 999999 999999 999999 999999 999999 999999 999999 999999 999999 999999 999999 999999 999999 999999 999999 999999 999999 5579
999999 10388 10524 10877 14574 18094 11091 18352 18956 15743 16645 15081 14617 15982 17216 17813 14788 18302 19567 14649 12118 18842 15130 17064 18453 15501 11858 14293 15452 10420 10202 18862 11147 11940 16809 13076 13789 12706 12583 16258 13263 17672 18628 11683 19541 14482 14256 11342 12219 15527 17874 13271 16335 12844 10787 11721 18912 18151 10115 12569 10995 13707 14812 15226 14382 19124 18480 19619 17046 12489 17362 10765 16889 11375 17161 19091 13142 16870 16176 17437 12947 12169 17011 14850 15795 17702 16155 11976 18727 12338 15499 17587 18450 18442 16171 11443 18385 10114 17741 11944 12587 14849 13350 11010 19664 15253 18994 18860 15069 15679 18491 17605 17862 13505 10951 13812 14222 10285 19551 17094 19508 15441 10633 18312 10280 16544 13694 14187 13798 18632 14797 11730 12982 13502 18578 19586 17751 10279 14027 17242 19878 17869 17589 14201 13278 18451 14436 11581 12026 14467 12982 16179 15031 14527 19717 16811 12813 11117 18130 18198 10671 14913 11951 12564 12081 17754 13192 17189 12474 13470 15335 14151 14171 11736 14036 12047 19155 19525 12223 16767 16817 999999 999999 999999 999999 999999 999999 999999 999999 999999 999999 999999 999999 999999 999999 999999 999999 999999 999999 999999 999999 999999 999999 999999 999999 999999 999999 999999 999999 999999 999999 999999 999999 999999 999999 999999 999999 999999 999999 999999 999999 999999 999999 999999 999999 999999 999999 999999 999999 999999 999999 999999 999999 999999 999999 999999 999999 999999 999999 999999 999999 999999 999999 999999 999999 999999 999999 999999 999999 999999 999999 999999 999999 999999 999999 999999 999999 999999 999999 999999 999999 999999 999999 999999 999999 999999 999999 999999 999999 999999 999999 999999 999999 999999 999999 999999 999999 999999 999999 999999 999999 999999 999999 999999 999999 999999 999999 999999 999999 999999 999999 999999 999999 999999 999999 999999 999999 999999 999999 0 999999 999999 999999 999999 999999 999999 999999 999999 999999 999999 999999 999999 999999 999999 999999 999999 999999 999999 999999 999999 999999 999999 999999 999999 999999 999999 999999 999999 999999 999999 999999 999999 999999 999999 999999 999999 999999 999999 999999 999999 999999 999999 999999 999999 999999 999999 999999 999999 999999 999999 999999 999999 999999 999999 999999 999999 999999 999999 999999 999999 999999 8967
999999 10647 14946 17380 17597 19447 17345 12429 11619 17175 18990 10262 13434 14927 10539 16899 11172 16049 18677 15379 11510 12527 10391 10944 13168 13227 11923 19003 14722 10242 14077 14233 19620 19680 12544 12256 18278 12555 16848 11553 19142 12564 12332 12435 10232 18118 17319 11524 13848 10961 19933 12675 18946 15771 13138 12006 17822 16270 13097 10748 15577 18155 10007 15219 16708 18922 11147 19238 11438 12900 10391 13981 18382 18979 12802 15614 14547 19678 14871 16105 12626 18048 19969 13643 15034 14101 15350 12503 15668 11380 17051 17559 12153 18915 13280 15978 13246 10880 10085 16585 13309 16713 12820 10428 15719 12046 14926 19456 15044 13323 11744 13921 13599 15021 10073 14235 15229 12633 16428 11471 12072 10879 14597 11154 19248 18593 12223 15437 19752 14264 18907 15114 12144 17315 13401 12597 12916 18060 19752 11996 16376 10307 18121 10489 14917 14855 15039 18036 18346 19032 13891 12820 14067 10118 13821 19567 15248 19275 10855 13100 10275 16451 15018 10618 15749 14623 12397 17636 15470 10866 18720 17864 17386 10124 11264 14530 15037 12367 15760 13120 13562 999999 999999 999999 999999 999999 999999 999999 999999 999999 999999 999999 999999 999999 999999 999999 999999 999999 999999 999999 999999 999999 999999 999999 999999 999999 999999 999999 999999 999999 999999 999999 999999 999999 999999 999999 999999 999999 999999 999999 999999 999999 999999 999999 999999 999999 999999 999999 999999 999999 999999 999999 999999 999999 999999 999999 999999 999999 999999 999999 999999 999999 999999 999999 999999 999999 999999 999999 999999 999999 999999 999999 999999 999999 999999 999999 999999 999999 999999 999999 999999 999999 999999 999999 999999 999999 999999 999999 999999 999999 999999 999999 999999 999999 999999 999999 999999 999999 999999 999999 999999 999999 999999 999999 999999 999999 999999 999999 999999 999999 999999 999999 999999 999999 999999 999999 999999 999999 999999 999999 0 999999 999999 999999 999999 999999 999999 999999 999999 999999 999999 999999 999999 999999 999999 999999 999999 999999 999999 999999 999999 999999 999999 999999 999999 999999 999999 999999 999999 999999 999999 999999 999999 999999 999999 999999 999999 999999 999999 999999 999999 999999 999999 999999 999999 999999 999999 999999 999999 999999 999999 999999 999999 999999 999999 999999 999999 999999 999999 999999 999999 10891
999999 18338 12297 14263 16306 11259 18071 18078 14623 12524 10197 17084 19955 15234 17982 17675 18114 17163 11603 12597 15769 16020 18668 15488 15053 13171 18617 14332 14859 10981 18646 14878 14029 14696 19858 19984 11221 10409 12647 15528 16418 10862 16274 16174 16988 18745 11083 17464 13814 18865 17583 16677 19788 11406 14047 19810 10580 13042 11842 11718 17734 12586 18523 17839 13811 19327 18664 15044 11046 16923 13362 19768 19347 14520 18151 18454 18124 11703 11022 14029 13994 18061 17935 17768 19680 18711 15198 13215 12499 15298 10343 12201 13412 10842 13732 14207 12354 14262 16913 17569 10042 17412 17041 10410 12057 12980 10977 18784 19131 15899 12543 17521 19727 10510 10721 12925 13706 17822 19735 17356 16744 17040 19488 19689 12440 17013 15905 13135 14052 17358 11689 15875 17096 19342 10757 16012 19292 15550 17108 17543 18108 13488 12220 14949 12237 11130 19014 12848 10662 16705 14916 11782 12673 16215 10761 14785 19321 16499 11884 16449 14167 17036 14141 12195 10043 15362 17400 13970 14039 11266 17177 17006 18839 12528 10593 17467 19922 19649 10579 16729 18221 999999 999999 999999 999999 999999 999999 999999 999999 999999 999999 999999 999999 999999 999999 999999 999999 999999 999999 999999 999999 999999 999999 999999 999999 999999 999999 999999 999999 999999 999999 999999 999999 999999 999999 999999 999999 999999 999999 999999 999999 999999 999999 999999 999999 999999 999999 999999 999999 999999 999999 999999 999999 999999 999999 999999 999999 999999 999999 999999 999999 999999 999999 999999 999999 999999 999999 999999 999999 999999 999999 999999 999999 999999 999999 999999 999999 999999 999999 999999 999999 999999 999999 999999 999999 999999 999999 999999 999999 999999 999999 999999 999999 999999 999999 999999 999999 999999 999999 999999 999999 999999 999999 999999 999999 999999 999999 999999 999999 999999 999999 999999 999999 999999 999999 999999 999999 999999 999999 999999 999999 0 999999 999999 999999 999999 999999 999999 999999 999999 999999 999999 999999 999999 999999 999999 999999 999999 999999 999999 999999 999999 999999 999999 999999 999999 999999 999999 999999 999999 999999 999999 999999 999999 999999 999999 999999 999999 999999 999999 999999 999999 999999 999999 999999 999999 999999 999999 999999 999999 999999 999999 999999 999999 999999 999999 999999 999999 999999 999999 999999 6109
999999 12080 19108 16393 15117 13827 16639 17338 14094 18150 12799 13328 19357 15446 16645 14751 12697 14992 11380 15887 17992 16321 10553 19807 14543 18401 16005 13691 15800 16377 19927 11261 19974 10079 12481 19570 16703 14420 12018 12981 16340 10993 11543 12709 18988 11478 13563 14133 19842 12011 16342 19555 14631 18643 18565 19414 15412 15121 19202 10752 18624 13342 19827 19807 15138 10144 14865 11703 12212 19616 15132 12503 12597 16528 15130 10128 12577 10080 16947 10834 12756 15916 16431 17466 16071 11838 19862 14337 15170 11009 12009 15653 10138 10513 19009 12811 17786 17872 19488 11004 11990 11251 15485 17438 19664 11209 19673 12550 10224 11437 13705 19429 16037 11691 15138 17219 11212 14647 18946 16018 10532 13923 13192 16098 15054 19195 15469 12643 11431 17931 10753 14619 15008 10768 12522 10941 19199 13415 19190 18017 17057 11754 13764 14442 11376 11443 14147 14406 18784 12594 15541 19788 12833 18422 12571 16219 11117 13796 15618 13534 14368 17349 19846 10617 14462 18466 12490 13393 13765 19767 11160 18968 17354 19002 19296 17048 11362 18071 18844 15262 13305 999999 999999 999999 999999 999999 999999 999999 999999 999999 999999 999999 999999 999999 999999 999999 999999 999999 999999 999999 999999 999999 999999 999999 999999 999999 999999 999999 999999 999999 999999 999999 999999 999999 999999 999999 999999 999999 999999 999999 999999 999999 999999 999999 999999 999999 999999 999999 999999 999999 999999 999999 999999 999999 999999 999999 999999 999999 999999 999999 999999 999999 999999 999999 999999 999999 999999 999999 999999 999999 999999 999999 999999 999999 999999 999999 999999 999999 999999 999999 999999 999999 999999 999999 999999 999999 999999 999999 999999 999999 999999 999999 999999 999999 999999 999999 999999 999999 999999 999999 999999 999999 999999 999999 999999 999999 999999 999999 999999 999999 999999 999999 999999 999999 999999 999999 999999 999999 999999 999999 999999 999999 0 999999 999999 999999 999999 999999 999999 999999 999999 999999 999999 999999 999999 999999 999999 999999 999999 999999 999999 999999 999999 999999 999999 999999 999999 999999 999999 999999 999999 999999 999999 999999 999999 999999 999999 999999 999999 999999 999999 999999 999999 999999 999999 999999 999999 999999 999999 999999 999999 999999 999999 999999 999999 999999 999999 999999 999999 999999 999999 9505
999999 14811 16920 18173 13264 10441 14839 10927 17803 11730 13519 14531 17400 11672 19159 12944 16495 11375 16958 15262 11452 14044 16577 11387 14914 19709 17259 12328 17028 14058 13464 19721 13515 18579 11176 10022 10561 12901 11114 15912 14879 10752 17956 18611 15366 16424 19355 18141 18422 19250 13654 18145 16468 11694 12053 13406 16590 18446 11082 13966 12521 19997 17153 15553 11786 19579 18545 19109 18787 14721 14066 14425 10216 13489 12148 12993 11199 13028 14751 15105 17383 18908 11889 19020 16010 16409 12914 19026 14226 10324 14537 12474 15233 11948 10566 19150 14412 11542 14224 13235 16713 11606 19156 18746 19858 18658 13957 19962 15816 19218 15368 12400 14521 14921 16456 11628 11497 18764 14081 10864 18806 18730 13713 15542 11530 11513 18246 18167 11296 17394 11201 10846 11221 16623 17376 19878 15615 16593 14250 16638 11625 10412 11833 19848 12797 19111 15730 19203 18322 19187 18857 16473 14114 12106 17212 19840 16968 13535 13751 12473 11221 17171 18548 15115 12012 14650 16614 10215 11071 18104 14201 17381 18298 13809 11410 17947 14540 10481 15285 14407 12553 999999 999999 999999 999999 999999 999999 999999 999999 999999 999999 999999 999999 999999 999999 999999 999999 999999 999999 999999 999999 999999 999999 999999 999999 999999 999999 999999 999999 999999 999999 999999 999999 999999 999999 999999 999999 999999 999999 999999 999999 999999 999999 999999 999999 999999 999999 999999 999999 999999 999999 999999 999999 999999 999999 999999 999999 999999 999999 999999 999999 999999 999999 999999 999999 999999 999999 999999 999999 999999 999999 999999 999999 999999 999999 999999 999999 999999 999999 999999 999999 999999 999999 999999 999999 999999 999999 999999 999999 999999 999999 999999 999999 999999 999999 999999 999999 999999 999999 999999 999999 999999 999999 999999 999999 999999 999999 999999 999999 999999 999999 999999 999999 999999 999999 999999 999999 999999 999999 999999 999999 999999 999999 0 999999 999999 999999 999999 999999 999999 999999 999999 999999 999999 999999 999999 999999 999999 999999 999999 999999 999999 999999 999999 999999 999999 999999 999999 999999 999999 999999 999999 999999 999999 999999 999999 999999 999999 999999 999999 999999 999999 999999 999999 999999 999999 999999 999999 999999 999999 999999 999999 999999 999999 999999 999999 999999 999999 999999 999999 999999 12141
999999 14934 16360 18699 18923 19540 15803 18129 19935 12401 14617 15133 11928 11471 18198 15502 13901 19678 19162 16773 18863 13792 14383 12109 10156 15039 11229 17311 10645 17478 16516 16568 15358 19456 17461 18120 18509 10791 16293 10146 18431 14844 10663 13619 18087 10222 19945 13788 19385 15256 16484 11588 17072 11788 13630 16391 14217 18950 13045 11281 13880 17699 14075 19245 13679 11469 11103 16088 18090 16096 18896 19476 13067 19384 10205 12527 19348 16250 12990 17569 14978 12130 14610 12938 15611 15304 14065 15030 17528 18535 17788 14327 19959 15139 13856 11682 17258 17827 19533 14828 12326 14161 17383 15341 13927 14301 13911 13484 12313 11573 13260 19889 19428 18194 10718 14329 16468 18447 18820 16839 11758 10344 16101 19220 10925 15084 18211 13376 13953 14486 10052 17202 16007 12435 13873 12215 19136 15140 19644 14812 10054 16342 19847 13839 18774 15494 18507 13082 18479 13285 14455 10547 12656 19644 18818 12767 19978 11582 19300 13603 17936 12403 15599 18046 11566 15538 12776 18201 15622 14974 18685 10386 17216 12769 19633 18535 17560 16796 19634 11297 19895 999999 999999 999999 999999 999999 999999 999999 999999 999999 999999 999999 999999 999999 999999 999999 999999 999999 999999 999999 999999 999999 999999 999999 999999 999999 999999 999999 999999 999999 999999 999999 999999 999999 999999 999999 999999 999999 999999 999999 999999 999999 999999 999999 999999 999999 999999 999999 999999 999999 999999 999999 999999 999999 999999 999999 999999 999999 999999 999999 999999 999999 999999 999999 999999 999999 999999 999999 999999 999999 999999 999999 999999 999999 999999 999999 999999 999999 999999 999999 999999 999999 999999 999999 999999 999999 999999 999999 999999 999999 999999 999999 999999 999999 999999 999999 999999 999999 999999 999999 999999 999999 999999 999999 999999 999999 999999 999999 999999 999999 999999 999999 999999 999999 999999 999999 999999 999999 999999 999999 999999 999999 999999 999999 0 999999 999999 999999 999999 999999 999999 999999 999999 999999 999999 999999 999999 999999 999999 999999 999999 999999 999999 999999 999999 999999 999999 999999 999999 999999 999999 999999 999999 999999 999999 999999 999999 999999 999999 999999 999999 999999 999999 999999 999999 999999 999999 999999 999999 999999 999999 999999 999999 999999 999999 999999 999999 999999 999999 999999 999999 7483
999999 13293 15750 13040 15913 15166 11163 18556 16173 15146 14213 19830 13729 10943 19562 18016 19692 17067 17037 13701 14986 15782 11688 16524 15719 17467 13122 14464 11096 13439 16610 18959 16126 14555 18650 14002 14228 19323 13675 17690 19224 10890 19049 14280 11746 16823 15967 15563 17864 14867 17940 19750 15180 19175 14954 15781 14779 13995 14895 16924 18087 13267 17895 14444 18565 12738 19293 19434 14488 14978 12376 18989 14411 15809 18279 14842 19306 13802 12974 13346 13337 16313 18511 10420 15382 10205 11182 14776 16126 14303 16673 11146 12372 12312 11244 13311 12859 19710 17600 14814 19860 17964 15859 18622 18233 14984 17603 16567 13872 18145 16072 16432 10343 17416 10864 19904 13228 11277 14499 10529 14416 12059 14351 19913 16488 14376 11663 13270 13006 15532 10761 16901 10779 13000 16382 12745 13349 10160 12818 13092 13627 13944 16131 19682 16801 19103 18637 17800 11712 18981 16651 10420 11274 17500 19315 17368 14952 16548 16378 10837 11590 12653 17296 18989 18394 15840 12897 14336 13723 15880 10992 19847 17269 12581 16949 12883 12141 10771 12071 14500 18908 999999 999999 999999 999999 999999 999999 999999 999999 999999 999999 999999 999999 999999 999999 999999 999999 999999 999999 999999 999999 999999 999999 999999 999999 999999 999999 999999 999999 999999 999999 999999 999999 999999 999999 999999 999999 999999 999999 999999 999999 999999 999999 999999 999999 999999 999999 999999 999999 999999 999999 999999 999999 999999 999999 999999 999999 999999 999999 999999 999999 999999 999999 999999 999999 999999 999999 999999 999999 999999 999999 999999 999999 999999 999999 999999 999999 999999 999999 999999 999999 999999 999999 999999 999999 999999 999999 999999 999999 999999 999999 999999 999999 999999 999999 999999 999999 999999 999999 999999 999999 999999 999999 999999 999999 999999 999999 999999 999999 999999 999999 999999 999999 999999 999999 999999 999999 999999 999999 999999 999999 999999 999999 999999 999999 0 999999 999999 999999 999999 999999 999999 999999 999999 999999 999999 999999 999999 999999 999999 999999 999999 999999 999999 999999 999999 999999 999999 999999 999999 999999 999999 999999 999999 999999 999999 999999 999999 999999 999999 999999 999999 999999 999999 999999 999999 999999 999999 999999 999999 999999 999999 999999 999999 999999 999999 999999 999999 999999 999999 999999 7773
999999 11757 18000 10132 13042 19695 12563 19251 18763 15318 12796 10820 16239 13726 17035 13843 17675 18100 18904 12110 18096 11160 16555 17976 15731 15842 16749 11831 13360 11428 15331 18862 14452 19075 14007 11537 14304 14217 13505 13603 16139 15544 16667 15309 14423 19972 12307 15389 13904 10863 16814 15906 19938 19412 13015 19404 13548 15358 10274 11796 10437 18204 14667 13264 13487 12657 13953 13077 10827 10364 10985 16324 10082 13293 18369 11253 18202 15289 18371 10567 19848 16841 19545 13433 19307 12902 19632 10667 12623 13585 17236 15379 14546 12213 17847 15181 15924 12635 19142 18445 17087 11205 19338 11837 11316 19255 19910 12766 10568 14579 12703 15954 14088 11817 16337 18753 12988 11627 10973 15524 14606 11689 15778 17029 17568 16563 12895 10582 10558 18468 14088 11304 11662 14262 17150 12069 10224 10717 17793 17015 17243 14042 13712 16835 13861 16771 12618 10132 15941 14918 16553 13099 13500 14188 16432 15487 13455 10858 17615 18372 15468 16664 19909 16156 11678 14259 19307 13272 14249 19957 15995 16234 17555 12099 19142 13771 11923 18941 13059 18452 10491 999999 999999 999999 999999 999999 999999 999999 999999 999999 999999 999999 999999 999999 999999 999999 999999 999999 999999 999999 999999 999999 999999 999999 999999 999999 999999 999999 999999 999999 999999 999999 999999 999999 999999 999999 999999 999999 999999 999999 999999 999999 999999 999999 999999 999999 999999 999999 999999 999999 999999 999999 999999 999999 999999 999999 999999 999999 999999 999999 999999 999999 999999 999999 999999 999999 999999 999999 999999 999999 999999 999999 999999 999999 999999 999999 999999 999999 999999 999999 999999 999999 999999 999999 999999 999999 999999 999999 999999 999999 999999 999999 999999 999999 999999 999999 999999 999999 999999 999999 999999 999999 999999 999999 999999 999999 999999 999999 999999 999999 999999 999999 999999 999999 999999 999999 999999 999999 999999 999999 999999 999999 999999 999999 999999 999999 0 999999 999999 999999 999999 999999 999999 999999 999999 999999 999999 999999 999999 999999 999999 999999 999999 999999 999999 999999 999999 999999 999999 999999 999999 999999 999999 999999 999999 999999 999999 999999 999999 999999 999999 999999 999999 999999 999999 999999 999999 999999 999999 999999 999999 999999 999999 999999 999999 999999 999999 999999 999999 999999 999999 6284
999999 12425 12755 15170 13975 12501 11168 16028 14671 17899 12432 10128 11676 18804 15729 17361 11868 18128 15558 17229 18746 12944 14640 16755 14906 19351 12644 11026 18768 11283 13173 14329 12918 10541 17348 11314 14284 11144 14409 11132 17513 14799 12106 12055 17386 18873 10188 13609 12648 12527 17463 17108 19958 18500 12564 10296 15201 15352 11683 16259 11068 13141 11153 17801 19420 16638 16112 19073 19212 10857 11668 16161 13929 18358 13834 15648 10242 16099 17794 10176 18738 11131 19503 11114 13986 16224 11089 16018 19367 17621 15667 14843 19053 19955 15053 13014 12585 10138 14105 15903 11251 13032 12492 15423 14416 19350 16265 18716 11673 15134 10108 18539 15331 17996 19803 18075 11895 19896 10175 12773 13822 12509 14617 10011 19339 13705 13824 13657 18155 18433 11638 12252 19714 12046 12100 19847 15287 11642 10829 14710 10112 15775 10832 14330 15389 19264 17992 11934 10894 10562 12550 12484 16636 13390 10732 19645 13985 17871 17140 17067 11494 15425 17035 11451 16863 17865 11104 17522 14341 16008 13883 15763 15736 19159 13716 18664 16753 17607 17639 12492 12627 999999 999999 999999 999999 999999 999999 999999 999999 999999 999999 999999 999999 999999 999999 999999 999999 999999 999999 999999 999999 999999 999999 999999 999999 999999 999999 999999 999999 999999 999999 999999 999999 999999 999999 999999 999999 999999 999999 999999 999999 999999 999999 999999 999999 999999 999999 999999 999999 999999 999999 999999 999999 999999 999999 999999 999999 999999 999999 999999 999999 999999 999999 999999 999999 999999 999999 999999 999999 999999 999999 999999 999999 999999 999999 999999 999999 999999 999999 999999 999999 999999 999999 999999 999999 999999 999999 999999 999999 999999 999999 999999 999999 999999 999999 999999 999999 999999 999999 999999 999999 999999 999999 999999 999999 999999 999999 999999 999999 999999 999999 999999 999999 999999 999999 999999 999999 999999 999999 999999 999999 999999 999999 999999 999999 999999 999999 0 999999 999999 999999 999999 999999 999999 999999 999999 999999 999999 999999 999999 999999 999999 999999 999999 999999 999999 999999 999999 999999 999999 999999 999999 999999 999999 999999 999999 999999 999999 999999 999999 999999 999999 999999 999999 999999 999999 999999 999999 999999 999999 999999 999999 999999 999999 999999 999999 999999 999999 999999 999999 999999 5328
999999 18948 11607 11227 10464 12091 12041 16404 19761 19593 11443 13690 10235 10694 14707 16012 16883 16457 15499 16453 13960 19583 12821 17282 15482 19316 14322 16182 14566 15467 17894 10322 10826 14439 13860 18596 13174 14036 12248 18151 17263 12052 19225 11320 19470 14923 14445 15638 14916 11849 15582 14602 13099 15895 12850 17372 18456 18279 11381 17433 14909 12659 14079 17165 17320 18857 13844 11640 14141 13370 14558 13270 10267 14090 16717 15993 11462 10598 15213 15244 12822 10968 19751 14326 12841 11914 18320 12324 15758 16732 12178 14202 13693 13414 11481 16724 16952 19319 17469 14596 11378 10658 10100 14144 17005 14650 11284 14531 17196 18035 14060 19765 15585 11852 11754 17488 11616 19346 17087 17324 19758 11192 12029 14027 14590 13665 10538 10352 16258 16094 13749 13124 13558 12720 16842 10810 12193 10120 14895 16132 10737 19232 17768 12474 12419 18265 18586 15414 19103 11504 13050 14178 17715 13525 11095 10519 19153 12008 11219 16403 14520 12787 19029 13629 17603 11898 18810 14184 15465 16642 15302 16304 10390 19508 11338 10274 12064 19829 10613 10873 19726 999999 999999 999999 999999 999999 999999 999999 999999 999999 999999 999999 999999 999999 999999 999999 999999 999999 999999 999999 999999 999999 999999 999999 999999 999999 999999 999999 999999 999999 999999 999999 999999 999999 999999 999999 999999 999999 999999 999999 999999 999999 999999 999999 999999 999999 999999 999999 999999 999999 999999 999999 999999 999999 999999 999999 999999 999999 999999 999999 999999 999999 999999 999999 999999 999999 999999 999999 999999 999999 999999 999999 999999 999999 999999 999999 999999 999999 999999 999999 999999 999999 999999 999999 999999 999999 999999 999999 999999 999999 999999 999999 999999 999999 999999 999999 999999 999999 999999 999999 999999 999999 999999 999999 999999 999999 999999 999999 999999 999999 999999 999999 999999 999999 999999 999999 999999 999999 999999 999999 999999 999999 999999 999999 999999 999999 999999 999999 0 999999 999999 999999 999999 999999 999999 999999 999999 999999 999999 999999 999999 999999 999999 999999 999999 999999 999999 999999 999999 999999 999999 999999 999999 999999 999999 999999 999999 999999 999999 999999 999999 999999 999999 999999 999999 999999 999999 999999 999999 999999 999999 999999 999999 999999 999999 999999 999999 999999 999999 999999 999999 11871
999999 17542 19636 15717 13948 10894 12225 15369 17008 13309 15089 18090 16693 10208 14958 15346 19321 15861 10588 16766 16018 14717 11035 18790 11344 14983 18390 18451 15057 17803 13033 13526 19699 17975 19765 12727 13277 13857 17438 13387 13027 18801 11051 18353 16653 19883 16209 17105 18646 17445 13402 12789 18690 12544 19665 10570 16072 17504 19839 11209 15998 15686 13885 15181 12783 19387 11442 15166 18218 14143 15307 12943 12143 11915 19711 13389 12484 18804 17784 13649 14319 17741 17448 16391 16958 12975 14044 17893 16836 18669 16926 12375 11073 15362 16445 10133 11415 15783 13369 13727 15775 12085 10195 17861 11356 19728 13852 11801 16026 14194 18337 19712 15091 14247 14916 18124 12231 12372 17909 16504 14170 11047 11655 12695 13287 12849 12203 15670 14225 15116 14267 18267 10754 10313 14118 17133 11263 14169 11981 14462 19296 15752 12598 15845 11754 17624 18216 11432 16319 11772 11576 14185 19961 10997 15902 11298 11098 14559 14744 19714 12215 17603 18008 13652 13060 15743 10452 15384 17584 19728 19222 17603 12671 19771 14419 11148 13900 12874 18897 16527 10431 999999 999999 999999 999999 999999 999999 999999 999999 999999 999999 999999 999999 999999 999999 999999 999999 999999 999999 999999 999999 999999 999999 999999 999999 999999 999999 999999 999999 999999 999999 999999 999999 999999 999999 999999 999999 999999 999999 999999 999999 999999 999999 999999 999999 999999 999999 999999 999999 999999 999999 999999 999999 999999 999999 999999 999999 999999 999999 999999 999999 999999 999999 999999 999999 999999 999999 999999 999999 999999 999999 999999 999999 999999 999999 999999 999999 999999 999999 999999 999999 999999 999999 999999 999999 999999 999999 999999 999999 999999 999999 999999 999999 999999 999999 999999 999999 999999 999999 999999 999999 999999 999999 999999 999999 999999 999999 999999 999999 999999 999999 999999 999999 999999 999999 999999 999999 999999 999999 999999 999999 999999 999999 999999 999999 999999 999999 999999 999999 0 999999 999999 999999 999999 999999 999999 999999 999999 999999 999999 999999 999999 999999 999999 999999 999999 999999 999999 999999 999999 999999 999999 999999 999999 999999 999999 999999 999999 999999 999999 999999 999999 999999 999999 999999 999999 999999 999999 999999 999999 999999 999999 999999 999999 999999 999999 999999 999999 999999 999999 999999 11073
999999 13397 14082 15882 18262 14059 12299 16577 16559 19743 16156 11964 12787 13489 11807 15412 15771 13568 16338 13379 16036 12901 14019 12755 11848 10522 15576 10350 12639 14743 13173 10526 18858 13651 15545 15601 16398 15070 11314 16561 17740 16601 16168 15196 16708 17057 15402 13453 14901 11705 12693 18966 10341 16398 13978 15015 11314 14274 13812 11352 16094 17086 15670 18592 15609 18348 18251 14231 19225 15147 13986 12946 13259 14663 17479 17229 19831 18785 10010 10046 13735 12076 10587 18702 10271 12208 17345 13782 12588 13032 19341 18050 10329 17498 10176 14521 18771 11458 18001 10347 17168 16764 18324 17673 15853 11176 16289 13696 19266 10312 14222 12972 17541 14268 18796 18900 14132 17944 17890 17713 10876 18884 15116 18419 13192 15095 19158 12577 10222 11513 12150 13971 16325 13930 19560 18113 12012 10974 15515 18359 11235 15740 17421 12936 13843 16648 15773 12779 14538 16491 13294 14741 16086 11327 11053 16951 19422 16400 19856 12799 16099 14539 10887 12080 13896 13478 13514 16005 16470 11321 19887 17867 19102 13578 18360 18404 11406 19555 16608 19117 16479 999999 999999 999999 999999 999999 999999 999999 999999 999999 999999 999999 999999 999999 999999 999999 999999 999999 999999 999999 999999 999999 999999 999999 999999 999999 999999 999999 999999 999999 999999 999999 999999 999999 999999 999999 999999 999999 999999 999999 999999 999999 999999 999999 999999 999999 999999 999999 999999 999999 999999 999999 999999 999999 999999 999999 999999 999999 999999 999999 999999 999999 999999 999999 999999 999999 999999 999999 999999 999999 999999 999999 999999 999999 999999 999999 999999 999999 999999 999999 999999 999999 999999 999999 999999 999999 999999 999999 999999 999999 999999 999999 999999 999999 999999 999999 999999 999999 999999 999999 999999 999999 999999 999999 999999 999999 999999 999999 999999 999999 999999 999999 999999 999999 999999 999999 999999 999999 999999 999999 999999 999999 999999 999999 999999 999999 999999 999999 999999 999999 0 999999 999999 999999 999999 999999 999999 999999 999999 999999 999999 999999 999999 999999 999999 999999 999999 999999 999999 999999 999999 999999 999999 999999 999999 999999 999999 999999 999999 999999 999999 999999 999999 999999 999999 999999 999999 999999 999999 999999 999999 999999 999999 999999 999999 999999 999999 999999 999999 999999 999999 10212
999999 12962 19676 13193 16600 13326 10162 18564 19269 18160 15614 11876 15997 15123 16860 15816 15939 10522 17530 19508 19025 13495 16416 13790 16007 19472 15763 10955 18894 13224 10954 11821 16077 16627 19054 11105 15131 18016 15292 17024 19551 19803 18562 12855 19814 15225 10546 10848 15337 15607 12527 17626 12327 14552 16320 14548 12814 14347 17626 18174 17267 16285 12305 16410 11782 15297 18347 16963 16039 19439 11742 12280 15114 15109 13103 18278 10266 19249 13530 18692 17599 10664 16088 13637 18412 14892 13817 11425 17189 14048 12297 12906 12812 14698 14677 13925 18949 18651 18824 16786 19599 17043 12795 12352 17984 15996 17193 13895 14879 16424 13092 16158 16107 12537 16708 18346 18439 17591 15199 16781 13290 15307 19106 10851 11584 13093 10289 12725 11186 10148 12987 18148 15022 13841 10057 13985 11138 12681 13601 19354 13355 17122 17459 10031 10894 12818 16735 17354 11031 14403 19255 13687 11939 18302 11332 14279 18667 17387 19519 14691 18195 11919 12420 12482 11728 13025 18855 18515 14537 14401 13750 11222 14101 12441 16322 10177 13786 13959 16175 10781 19387 999999 999999 999999 999999 999999 999999 999999 999999 999999 999999 999999 999999 999999 999999 999999 999999 999999 999999 999999 999999 999999 999999 999999 999999 999999 999999 999999 999999 999999 999999 999999 999999 999999 999999 999999 999999 999999 999999 999999 999999 999999 999999 999999 999999 999999 999999 999999 999999 999999 999999 999999 999999 999999 999999 999999 999999 999999 999999 999999 999999 999999 999999 999999 999999 999999 999999 999999 999999 999999 999999 999999 999999 999999 999999 999999 999999 999999 999999 999999 999999 999999 999999 999999 999999 999999 999999 999999 999999 999999 999999 999999 999999 999999 999999 999999 999999 999999 999999 999999 999999 999999 999999 999999 999999 999999 999999 999999 999999 999999 999999 999999 999999 999999 999999 999999 999999 999999 999999 999999 999999 999999 999999 999999 999999 999999 999999 999999 999999 999999 999999 0 999999 999999 999999 999999 999999 999999 999999 999999 999999 999999 999999 999999 999999 999999 999999 999999 999999 999999 999999 999999 999999 999999 999999 999999 999999 999999 999999 999999 999999 999999 999999 999999 999999 999999 999999 999999 999999 999999 999999 999999 999999 999999 999999 999999 999999 999999 999999 999999 999999 10103
999999 11271 10203 19591 16007 15315 16597 14174 14872 15482 17218 12887 14570 11051 19499 12239 11295 15578 14334 12952 10143 11320 17975 15926 11422 12039 11874 12573 15025 13120 16474 13737 18483 14526 14175 15158 18324 17728 18321 14244 13081 19546 15713 12230 13032 18763 10348 16455 17021 11242 13538 11910 11001 12178 13305 17980 11999 17233 18418 10063 17898 19092 15249 11284 14702 16538 13257 14583 15787 17192 14417 14568 17168 15658 18789 17507 14526 15519 10999 10717 16368 15873 13262 14301 14355 19808 19232 15971 10240 15224 17783 19093 14661 15613 13811 18799 13187 17893 12473 18655 19061 18502 14830 19347 11599 11458 17214 14184 12109 10922 15684 12438 13556 13257 12952 11382 11347 11376 16551 12511 18250 13237 12889 16707 15208 13522 14334 12187 17248 19069 11369 13355 12624 15463 17970 12543 16411 11001 18254 17465 19169 11990 18023 18980 17515 14490 10213 17140 12590 13053 19364 18211 10037 12869 15071 11260 10292 16233 11129 13054 13128 17540 19311 17596 19203 11138 13068 16307 14674 18587 15721 18371 19043 10478 12607 15267 19571 19096 15011 19487 12547 999999 999999 999999 999999 999999 999999 999999 999999 999999 999999 999999 999999 999999 999999 999999 999999 999999 999999 999999 999999 999999 999999 999999 999999 999999 999999 999999 999999 999999 999999 999999 999999 999999 999999 999999 999999 999999 999999 999999 999999 999999 999999 999999 999999 999999 999999 999999 999999 999999 999999 999999 999999 999999 999999 999999 999999 999999 999999 999999 999999 999999 999999 999999 999999 999999 999999 999999 999999 999999 999999 999999 999999 999999 999999 999999 999999 999999 999999 999999 999999 999999 999999 999999 999999 999999 999999 999999 999999 999999 999999 999999 999999 999999 999999 999999 999999 999999 999999 999999 999999 999999 999999 999999 999999 999999 999999 999999 999999 999999 999999 999999 999999 999999 999999 999999 999999 999999 999999 999999 999999 999999 999999 999999 999999 999999 999999 999999 999999 999999 999999 999999 0 999999 999999 999999 999999 999999 999999 999999 999999 999999 999999 999999 999999 999999 999999 999999 999999 999999 999999 999999 999999 999999 999999 999999 999999 999999 999999 999999 999999 999999 999999 999999 999999 999999 999999 999999 999999 999999 999999 999999 999999 999999 999999 999999 999999 999999 999999 999999 999999 13485
999999 19907 11377 12823 13061 14880 16876 16005 16429 13908 19929 18602 13012 12208 17955 19235 14492 17102 14733 18036 11814 12247 10164 18940 10829 10014 15510 14384 14971 11532 11440 14292 10622 10177 17751 10886 14741 14379 12990 19760 17876 13420 10064 17889 18699 16466 19392 16478 15951 15092 13368 14007 18983 13175 17140 19074 10214 16868 19318 12329 10449 14284 16389 15564 18075 17520 18056 12471 14906 17616 18986 16776 16715 18785 11236 13560 17894 16155 18388 16909 11398 12385 11739 16911 16165 15157 19214 11547 19870 17437 11823 17390 11463 15622 17446 12172 17792 11075 18092 13832 11435 10066 16808 11491 17044 10643 15196 17943 19815 18726 12344 11347 11234 11296 16020 12501 14257 11020 10449 16624 17110 17544 13229 18867 16529 16846 11549 14452 17302 16941 16871 12855 13661 14887 17831 13052 14026 16785 13506 15042 12533 17934 18721 10319 19562 15020 14499 13590 11439 16587 15441 18551 15038 19270 15852 14017 10587 17462 14250 10886 12959 15018 10954 16091 15526 10186 11707 19307 16172 11857 15003 11170 16682 18741 15815 13902 18576 18434 17834 19621 10142 999999 999999 999999 999999 999999 999999 999999 999999 999999 999999 999999 999999 999999 999999 999999 999999 999999 999999 999999 999999 999999 999999 999999 999999 999999 999999 999999 999999 999999 999999 999999 999999 999999 999999 999999 999999 999999 999999 999999 999999 999999 999999 999999 999999 999999 999999 999999 999999 999999 999999 999999 999999 999999 999999 999999 999999 999999 999999 999999 999999 999999 999999 999999 999999 999999 999999 999999 999999 999999 999999 999999 999999 999999 999999 999999 999999 999999 999999 999999 999999 999999 999999 999999 999999 999999 999999 999999 999999 999999 999999 999999 999999 999999 999999 999999 999999 999999 999999 999999 999999 999999 999999 999999 999999 999999 999999 999999 999999 999999 999999 999999 999999 999999 999999 999999 999999 999999 999999 999999 999999 999999 999999 999999 999999 999999 999999 999999 999999 999999 999999 999999 999999 0 999999 999999 999999 999999 999999 999999 999999 999999 999999 999999 999999 999999 999999 999999 999999 999999 999999 999999 999999 999999 999999 999999 999999 999999 999999 999999 999999 999999 999999 999999 999999 999999 999999 999999 999999 999999 999999 999999 999999 999999 999999 999999 999999 999999 999999 999999 999999 11532
999999 14972 14638 18524 12303 10888 19260 10869 16879 13451 14937 17110 13022 12000 18686 17486 18236 17194 16986 10104 10193 19957 14392 15331 10263 12321 12740 18647 15600 11104 11946 15025 10538 15567 10067 17818 12453 19033 16871 13709 14186 19371 10267 17045 11207 14811 11948 11511 15294 14543 14708 16414 10226 18987 11106 18843 15856 17555 11603 16514 13886 14097 15327 11817 15030 17801 12708 14931 18728 18682 12515 13922 19650 11806 10364 10251 12141 15432 14146 12758 16881 11923 15503 16473 11433 17074 15652 12618 15984 19793 19741 15716 19281 19186 18304 15453 15950 13740 19009 15738 14304 15203 14825 18161 19462 17544 12577 13039 17820 10444 13749 18234 16321 12133 18890 13064 19381 17446 13241 18979 12508 12932 13681 12019 13217 18142 18262 13277 13878 15743 14637 10129 14382 10921 10690 18737 11398 19176 16978 18304 14689 11431 12115 11795 15842 15674 14751 10492 14247 14577 14369 13665 14212 11234 16387 10260 13449 13872 10150 10456 12147 15739 17918 16725 10683 10177 18204 15999 15822 10223 16589 10641 10187 15847 19792 12711 16631 18070 18392 10002 11346 999999 999999 999999 999999 999999 999999 999999 999999 999999 999999 999999 999999 999999 999999 999999 999999 999999 999999 999999 999999 999999 999999 999999 999999 999999 999999 999999 999999 999999 999999 999999 999999 999999 999999 999999 999999 999999 999999 999999 999999 999999 999999 999999 999999 999999 999999 999999 999999 999999 999999 999999 999999 999999 999999 999999 999999 999999 999999 999999 999999 999999 999999 999999 999999 999999 999999 999999 999999 999999 999999 999999 999999 999999 999999 999999 999999 999999 999999 999999 999999 999999 999999 999999 999999 999999 999999 999999 999999 999999 999999 999999 999999 999999 999999 999999 999999 999999 999999 999999 999999 999999 999999 999999 999999 999999 999999 999999 999999 999999 999999 999999 999999 999999 999999 999999 999999 999999 999999 999999 999999 999999 999999 999999 999999 999999 999999 999999 999999 999999 999999 999999 999999 999999 0 999999 999999 999999 999999 999999 999999 999999 999999 999999 999999 999999 999999 999999 999999 999999 999999 999999 999999 999999 999999 999999 999999 999999 999999 999999 999999 999999 999999 999999 999999 999999 999999 999999 999999 999999 999999 999999 999999 999999 999999 999999 999999 999999 999999 999999 999999 6231
999999 10378 16035 19066 13900 19444 10572 17905 10232 17119 15148 19271 16087 18290 19349 14013 19862 15988 14757 13697 11401 18159 12378 19992 14119 18483 11588 11968 19239 11467 17969 17435 10256 14675 11369 15641 19563 17243 10295 19358 18494 12920 12731 16946 14444 18831 11888 17234 18650 18338 14466 13366 14153 17602 15942 15874 10601 18599 12394 17874 13327 10435 11765 14673 18791 13606 11225 10241 11476 18628 14839 12220 13706 10194 15078 19499 15278 17543 16276 10512 18817 11698 15473 17520 11295 15245 19298 19913 14763 16314 18082 18886 15105 12460 13315 15818 15501 13773 13152 12862 16865 14925 15908 11406 10556 12572 16110 10011 14408 17136 15231 14472 15350 18366 18955 18262 14171 11300 13725 19673 18913 10075 15094 13233 13085 13435 11633 19530 16622 12744 11824 11022 11332 14381 11726 19026 19555 19895 19096 12802 18234 11120 12871 18953 12934 13175 19439 17359 17723 17818 11788 12397 10171 13255 17768 10783 10282 19623 18023 17816 11360 16446 17842 11481 18917 18320 15072 18017 19635 19503 13389 16119 15876 16573 19309 19311 15702 13388 14555 19069 13405 999999 999999 999999 999999 999999 999999 999999 999999 999999 999999 999999 999999 999999 999999 999999 999999 999999 999999 999999 999999 999999 999999 999999 999999 999999 999999 999999 999999 999999 999999 999999 999999 999999 999999 999999 999999 999999 999999 999999 999999 999999 999999 999999 999999 999999 999999 999999 999999 999999 999999 999999 999999 999999 999999 999999 999999 999999 999999 999999 999999 999999 999999 999999 999999 999999 999999 999999 999999 999999 999999 999999 999999 999999 999999 999999 999999 999999 999999 999999 999999 999999 999999 999999 999999 999999 999999 999999 999999 999999 999999 999999 999999 999999 999999 999999 999999 999999 999999 999999 999999 999999 999999 999999 999999 999999 999999 999999 999999 999999 999999 999999 999999 999999 999999 999999 999999 999999 999999 999999 999999 999999 999999 999999 999999 999999 999999 999999 999999 999999 999999 999999 999999 999999 999999 0 999999 999999 999999 999999 999999 999999 999999 999999 999999 999999 999999 999999 999999 999999 999999 999999 999999 999999 999999 999999 999999 999999 999999 999999 999999 999999 999999 999999 999999 999999 999999 999999 999999 999999 999999 999999 999999 999999 999999 999999 999999 999999 999999 999999 999999 6050
999999 14896 10097 18491 11803 17614 19455 15680 19135 14996 13724 11990 14930 11331 12233 13795 13611 10888 19061 20000 18272 14124 15732 15519 12154 13705 10817 18563 14620 11712 19655 16845 13792 11287 16039 17770 18497 19909 18658 17208 19651 16036 15917 12757 15227 18679 14155 11305 17131 17413 10390 15372 19959 19492 17271 19925 18990 17692 13998 15490 10277 14358 17835 16322 17385 17236 14181 17689 16449 15184 14698 13495 15712 11838 16450 19486 18219 19409 13992 19277 10053 11332 17264 16830 18035 16789 18920 12081 13103 17125 19014 14970 17124 16424 15652 10129 11582 11492 10342 13143 17593 16657 11729 16567 16929 13317 18753 16199 11757 11633 16779 12556 11052 17255 18569 18897 16550 11218 11920 14783 18073 18887 11440 12289 14751 14206 13923 13947 12518 19307 10744 10472 19636 18218 17922 18154 16800 14550 10848 10915 14355 10644 16436 19393 19304 12075 13556 10904 13227 18549 17856 14734 11142 17389 12716 15615 15278 10898 14906 13468 15017 13577 13737 11189 19558 14779 11243 13019 15368 14617 18128 15917 10962 16434 16070 16608 15972 10075 14766 10785 19678 999999 999999 999999 999999 999999 999999 999999 999999 999999 999999 999999 999999 999999 999999 999999 999999 999999 999999 999999 999999 999999 999999 999999 999999 999999 999999 999999 999999 999999 999999 999999 999999 999999 999999 999999 999999 999999 999999 999999 999999 999999 999999 999999 999999 999999 999999 999999 999999 999999 999999 999999 999999 999999 999999 999999 999999 999999 999999 999999 999999 999999 999999 999999 999999 999999 999999 999999 999999 999999 999999 999999 999999 999999 999999 999999 999999 999999 999999 999999 999999 999999 999999 999999 999999 999999 999999 999999 999999 999999 999999 999999 999999 999999 999999 999999 999999 999999 999999 999999 999999 999999 999999 999999 999999 999999 999999 999999 999999 999999 999999 999999 999999 999999 999999 999999 999999 999999 999999 999999 999999 999999 999999 999999 999999 999999 999999 999999 999999 999999 999999 999999 999999 999999 999999 999999 0 999999 999999 999999 999999 999999 999999 999999 999999 999999 999999 999999 999999 999999 999999 999999 999999 999999 999999 999999 999999 999999 999999 999999 999999 999999 999999 999999 999999 999999 999999 999999 999999 999999 999999 999999 999999 999999 999999 999999 999999 999999 999999 999999 999999 8969
999999 10567 11303 19365 11234 12744 16389 17098 13466 19093 14888 19853 10905 16726 18877 13607 16812 12902 14050 19529 16340 15083 11192 16237 13519 12123 18063 12865 11282 19569 12475 15191 13135 16235 15599 19751 16017 16771 12557 14922 17849 17509 12454 12384 14169 18793 10169 10828 17426 10368 16036 12599 17367 13987 11058 14400 12090 18492 13515 14756 11376 15185 11246 16716 16524 18143 17265 12718 15947 13723 16949 18223 10620 18133 18944 14282 15952 15703 18005 14080 10189 12931 13067 18494 17053 15693 12433 12422 19136 11839 17535 18496 11705 14833 13985 17017 17798 17645 14181 14355 18086 15000 19300 16237 12274 10116 16612 11027 18750 17520 10918 12965 18294 15274 18216 13088 17763 18885 12751 16347 13232 13607 15826 16595 15821 19163 19344 11961 11422 10830 12249 16341 10041 11264 18153 19456 10476 17332 17434 13786 16036 11697 11210 14491 16168 10329 11468 13907 14640 12978 19895 10003 15188 13917 12139 19337 19065 11064 16547 17500 15504 19580 19420 13197 16573 18637 14580 18478 17738 14748 19078 17469 18456 11768 11510 18744 11602 14370 13716 11362 18129 999999 999999 999999 999999 999999 999999 999999 999999 999999 999999 999999 999999 999999 999999 999999 999999 999999 999999 999999 999999 999999 999999 999999 999999 999999 999999 999999 999999 999999 999999 999999 999999 999999 999999 999999 999999 999999 999999 999999 999999 999999 999999 999999 999999 999999 999999 999999 999999 999999 999999 999999 999999 999999 999999 999999 999999 999999 999999 999999 999999 999999 999999 999999 999999 999999 999999 999999 999999 999999 999999 999999 999999 999999 999999 999999 999999 999999 999999 999999 999999 999999 999999 999999 999999 999999 999999 999999 999999 999999 999999 999999 999999 999999 999999 999999 999999 999999 999999 999999 999999 999999 999999 999999 999999 999999 999999 999999 999999 999999 999999 999999 999999 999999 999999 999999 999999 999999 999999 999999 999999 999999 999999 999999 999999 999999 999999 999999 999999 999999 999999 999999 999999 999999 999999 999999 999999 0 999999 999999 999999 999999 999999 999999 999999 999999 999999 999999 999999 999999 999999 999999 999999 999999 999999 999999 999999 999999 999999 999999 999999 999999 999999 999999 999999 999999 999999 999999 999999 999999 999999 999999 999999 999999 999999 999999 999999 999999 999999 999999 999999 9618
999999 18904 10880 16233 11283 13096 15681 11932 19146 17949 12256 14599 11039 13072 15855 15407 13734 14587 18140 19334 14508 13841 12234 11841 11076 15676 11262 13992 14829 11367 17305 13833 12202 10992 14972 15706 15613 13398 12193 19680 11842 14012 16115 18894 12818 10433 17343 16702 18562 19783 17669 16551 14921 19515 17263 11739 13712 18239 19036 15532 16677 13705 18371 16677 12371 15025 18590 13572 14268 12359 11889 18776 12553 19742 17537 12079 16876 19568 19261 12052 18703 12126 12681 11542 18889 10900 15690 14552 15582 14013 12367 14510 17379 19149 14549 12798 16882 10317 14025 18617 11121 16882 14362 18240 16522 11531 14124 19916 17227 16309 10003 14974 18812 14390 19084 17107 15976 11305 17111 11449 12837 18851 15916 13813 15433 19935 11991 17427 17558 19559 10760 17959 18013 11934 11695 10111 19057 17103 16959 14687 19671 18797 13804 11148 16304 15570 18694 13435 12640 11309 18342 12142 18001 14995 11341 14765 17806 12888 14110 13814 12071 10833 16365 13733 12207 18106 16282 18402 11353 12643 13323 17733 12981 19503 19819 10562 15610 18208 13212 13240 10611 999999 999999 999999 999999 999999 999999 999999 999999 999999 999999 999999 999999 999999 999999 999999 999999 999999 999999 999999 999999 999999 999999 999999 999999 999999 999999 999999 999999 999999 999999 999999 999999 999999 999999 999999 999999 999999 999999 999999 999999 999999 999999 999999 999999 999999 999999 999999 999999 999999 999999 999999 999999 999999 999999 999999 999999 999999 999999 999999 999999 999999 999999 999999 999999 999999 999999 999999 999999 999999 999999 999999 999999 999999 999999 999999 999999 999999 999999 999999 999999 999999 999999 999999 999999 999999 999999 999999 999999 999999 999999 999999 999999 999999 999999 999999 999999 999999 999999 999999 999999 999999 999999 999999 999999 999999 999999 999999 999999 999999 999999 999999 999999 999999 999999 999999 999999 999999 999999 999999 999999 999999 999999 999999 999999 999999 999999 999999 999999 999999 999999 999999 999999 999999 999999 999999 999999 999999 0 999999 999999 999999 999999 999999 999999 999999 999999 999999 999999 999999 999999 999999 999999 999999 999999 999999 999999 999999 999999 999999 999999 999999 999999 999999 999999 999999 999999 999999 999999 999999 999999 999999 999999 999999 999999 999999 999999 999999 999999 999999 999999 5294
999999 14540 10654 19587 12718 17662 16655 19954 15897 16053 13618 13919 10560 11604 19721 12419 12016 13974 14598 13866 11788 18762 19601 19231 18801 10371 15294 12506 10304 15711 18232 18969 16350 14415 10753 12417 18312 12007 12188 18547 14857 15401 15880 19632 18507 16496 19513 10125 12107 10872 18784 13011 15251 10957 18065 12337 13248 17890 12144 10419 19137 13336 14411 14972 18017 10324 14405 17236 16868 12562 16773 10596 16635 17031 11015 10554 17345 15248 10458 10674 19665 17849 10991 15531 19049 12451 15386 12058 16623 13416 12601 17377 16454 17724 11238 15160 12075 12481 15973 10428 17661 15861 15691 12606 18463 18870 14594 15474 10315 11576 12050 14579 19020 11964 16843 13682 11384 19238 18076 12454 14213 10359 17011 16139 17227 11917 16629 10707 13859 16746 18659 11952 18277 14552 16363 16884 11850 10819 18788 19275 16129 18412 10688 18246 14478 16577 13694 15772 19526 13414 17396 15659 12003 11209 13740 11310 10458 13240 16427 16406 11955 13959 19797 19531 15989 12576 12465 10598 11081 15575 17258 15281 11972 16932 13493 18775 12546 10746 14501 19235 11265 999999 999999 999999 999999 999999 999999 999999 999999 999999 999999 999999 999999 999999 999999 999999 999999 999999 999999 999999 999999 999999 999999 999999 999999 999999 999999 999999 999999 999999 999999 999999 999999 999999 999999 999999 999999 999999 999999 999999 999999 999999 999999 999999 999999 999999 999999 999999 999999 999999 999999 999999 999999 999999 999999 999999 999999 999999 999999 999999 999999 999999 999999 999999 999999 999999 999999 999999 999999 999999 999999 999999 999999 999999 999999 999999 999999 999999 999999 999999 999999 999999 999999 999999 999999 999999 999999 999999 999999 999999 999999 999999 999999 999999 999999 999999 999999 999999 999999 999999 999999 999999 999999 999999 999999 999999 999999 999999 999999 999999 999999 999999 999999 999999 999999 999999 999999 999999 999999 999999 999999 999999 999999 999999 999999 999999 999999 999999 999999 999999 999999 999999 999999 999999 999999 999999 999999 999999 999999 0 999999 999999 999999 999999 999999 999999 999999 999999 999999 999999 999999 999999 999999 999999 999999 999999 999999 999999 999999 999999 999999 999999 999999 999999 999999 999999 999999 999999 999999 999999 999999 999999 999999 999999 999999 999999 999999 999999 999999 999999 999999 13759
999999 15610 13253 10570 11507 17699 18102 14233 14552 16880 13328 19146 12362 10070 17744 18598 10222 12350 11898 19141 12254 11593 13929 10115 11731 14474 17168 10169 10837 19615 18635 14754 18515 12787 13996 19472 13940 17034 13233 17304 12885 17802 19034 18452 17820 19289 17853 18481 19670 14670 13273 19327 15111 18937 11226 13473 13528 18544 18468 19566 14438 14174 17328 12425 13089 14067 16844 18541 16723 18743 19508 16774 12728 10010 12541 18533 17199 12440 11041 13049 18794 12573 18862 16855 19775 10671 19088 10703 14063 15906 14553 16705 16327 19051 11605 17840 14415 19660 18159 18763 11147 11113 19002 17411 18215 12208 11270 14058 19190 13169 12983 12408 18106 12759 13884 11105 12157 16000 10343 14909 11302 18118 14300 16027 19261 18811 13909 12701 18617 17679 12232 15750 16240 18555 18681 15498 18408 13063 13951 14205 16001 12148 19692 10096 15227 10357 17630 17419 19532 11456 10598 15720 19716 13102 19016 17207 14673 17488 13660 19463 12317 10212 17574 19307 10204 17733 17413 12851 12623 14844 16131 13877 15348 13856 18078 15009 16473 16222 11307 11385 10666 999999 999999 999999 999999 999999 999999 999999 999999 999999 999999 999999 999999 999999 999999 999999 999999 999999 999999 999999 999999 999999 999999 999999 999999 999999 999999 999999 999999 999999 999999 999999 999999 999999 999999 999999 999999 999999 999999 999999 999999 999999 999999 999999 999999 999999 999999 999999 999999 999999 999999 999999 999999 999999 999999 999999 999999 999999 999999 999999 999999 999999 999999 999999 999999 999999 999999 999999 999999 999999 999999 999999 999999 999999 999999 999999 999999 999999 999999 999999 999999 999999 999999 999999 999999 999999 999999 999999 999999 999999 999999 999999 999999 999999 999999 999999 999999 999999 999999 999999 999999 999999 999999 999999 999999 999999 999999 999999 999999 999999 999999 999999 999999 999999 999999 999999 999999 999999 999999 999999 999999 999999 999999 999999 999999 999999 999999 999999 999999 999999 999999 999999 999999 999999 999999 999999 999999 999999 999999 999999 0 999999 999999 999999 999999 999999 999999 999999 999999 999999 999999 999999 999999 999999 999999 999999 999999 999999 999999 999999 999999 999999 999999 999999 999999 999999 999999 999999 999999 999999 999999 999999 999999 999999 999999 999999 999999 999999 999999 999999 999999 6214
999999 15155 17081 13351 15609 19564 13337 14161 17373 16507 13943 16073 12901 12181 16719 14839 11973 11933 15964 19767 12563 10307 15331 10962 15778 12992 17787 12481 17766 13207 19437 12300 11153 16403 18711 12542 12507 17724 13284 12358 12090 17945 18632 14170 17319 15218 14991 18923 11025 16251 12099 15164 16728 18968 13576 13359 19597 17195 18264 15862 12984 11597 14908 17707 16469 12987 13088 19796 18259 17727 19532 17034 18912 19504 15907 11799 15859 14019 11316 12201 19901 16893 19645 16296 10782 13295 15759 19901 14643 19295 14140 13965 19202 12833 16249 16119 18374 12136 14075 16611 12053 16831 19975 15846 18021 14057 19564 12395 19997 12031 13126 17764 12488 18321 19929 14785 14474 19430 10708 18069 16105 13389 15987 18593 17458 10350 11190 11149 17485 14391 14915 14092 15467 10824 18554 15690 13581 12436 16985 11215 12939 12523 11221 10083 15848 17584 12882 12468 13437 13530 12374 14961 11379 14355 14206 15226 14668 11487 10204 11715 11154 12098 10486 16799 19641 17612 13091 10054 18742 17910 19807 19449 17757 17199 19365 18624 19542 12056 11299 18149 12861 999999 999999 999999 999999 999999 999999 999999 999999 999999 999999 999999 999999 999999 999999 999999 999999 999999 999999 999999 999999 999999 999999 999999 999999 999999 999999 999999 999999 999999 999999 999999 999999 999999 999999 999999 999999 999999 999999 999999 999999 999999 999999 999999 999999 999999 999999 999999 999999 999999 999999 999999 999999 999999 999999 999999 999999 999999 999999 999999 999999 999999 999999 999999 999999 999999 999999 999999 999999 999999 999999 999999 999999 999999 999999 999999 999999 999999 999999 999999 999999 999999 999999 999999 999999 999999 999999 999999 999999 999999 999999 999999 999999 999999 999999 999999 999999 999999 999999 999999 999999 999999 999999 999999 999999 999999 999999 999999 999999 999999 999999 999999 999999 999999 999999 999999 999999 999999 999999 999999 999999 999999 999999 999999 999999 999999 999999 999999 999999 999999 999999 999999 999999 999999 999999 999999 999999 999999 999999 999999 999999 0 999999 999999 999999 999999 999999 999999 999999 999999 999999 999999 999999 999999 999999 999999 999999 999999 999999 999999 999999 999999 999999 999999 999999 999999 999999 999999 999999 999999 999999 999999 999999 999999 999999 999999 999999 999999 999999 999999 999999 6546
999999 13516 18974 17224 15377 19186 16376 15589 17546 17996 18181 16866 10917 15599 10489 11452 13237 10009 16752 12558 18175 15672 17589 15262 12752 12404 13551 15313 10340 10905 19796 13447 12008 15061 12131 13432 11994 11392 10119 17661 15331 11444 11762 19515 12092 16311 15397 12291 18632 10331 14767 12728 15418 13049 17988 15272 10093 11047 13305 14772 11841 10754 18015 19047 10678 19328 14995 19323 18949 10598 14611 13670 15219 19987 16171 10952 16899 19104 19843 13953 10343 19943 11247 13489 15410 14435 15422 16456 16845 15438 13811 16659 12870 11091 14420 18341 17175 19301 12926 17800 13800 11403 10978 17964 18984 12425 12829 11983 14634 19518 14260 12376 15737 18737 18745 17997 15761 17885 18881 18672 12649 10008 16722 16187 11598 11798 13626 12586 15611 12367 18716 15099 16047 17506 10515 19359 16607 13706 16969 18587 19663 17428 12497 14990 11988 14741 10725 16790 12494 14817 16678 14895 11260 13120 11064 19133 19517 18568 12323 19667 18335 12885 10105 17002 13106 11472 10901 11177 11715 17650 17051 12155 18392 14968 11892 14205 11649 16930 13040 10794 11025 999999 999999 999999 999999 999999 999999 999999 999999 999999 999999 999999 999999 999999 999999 999999 999999 999999 999999 999999 999999 999999 999999 999999 999999 999999 999999 999999 999999 999999 999999 999999 999999 999999 999999 999999 999999 999999 999999 999999 999999 999999 999999 999999 999999 999999 999999 999999 999999 999999 999999 999999 999999 999999 999999 999999 999999 999999 999999 999999 999999 999999 999999 999999 999999 999999 999999 999999 999999 999999 999999 999999 999999 999999 999999 999999 999999 999999 999999 999999 999999 999999 999999 999999 999999 999999 999999 999999 999999 999999 999999 999999 999999 999999 999999 999999 999999 999999 999999 999999 999999 999999 999999 999999 999999 999999 999999 999999 999999 999999 999999 999999 999999 999999 999999 999999 999999 999999 999999 999999 999999 999999 999999 999999 999999 999999 999999 999999 999999 999999 999999 999999 999999 999999 999999 999999 999999 999999 999999 999999 999999 999999 0 999999 999999 999999 999999 999999 999999 999999 999999 999999 999999 999999 999999 999999 999999 999999 999999 999999 999999 999999 999999 999999 999999 999999 999999 999999 999999 999999 999999 999999 999999 999999 999999 999999 999999 999999 999999 999999 999999 7303
999999 15549 13677 11273 17069 13954 19740 17885 16089 12552 16854 18349 14815 17723 11262 11573 17007 12143 13019 19482 16773 17758 14355 19258 14883 19588 16585 16808 14329 10979 14408 11556 17500 10246 15947 19749 11168 15822 16763 16723 12765 10541 18906 14571 11382 13469 16882 14996 12264 11787 16117 15141 13990 13071 13876 13198 18420 17555 14124 13496 18268 15718 10318 12364 12764 18676 12940 12851 10823 18637 10762 19926 19626 15525 12518 19908 17810 13561 19038 19396 16964 10186 14979 14890 18454 13080 15802 13980 18664 16127 11207 11644 17091 18837 14348 16771 15292 17382 19460 12850 18628 13335 15427 10118 16644 14230 14235 16999 19889 16201 17936 19216 11470 13591 16240 19571 16057 17466 11296 17906 10766 15929 18512 15670 13937 12393 16440 10244 11879 13287 15539 17473 11125 16036 10034 10695 11822 13606 18979 11812 18657 13015 11103 17881 10987 17025 15504 14332 16180 18672 15174 11993 19494 18294 18381 18208 15629 11571 16690 11961 14075 17570 19466 16164 10883 17329 13891 11312 16592 17324 19635 18850 16774 16836 12096 13115 17950 14500 13512 17780 12224 999999 999999 999999 999999 999999 999999 999999 999999 999999 999999 999999 999999 999999 999999 999999 999999 999999 999999 999999 999999 999999 999999 999999 999999 999999 999999 999999 999999 999999 999999 999999 999999 999999 999999 999999 999999 999999 999999 999999 999999 999999 999999 999999 999999 999999 999999 999999 999999 999999 999999 999999 999999 999999 999999 999999 999999 999999 999999 999999 999999 999999 999999 999999 999999 999999 999999 999999 999999 999999 999999 999999 999999 999999 999999 999999 999999 999999 999999 999999 999999 999999 999999 999999 999999 999999 999999 999999 999999 999999 999999 999999 999999 999999 999999 999999 999999 999999 999999 999999 999999 999999 999999 999999 999999 999999 999999 999999 999999 999999 999999 999999 999999 999999 999999 999999 999999 999999 999999 999999 999999 999999 999999 999999 999999 999999 999999 999999 999999 999999 999999 999999 999999 999999 999999 999999 999999 999999 999999 999999 999999 999999 999999 0 999999 999999 999999 999999 999999 999999 999999 999999 999999 999999 999999 999999 999999 999999 999999 999999 999999 999999 999999 999999 999999 999999 999999 999999 999999 999999 999999 999999 999999 999999 999999 999999 999999 999999 999999 999999 999999 9887
999999 17943 12861 13560 12445 19702 13686 15614 14410 11390 17286 14006 19625 15548 18991 13134 16997 10594 11189 12260 13091 18887 19402 12722 15323 18845 16309 14456 19741 18181 16791 18067 10976 12706 11733 16580 18397 19506 15219 15600 11961 10697 18531 13689 18987 14012 16215 12375 13884 12815 14443 10985 14784 16135 14032 13217 14315 18634 12750 11175 14301 17378 13826 18386 16501 16100 19982 11849 13802 17459 17539 15082 18817 16776 14075 14408 19375 10785 14328 16887 13166 11094 15038 12582 13456 16341 17290 13392 12322 19262 13885 15346 17320 10290 18694 12709 17816 11822 19870 14364 17644 15370 14742 17232 17117 15853 16610 13830 10167 18730 10515 13115 10895 18705 12244 19724 15992 10439 12654 15516 13268 11186 16621 15171 18079 19407 11231 17016 12902 18403 19561 14303 17589 13571 15698 11552 16168 19045 10121 11405 15040 13246 13265 17276 18835 12058 19117 18482 10578 10484 17676 11934 12570 16731 16797 14523 15299 16117 10285 19930 10616 14355 17933 17214 19141 17777 13680 15104 14351 17199 10736 19199 18523 17313 15282 12060 19590 18425 10241 15654 16109 999999 999999 999999 999999 999999 999999 999999 999999 999999 999999 999999 999999 999999 999999 999999 999999 999999 999999 999999 999999 999999 999999 999999 999999 999999 999999 999999 999999 999999 999999 999999 999999 999999 999999 999999 999999 999999 999999 999999 999999 999999 999999 999999 999999 999999 999999 999999 999999 999999 999999 999999 999999 999999 999999 999999 999999 999999 999999 999999 999999 999999 999999 999999 999999 999999 999999 999999 999999 999999 999999 999999 999999 999999 999999 999999 999999 999999 999999 999999 999999 999999 999999 999999 999999 999999 999999 999999 999999 999999 999999 999999 999999 999999 999999 999999 999999 999999 999999 999999 999999 999999 999999 999999 999999 999999 999999 999999 999999 999999 999999 999999 999999 999999 999999 999999 999999 999999 999999 999999 999999 999999 999999 999999 999999 999999 999999 999999 999999 999999 999999 999999 999999 999999 999999 999999 999999 999999 999999 999999 999999 999999 999999 999999 0 999999 999999 999999 999999 999999 999999 999999 999999 999999 999999 999999 999999 999999 999999 999999 999999 999999 999999 999999 999999 999999 999999 999999 999999 999999 999999 999999 999999 999999 999999 999999 999999 999999 999999 999999 999999 12670
999999 10271 12351 17985 14956 10730 14880 17466 17322 12549 13404 12578 17117 16491 17138 11671 11020 14779 18343 11334 17443 15671 11205 17727 15708 14396 18420 17546 13279 12721 13468 15332 10841 15623 13857 18553 12684 19023 19967 17890 12939 16066 15212 16693 18234 13263 15790 13917 19355 17103 13237 16547 13394 14172 15963 11793 19720 12651 12760 14411 10775 17482 12079 18449 19856 13728 15822 16739 10943 10601 12241 15373 18177 14284 19437 16204 14146 14664 19972 17779 10912 11223 12111 11694 19648 10932 12251 11894 16788 12540 13510 10889 17680 11263 19919 10440 10719 16557 14332 10053 13818 17680 10937 15391 10538 13345 15163 18060 14451 13407 11717 11251 12709 13676 14756 19234 15251 16469 17078 13209 11170 18608 14200 13944 17503 18178 12056 18564 17730 16927 11756 19298 14858 16060 16384 13823 12490 19557 14553 15734 13609 18092 17073 10257 13044 15457 18341 16703 13893 14019 10858 16899 19240 15290 10257 14862 12938 12471 16561 15990 18903 11155 18099 14920 17577 18588 18978 15313 15486 10564 13084 15398 11244 13724 14709 13694 15094 10293 19186 13862 13779 999999 999999 999999 999999 999999 999999 999999 999999 999999 999999 999999 999999 999999 999999 999999 999999 999999 999999 999999 999999 999999 999999 999999 999999 999999 999999 999999 999999 999999 999999 999999 999999 999999 999999 999999 999999 999999 999999 999999 999999 999999 999999 999999 999999 999999 999999 999999 999999 999999 999999 999999 999999 999999 999999 999999 999999 999999 999999 999999 999999 999999 999999 999999 999999 999999 999999 999999 999999 999999 999999 999999 999999 999999 999999 999999 999999 999999 999999 999999 999999 999999 999999 999999 999999 999999 999999 999999 999999 999999 999999 999999 999999 999999 999999 999999 999999 999999 999999 999999 999999 999999 999999 999999 999999 999999 999999 999999 999999 999999 999999 999999 999999 999999 999999 999999 999999 999999 999999 999999 999999 999999 999999 999999 999999 999999 999999 999999 999999 999999 999999 999999 999999 999999 999999 999999 999999 999999 999999 999999 999999 999999 999999 999999 999999 0 999999 999999 999999 999999 999999 999999 999999 999999 999999 999999 999999 999999 999999 999999 999999 999999 999999 999999 999999 999999 999999 999999 999999 999999 999999 999999 999999 999999 999999 999999 999999 999999 999999 999999 999999 5783
999999 13729 12250 10188 12146 14564 19131 10383 12282 13558 16269 15763 12460 14447 11844 14742 19258 18368 11882 12093 19775 10674 14072 19955 18051 19722 15181 15448 11994 19805 13163 14409 13302 16747 17574 19784 16139 17258 17386 14252 12662 13347 13316 19135 19015 15506 18209 12165 10812 15295 16146 19365 10683 19009 18960 18838 13054 12444 12811 16155 13837 18032 11224 15442 17664 19912 14221 15850 13252 17725 15371 16784 13365 12310 19724 10007 17507 14819 15466 11842 10461 10716 16194 13953 18898 10383 15600 10805 12103 19018 17647 16933 19370 12042 11052 14734 10364 14330 14548 17925 14479 12843 14436 14879 19317 17569 18860 11178 13775 17129 19921 10092 16044 18419 18922 13557 12369 13027 15590 15003 10828 13040 16046 11547 17059 16985 16470 16707 10594 15027 18032 13887 19054 16152 10530 11885 17531 17548 19332 18091 17569 14583 19682 16376 17405 18408 16647 14097 10317 11057 14529 18361 19458 14217 14453 16324 17121 10583 14940 18213 18125 19687 19523 13571 16581 11150 16183 16039 13607 13400 12272 16667 11231 12269 13050 15409 16109 19242 10299 16516 13857 999999 999999 999999 999999 999999 999999 999999 999999 999999 999999 999999 999999 999999 999999 999999 999999 999999 999999 999999 999999 999999 999999 999999 999999 999999 999999 999999 999999 999999 999999 999999 999999 999999 999999 999999 999999 999999 999999 999999 999999 999999 999999 999999 999999 999999 999999 999999 999999 999999 999999 999999 999999 999999 999999 999999 999999 999999 999999 999999 999999 999999 999999 999999 999999 999999 999999 999999 999999 999999 999999 999999 999999 999999 999999 999999 999999 999999 999999 999999 999999 999999 999999 999999 999999 999999 999999 999999 999999 999999 999999 999999 999999 999999 999999 999999 999999 999999 999999 999999 999999 999999 999999 999999 999999 999999 999999 999999 999999 999999 999999 999999 999999 999999 999999 999999 999999 999999 999999 999999 999999 999999 999999 999999 999999 999999 999999 999999 999999 999999 999999 999999 999999 999999 999999 999999 999999 999999 999999 999999 999999 999999 999999 999999 999999 999999 0 999999 999999 999999 999999 999999 999999 999999 999999 999999 999999 999999 999999 999999 999999 999999 999999 999999 999999 999999 999999 999999 999999 999999 999999 999999 999999 999999 999999 999999 999999 999999 999999 999999 999999 7036
999999 13209 16960 15177 17755 17692 11471 19847 12871 19907 12415 19610 16299 19442 16043 17663 11782 15233 19047 12056 15454 13297 18852 12459 13548 17159 17045 19038 17267 15641 15560 15574 19106 11606 11813 13480 18466 16354 16127 14560 12660 12850 17374 12134 14758 14563 16656 15987 11541 17761 16308 17654 14121 13323 17685 11004 17059 13601 17064 15395 15725 13918 16819 10668 19009 13586 10362 11807 14316 18495 14538 15554 19534 12950 12587 10481 16024 12245 11249 12280 10046 18806 13766 15890 13957 13636 12717 12950 12970 12390 17325 12172 13869 17395 14122 13350 19980 13607 16474 15697 17060 16734 14183 18741 16018 12954 18143 18937 14525 12934 11212 18074 15318 17143 10849 11810 10701 15710 18908 12107 11128 19321 10347 15579 15168 16862 18691 16686 11958 11088 10379 18077 10759 11216 13342 16285 15508 16083 19441 14917 15377 14182 18734 19759 17869 10828 11415 11286 10770 13905 15698 18084 15319 12865 17375 17050 18204 13708 11535 15329 19956 13960 17471 10316 15318 19652 12270 17313 12308 12797 12394 18606 11389 11365 14483 11319 12911 11794 10231 13084 13831 999999 999999 999999 999999 999999 999999 999999 999999 999999 999999 999999 999999 999999 999999 999999 999999 999999 999999 999999 999999 999999 999999 999999 999999 999999 999999 999999 999999 999999 999999 999999 999999 999999 999999 999999 999999 999999 999999 999999 999999 999999 999999 999999 999999 999999 999999 999999 999999 999999 999999 999999 999999 999999 999999 999999 999999 999999 999999 999999 999999 999999 999999 999999 999999 999999 999999 999999 999999 999999 999999 999999 999999 999999 999999 999999 999999 999999 999999 999999 999999 999999 999999 999999 999999 999999 999999 999999 999999 999999 999999 999999 999999 999999 999999 999999 999999 999999 999999 999999 999999 999999 999999 999999 999999 999999 999999 999999 999999 999999 999999 999999 999999 999999 999999 999999 999999 999999 999999 999999 999999 999999 999999 999999 999999 999999 999999 999999 999999 999999 999999 999999 999999 999999 999999 999999 999999 999999 999999 999999 999999 999999 999999 999999 999999 999999 999999 0 999999 999999 999999 999999 999999 999999 999999 999999 999999 999999 999999 999999 999999 999999 999999 999999 999999 999999 999999 999999 999999 999999 999999 999999 999999 999999 999999 999999 999999 999999 999999 999999 999999 13234
999999 14015 13354 13338 12820 15587 16570 13658 12869 15019 15799 13910 15912 15441 13276 12955 16831 12321 16345 18789 10827 13863 12809 16098 19642 15566 11194 15222 13992 19643 13975 15584 17127 10202 15606 13646 16888 14856 10714 10966 17430 14471 12020 13937 16311 13143 11300 13964 13485 17834 18101 11570 11070 11237 19909 17851 11362 17631 17908 15463 16024 19176 19010 14212 17454 19956 13433 15678 10642 17179 17219 19476 12823 15352 12671 15020 19306 14029 12285 13766 16638 12268 18480 14956 13716 17366 16379 18605 19629 15451 12285 16476 16282 11172 18473 13600 11597 12707 12345 13543 11941 18019 19087 10060 12787 11549 13740 13099 10885 16208 13301 14565 10408 14738 14406 17305 15277 18351 15978 14742 19911 13071 10029 14680 10070 12033 14111 17785 16863 15595 10233 13529 11351 19009 10871 12664 18401 15470 19861 12941 17067 11339 18610 17229 11499 10975 14390 16659 11843 14806 17823 19085 12783 16645 10393 12743 19345 10630 13058 11327 11546 19324 12208 15409 19866 17739 14996 14297 16941 13266 18351 13342 17673 13739 16069 18060 12985 15857 11956 10429 14440 999999 999999 999999 999999 999999 999999 999999 999999 999999 999999 999999 999999 999999 999999 999999 999999 999999 999999 999999 999999 999999 999999 999999 999999 999999 999999 999999 999999 999999 999999 999999 999999 999999 999999 999999 999999 999999 999999 999999 999999 999999 999999 999999 999999 999999 999999 999999 999999 999999 999999 999999 999999 999999 999999 999999 999999 999999 999999 999999 999999 999999 999999 999999 999999 999999 999999 999999 999999 999999 999999 999999 999999 999999 999999 999999 999999 999999 999999 999999 999999 999999 999999 999999 999999 999999 999999 999999 999999 999999 999999 999999 999999 999999 999999 999999 999999 999999 999999 999999 999999 999999 999999 999999 999999 999999 999999 999999 999999 999999 999999 999999 999999 999999 999999 999999 999999 999999 999999 999999 999999 999999 999999 999999 999999 999999 999999 999999 999999 999999 999999 999999 999999 999999 999999 999999 999999 999999 999999 999999 999999 999999 999999 999999 999999 999999 999999 999999 0 999999 999999 999999 999999 999999 999999 999999 999999 999999 999999 999999 999999 999999 999999 999999 999999 999999 999999 999999 999999 999999 999999 999999 999999 999999 999999 999999 999999 999999 999999 999999 999999 11293
999999 17741 16086 14539 12923 15676 17697 19175 12498 16639 18149 17743 15168 15207 19085 11928 15555 12610 18452 10202 11451 11336 13683 18428 13627 13167 19092 13071 17201 17709 19712 12172 18429 12994 18344 10440 10547 16986 15588 16429 18805 15255 10579 11758 12767 14438 18081 16415 10575 12775 14141 18808 18864 13272 16700 14998 19675 11540 10165 17235 13606 17903 18985 17316 19539 19472 12125 16935 15827 15835 19637 11909 12821 13705 19874 15238 16327 17758 11655 18604 19845 11570 11727 10905 19201 10283 12505 19912 18608 15168 18839 17396 19740 17727 15630 14451 18876 13902 15674 19614 19381 12896 17701 19472 11308 10865 14489 18324 16096 15032 15406 16368 17307 18037 16919 16721 11501 16312 16060 14360 16292 14788 16740 16747 19363 18660 14927 19366 18076 13301 12090 13803 12216 19494 11471 17112 10679 17706 16579 13672 11504 15589 10079 11074 15444 12770 11467 15219 18560 19476 16775 17532 10561 18938 19200 19843 11500 10049 11057 16854 11673 10146 10365 18105 13076 13062 15781 17703 14378 12574 17943 11343 13281 16794 12597 10108 13297 17342 18646 16455 14057 999999 999999 999999 999999 999999 999999 999999 999999 999999 999999 999999 999999 999999 999999 999999 999999 999999 999999 999999 999999 999999 999999 999999 999999 999999 999999 999999 999999 999999 999999 999999 999999 999999 999999 999999 999999 999999 999999 999999 999999 999999 999999 999999 999999 999999 999999 999999 999999 999999 999999 999999 999999 999999 999999 999999 999999 999999 999999 999999 999999 999999 999999 999999 999999 999999 999999 999999 999999 999999 999999 999999 999999 999999 999999 999999 999999 999999 999999 999999 999999 999999 999999 999999 999999 999999 999999 999999 999999 999999 999999 999999 999999 999999 999999 999999 999999 999999 999999 999999 999999 999999 999999 999999 999999 999999 999999 999999 999999 999999 999999 999999 999999 999999 999999 999999 999999 999999 999999 999999 999999 999999 999999 999999 999999 999999 999999 999999 999999 999999 999999 999999 999999 999999 999999 999999 999999 999999 999999 999999 999999 999999 999999 999999 999999 999999 999999 999999 999999 0 999999 999999 999999 999999 999999 999999 999999 999999 999999 999999 999999 999999 999999 999999 999999 999999 999999 999999 999999 999999 999999 999999 999999 999999 999999 999999 999999 999999 999999 999999 999999 5129
999999 13050 15340 13244 14378 14363 15694 11238 10501 15291 15275 11244 18124 16029 16385 15707 19549 19590 16848 12290 11979 18169 14578 17081 12992 14478 10264 13676 14109 18332 11531 12683 14838 15977 17096 11417 11233 14032 12053 18545 17267 13935 11877 16944 17744 12053 14732 19917 10695 16791 12033 15016 15914 18681 17865 14856 15863 12491 18382 15182 15824 12994 11470 17032 10917 12164 12084 16216 19067 14158 16740 10334 19501 15992 11509 18796 14024 19256 18222 10397 15873 18829 12437 17646 14605 15179 13955 16346 11870 11164 16103 11246 19822 19014 19780 16141 13595 10338 18520 19434 16094 14343 11985 14294 10940 11129 15518 12382 17623 15801 12353 16749 17839 16949 15955 18487 11989 15882 19928 15142 11024 18453 13974 13975 15118 16244 14619 17381 17908 13332 16660 14013 17230 18460 17022 10546 18439 13838 11030 15814 11053 11697 11674 18139 13641 11633 19520 11832 13582 12464 15615 11022 18832 18020 12941 12636 16290 18364 17003 10929 17203 13517 10767 11828 10831 19684 12271 18026 13791 18323 16942 13723 13324 15898 12580 15870 18643 13626 15343 17614 11862 999999 999999 999999 999999 999999 999999 999999 999999 999999 999999 999999 999999 999999 999999 999999 999999 999999 999999 999999 999999 999999 999999 999999 999999 999999 999999 999999 999999 999999 999999 999999 999999 999999 999999 999999 999999 999999 999999 999999 999999 999999 999999 999999 999999 999999 999999 999999 999999 999999 999999 999999 999999 999999 999999 999999 999999 999999 999999 999999 999999 999999 999999 999999 999999 999999 999999 999999 999999 999999 999999 999999 999999 999999 999999 999999 999999 999999 999999 999999 999999 999999 999999 999999 999999 999999 999999 999999 999999 999999 999999 999999 999999 999999 999999 999999 999999 999999 999999 999999 999999 999999 999999 999999 999999 999999 999999 999999 999999 999999 999999 999999 999999 999999 999999 999999 999999 999999 999999 999999 999999 999999 999999 999999 999999 999999 999999 999999 999999 999999 999999 999999 999999 999999 999999 999999 999999 999999 999999 999999 999999 999999 999999 999999 999999 999999 999999 999999 999999 999999 0 999999 999999 999999 999999 999999 999999 999999 999999 999999 999999 999999 999999 999999 999999 999999 999999 999999 999999 999999 999999 999999 999999 999999 999999 999999 999999 999999 999999 999999 999999 5249
999999 16003 15264 13302 12146 17979 10137 17820 16004 14905 19827 18084 17252 19432 10662 16792 18447 19385 15351 17728 14027 14795 10059 13405 11542 15890 16094 12460 16538 15564 12658 10634 18057 10305 11112 15866 10203 14584 16421 15413 10664 11507 11114 15446 10461 16389 12179 13460 19808 12700 11032 11478 15814 15192 19196 10859 10386 13684 18092 19443 15798 16395 10851 12588 10102 17577 11828 15686 13515 17003 12046 17382 16309 12162 17042 12756 11075 19424 11690 16250 18128 19373 12569 10112 16074 18679 14337 19234 13821 13920 19312 12195 18673 16691 13777 18234 12345 18203 18439 11151 12308 15768 11352 14445 17785 11710 12548 18358 10268 19867 16404 11478 12167 15341 10742 17910 10424 18125 14498 11113 10105 18957 14909 15505 14975 16759 17188 17319 15202 11188 13094 14575 19062 19654 16198 16602 12483 19976 14129 16109 13693 11616 16976 18813 17127 16247 12799 19698 17105 15682 15283 10327 15170 14461 18176 15283 18427 12334 19270 12244 19441 10995 14261 10297 10647 13440 12056 16494 16412 13289 10171 13518 15498 11127 13844 19684 15827 11128 13237 15903 12263 999999 999999 999999 999999 999999 999999 999999 999999 999999 999999 999999 999999 999999 999999 999999 999999 999999 999999 999999 999999 999999 999999 999999 999999 999999 999999 999999 999999 999999 999999 999999 999999 999999 999999 999999 999999 999999 999999 999999 999999 999999 999999 999999 999999 999999 999999 999999 999999 999999 999999 999999 999999 999999 999999 999999 999999 999999 999999 999999 999999 999999 999999 999999 999999 999999 999999 999999 999999 999999 999999 999999 999999 999999 999999 999999 999999 999999 999999 999999 999999 999999 999999 999999 999999 999999 999999 999999 999999 999999 999999 999999 999999 999999 999999 999999 999999 999999 999999 999999 999999 999999 999999 999999 999999 999999 999999 999999 999999 999999 999999 999999 999999 999999 999999 999999 999999 999999 999999 999999 999999 999999 999999 999999 999999 999999 999999 999999 999999 999999 999999 999999 999999 999999 999999 999999 999999 999999 999999 999999 999999 999999 999999 999999 999999 999999 999999 999999 999999 999999 999999 0 999999 999999 999999 999999 999999 999999 999999 999999 999999 999999 999999 999999 999999 999999 999999 999999 999999 999999 999999 999999 999999 999999 999999 999999 999999 999999 999999 999999 999999 12919
999999 17314 11888 17787 11484 17604 15136 10126 12215 11851 11671 14721 10364 16477 11960 12871 10429 12360 18602 16864 11194 11170 18355 13736 13976 15620 10167 17343 10894 18693 10112 10694 10999 15377 14297 18067 18545 17231 17787 11776 12161 19510 14833 13557 13121 19348 15291 17049 16274 11575 16892 12548 11523 17620 18981 13044 13793 18479 12339 19660 15961 13133 14068 17099 13217 18628 17306 17815 19985 12076 13473 18546 18048 11768 11143 13624 11411 11755 15246 10203 10058 10651 19719 12597 13864 10328 15250 17745 13186 18350 16733 14920 12914 12399 10018 12277 18876 14137 11098 18300 11218 19974 12912 16004 15070 14471 14455 14141 12105 10990 12867 14166 18783 16876 16372 11039 19922 13108 12692 11598 11508 17813 11723 12548 15990 12852 18188 14047 10390 12149 18803 10445 13523 14616 16938 19330 16397 13275 16008 14857 11166 16782 11914 17802 18313 16453 11440 10980 19268 15058 11494 16389 17023 11104 10776 18950 11657 13153 10749 15830 15150 16662 13187 11774 16465 17817 17553 10987 14651 17690 13555 13544 11510 17855 14406 18227 18451 13305 19891 19710 13905 999999 999999 999999 999999 999999 999999 999999 999999 999999 999999 999999 999999 999999 999999 999999 999999 999999 999999 999999 999999 999999 999999 999999 999999 999999 999999 999999 999999 999999 999999 999999 999999 999999 999999 999999 999999 999999 999999 999999 999999 999999 999999 999999 999999 999999 999999 999999 999999 999999 999999 999999 999999 999999 999999 999999 999999 999999 999999 999999 999999 999999 999999 999999 999999 999999 999999 999999 999999 999999 999999 999999 999999 999999 999999 999999 999999 999999 999999 999999 999999 999999 999999 999999 999999 999999 999999 999999 999999 999999 999999 999999 999999 999999 999999 999999 999999 999999 999999 999999 999999 999999 999999 999999 999999 999999 999999 999999 999999 999999 999999 999999 999999 999999 999999 999999 999999 999999 999999 999999 999999 999999 999999 999999 999999 999999 999999 999999 999999 999999 999999 999999 999999 999999 999999 999999 999999 999999 999999 999999 999999 999999 999999 999999 999999 999999 999999 999999 999999 999999 999999 999999 0 999999 999999 999999 999999 999999 999999 999999 999999 999999 999999 999999 999999 999999 999999 999999 999999 999999 999999 999999 999999 999999 999999 999999 999999 999999 999999 999999 999999 8917
999999 17699 10994 19696 10118 17308 13597 18863 11869 19978 10456 12660 18946 12095 13896 12770 18999 11432 10416 18897 16676 15255 14257 14779 11304 12832 16127 16218 11292 15247 15162 10047 13667 17025 12530 12964 17333 11315 17147 15439 17117 14861 19658 17650 18436 13379 13145 16679 16150 14089 12086 15638 14864 14498 15761 12458 15589 10812 10073 17918 16197 13862 18286 14327 16217 14646 19536 11647 11904 12384 13974 17988 15987 11121 15333 19465 11493 15846 11736 19141 13976 19615 16091 19823 18004 10463 16296 11114 17775 15477 11224 15796 18461 13443 17383 14632 17328 18427 13386 12818 12409 11740 18057 10975 11144 10789 18478 16770 10233 12653 18967 14091 17895 10894 12658 11750 11866 10432 14092 18733 18463 17441 16775 11795 14578 14357 17714 10748 14764 15491 18124 17345 15674 10061 17442 12382 17596 19638 19313 13506 10787 10112 15210 10475 13715 13989 15190 14509 12039 12586 17033 11555 17028 10383 15807 13380 19156 19503 10852 11044 13884 14792 10791 14296 15577 12001 17205 16050 19906 11889 19877 16453 12976 18926 13844 15464 12494 12716 17490 16251 16054 999999 999999 999999 999999 999999 999999 999999 999999 999999 999999 999999 999999 999999 999999 999999 999999 999999 999999 999999 999999 999999 999999 999999 999999 999999 999999 999999 999999 999999 999999 999999 999999 999999 999999 999999 999999 999999 999999 999999 999999 999999 999999 999999 999999 999999 999999 999999 999999 999999 999999 999999 999999 999999 999999 999999 999999 999999 999999 999999 999999 999999 999999 999999 999999 999999 999999 999999 999999 999999 999999 999999 999999 999999 999999 999999 999999 999999 999999 999999 999999 999999 999999 999999 999999 999999 999999 999999 999999 999999 999999 999999 999999 999999 999999 999999 999999 999999 999999 999999 999999 999999 999999 999999 999999 999999 999999 999999 999999 999999 999999 999999 999999 999999 999999 999999 999999 999999 999999 999999 999999 999999 999999 999999 999999 999999 999999 999999 999999 999999 999999 999999 999999 999999 999999 999999 999999 999999 999999 999999 999999 999999 999999 999999 999999 999999 999999 999999 999999 999999 999999 999999 999999 0 999999 999999 999999 999999 999999 999999 999999 999999 999999 999999 999999 999999 999999 999999 999999 999999 999999 999999 999999 999999 999999 999999 999999 999999 999999 999999 999999 6095
999999 10971 19468 11037 19853 16460 10007 12943 12940 11925 17768 14706 13290 13913 19622 11345 12465 16317 17170 15592 11204 17618 10286 12923 14844 15020 18318 10095 19108 10036 16807 14331 12388 15113 15218 14584 17384 19708 13408 10293 13841 14429 16670 11077 16654 12307 11292 17081 16948 15664 13762 19850 19822 14083 12555 17136 13372 15062 18350 11925 11277 13576 11043 10712 16922 12449 10716 10234 14002 15643 15340 15794 15782 11874 14223 18282 17481 13551 19499 10965 17745 19011 18102 16457 17119 15024 12185 14703 16708 14720 12857 15781 14245 11673 15966 16331 14227 15393 12422 15726 13050 19601 19532 12895 12126 18827 16544 17023 17210 10367 10093 12537 10375 18687 11912 19819 15492 11934 11499 19109 12787 18370 14752 19754 15358 17529 14031 11362 11380 15688 18922 13608 14521 17408 17414 16354 17570 10391 11381 17432 18436 14710 15064 13304 19010 14990 15647 10360 14613 14313 13611 16846 13050 16750 12174 19812 14075 19911 17647 14096 15992 18281 11928 16517 10245 15521 10538 14672 16206 13414 18909 15525 15569 18593 13705 19165 17490 10316 18222 14642 16626 999999 999999 999999 999999 999999 999999 999999 999999 999999 999999 999999 999999 999999 999999 999999 999999 999999 999999 999999 999999 999999 999999 999999 999999 999999 999999 999999 999999 999999 999999 999999 999999 999999 999999 999999 999999 999999 999999 999999 999999 999999 999999 999999 999999 999999 999999 999999 999999 999999 999999 999999 999999 999999 999999 999999 999999 999999 999999 999999 999999 999999 999999 999999 999999 999999 999999 999999 999999 999999 999999 999999 999999 999999 999999 999999 999999 999999 999999 999999 999999 999999 999999 999999 999999 999999 999999 999999 999999 999999 999999 999999 999999 999999 999999 999999 999999 999999 999999 999999 999999 999999 999999 999999 999999 999999 999999 999999 999999 999999 999999 999999 999999 999999 999999 999999 999999 999999 999999 999999 999999 999999 999999 999999 999999 999999 999999 999999 999999 999999 999999 999999 999999 999999 999999 999999 999999 999999 999999 999999 999999 999999 999999 999999 999999 999999 999999 999999 999999 999999 999999 999999 999999 999999 0 999999 999999 999999 999999 999999 999999 999999 999999 999999 999999 999999 999999 999999 999999 999999 999999 999999 999999 999999 999999 999999 999999 999999 999999 999999 999999 9937
999999 19473 13059 13301 18477 14205 17319 15938 13725 15915 17638 14686 13398 13030 13248 18718 10729 12147 19208 18974 14340 13562 15378 11651 19836 17466 12926 15815 13128 17360 18549 12344 11963 10333 11529 17992 19734 12386 18173 18132 13669 18277 15225 14921 13510 16932 11895 18930 16934 19947 18511 16542 11725 15323 10033 17794 11318 19360 11577 11034 19994 19370 15599 16840 11768 10039 17432 16663 10385 11222 18435 10266 18715 11885 11891 12360 12510 10097 16438 16293 16882 11441 10192 17554 16095 11450 18439 13330 17807 14007 14383 13064 13488 16344 16432 18942 16184 12554 11869 14892 18453 15431 13434 13641 17049 12245 11801 17364 14313 16641 16586 10117 17762 15518 14488 19836 18260 19841 14244 10843 11335 17746 17485 14900 14313 13673 13504 14288 18275 11543 14894 14876 17165 10804 15498 18205 16911 10295 16316 16927 13099 15267 10376 19428 10450 11307 16106 10366 18423 17427 18412 15722 16607 11110 14441 14725 19841 12473 12860 15012 11787 13867 17773 19390 18414 10266 18894 16204 10103 12482 12018 18630 18437 11001 19855 12855 19576 13296 13907 11924 16639 999999 999999 999999 999999 999999 999999 999999 999999 999999 999999 999999 999999 999999 999999 999999 999999 999999 999999 999999 999999 999999 999999 999999 999999 999999 999999 999999 999999 999999 999999 999999 999999 999999 999999 999999 999999 999999 999999 999999 999999 999999 999999 999999 999999 999999 999999 999999 999999 999999 999999 999999 999999 999999 999999 999999 999999 999999 999999 999999 999999 999999 999999 999999 999999 999999 999999 999999 999999 999999 999999 999999 999999 999999 999999 999999 999999 999999 999999 999999 999999 999999 999999 999999 999999 999999 999999 999999 999999 999999 999999 999999 999999 999999 999999 999999 999999 999999 999999 999999 999999 999999 999999 999999 999999 999999 999999 999999 999999 999999 999999 999999 999999 999999 999999 999999 999999 999999 999999 999999 999999 999999 999999 999999 999999 999999 999999 999999 999999 999999 999999 999999 999999 999999 999999 999999 999999 999999 999999 999999 999999 999999 999999 999999 999999 999999 999999 999999 999999 999999 999999 999999 999999 999999 999999 0 999999 999999 999999 999999 999999 999999 999999 999999 999999 999999 999999 999999 999999 999999 999999 999999 999999 999999 999999 999999 999999 999999 999999 999999 999999 7722
999999 19397 19788 11443 17470 19800 15279 11569 13946 17088 19885 17048 18280 15106 18560 18894 10698 12850 13456 10947 17525 14030 15715 18509 17906 18454 16558 14982 11437 15314 13239 15432 16562 19297 10153 17431 14684 15656 13242 13485 11374 10802 14597 18026 11600 16204 14663 19065 13859 13586 10894 13148 13563 16894 17649 13806 18029 10619 14605 16895 16548 12259 14919 17265 19825 11051 19323 18456 16351 12215 16109 18217 15834 13671 15264 12259 16337 14822 13459 11966 11930 13994 13860 11525 13453 10035 12937 13182 19749 13632 18212 15090 13228 15661 19502 11470 16052 13855 13909 16328 14400 11344 12305 17079 18818 17566 10560 18618 18442 14755 10770 17019 11833 18233 10903 16639 17915 15817 15486 16538 19837 10447 18333 17618 16890 11393 16125 18320 12301 13351 13906 16786 11290 15036 18604 12209 19790 13103 15781 11610 15212 17407 16683 15606 13520 12401 19779 19615 17933 17009 19580 19683 16568 19479 11046 16866 10806 13034 15422 17292 17466 18548 14989 14178 15120 14838 11010 13990 11195 11306 16791 12630 10785 18527 12272 18510 18163 16877 15608 13677 13500 999999 999999 999999 999999 999999 999999 999999 999999 999999 999999 999999 999999 999999 999999 999999 999999 999999 999999 999999 999999 999999 999999 999999 999999 999999 999999 999999 999999 999999 999999 999999 999999 999999 999999 999999 999999 999999 999999 999999 999999 999999 999999 999999 999999 999999 999999 999999 999999 999999 999999 999999 999999 999999 999999 999999 999999 999999 999999 999999 999999 999999 999999 999999 999999 999999 999999 999999 999999 999999 999999 999999 999999 999999 999999 999999 999999 999999 999999 999999 999999 999999 999999 999999 999999 999999 999999 999999 999999 999999 999999 999999 999999 999999 999999 999999 999999 999999 999999 999999 999999 999999 999999 999999 999999 999999 999999 999999 999999 999999 999999 999999 999999 999999 999999 999999 999999 999999 999999 999999 999999 999999 999999 999999 999999 999999 999999 999999 999999 999999 999999 999999 999999 999999 999999 999999 999999 999999 999999 999999 999999 999999 999999 999999 999999 999999 999999 999999 999999 999999 999999 999999 999999 999999 999999 999999 0 999999 999999 999999 999999 999999 999999 999999 999999 999999 999999 999999 999999 999999 999999 999999 999999 999999 999999 999999 999999 999999 999999 999999 999999 5751
999999 17548 15520 10764 16652 15834 12876 19245 16552 18946 12808 11577 17343 11159 14300 17368 13381 15577 15015 17772 12424 19940 13138 13723 10152 19265 16344 13712 19064 10797 13572 14693 15322 16950 19017 17265 12772 12592 17873 12509 13144 18784 13120 17825 12456 17247 10731 16103 17384 16116 18750 16797 18236 13989 19597 13309 11464 16707 17589 18355 17530 19403 17822 13210 10642 17001 11572 11832 18530 13935 12580 18049 19027 19834 19123 10332 10836 17027 13558 11830 13083 11030 13222 10725 10308 16790 14939 12250 18700 14956 14396 15018 13745 14218 19478 10481 13588 14530 16855 15650 14148 18632 15909 14487 14957 19148 10164 15971 16027 18349 15208 13039 16519 17781 11902 12430 19859 17237 10339 12266 10038 18476 18971 11323 10934 11082 10815 11267 15222 14595 15062 18399 14176 15121 19713 11368 19187 19702 18741 11001 13525 13143 18269 10011 18623 19933 14689 15788 16587 17684 14610 13272 11336 16785 11329 14544 19911 10346 14862 19527 18874 10585 10901 17554 19994 18695 16642 19131 10351 15820 11773 19189 17532 10292 16426 15914 10577 16075 14914 12673 15408 999999 999999 999999 999999 999999 999999 999999 999999 999999 999999 999999 999999 999999 999999 999999 999999 999999 999999 999999 999999 999999 999999 999999 999999 999999 999999 999999 999999 999999 999999 999999 999999 999999 999999 999999 999999 999999 999999 999999 999999 999999 999999 999999 999999 999999 999999 999999 999999 999999 999999 999999 999999 999999 999999 999999 999999 999999 999999 999999 999999 999999 999999 999999 999999 999999 999999 999999 999999 999999 999999 999999 999999 999999 999999 999999 999999 999999 999999 999999 999999 999999 999999 999999 999999 999999 999999 999999 999999 999999 999999 999999 999999 999999 999999 999999 999999 999999 999999 999999 999999 999999 999999 999999 999999 999999 999999 999999 999999 999999 999999 999999 999999 999999 999999 999999 999999 999999 999999 999999 999999 999999 999999 999999 999999 999999 999999 999999 999999 999999 999999 999999 999999 999999 999999 999999 999999 999999 999999 999999 999999 999999 999999 999999 999999 999999 999999 999999 999999 999999 999999 999999 999999 999999 999999 999999 999999 0 999999 999999 999999 999999 999999 999999 999999 999999 999999 999999 999999 999999 999999 999999 999999 999999 999999 999999 999999 999999 999999 999999 999999 14072
999999 12740 10388 16821 15721 13583 14122 13940 19651 19413 17203 19835 13292 17854 12301 16503 11520 15558 14375 16028 15320 14874 17877 17753 16082 12533 12893 16988 11555 16157 14242 14884 14109 19166 11119 19297 13183 19556 12839 11214 14094 19805 16469 16464 10171 19634 18792 16430 14406 13891 12281 15181 17458 17864 11806 16059 12060 19720 19908 18870 16996 17963 10764 15289 13048 19152 14349 17291 12821 16781 12366 10880 18890 13060 17615 11209 10191 10951 18457 15364 11046 14016 19794 13170 11941 14674 10271 19001 12499 19502 14283 14662 16550 16453 13635 19912 13317 14480 15436 11867 18482 13534 15835 12789 10388 12094 19553 13117 10837 10798 12536 19244 18330 10973 10607 17024 19706 18708 16026 18823 12785 19329 17355 13846 18267 14794 18351 18788 13627 19578 10795 12792 17962 13406 15378 17433 10945 17121 18272 13267 12593 15661 18524 14373 17787 12554 17663 19898 17748 18159 17905 17235 15749 14406 19585 17929 15165 15137 12368 15757 16693 13941 12024 18741 16870 19766 17153 10644 18956 14908 15189 10560 19621 10015 15143 15883 12381 19639 13064 15678 19424 999999 999999 999999 999999 999999 999999 999999 999999 999999 999999 999999 999999 999999 999999 999999 999999 999999 999999 999999 999999 999999 999999 999999 999999 999999 999999 999999 999999 999999 999999 999999 999999 999999 999999 999999 999999 999999 999999 999999 999999 999999 999999 999999 999999 999999 999999 999999 999999 999999 999999 999999 999999 999999 999999 999999 999999 999999 999999 999999 999999 999999 999999 999999 999999 999999 999999 999999 999999 999999 999999 999999 999999 999999 999999 999999 999999 999999 999999 999999 999999 999999 999999 999999 999999 999999 999999 999999 999999 999999 999999 999999 999999 999999 999999 999999 999999 999999 999999 999999 999999 999999 999999 999999 999999 999999 999999 999999 999999 999999 999999 999999 999999 999999 999999 999999 999999 999999 999999 999999 999999 999999 999999 999999 999999 999999 999999 999999 999999 999999 999999 999999 999999 999999 999999 999999 999999 999999 999999 999999 999999 999999 999999 999999 999999 999999 999999 999999 999999 999999 999999 999999 999999 999999 999999 999999 999999 999999 0 999999 999999 999999 999999 999999 999999 999999 999999 999999 999999 999999 999999 999999 999999 999999 999999 999999 999999 999999 999999 999999 999999 12456
999999 16933 14967 11007 10577 11269 10037 19660 16801 15104 10287 14140 12353 12699 15758 15712 12578 11360 14815 13567 16313 17638 13645 19737 14001 16090 10169 17853 17740 19904 17959 10963 17115 19506 19210 15971 14433 16559 10234 12770 16461 15825 16768 17717 19073 15778 19874 16187 13678 16177 19287 17335 16927 17162 18798 10506 18491 10108 14664 18280 10081 12053 12566 14556 19319 10598 10763 12121 16614 12186 18808 13553 14372 19993 16248 18788 19202 13079 10918 11119 12368 16747 14597 17019 17713 15442 16267 13926 13558 16764 15532 13344 15247 12985 10707 17170 13226 12762 16041 14209 18997 10893 11073 15389 13471 14344 16725 13914 14878 18712 12622 18813 18516 14293 17050 17775 15983 13289 19648 18716 17283 18978 16434 16139 15989 12051 11409 10300 17561 14833 11520 19799 19968 16347 10608 10103 13439 12480 12538 16412 18463 11372 15011 18533 11378 16176 17717 15305 17018 16543 16689 17880 19045 11015 14145 16826 10371 19502 11239 14366 17266 17589 14375 17659 13365 19801 18176 18046 11911 17056 13853 18592 15614 13487 14253 16655 12420 10341 13092 14360 11425 999999 999999 999999 999999 999999 999999 999999 999999 999999 999999 999999 999999 999999 999999 999999 999999 999999 999999 999999 999999 999999 999999 999999 999999 999999 999999 999999 999999 999999 999999 999999 999999 999999 999999 999999 999999 999999 999999 999999 999999 999999 999999 999999 999999 999999 999999 999999 999999 999999 999999 999999 999999 999999 999999 999999 999999 999999 999999 999999 999999 999999 999999 999999 999999 999999 999999 999999 999999 999999 999999 999999 999999 999999 999999 999999 999999 999999 999999 999999 999999 999999 999999 999999 999999 999999 999999 999999 999999 999999 999999 999999 999999 999999 999999 999999 999999 999999 999999 999999 999999 999999 999999 999999 999999 999999 999999 999999 999999 999999 999999 999999 999999 999999 999999 999999 999999 999999 999999 999999 999999 999999 999999 999999 999999 999999 999999 999999 999999 999999 999999 999999 999999 999999 999999 999999 999999 999999 999999 999999 999999 999999 999999 999999 999999 999999 999999 999999 999999 999999 999999 999999 999999 999999 999999 999999 999999 999999 999999 0 999999 999999 999999 999999 999999 999999 999999 999999 999999 999999 999999 999999 999999 999999 999999 999999 999999 999999 999999 999999 999999 6367
999999 16030 17844 10918 12695 12888 13741 14242 18969 11052 14280 13632 15421 15720 19547 17539 11312 11556 14140 10213 16805 18875 19752 10086 14954 12560 15266 12194 19019 10646 18771 16021 13127 10207 12419 16656 12130 16176 15388 14080 14567 15302 10387 12113 10456 18217 19010 14404 14219 14890 17467 16263 10198 17106 12443 12927 16575 14462 17209 12297 19599 18178 11882 11117 15013 17885 12944 16158 10938 10185 15120 19991 15616 18354 11532 17612 14426 18816 16199 17738 18191 10529 12275 17091 17438 15945 18655 19882 18315 10434 13378 19933 19367 12229 13321 10316 16573 10128 12192 15457 17848 19829 11708 12871 13365 12654 11625 17266 19535 18881 10238 12424 16136 17510 11588 16486 18123 11426 18679 14376 14570 17012 12437 15785 13720 19357 11584 13413 14479 10628 14236 11549 18799 14184 15362 14845 17274 10216 15120 12740 13849 16245 18582 13335 19138 12040 19026 13823 16870 19349 18813 18027 19131 11384 17533 11414 16277 19850 12429 19170 17113 13586 12301 10772 14764 11989 12430 16231 18568 17181 17461 17889 12858 18699 16253 16185 18486 19901 18288 12645 10286 999999 999999 999999 999999 999999 999999 999999 999999 999999 999999 999999 999999 999999 999999 999999 999999 999999 999999 999999 999999 999999 999999 999999 999999 999999 999999 999999 999999 999999 999999 999999 999999 999999 999999 999999 999999 999999 999999 999999 999999 999999 999999 999999 999999 999999 999999 999999 999999 999999 999999 999999 999999 999999 999999 999999 999999 999999 999999 999999 999999 999999 999999 999999 999999 999999 999999 999999 999999 999999 999999 999999 999999 999999 999999 999999 999999 999999 999999 999999 999999 999999 999999 999999 999999 999999 999999 999999 999999 999999 999999 999999 999999 999999 999999 999999 999999 999999 999999 999999 999999 999999 999999 999999 999999 999999 999999 999999 999999 999999 999999 999999 999999 999999 999999 999999 999999 999999 999999 999999 999999 999999 999999 999999 999999 999999 999999 999999 999999 999999 999999 999999 999999 999999 999999 999999 999999 999999 999999 999999 999999 999999 999999 999999 999999 999999 999999 999999 999999 999999 999999 999999 999999 999999 999999 999999 999999 999999 999999 999999 0 999999 999999 999999 999999 999999 999999 999999 999999 999999 999999 999999 999999 999999 999999 999999 999999 999999 999999 999999 999999 13233
999999 15972 13936 17516 15201 12418 12554 13754 15333 12243 18524 18852 19712 10499 12667 17282 13970 14937 10254 11777 10452 18833 14628 14209 12961 17943 13255 19573 14289 11448 14195 16754 12221 10151 10334 10606 14741 10748 16208 16513 11553 18403 19397 19280 10010 18348 14895 14778 18153 13820 10237 10534 10496 13831 12971 12563 11589 13741 14700 17711 14851 13524 10071 11435 19828 17934 11418 17999 13881 11909 15664 10764 17551 10810 15565 14875 14156 11286 17323 12338 17619 15526 11901 11427 13217 13221 13576 15778 10533 17891 11094 13814 13771 19132 17973 16733 13083 13648 19652 16206 16432 16318 18856 10757 19978 16871 12988 10836 12705 16640 18098 10712 14685 14313 14248 12194 14567 16178 17129 12510 13201 18430 11061 16184 19699 16749 13348 19975 18422 12557 19510 15427 13699 17406 10130 11350 19743 17447 14430 10493 12707 19959 12008 19006 13474 18929 19508 14387 13485 16490 19403 18649 17505 17699 18631 15465 14662 14207 13251 15128 17159 13887 11684 11078 17247 14956 19992 17059 17253 19810 11089 14135 16626 10006 10809 13694 19760 13843 16583 16850 16428 999999 999999 999999 999999 999999 999999 999999 999999 999999 999999 999999 999999 999999 999999 999999 999999 999999 999999 999999 999999 999999 999999 999999 999999 999999 999999 999999 999999 999999 999999 999999 999999 999999 999999 999999 999999 999999 999999 999999 999999 999999 999999 999999 999999 999999 999999 999999 999999 999999 999999 999999 999999 999999 999999 999999 999999 999999 999999 999999 999999 999999 999999 999999 999999 999999 999999 999999 999999 999999 999999 999999 999999 999999 999999 999999 999999 999999 999999 999999 999999 999999 999999 999999 999999 999999 999999 999999 999999 999999 999999 999999 999999 999999 999999 999999 999999 999999 999999 999999 999999 999999 999999 999999 999999 999999 999999 999999 999999 999999 999999 999999 999999 999999 999999 999999 999999 999999 999999 999999 999999 999999 999999 999999 999999 999999 999999 999999 999999 999999 999999 999999 999999 999999 999999 999999 999999 999999 999999 999999 999999 999999 999999 999999 999999 999999 999999 999999 999999 999999 999999 999999 999999 999999 999999 999999 999999 999999 999999 999999 999999 0 999999 999999 999999 999999 999999 999999 999999 999999 999999 999999 999999 999999 999999 999999 999999 999999 999999 999999 999999 13279
999999 15326 19324 16722 15453 16075 16278 11257 19110 12174 19363 13660 18391 12343 16827 12489 12594 18355 10580 11898 14293 10962 10701 12033 16137 14001 13673 16473 14692 10394 16151 11033 16909 18142 11588 15429 18285 15933 10438 19990 18871 10755 18386 16869 14850 18468 19094 17929 11231 10302 14634 19713 14449 17860 13146 15526 10419 10577 12790 10649 17694 12345 16992 14511 14425 19125 17361 17518 15994 10467 14338 11528 13728 15048 10505 18280 12447 18061 16701 10249 18765 19051 19864 17918 12490 19348 11531 10505 12058 12459 14439 16153 12469 13462 11852 13044 14875 17338 14854 13198 17790 14464 10877 14170 11615 17355 11313 12938 15691 13573 14711 11079 19836 12305 10253 11926 14353 10594 18271 14120 11664 10430 14837 19422 14659 10080 18232 10004 15036 13976 10652 19034 14685 13525 17952 11553 13393 11066 13078 13298 10069 14375 18397 11714 11250 16885 19847 15996 17087 11154 15189 12352 18209 13157 10184 19686 17576 17646 16496 12027 11034 16425 16165 15999 18951 11865 16800 17668 15589 14685 12761 10880 16354 14266 14788 19102 10413 18537 16590 11760 11855 999999 999999 999999 999999 999999 999999 999999 999999 999999 999999 999999 999999 999999 999999 999999 999999 999999 999999 999999 999999 999999 999999 999999 999999 999999 999999 999999 999999 999999 999999 999999 999999 999999 999999 999999 999999 999999 999999 999999 999999 999999 999999 999999 999999 999999 999999 999999 999999 999999 999999 999999 999999 999999 999999 999999 999999 999999 999999 999999 999999 999999 999999 999999 999999 999999 999999 999999 999999 999999 999999 999999 999999 999999 999999 999999 999999 999999 999999 999999 999999 999999 999999 999999 999999 999999 999999 999999 999999 999999 999999 999999 999999 999999 999999 999999 999999 999999 999999 999999 999999 999999 999999 999999 999999 999999 999999 999999 999999 999999 999999 999999 999999 999999 999999 999999 999999 999999 999999 999999 999999 999999 999999 999999 999999 999999 999999 999999 999999 999999 999999 999999 999999 999999 999999 999999 999999 999999 999999 999999 999999 999999 999999 999999 999999 999999 999999 999999 999999 999999 999999 999999 999999 999999 999999 999999 999999 999999 999999 999999 999999 999999 0 999999 999999 999999 999999 999999 999999 999999 999999 999999 999999 999999 999999 999999 999999 999999 999999 999999 999999 5756
999999 15929 17671 14175 12740 12661 15075 13660 12750 12556 13000 12347 10308 15430 12988 15451 13334 15139 19972 11681 14399 11112 17272 14299 10777 11117 19574 10458 13981 10987 14304 11802 12990 18645 15605 11079 13290 14912 11163 18731 13362 18853 10405 15601 13386 13493 13764 19585 10596 16855 17354 10768 18099 13957 14343 19989 17611 17369 11703 18580 11331 17214 12393 11066 15872 15999 17898 19643 12627 11955 10906 10430 18185 10627 11056 15393 16179 16369 19371 17309 15059 11315 15008 14108 11449 12480 18077 10885 12163 10798 16744 12043 14281 13298 12325 19867 13974 12713 15573 17877 11257 19216 15526 11301 10778 12033 12370 19162 13531 12502 18276 13131 18634 17000 18583 15069 10762 16655 19960 14366 10650 14204 14770 13248 13758 17775 15647 19453 17238 13671 14954 13754 12958 15491 11190 18259 14877 11165 13749 11258 19450 11139 19745 13955 10883 12721 18262 18351 15829 12312 11004 19724 12770 15489 13413 19467 10275 19136 16612 11410 11952 15780 11068 11387 15397 16292 18253 19501 14185 16073 10346 11422 15462 15148 11407 10305 11143 15224 14822 16736 16018 999999 999999 999999 999999 999999 999999 999999 999999 999999 999999 999999 999999 999999 999999 999999 999999 999999 999999 999999 999999 999999 999999 999999 999999 999999 999999 999999 999999 999999 999999 999999 999999 999999 999999 999999 999999 999999 999999 999999 999999 999999 999999 999999 999999 999999 999999 999999 999999 999999 999999 999999 999999 999999 999999 999999 999999 999999 999999 999999 999999 999999 999999 999999 999999 999999 999999 999999 999999 999999 999999 999999 999999 999999 999999 999999 999999 999999 999999 999999 999999 999999 999999 999999 999999 999999 999999 999999 999999 999999 999999 999999 999999 999999 999999 999999 999999 999999 999999 999999 999999 999999 999999 999999 999999 999999 999999 999999 999999 999999 999999 999999 999999 999999 999999 999999 999999 999999 999999 999999 999999 999999 999999 999999 999999 999999 999999 999999 999999 999999 999999 999999 999999 999999 999999 999999 999999 999999 999999 999999 999999 999999 999999 999999 999999 999999 999999 999999 999999 999999 999999 999999 999999 999999 999999 999999 999999 999999 999999 999999 999999 999999 999999 0 999999 999999 999999 999999 999999 999999 999999 999999 999999 999999 999999 999999 999999 999999 999999 999999 999999 8491
999999 11386 19834 11185 14560 16176 19207 15928 17770 10285 14075 14492 18613 19046 11559 16574 14663 18688 18336 11392 13025 12234 11641 15686 18820 18913 12542 18614 15311 17463 15092 10846 14945 14664 17762 19409 15791 14316 16548 19824 15262 19477 13735 10763 10269 11500 19946 14229 14537 10386 17840 10397 11745 16341 17082 11069 17071 18406 19312 13456 19337 10073 14064 12395 15423 12631 15707 19951 17138 14329 19686 12343 18878 12038 15485 14033 13626 10417 15669 14147 18385 17071 18377 19402 17771 17349 15251 19449 14258 16409 12986 15891 18976 10274 13035 15854 17751 11067 14817 11605 17165 11060 15008 10289 11225 12972 16190 19339 14665 19353 11183 19948 18702 11160 19565 14983 17528 16678 14149 10378 16684 18854 10588 12400 12313 11235 16425 15769 18177 18815 19448 12952 13993 18175 13289 16740 13668 14858 13270 19290 16229 18169 11517 11040 13674 10276 13453 14939 13622 17024 10575 19337 18277 10482 11768 15299 14417 18829 19020 10893 12723 13389 12504 11874 12839 14488 16331 10320 11616 18264 10223 13383 18042 11132 11273 10465 18927 19481 14790 15231 19693 999999 999999 999999 999999 999999 999999 999999 999999 999999 999999 999999 999999 999999 999999 999999 999999 999999 999999 999999 999999 999999 999999 999999 999999 999999 999999 999999 999999 999999 999999 999999 999999 999999 999999 999999 999999 999999 999999 999999 999999 999999 999999 999999 999999 999999 999999 999999 999999 999999 999999 999999 999999 999999 999999 999999 999999 999999 999999 999999 999999 999999 999999 999999 999999 999999 999999 999999 999999 999999 999999 999999 999999 999999 999999 999999 999999 999999 999999 999999 999999 999999 999999 999999 999999 999999 999999 999999 999999 999999 999999 999999 999999 999999 999999 999999 999999 999999 999999 999999 999999 999999 999999 999999 999999 999999 999999 999999 999999 999999 999999 999999 999999 999999 999999 999999 999999 999999 999999 999999 999999 999999 999999 999999 999999 999999 999999 999999 999999 999999 999999 999999 999999 999999 999999 999999 999999 999999 999999 999999 999999 999999 999999 999999 999999 999999 999999 999999 999999 999999 999999 999999 999999 999999 999999 999999 999999 999999 999999 999999 999999 999999 999999 999999 0 999999 999999 999999 999999 999999 999999 999999 999999 999999 999999 999999 999999 999999 999999 999999 999999 5332
999999 11050 16462 10189 12457 16837 18926 14816 11314 17688 14196 14088 18022 11998 19133 15687 15772 13351 15200 10307 18746 17005 16795 10377 18403 14054 19564 16927 14174 13401 19077 18548 12556 19412 14216 19800 10330 14319 11226 11569 19592 14117 15545 11341 17334 16348 15324 16441 14752 17334 13812 18145 14713 17021 16526 17093 10170 12662 12182 14234 11097 11844 13563 12846 17848 18140 11538 10532 17723 12723 15562 15769 13753 15030 12376 11651 13093 19391 14727 15432 10068 12754 15017 17824 14921 12161 19457 14855 15980 16032 19174 10819 14094 18180 18198 16786 13629 14801 11551 11377 19728 11271 18505 19183 14676 15060 11528 11367 10532 13412 14841 19589 14889 16944 16181 16824 11352 10844 16848 16898 18010 10572 18630 11509 17634 16449 19786 15017 15805 11143 12070 18080 10048 19700 15293 19762 17682 10448 15517 16307 11881 17839 17425 13547 16163 17817 11739 11573 16044 12116 17740 13972 12899 14649 10670 14255 11659 14609 13606 19789 15804 16521 15691 11745 18814 16398 13204 18956 19151 14384 13723 12955 14323 14152 18187 15639 11292 11197 12337 12774 10264 999999 999999 999999 999999 999999 999999 999999 999999 999999 999999 999999 999999 999999 999999 999999 999999 999999 999999 999999 999999 999999 999999 999999 999999 999999 999999 999999 999999 999999 999999 999999 999999 999999 999999 999999 999999 999999 999999 999999 999999 999999 999999 999999 999999 999999 999999 999999 999999 999999 999999 999999 999999 999999 999999 999999 999999 999999 999999 999999 999999 999999 999999 999999 999999 999999 999999 999999 999999 999999 999999 999999 999999 999999 999999 999999 999999 999999 999999 999999 999999 999999 999999 999999 999999 999999 999999 999999 999999 999999 999999 999999 999999 999999 999999 999999 999999 999999 999999 999999 999999 999999 999999 999999 999999 999999 999999 999999 999999 999999 999999 999999 999999 999999 999999 999999 999999 999999 999999 999999 999999 999999 999999 999999 999999 999999 999999 999999 999999 999999 999999 999999 999999 999999 999999 999999 999999 999999 999999 999999 999999 999999 999999 999999 999999 999999 999999 999999 999999 999999 999999 999999 999999 999999 999999 999999 999999 999999 999999 999999 999999 999999 999999 999999 999999 0 999999 999999 999999 999999 999999 999999 999999 999999 999999 999999 999999 999999 999999 999999 999999 12262
999999 16584 13270 12293 13948 11867 15363 18664 12894 10109 16028 17407 14223 19311 10103 13736 13237 10601 18437 13314 10788 13443 16688 18846 17469 12739 15805 15505 11606 19487 15879 11519 18401 16396 13876 14334 11112 19246 10536 18329 16881 11642 12872 18880 11302 10916 15018 16550 10552 19059 11256 13538 19703 14676 13268 18146 17920 19086 17735 13414 15043 12898 19354 15221 10829 13660 10966 10079 12549 12451 14109 15652 19759 17460 16504 18610 14042 11409 10838 17343 11992 15710 12237 16292 13796 16413 12394 17343 18002 16712 18898 15439 11095 16425 18372 14924 12449 19525 11581 17650 17657 17592 16862 10893 14733 15532 12983 10115 17447 14337 18728 19415 13954 15456 10004 12695 14929 11429 19003 15917 17074 13675 14269 15917 19892 14290 10073 10515 11384 12447 18620 11005 17475 18254 14203 16222 12510 18451 17447 15492 12538 12033 19205 18206 11392 16559 15412 12627 17757 18444 15152 19165 18891 14622 17638 17732 16116 19435 13653 17612 19744 17592 19598 11413 16567 16878 15683 11139 11114 18642 12963 14601 12405 18347 11279 17078 12548 14978 15893 15205 15015 999999 999999 999999 999999 999999 999999 999999 999999 999999 999999 999999 999999 999999 999999 999999 999999 999999 999999 999999 999999 999999 999999 999999 999999 999999 999999 999999 999999 999999 999999 999999 999999 999999 999999 999999 999999 999999 999999 999999 999999 999999 999999 999999 999999 999999 999999 999999 999999 999999 999999 999999 999999 999999 999999 999999 999999 999999 999999 999999 999999 999999 999999 999999 999999 999999 999999 999999 999999 999999 999999 999999 999999 999999 999999 999999 999999 999999 999999 999999 999999 999999 999999 999999 999999 999999 999999 999999 999999 999999 999999 999999 999999 999999 999999 999999 999999 999999 999999 999999 999999 999999 999999 999999 999999 999999 999999 999999 999999 999999 999999 999999 999999 999999 999999 999999 999999 999999 999999 999999 999999 999999 999999 999999 999999 999999 999999 999999 999999 999999 999999 999999 999999 999999 999999 999999 999999 999999 999999 999999 999999 999999 999999 999999 999999 999999 999999 999999 999999 999999 999999 999999 999999 999999 999999 999999 999999 999999 999999 999999 999999 999999 999999 999999 999999 999999 0 999999 999999 999999 999999 999999 999999 999999 999999 999999 999999 999999 999999 999999 999999 10838
999999 10904 12618 19164 12075 19868 18548 18856 15304 11778 16505 16919 14711 12764 18945 18482 11969 14720 17397 16868 16824 14555 11938 19795 15332 12791 18165 15645 17472 14898 18219 14486 13645 19613 16551 17311 13872 12253 19411 13125 11733 15743 12981 10318 10885 16707 12830 10849 19488 18054 11253 16628 11462 14384 13619 18417 16069 17252 12344 12108 18463 18124 17042 18777 14004 12113 15709 12114 12044 10713 15712 12163 15382 18531 14481 16016 18509 16003 11143 11070 13669 16575 19665 14913 10660 18642 12826 12443 13615 11403 15047 10195 19463 11270 16169 12825 18224 12082 16119 10125 12577 13307 11809 12215 14780 17271 18919 14022 10116 10983 13303 15874 10876 16139 11078 13534 16366 15624 13086 15307 19692 16347 14276 13158 14835 10016 14347 14403 17095 13950 13481 17204 19966 19755 19588 13112 13260 11520 13552 14858 19277 15719 18217 14266 14705 13656 15897 18930 18259 13691 17407 14600 18063 15363 14274 16977 16259 10921 14089 19998 12768 11756 13920 16025 12083 12796 11454 14616 18730 10601 10010 19070 14762 14902 11489 14666 17427 10923 12839 14758 13423 999999 999999 999999 999999 999999 999999 999999 999999 999999 999999 999999 999999 999999 999999 999999 999999 999999 999999 999999 999999 999999 999999 999999 999999 999999 999999 999999 999999 999999 999999 999999 999999 999999 999999 999999 999999 999999 999999 999999 999999 999999 999999 999999 999999 999999 999999 999999 999999 999999 999999 999999 999999 999999 999999 999999 999999 999999 999999 999999 999999 999999 999999 999999 999999 999999 999999 999999 999999 999999 999999 999999 999999 999999 999999 999999 999999 999999 999999 999999 999999 999999 999999 999999 999999 999999 999999 999999 999999 999999 999999 999999 999999 999999 999999 999999 999999 999999 999999 999999 999999 999999 999999 999999 999999 999999 999999 999999 999999 999999 999999 999999 999999 999999 999999 999999 999999 999999 999999 999999 999999 999999 999999 999999 999999 999999 999999 999999 999999 999999 999999 999999 999999 999999 999999 999999 999999 999999 999999 999999 999999 999999 999999 999999 999999 999999 999999 999999 999999 999999 999999 999999 999999 999999 999999 999999 999999 999999 999999 999999 999999 999999 999999 999999 999999 999999 999999 0 999999 999999 999999 999999 999999 999999 999999 999999 999999 999999 999999 999999 999999 11067
999999 17564 10040 16380 15578 15306 11524 16504 13371 16524 12033 18912 17117 17953 10211 11251 19900 11548 10797 14391 14091 19361 11262 18199 16461 10809 13549 18708 17901 13384 13125 10495 16562 11232 13369 18667 10521 18828 16499 11554 18974 18049 11866 18390 19296 13996 18251 17311 18114 12902 14955 12405 17789 19877 12331 12017 19407 16140 17395 18831 15168 12363 14239 11593 10503 10330 10593 18990 19158 17800 12336 13884 19697 16730 10400 11157 10768 19246 10967 15715 15084 15141 16281 17289 12821 12295 11349 11399 13622 12552 11755 15819 14763 18914 14445 19848 11769 19848 11611 14061 17862 13527 16786 14169 14516 17103 16685 11597 11814 12954 18421 11918 18978 18551 12261 14238 12414 17894 16782 10009 18939 17895 14028 13881 13801 12403 14962 15173 17767 10705 15623 14904 18917 17509 10412 14109 17794 19716 14661 11951 11671 14019 14832 19435 13309 15998 10892 10325 15643 19767 11524 19234 19638 10899 11054 11380 19445 10362 12313 19296 18896 16099 15215 13031 19790 10168 16968 11550 18409 19430 14812 17007 14940 17839 11740 13980 10063 18986 17507 11494 18078 999999 999999 999999 999999 999999 999999 999999 999999 999999 999999 999999 999999 999999 999999 999999 999999 999999 999999 999999 999999 999999 999999 999999 999999 999999 999999 999999 999999 999999 999999 999999 999999 999999 999999 999999 999999 999999 999999 999999 999999 999999 999999 999999 999999 999999 999999 999999 999999 999999 999999 999999 999999 999999 999999 999999 999999 999999 999999 999999 999999 999999 999999 999999 999999 999999 999999 999999 999999 999999 999999 999999 999999 999999 999999 999999 999999 999999 999999 999999 999999 999999 999999 999999 999999 999999 999999 999999 999999 999999 999999 999999 999999 999999 999999 999999 999999 999999 999999 999999 999999 999999 999999 999999 999999 999999 999999 999999 999999 999999 999999 999999 999999 999999 999999 999999 999999 999999 999999 999999 999999 999999 999999 999999 999999 999999 999999 999999 999999 999999 999999 999999 999999 999999 999999 999999 999999 999999 999999 999999 999999 999999 999999 999999 999999 999999 999999 999999 999999 999999 999999 999999 999999 999999 999999 999999 999999 999999 999999 999999 999999 999999 999999 999999 999999 999999 999999 999999 0 999999 999999 999999 999999 999999 999999 999999 999999 999999 999999 999999 999999 11389
999999 14902 19129 14626 19467 17888 13612 13408 14055 11015 12292 18796 11887 12262 18670 17805 12766 10943 12371 16397 18342 10609 16157 19102 19659 13363 10441 19115 10494 12146 17607 11580 19575 16378 14284 11864 14025 11268 14818 11775 19027 14778 11292 11635 16071 15857 11101 18094 17256 17386 14469 18195 17711 17300 10928 17714 15504 19188 13390 16559 16654 14128 14036 19947 11824 10852 13700 19007 10318 17815 14079 15286 11076 15306 18010 13148 17897 11988 14305 12873 16252 13777 10116 19898 12291 17864 16334 12546 13862 18950 14305 15602 10652 13733 16506 15296 16024 19375 17077 12793 14614 18704 19454 16981 17861 17853 10675 12941 13203 16179 14101 19357 10961 16858 17460 12086 10170 18111 12084 17944 10334 13758 14057 14360 19759 18752 17818 14900 19189 19058 15043 19065 14520 13407 11934 14514 17286 19837 10859 17090 10132 11872 17418 14795 15074 14934 11090 14392 10326 18077 12833 18092 10580 12124 12038 14742 16038 14500 19795 10362 19336 18387 11687 12823 16130 12068 12493 18478 15949 13337 19395 11420 18421 14085 11186 14105 10762 15891 19904 12367 18740 999999 999999 999999 999999 999999 999999 999999 999999 999999 999999 999999 999999 999999 999999 999999 999999 999999 999999 999999 999999 999999 999999 999999 999999 999999 999999 999999 999999 999999 999999 999999 999999 999999 999999 999999 999999 999999 999999 999999 999999 999999 999999 999999 999999 999999 999999 999999 999999 999999 999999 999999 999999 999999 999999 999999 999999 999999 999999 999999 999999 999999 999999 999999 999999 999999 999999 999999 999999 999999 999999 999999 999999 999999 999999 999999 999999 999999 999999 999999 999999 999999 999999 999999 999999 999999 999999 999999 999999 999999 999999 999999 999999 999999 999999 999999 999999 999999 999999 999999 999999 999999 999999 999999 999999 999999 999999 999999 999999 999999 999999 999999 999999 999999 999999 999999 999999 999999 999999 999999 999999 999999 999999 999999 999999 999999 999999 999999 999999 999999 999999 999999 999999 999999 999999 999999 999999 999999 999999 999999 999999 999999 999999 999999 999999 999999 999999 999999 999999 999999 999999 999999 999999 999999 999999 999999 999999 999999 999999 999999 999999 999999 999999 999999 999999 999999 999999 999999 999999 0 999999 999999 999999 999999 999999 999999 999999 999999 999999 999999 999999 11594
999999 15093 10817 11559 19935 16144 17138 18998 15716 13847 19839 16057 12390 19651 15210 14491 13860 10410 17027 15728 15252 10081 18272 15882 19610 15676 17883 16007 13754 19102 13411 11338 13600 13258 14787 15549 15229 10523 19860 14407 13413 13429 16441 19162 15295 19013 14475 19276 15686 16735 14887 19675 13512 11436 12943 19889 19060 14454 16711 17833 17200 15433 11980 16659 14692 17045 10590 18307 19729 12070 13901 12248 15150 14216 10187 10342 15387 10417 19381 10750 11663 10739 10091 13952 18395 16725 19844 17657 16754 16090 15570 16032 14224 14575 19363 18922 10927 15024 10100 11222 14117 18105 14283 15629 17729 10818 12523 15944 16376 18133 16615 15356 11824 13674 16988 12185 11747 17628 16313 16206 16317 12836 12267 15258 13307 18596 13287 11373 15672 17712 11693 10438 15027 16895 11707 12504 12224 12414 13759 17117 19872 16420 14693 16489 18011 14323 10753 19644 17079 17554 13852 15970 18620 19204 11455 10569 13324 17591 17760 15323 14761 19621 15471 10321 10114 18896 11375 11131 16505 17104 13349 18167 19924 14300 13895 14706 17116 19711 15800 19636 11409 999999 999999 999999 999999 999999 999999 999999 999999 999999 999999 999999 999999 999999 999999 999999 999999 999999 999999 999999 999999 999999 999999 999999 999999 999999 999999 999999 999999 999999 999999 999999 999999 999999 999999 999999 999999 999999 999999 999999 999999 999999 999999 999999 999999 999999 999999 999999 999999 999999 999999 999999 999999 999999 999999 999999 999999 999999 999999 999999 999999 999999 999999 999999 999999 999999 999999 999999 999999 999999 999999 999999 999999 999999 999999 999999 999999 999999 999999 999999 999999 999999 999999 999999 999999 999999 999999 999999 999999 999999 999999 999999 999999 999999 999999 999999 999999 999999 999999 999999 999999 999999 999999 999999 999999 999999 999999 999999 999999 999999 999999 999999 999999 999999 999999 999999 999999 999999 999999 999999 999999 999999 999999 999999 999999 999999 999999 999999 999999 999999 999999 999999 999999 999999 999999 999999 999999 999999 999999 999999 999999 999999 999999 999999 999999 999999 999999 999999 999999 999999 999999 999999 999999 999999 999999 999999 999999 999999 999999 999999 999999 999999 999999 999999 999999 999999 999999 999999 999999 999999 0 999999 999999 999999 999999 999999 999999 999999 999999 999999 999999 7590
999999 11383 16132 19514 14368 12723 15926 11531 13157 17146 14169 13289 11823 11462 18869 11080 10806 11928 14631 18768 10065 12484 15669 19335 11145 18671 19862 14242 16598 13792 17994 11065 13105 12305 19071 15094 17303 18271 11991 10691 17714 12740 14641 12131 15944 13067 14804 11753 15669 19418 15008 15260 15957 10462 18755 15771 11901 13309 10129 15649 13264 17334 10888 15362 16365 17137 19543 14513 14694 11847 19199 18424 15348 12933 18840 12201 10277 13424 14160 11894 16540 15572 19207 16904 14285 12430 18886 10912 16086 11744 12914 14657 16418 19875 16656 16686 13149 13905 19767 12681 10185 16536 11091 11007 17628 13391 17221 13097 19104 13520 18373 10100 10084 17909 15324 18596 17455 14363 16610 13610 10154 19937 15115 13664 17714 11005 16176 16492 15797 15089 15385 14376 12795 17690 13178 12018 16501 19404 12628 18415 15590 10438 12271 13600 10361 16353 18103 12856 12335 19973 13422 19516 10233 11024 12821 19905 16499 17419 10156 10894 13940 18782 12330 17553 15906 14556 19661 19873 16237 15875 18185 11675 11847 19661 16016 16287 19735 10802 15106 14832 15308 999999 999999 999999 999999 999999 999999 999999 999999 999999 999999 999999 999999 999999 999999 999999 999999 999999 999999 999999 999999 999999 999999 999999 999999 999999 999999 999999 999999 999999 999999 999999 999999 999999 999999 999999 999999 999999 999999 999999 999999 999999 999999 999999 999999 999999 999999 999999 999999 999999 999999 999999 999999 999999 999999 999999 999999 999999 999999 999999 999999 999999 999999 999999 999999 999999 999999 999999 999999 999999 999999 999999 999999 999999 999999 999999 999999 999999 999999 999999 999999 999999 999999 999999 999999 999999 999999 999999 999999 999999 999999 999999 999999 999999 999999 999999 999999 999999 999999 999999 999999 999999 999999 999999 999999 999999 999999 999999 999999 999999 999999 999999 999999 999999 999999 999999 999999 999999 999999 999999 999999 999999 999999 999999 999999 999999 999999 999999 999999 999999 999999 999999 999999 999999 999999 999999 999999 999999 999999 999999 999999 999999 999999 999999 999999 999999 999999 999999 999999 999999 999999 999999 999999 999999 999999 999999 999999 999999 999999 999999 999999 999999 999999 999999 999999 999999 999999 999999 999999 999999 999999 0 999999 999999 999999 999999 999999 999999 999999 999999 999999 11047
999999 14418 11647 17407 10799 17221 16141 13068 10948 11602 13098 15190 19414 18614 10078 14418 10300 19919 11008 18594 11835 12741 10306 11620 14023 14603 17224 13328 14603 13046 11397 19934 11147 14052 18726 15156 16974 15402 14221 16116 13453 18095 18403 19284 18934 16762 18075 19900 17053 10766 10021 14090 15426 19152 18603 11006 11581 19433 12944 18782 18874 14474 19445 18921 10628 16650 14940 16114 14505 13133 14521 17333 14032 10587 13495 14797 18054 15551 13329 11542 16967 14095 14564 10717 14492 11176 15487 10353 19041 17677 11925 18071 17495 13410 12467 12956 10493 15536 15906 18827 12692 18715 18266 14974 16558 11981 16464 17840 19442 15204 10440 15695 17388 16335 11499 18191 15044 18369 14294 11163 14387 15885 11039 15941 18826 10405 14700 13395 12407 10642 11767 13631 18537 11973 17213 19216 10258 16162 11844 14502 11301 12565 18721 19140 15130 19161 13453 12639 12484 12217 12705 16363 17161 19697 16208 15330 10467 10746 19549 13026 11302 12777 10944 11802 18820 12463 18863 11579 17434 17589 17653 12889 14146 13775 13190 10230 18419 12065 19485 15441 13655 999999 999999 999999 999999 999999 999999 999999 999999 999999 999999 999999 999999 999999 999999 999999 999999 999999 999999 999999 999999 999999 999999 999999 999999 999999 999999 999999 999999 999999 999999 999999 999999 999999 999999 999999 999999 999999 999999 999999 999999 999999 999999 999999 999999 999999 999999 999999 999999 999999 999999 999999 999999 999999 999999 999999 999999 999999 999999 999999 999999 999999 999999 999999 999999 999999 999999 999999 999999 999999 999999 999999 999999 999999 999999 999999 999999 999999 999999 999999 999999 999999 999999 999999 999999 999999 999999 999999 999999 999999 999999 999999 999999 999999 999999 999999 999999 999999 999999 999999 999999 999999 999999 999999 999999 999999 999999 999999 999999 999999 999999 999999 999999 999999 999999 999999 999999 999999 999999 999999 999999 999999 999999 999999 999999 999999 999999 999999 999999 999999 999999 999999 999999 999999 999999 999999 999999 999999 999999 999999 999999 999999 999999 999999 999999 999999 999999 999999 999999 999999 999999 999999 999999 999999 999999 999999 999999 999999 999999 999999 999999 999999 999999 999999 999999 999999 999999 999999 999999 999999 999999 999999 0 999999 999999 999999 999999 999999 999999 999999 999999 11271
999999 12584 15688 12571 18168 11023 12952 16208 15376 18697 17881 13074 15037 11365 13393 10722 10351 11574 11474 19167 11987 15410 10409 16266 19791 16204 13897 14338 16972 10775 19183 12731 19010 11345 16977 13236 11936 11949 16442 10649 19868 15408 19021 15323 15422 17869 19981 11046 16882 19717 11109 10032 17603 15969 18932 13633 15396 12520 15477 19678 14306 14611 13519 16449 12527 12321 17800 14874 19744 15195 19704 16059 17410 16416 19418 18925 17412 12874 18025 17175 16092 15186 19641 19957 17862 12494 15030 12775 12622 13487 13673 10216 16018 18557 10725 16040 15029 13832 17733 14203 12984 13531 13210 16154 14480 13356 17505 10967 12466 17687 18747 18383 17636 13827 18008 12763 13836 11651 12735 18851 13546 12032 12013 19792 13036 16321 10931 16483 14605 17250 10277 16120 16868 14721 11564 11710 19924 11393 11545 16893 16585 15325 12284 13740 12652 17672 12022 12189 11491 18492 18411 15252 17476 14059 12247 15530 19116 13332 11075 13120 19909 18903 10285 19985 14687 16365 12213 19929 19879 13051 12295 15001 13067 16054 16093 10640 12717 10077 18830 15704 13267 999999 999999 999999 999999 999999 999999 999999 999999 999999 999999 999999 999999 999999 999999 999999 999999 999999 999999 999999 999999 999999 999999 999999 999999 999999 999999 999999 999999 999999 999999 999999 999999 999999 999999 999999 999999 999999 999999 999999 999999 999999 999999 999999 999999 999999 999999 999999 999999 999999 999999 999999 999999 999999 999999 999999 999999 999999 999999 999999 999999 999999 999999 999999 999999 999999 999999 999999 999999 999999 999999 999999 999999 999999 999999 999999 999999 999999 999999 999999 999999 999999 999999 999999 999999 999999 999999 999999 999999 999999 999999 999999 999999 999999 999999 999999 999999 999999 999999 999999 999999 999999 999999 999999 999999 999999 999999 999999 999999 999999 999999 999999 999999 999999 999999 999999 999999 999999 999999 999999 999999 999999 999999 999999 999999 999999 999999 999999 999999 999999 999999 999999 999999 999999 999999 999999 999999 999999 999999 999999 999999 999999 999999 999999 999999 999999 999999 999999 999999 999999 999999 999999 999999 999999 999999 999999 999999 999999 999999 999999 999999 999999 999999 999999 999999 999999 999999 999999 999999 999999 999999 999999 999999 0 999999 999999 999999 999999 999999 999999 999999 7669
999999 16642 14294 11833 13898 15064 14665 13215 13489 12647 17339 11772 12901 19766 10254 16536 14216 17224 11988 12589 16402 15148 10944 11362 18558 18892 19054 14463 16117 16887 17149 18030 14656 14770 18105 19628 16976 12951 16088 13810 11949 14483 11834 19416 17739 19811 11677 11615 11248 18204 19577 15480 14380 14803 12603 16580 11864 14314 16081 17185 14356 17740 14522 19539 16833 18555 18785 14917 12833 17877 10931 14636 12929 17689 17547 19801 14062 11347 14695 12639 14208 18538 18775 17908 18755 10240 19127 10160 19967 15471 19927 16351 18702 19105 14981 13382 10627 11026 19563 14519 15881 10130 16932 19916 13225 11296 18274 13177 15867 10569 16294 19706 14555 16371 18678 15472 19543 15749 17064 19117 14028 12846 10886 13659 19404 16978 16169 15716 11710 11642 16915 17887 16092 12597 16425 12780 17860 13187 18598 17112 19158 11971 14370 16575 19958 17434 13532 14026 16365 11272 13248 18428 14682 11293 10834 12897 14204 18224 15664 15041 18937 14488 10323 10212 13746 19767 13350 16769 19224 13862 12550 19079 18106 11993 17570 14958 18828 18643 15876 18459 10989 999999 999999 999999 999999 999999 999999 999999 999999 999999 999999 999999 999999 999999 999999 999999 999999 999999 999999 999999 999999 999999 999999 999999 999999 999999 999999 999999 999999 999999 999999 999999 999999 999999 999999 999999 999999 999999 999999 999999 999999 999999 999999 999999 999999 999999 999999 999999 999999 999999 999999 999999 999999 999999 999999 999999 999999 999999 999999 999999 999999 999999 999999 999999 999999 999999 999999 999999 999999 999999 999999 999999 999999 999999 999999 999999 999999 999999 999999 999999 999999 999999 999999 999999 999999 999999 999999 999999 999999 999999 999999 999999 999999 999999 999999 999999 999999 999999 999999 999999 999999 999999 999999 999999 999999 999999 999999 999999 999999 999999 999999 999999 999999 999999 999999 999999 999999 999999 999999 999999 999999 999999 999999 999999 999999 999999 999999 999999 999999 999999 999999 999999 999999 999999 999999 999999 999999 999999 999999 999999 999999 999999 999999 999999 999999 999999 999999 999999 999999 999999 999999 999999 999999 999999 999999 999999 999999 999999 999999 999999 999999 999999 999999 999999 999999 999999 999999 999999 999999 999999 999999 999999 999999 999999 0 999999 999999 999999 999999 999999 999999 5329
999999 16746 18591 14111 15842 16395 12665 14036 10363 17696 14763 19829 11841 17789 14147 11485 10602 16584 10466 18034 19941 15155 11377 11115 17754 10181 15831 18983 14916 17879 18868 11592 13549 14914 15565 11488 16976 12016 12949 19254 15194 18096 15628 17286 12927 19598 15928 17872 14313 16757 19791 16243 19750 17571 10253 10405 11365 16705 10463 13882 15483 18736 10828 16901 16903 14130 15237 12006 14894 10637 12600 10245 16781 14113 13212 10102 16925 17901 14766 12188 11197 10914 18384 15677 17782 17870 19570 18401 18411 10778 10268 17829 15234 14428 14090 16210 19411 12231 19231 16912 18079 18525 15210 14199 10911 18835 13616 12694 14461 14551 13477 11662 15286 16270 12224 12209 17327 12122 19591 12608 18797 12206 12926 17812 10018 15598 13776 18747 14073 15201 14691 19044 17149 15685 11035 19409 16099 12067 16324 12997 13520 11500 16268 10594 10399 11156 15513 16353 14941 10576 11274 18267 17298 17250 15157 10420 12309 18642 17123 14210 15479 18713 13745 17662 10008 13974 14113 16968 13021 16327 11641 19293 15163 11297 15209 12470 14260 18010 12633 14306 14924 999999 999999 999999 999999 999999 999999 999999 999999 999999 999999 999999 999999 999999 999999 999999 999999 999999 999999 999999 999999 999999 999999 999999 999999 999999 999999 999999 999999 999999 999999 999999 999999 999999 999999 999999 999999 999999 999999 999999 999999 999999 999999 999999 999999 999999 999999 999999 999999 999999 999999 999999 999999 999999 999999 999999 999999 999999 999999 999999 999999 999999 999999 999999 999999 999999 999999 999999 999999 999999 999999 999999 999999 999999 999999 999999 999999 999999 999999 999999 999999 999999 999999 999999 999999 999999 999999 999999 999999 999999 999999 999999 999999 999999 999999 999999 999999 999999 999999 999999 999999 999999 999999 999999 999999 999999 999999 999999 999999 999999 999999 999999 999999 999999 999999 999999 999999 999999 999999 999999 999999 999999 999999 999999 999999 999999 999999 999999 999999 999999 999999 999999 999999 999999 999999 999999 999999 999999 999999 999999 999999 999999 999999 999999 999999 999999 999999 999999 999999 999999 999999 999999 999999 999999 999999 999999 999999 999999 999999 999999 999999 999999 999999 999999 999999 999999 999999 999999 999999 999999 999999 999999 999999 999999 999999 0 999999 999999 999999 999999 999999 7373
999999 13783 17567 14494 13857 12727 11211 18481 11073 13797 10781 13250 13592 14768 13460 13831 12306 19878 10618 19171 16480 11118 12865 13402 11769 18103 11064 16701 19204 11102 17139 13161 19285 10695 16708 11258 17529 11470 11496 13325 11891 15932 18243 10261 12747 17662 18554 10177 17882 14974 17527 19005 16430 13542 18155 17113 17017 18363 10654 18783 13024 18509 13161 12547 10244 14812 19579 14592 16808 16659 11195 16726 10516 16113 18662 11784 11062 14358 12242 15783 11612 15477 17648 12119 19465 18277 17680 10378 19396 15911 15379 14058 17635 18256 11832 19375 12379 10044 13646 19679 15752 19649 12075 17774 18258 10322 14813 17873 17405 19396 15577 10484 10367 18515 19997 13577 10243 11100 14958 15193 13250 19672 14280 16126 13473 18753 11124 17482 10970 11870 17241 16172 19560 15085 17953 12593 12128 10089 15897 17840 18780 13855 14924 17246 18565 10742 12212 11286 10737 15453 17391 19818 15818 15340 19863 19372 14332 14746 10651 15445 14301 17294 12547 14152 16392 10826 10841 17101 10124 11384 13972 14920 15572 19809 14039 11315 15089 16045 16717 18768 12605 999999 999999 999999 999999 999999 999999 999999 999999 999999 999999 999999 999999 999999 999999 999999 999999 999999 999999 999999 999999 999999 999999 999999 999999 999999 999999 999999 999999 999999 999999 999999 999999 999999 999999 999999 999999 999999 999999 999999 999999 999999 999999 999999 999999 999999 999999 999999 999999 999999 999999 999999 999999 999999 999999 999999 999999 999999 999999 999999 999999 999999 999999 999999 999999 999999 999999 999999 999999 999999 999999 999999 999999 999999 999999 999999 999999 999999 999999 999999 999999 999999 999999 999999 999999 999999 999999 999999 999999 999999 999999 999999 999999 999999 999999 999999 999999 999999 999999 999999 999999 999999 999999 999999 999999 999999 999999 999999 999999 999999 999999 999999 999999 999999 999999 999999 999999 999999 999999 999999 999999 999999 999999 999999 999999 999999 999999 999999 999999 999999 999999 999999 999999 999999 999999 999999 999999 999999 999999 999999 999999 999999 999999 999999 999999 999999 999999 999999 999999 999999 999999 999999 999999 999999 999999 999999 999999 999999 999999 999999 999999 999999 999999 999999 999999 999999 999999 999999 999999 999999 999999 999999 999999 999999 999999 999999 0 999999 999999 999999 999999 14600
999999 16275 19080 12528 10202 14983 10038 19347 15296 10087 16560 10876 10564 19844 18417 18053 14941 13490 12474 14335 13085 14115 12457 16043 16680 16929 13249 13610 12435 19448 15920 10875 10855 17353 16000 18209 15593 19625 15936 11677 14537 16915 13446 18459 13579 18232 14919 11963 12411 11772 15241 11415 15926 15206 12583 17414 15757 18611 10039 13649 19003 10366 10810 10691 11725 17193 17965 10724 19237 11071 19016 15378 15476 15217 11695 18503 11033 12284 13106 17405 19092 13596 14861 16238 15280 18724 10962 13818 19502 18113 13039 16506 11478 17403 18706 17088 17633 18785 19173 15662 18199 12987 13153 13657 16227 18074 19053 14646 17818 18257 15594 17049 12266 16094 13719 15674 11674 16522 18045 17918 18872 10273 15242 11764 18803 12154 19581 15026 14521 18937 10934 14173 17154 14349 12256 12543 13994 13447 14594 19820 12382 14524 11590 17810 11218 16609 13671 12864 12072 13402 15712 14007 19109 11341 16521 19042 18333 11826 11428 18822 15519 18225 13515 11915 14606 17220 10853 19894 13820 15377 12695 18903 13017 13295 19361 13498 14984 18251 13567 10682 19190 999999 999999 999999 999999 999999 999999 999999 999999 999999 999999 999999 999999 999999 999999 999999 999999 999999 999999 999999 999999 999999 999999 999999 999999 999999 999999 999999 999999 999999 999999 999999 999999 999999 999999 999999 999999 999999 999999 999999 999999 999999 999999 999999 999999 999999 999999 999999 999999 999999 999999 999999 999999 999999 999999 999999 999999 999999 999999 999999 999999 999999 999999 999999 999999 999999 999999 999999 999999 999999 999999 999999 999999 999999 999999 999999 999999 999999 999999 999999 999999 999999 999999 999999 999999 999999 999999 999999 999999 999999 999999 999999 999999 999999 999999 999999 999999 999999 999999 999999 999999 999999 999999 999999 999999 999999 999999 999999 999999 999999 999999 999999 999999 999999 999999 999999 999999 999999 999999 999999 999999 999999 999999 999999 999999 999999 999999 999999 999999 999999 999999 999999 999999 999999 999999 999999 999999 999999 999999 999999 999999 999999 999999 999999 999999 999999 999999 999999 999999 999999 999999 999999 999999 999999 999999 999999 999999 999999 999999 999999 999999 999999 999999 999999 999999 999999 999999 999999 999999 999999 999999 999999 999999 999999 999999 999999 999999 0 999999 999999 999999 7887
999999 14477 10713 18935 14384 16353 19544 12469 18941 10010 13558 19594 12544 12161 18764 16052 13090 10985 10415 10787 15479 10923 12871 12996 18472 16720 13352 19920 13655 18763 16117 13318 16428 15459 10466 14362 16010 11409 12179 11891 13471 19602 18704 11694 17900 13727 11025 12293 15791 15948 11220 13537 11926 14129 13112 10916 14485 15426 10043 10403 18949 19515 12589 18267 15753 17805 13025 19239 12694 17289 11318 17394 10649 14762 15060 10122 10153 19694 12374 11021 19633 11577 17478 17588 13056 11326 12776 18053 12202 19092 11970 11997 10923 12745 19421 18202 18117 18668 17456 15694 11746 13133 18452 16855 19625 19636 17621 14941 15073 11144 18178 16010 16535 13813 10995 14993 13292 11855 15277 13159 11632 12687 13674 17820 12928 17328 18927 18270 13664 13016 11519 14416 11181 10207 13440 11412 10033 15406 11106 16503 11326 16779 14776 19129 11707 14970 16980 16589 15107 10569 14490 16042 10942 18950 15558 19536 11710 14220 11719 15102 15225 18643 10363 11747 15315 12422 14271 12743 15172 18189 12868 19727 18310 16396 17381 19885 12600 16474 10380 12019 13448 999999 999999 999999 999999 999999 999999 999999 999999 999999 999999 999999 999999 999999 999999 999999 999999 999999 999999 999999 999999 999999 999999 999999 999999 999999 999999 999999 999999 999999 999999 999999 999999 999999 999999 999999 999999 999999 999999 999999 999999 999999 999999 999999 999999 999999 999999 999999 999999 999999 999999 999999 999999 999999 999999 999999 999999 999999 999999 999999 999999 999999 999999 999999 999999 999999 999999 999999 999999 999999 999999 999999 999999 999999 999999 999999 999999 999999 999999 999999 999999 999999 999999 999999 999999 999999 999999 999999 999999 999999 999999 999999 999999 999999 999999 999999 999999 999999 999999 999999 999999 999999 999999 999999 999999 999999 999999 999999 999999 999999 999999 999999 999999 999999 999999 999999 999999 999999 999999 999999 999999 999999 999999 999999 999999 999999 999999 999999 999999 999999 999999 999999 999999 999999 999999 999999 999999 999999 999999 999999 999999 999999 999999 999999 999999 999999 999999 999999 999999 999999 999999 999999 999999 999999 999999 999999 999999 999999 999999 999999 999999 999999 999999 999999 999999 999999 999999 999999 999999 999999 999999 999999 999999 999999 999999 999999 999999 999999 0 999999 999999 9708
999999 14821 10357 15264 15714 18097 18253 17754 14194 13098 19587 13562 12930 12945 13533 17390 10693 14666 12338 10981 10258 14317 19297 19619 15089 16632 18013 14151 12055 15153 10202 19752 16483 19829 16745 11675 13442 18674 18747 13375 12090 19823 11706 17686 19797 16596 10945 12457 18401 19797 13549 11467 18591 14021 16364 16162 15114 16675 18239 15966 16308 12129 10341 10539 16253 14692 12818 17184 12216 19855 14969 17895 10042 12064 15784 16472 18473 13842 13838 13698 10846 14808 11095 13072 11186 16549 11016 10096 14238 18599 11089 13621 18708 17763 13789 16894 10155 18717 18315 12934 10009 13153 11479 11071 17456 18484 13882 18902 19224 10874 12417 13764 15658 10459 12945 13629 19646 19268 18890 16488 13750 12564 19545 10891 12559 10557 16359 18902 16538 17561 17868 18083 10811 18745 15075 18868 14762 14073 11762 10484 18931 10695 19580 11104 13471 10099 11667 13823 15937 12577 16225 10370 18785 18665 19040 11004 15503 10789 16627 10045 15358 10829 14082 14619 16691 16915 14730 10452 15401 17914 10036 19334 11423 11250 10271 15629 10384 18209 11704 18983 16187 999999 999999 999999 999999 999999 999999 999999 999999 999999 999999 999999 999999 999999 999999 999999 999999 999999 999999 999999 999999 999999 999999 999999 999999 999999 999999 999999 999999 999999 999999 999999 999999 999999 999999 999999 999999 999999 999999 999999 999999 999999 999999 999999 999999 999999 999999 999999 999999 999999 999999 999999 999999 999999 999999 999999 999999 999999 999999 999999 999999 999999 999999 999999 999999 999999 999999 999999 999999 999999 999999 999999 999999 999999 999999 999999 999999 999999 999999 999999 999999 999999 999999 999999 999999 999999 999999 999999 999999 999999 999999 999999 999999 999999 999999 999999 999999 999999 999999 999999 999999 999999 999999 999999 999999 999999 999999 999999 999999 999999 999999 999999 999999 999999 999999 999999 999999 999999 999999 999999 999999 999999 999999 999999 999999 999999 999999 999999 999999 999999 999999 999999 999999 999999 999999 999999 999999 999999 999999 999999 999999 999999 999999 999999 999999 999999 999999 999999 999999 999999 999999 999999 999999 999999 999999 999999 999999 999999 999999 999999 999999 999999 999999 999999 999999 999999 999999 999999 999999 999999 999999 999999 999999 999999 999999 999999 999999 999999 999999 0 999999 12209
999999 17308 12385 14689 10789 19158 15740 18511 10833 17769 17712 19162 11594 14434 18766 17381 18571 15861 10665 18381 15939 11486 10486 14402 17885 11913 12988 17961 10234 14433 13531 14741 13289 15608 13034 19336 15038 18180 13991 15122 14521 10041 18016 16532 13615 18433 18160 11939 14696 10638 18746 17673 17842 18722 18750 15644 15345 14157 11281 11369 10807 12058 14187 14461 10489 17265 10048 16092 11048 16551 17951 13013 14064 10117 18892 17543 12857 12313 18511 13458 15377 17390 14387 18945 14052 12877 10012 18711 15094 11435 16198 13120 10180 10184 19795 18568 12147 18883 14957 18555 12197 17072 15355 19160 13930 16887 12576 19432 15187 13661 14111 15003 13323 10068 11198 18563 19825 14764 18468 17032 19237 10093 16229 19243 10106 14169 11575 10788 10238 15596 18521 17280 14387 10264 16332 14717 17799 11556 10361 13084 16607 11043 14127 15677 19134 12600 11274 13891 16547 15309 13088 10094 15057 11329 16077 13746 18632 11859 18151 19986 15398 16791 19323 17277 18540 15220 15058 15586 10229 14677 16735 13567 12516 10373 19819 10024 14858 11685 17889 17836 16346 999999 999999 999999 999999 999999 999999 999999 999999 999999 999999 999999 999999 999999 999999 999999 999999 999999 999999 999999 999999 999999 999999 999999 999999 999999 999999 999999 999999 999999 999999 999999 999999 999999 999999 999999 999999 999999 999999 999999 999999 999999 999999 999999 999999 999999 999999 999999 999999 999999 999999 999999 999999 999999 999999 999999 999999 999999 999999 999999 999999 999999 999999 999999 999999 999999 999999 999999 999999 999999 999999 999999 999999 999999 999999 999999 999999 999999 999999 999999 999999 999999 999999 999999 999999 999999 999999 999999 999999 999999 999999 999999 999999 999999 999999 999999 999999 999999 999999 999999 999999 999999 999999 999999 999999 999999 999999 999999 999999 999999 999999 999999 999999 999999 999999 999999 999999 999999 999999 999999 999999 999999 999999 999999 999999 999999 999999 999999 999999 999999 999999 999999 999999 999999 999999 999999 999999 999999 999999 999999 999999 999999 999999 999999 999999 999999 999999 999999 999999 999999 999999 999999 999999 999999 999999 999999 999999 999999 999999 999999 999999 999999 999999 999999 999999 999999 999999 999999 999999 999999 999999 999999 999999 999999 999999 999999 999999 999999 999999 999999 0 6810
1 999999 999999 999999 999999 999999 999999 999999 999999 999999 999999 999999 999999 999999 999999 999999 999999 999999 999999 999999 999999 999999 999999 999999 999999 999999 999999 999999 999999 999999 999999 999999 999999 999999 999999 999999 999999 999999 999999 999999 999999 999999 999999 999999 999999 999999 999999 999999 999999 999999 999999 999999 999999 999999 999999 999999 999999 999999 999999 999999 999999 999999 999999 999999 999999 999999 999999 999999 999999 999999 999999 999999 999999 999999 999999 999999 999999 999999 999999 999999 999999 999999 999999 999999 999999 999999 999999 999999 999999 999999 999999 999999 999999 999999 999999 999999 999999 999999 999999 999999 999999 999999 999999 999999 999999 999999 999999 999999 999999 999999 999999 999999 999999 999999 999999 999999 999999 999999 999999 999999 999999 999999 999999 999999 999999 999999 999999 999999 999999 999999 999999 999999 999999 999999 999999 999999 999999 999999 999999 999999 999999 999999 999999 999999 999999 999999 999999 999999 999999 999999 999999 999999 999999 999999 999999 999999 999999 999999 999999 999999 999999 999999 999999 999999 999999 999999 999999 999999 999999 999999 999999 999999 999999 999999 999999 999999 999999 999999 999999 999999 999999 999999 999999 999999 999999 999999 999999 999999 999999 999999 999999 999999 999999 999999 999999 999999 999999 999999 999999 999999 999999 999999 999999 999999 999999 999999 999999 999999 999999 999999 999999 999999 999999 999999 999999 999999 999999 999999 999999 999999 999999 999999 999999 999999 999999 999999 999999 999999 999999 999999 999999 999999 999999 999999 999999 999999 999999 999999 999999 999999 999999 999999 999999 999999 999999 999999 999999 999999 999999 999999 999999 999999 999999 999999 999999 999999 999999 999999 999999 999999 999999 999999 999999 999999 999999 999999 999999 999999 999999 999999 999999 999999 999999 999999 999999 999999 999999 999999 999999 999999 999999 999999 999999 999999 999999 999999 999999 999999 999999 999999 999999 999999 999999 999999 999999 999999 999999 999999 999999 999999 999999 999999 999999 999999 999999 999999 999999 999999 999999 999999 999999 999999 999999 999999 999999 999999 999999 999999 999999 999999 999999 999999 999999 999999 999999 999999 999999 999999 999999 999999 999999 999999 999999 999999 999999 999999 999999 999999 999999 999999 999999 999999 999999 999999 999999 999999 999999 999999 999999 999999 999999 999999 999999 999999 999999 999999 999999 999999 999999 999999 999999 0
EOF