NAME: GR_1x5x12_KH_5x12_Run_1
TYPE: TSP
COMMENT: BTSP instance |A|=60 GR nodes |B|=60 KH nodes depot=0.0 end=0.0.0
DIMENSION: 122
EDGE_WEIGHT_TYPE: EXPLICIT
EDGE_WEIGHT_FORMAT: FULL_MATRIX
NODE_COORD_TYPE: NO_COORDS
EDGE_WEIGHT_SECTION
0 10805 13297 14807 5889 10789 8192 7316 14896 11289 11493 7423 11275 13218 9433 10275 9742 6063 10480 8317 6043 7239 6775 10384 8674 10537 14067 8469 8582 8190 5258 5012 6382 8331 10901 10190 5025 9677 6043 10159 6417 6149 8126 14163 13674 9926 11159 11062 14372 11092 9918 11322 12594 7247 5199 12888 10395 12804 6045 11299 7486 999999 999999 999999 999999 999999 999999 999999 999999 999999 999999 999999 999999 999999 999999 999999 999999 999999 999999 999999 999999 999999 999999 999999 999999 999999 999999 999999 999999 999999 999999 999999 999999 999999 999999 999999 999999 999999 999999 999999 999999 999999 999999 999999 999999 999999 999999 999999 999999 999999 999999 999999 999999 999999 999999 999999 999999 999999 999999 999999 999999 999999
999999 0 999999 999999 999999 999999 999999 999999 999999 999999 999999 999999 999999 999999 999999 999999 999999 999999 999999 999999 999999 999999 999999 999999 999999 999999 999999 999999 999999 999999 999999 999999 999999 999999 999999 999999 999999 999999 999999 999999 999999 999999 999999 999999 999999 999999 999999 999999 999999 999999 999999 999999 999999 999999 999999 999999 999999 999999 999999 999999 999999 13107 999999 999999 999999 999999 999999 999999 15660 999999 13225 999999 16350 999999 999999 999999 10037 999999 999999 17931 999999 999999 999999 19650 999999 999999 999999 999999 999999 999999 999999 17243 18771 999999 999999 999999 999999 999999 13800 999999 18800 999999 999999 999999 999999 999999 999999 999999 999999 999999 999999 999999 999999 999999 12862 999999 999999 999999 999999 999999 999999 999999
999999 999999 0 999999 999999 999999 999999 999999 999999 999999 999999 999999 999999 999999 999999 999999 999999 999999 999999 999999 999999 999999 999999 999999 999999 999999 999999 999999 999999 999999 999999 999999 999999 999999 999999 999999 999999 999999 999999 999999 999999 999999 999999 999999 999999 999999 999999 999999 999999 999999 999999 999999 999999 999999 999999 999999 999999 999999 999999 999999 999999 16639 999999 999999 999999 999999 999999 999999 19187 999999 17948 999999 11419 999999 999999 999999 15514 999999 999999 12125 999999 999999 999999 18834 999999 999999 999999 999999 999999 999999 999999 15936 13021 999999 999999 999999 999999 999999 12119 999999 12196 999999 999999 999999 999999 999999 999999 999999 999999 999999 999999 999999 999999 999999 16408 999999 999999 999999 999999 999999 999999 999999
999999 999999 999999 0 999999 999999 999999 999999 999999 999999 999999 999999 999999 999999 999999 999999 999999 999999 999999 999999 999999 999999 999999 999999 999999 999999 999999 999999 999999 999999 999999 999999 999999 999999 999999 999999 999999 999999 999999 999999 999999 999999 999999 999999 999999 999999 999999 999999 999999 999999 999999 999999 999999 999999 999999 999999 999999 999999 999999 999999 999999 18089 999999 999999 999999 999999 999999 999999 19207 999999 10889 999999 19759 999999 999999 999999 12740 999999 999999 13580 999999 999999 999999 17369 999999 999999 999999 999999 999999 999999 999999 13699 13751 999999 999999 999999 999999 999999 13895 999999 16608 999999 999999 999999 999999 999999 999999 999999 999999 999999 999999 999999 999999 999999 17679 999999 999999 999999 999999 999999 999999 999999
999999 999999 999999 999999 0 999999 999999 999999 999999 999999 999999 999999 999999 999999 999999 999999 999999 999999 999999 999999 999999 999999 999999 999999 999999 999999 999999 999999 999999 999999 999999 999999 999999 999999 999999 999999 999999 999999 999999 999999 999999 999999 999999 999999 999999 999999 999999 999999 999999 999999 999999 999999 999999 999999 999999 999999 999999 999999 999999 999999 999999 15991 999999 999999 999999 999999 999999 999999 12131 999999 10334 999999 12321 999999 999999 999999 11118 999999 999999 16154 999999 999999 999999 16567 999999 999999 999999 999999 999999 999999 999999 18384 12396 999999 999999 999999 999999 999999 19836 999999 13281 999999 999999 999999 999999 999999 999999 999999 999999 999999 999999 999999 999999 999999 19483 999999 999999 999999 999999 999999 999999 999999
999999 999999 999999 999999 999999 0 999999 999999 999999 999999 999999 999999 999999 999999 999999 999999 999999 999999 999999 999999 999999 999999 999999 999999 999999 999999 999999 999999 999999 999999 999999 999999 999999 999999 999999 999999 999999 999999 999999 999999 999999 999999 999999 999999 999999 999999 999999 999999 999999 999999 999999 999999 999999 999999 999999 999999 999999 999999 999999 999999 999999 16352 999999 999999 999999 999999 999999 999999 10710 999999 15758 999999 17022 999999 999999 999999 13659 999999 999999 12806 999999 999999 999999 14028 999999 999999 999999 999999 999999 999999 999999 19689 18674 999999 999999 999999 999999 999999 17668 999999 16904 999999 999999 999999 999999 999999 999999 999999 999999 999999 999999 999999 999999 999999 15404 999999 999999 999999 999999 999999 999999 999999
999999 999999 999999 999999 999999 999999 0 999999 999999 999999 999999 999999 999999 999999 999999 999999 999999 999999 999999 999999 999999 999999 999999 999999 999999 999999 999999 999999 999999 999999 999999 999999 999999 999999 999999 999999 999999 999999 999999 999999 999999 999999 999999 999999 999999 999999 999999 999999 999999 999999 999999 999999 999999 999999 999999 999999 999999 999999 999999 999999 999999 19886 999999 999999 999999 999999 999999 999999 19908 999999 17593 999999 13593 999999 999999 999999 14208 999999 999999 16627 999999 999999 999999 14540 999999 999999 999999 999999 999999 999999 999999 17038 15687 999999 999999 999999 999999 999999 15679 999999 14426 999999 999999 999999 999999 999999 999999 999999 999999 999999 999999 999999 999999 999999 12758 999999 999999 999999 999999 999999 999999 999999
999999 999999 999999 999999 999999 999999 999999 0 999999 999999 999999 999999 999999 999999 999999 999999 999999 999999 999999 999999 999999 999999 999999 999999 999999 999999 999999 999999 999999 999999 999999 999999 999999 999999 999999 999999 999999 999999 999999 999999 999999 999999 999999 999999 999999 999999 999999 999999 999999 999999 999999 999999 999999 999999 999999 999999 999999 999999 999999 999999 999999 12011 999999 999999 999999 999999 999999 999999 15648 999999 19882 999999 16406 999999 999999 999999 13891 999999 999999 19908 999999 999999 999999 12892 999999 999999 999999 999999 999999 999999 999999 15600 13679 999999 999999 999999 999999 999999 14111 999999 16549 999999 999999 999999 999999 999999 999999 999999 999999 999999 999999 999999 999999 999999 10568 999999 999999 999999 999999 999999 999999 999999
999999 999999 999999 999999 999999 999999 999999 999999 0 999999 999999 999999 999999 999999 999999 999999 999999 999999 999999 999999 999999 999999 999999 999999 999999 999999 999999 999999 999999 999999 999999 999999 999999 999999 999999 999999 999999 999999 999999 999999 999999 999999 999999 999999 999999 999999 999999 999999 999999 999999 999999 999999 999999 999999 999999 999999 999999 999999 999999 999999 999999 14898 999999 999999 999999 999999 999999 999999 13255 999999 17607 999999 19040 999999 999999 999999 19746 999999 999999 16999 999999 999999 999999 18883 999999 999999 999999 999999 999999 999999 999999 13602 18667 999999 999999 999999 999999 999999 17320 999999 17971 999999 999999 999999 999999 999999 999999 999999 999999 999999 999999 999999 999999 999999 12191 999999 999999 999999 999999 999999 999999 999999
999999 999999 999999 999999 999999 999999 999999 999999 999999 0 999999 999999 999999 999999 999999 999999 999999 999999 999999 999999 999999 999999 999999 999999 999999 999999 999999 999999 999999 999999 999999 999999 999999 999999 999999 999999 999999 999999 999999 999999 999999 999999 999999 999999 999999 999999 999999 999999 999999 999999 999999 999999 999999 999999 999999 999999 999999 999999 999999 999999 999999 11638 999999 999999 999999 999999 999999 999999 19514 999999 17062 999999 12902 999999 999999 999999 11477 999999 999999 17385 999999 999999 999999 12094 999999 999999 999999 999999 999999 999999 999999 10991 10885 999999 999999 999999 999999 999999 10832 999999 11192 999999 999999 999999 999999 999999 999999 999999 999999 999999 999999 999999 999999 999999 11729 999999 999999 999999 999999 999999 999999 999999
999999 999999 999999 999999 999999 999999 999999 999999 999999 999999 0 999999 999999 999999 999999 999999 999999 999999 999999 999999 999999 999999 999999 999999 999999 999999 999999 999999 999999 999999 999999 999999 999999 999999 999999 999999 999999 999999 999999 999999 999999 999999 999999 999999 999999 999999 999999 999999 999999 999999 999999 999999 999999 999999 999999 999999 999999 999999 999999 999999 999999 16695 999999 999999 999999 999999 999999 999999 10086 999999 11871 999999 18982 999999 999999 999999 18241 999999 999999 17662 999999 999999 999999 13636 999999 999999 999999 999999 999999 999999 999999 18581 13136 999999 999999 999999 999999 999999 12013 999999 11668 999999 999999 999999 999999 999999 999999 999999 999999 999999 999999 999999 999999 999999 16774 999999 999999 999999 999999 999999 999999 999999
999999 999999 999999 999999 999999 999999 999999 999999 999999 999999 999999 0 999999 999999 999999 999999 999999 999999 999999 999999 999999 999999 999999 999999 999999 999999 999999 999999 999999 999999 999999 999999 999999 999999 999999 999999 999999 999999 999999 999999 999999 999999 999999 999999 999999 999999 999999 999999 999999 999999 999999 999999 999999 999999 999999 999999 999999 999999 999999 999999 999999 13536 999999 999999 999999 999999 999999 999999 18285 999999 16808 999999 15506 999999 999999 999999 14832 999999 999999 16745 999999 999999 999999 17670 999999 999999 999999 999999 999999 999999 999999 19989 19942 999999 999999 999999 999999 999999 15958 999999 11106 999999 999999 999999 999999 999999 999999 999999 999999 999999 999999 999999 999999 999999 10001 999999 999999 999999 999999 999999 999999 999999
999999 999999 999999 999999 999999 999999 999999 999999 999999 999999 999999 999999 0 999999 999999 999999 999999 999999 999999 999999 999999 999999 999999 999999 999999 999999 999999 999999 999999 999999 999999 999999 999999 999999 999999 999999 999999 999999 999999 999999 999999 999999 999999 999999 999999 999999 999999 999999 999999 999999 999999 999999 999999 999999 999999 999999 999999 999999 999999 999999 999999 12655 999999 999999 999999 999999 999999 999999 17551 999999 15279 999999 11315 999999 999999 999999 14141 999999 999999 11155 999999 999999 999999 11322 999999 999999 999999 999999 999999 999999 999999 16064 14321 999999 999999 999999 999999 999999 10643 999999 13255 999999 999999 999999 999999 999999 999999 999999 999999 999999 999999 999999 999999 999999 10694 999999 999999 999999 999999 999999 999999 999999
999999 999999 999999 999999 999999 999999 999999 999999 999999 999999 999999 999999 999999 0 999999 999999 999999 999999 999999 999999 999999 999999 999999 999999 999999 999999 999999 999999 999999 999999 999999 999999 999999 999999 999999 999999 999999 999999 999999 999999 999999 999999 999999 999999 999999 999999 999999 999999 999999 999999 999999 999999 999999 999999 999999 999999 999999 999999 999999 999999 999999 999999 999999 999999 999999 999999 999999 999999 999999 999999 999999 999999 999999 999999 11169 13147 999999 15003 999999 999999 999999 14852 999999 999999 18692 999999 999999 999999 999999 999999 12488 999999 999999 13418 999999 19698 999999 999999 999999 19286 999999 18853 999999 999999 999999 999999 999999 999999 999999 999999 999999 999999 999999 999999 999999 999999 999999 17685 999999 999999 17473 999999
999999 999999 999999 999999 999999 999999 999999 999999 999999 999999 999999 999999 999999 999999 0 999999 999999 999999 999999 999999 999999 999999 999999 999999 999999 999999 999999 999999 999999 999999 999999 999999 999999 999999 999999 999999 999999 999999 999999 999999 999999 999999 999999 999999 999999 999999 999999 999999 999999 999999 999999 999999 999999 999999 999999 999999 999999 999999 999999 999999 999999 999999 999999 999999 999999 999999 999999 999999 999999 999999 999999 999999 999999 999999 16997 15031 999999 13021 999999 999999 999999 11139 999999 999999 13622 999999 999999 999999 999999 999999 16684 999999 999999 15898 999999 10923 999999 999999 999999 17097 999999 15456 999999 999999 999999 999999 999999 999999 999999 999999 999999 999999 999999 999999 999999 999999 999999 10932 999999 999999 12308 999999
999999 999999 999999 999999 999999 999999 999999 999999 999999 999999 999999 999999 999999 999999 999999 0 999999 999999 999999 999999 999999 999999 999999 999999 999999 999999 999999 999999 999999 999999 999999 999999 999999 999999 999999 999999 999999 999999 999999 999999 999999 999999 999999 999999 999999 999999 999999 999999 999999 999999 999999 999999 999999 999999 999999 999999 999999 999999 999999 999999 999999 999999 999999 999999 999999 999999 999999 999999 999999 999999 999999 999999 999999 999999 10959 13884 999999 19901 999999 999999 999999 16384 999999 999999 10228 999999 999999 999999 999999 999999 19215 999999 999999 12050 999999 13697 999999 999999 999999 18136 999999 10662 999999 999999 999999 999999 999999 999999 999999 999999 999999 999999 999999 999999 999999 999999 999999 18449 999999 999999 16802 999999
999999 999999 999999 999999 999999 999999 999999 999999 999999 999999 999999 999999 999999 999999 999999 999999 0 999999 999999 999999 999999 999999 999999 999999 999999 999999 999999 999999 999999 999999 999999 999999 999999 999999 999999 999999 999999 999999 999999 999999 999999 999999 999999 999999 999999 999999 999999 999999 999999 999999 999999 999999 999999 999999 999999 999999 999999 999999 999999 999999 999999 999999 999999 999999 999999 999999 999999 999999 999999 999999 999999 999999 999999 999999 15369 12227 999999 15755 999999 999999 999999 11567 999999 999999 12018 999999 999999 999999 999999 999999 13140 999999 999999 19841 999999 18810 999999 999999 999999 16157 999999 12675 999999 999999 999999 999999 999999 999999 999999 999999 999999 999999 999999 999999 999999 999999 999999 18303 999999 999999 12450 999999
999999 999999 999999 999999 999999 999999 999999 999999 999999 999999 999999 999999 999999 999999 999999 999999 999999 0 999999 999999 999999 999999 999999 999999 999999 999999 999999 999999 999999 999999 999999 999999 999999 999999 999999 999999 999999 999999 999999 999999 999999 999999 999999 999999 999999 999999 999999 999999 999999 999999 999999 999999 999999 999999 999999 999999 999999 999999 999999 999999 999999 999999 999999 999999 999999 999999 999999 999999 999999 999999 999999 999999 999999 999999 15652 10217 999999 11941 999999 999999 999999 11593 999999 999999 17485 999999 999999 999999 999999 999999 12778 999999 999999 15111 999999 17916 999999 999999 999999 14928 999999 15779 999999 999999 999999 999999 999999 999999 999999 999999 999999 999999 999999 999999 999999 999999 999999 18598 999999 999999 11608 999999
999999 999999 999999 999999 999999 999999 999999 999999 999999 999999 999999 999999 999999 999999 999999 999999 999999 999999 0 999999 999999 999999 999999 999999 999999 999999 999999 999999 999999 999999 999999 999999 999999 999999 999999 999999 999999 999999 999999 999999 999999 999999 999999 999999 999999 999999 999999 999999 999999 999999 999999 999999 999999 999999 999999 999999 999999 999999 999999 999999 999999 999999 999999 999999 999999 999999 999999 999999 999999 999999 999999 999999 999999 999999 10800 16697 999999 18597 999999 999999 999999 17536 999999 999999 10782 999999 999999 999999 999999 999999 11988 999999 999999 14428 999999 12973 999999 999999 999999 13508 999999 15037 999999 999999 999999 999999 999999 999999 999999 999999 999999 999999 999999 999999 999999 999999 999999 16017 999999 999999 19486 999999
999999 999999 999999 999999 999999 999999 999999 999999 999999 999999 999999 999999 999999 999999 999999 999999 999999 999999 999999 0 999999 999999 999999 999999 999999 999999 999999 999999 999999 999999 999999 999999 999999 999999 999999 999999 999999 999999 999999 999999 999999 999999 999999 999999 999999 999999 999999 999999 999999 999999 999999 999999 999999 999999 999999 999999 999999 999999 999999 999999 999999 999999 999999 999999 999999 999999 999999 999999 999999 999999 999999 999999 999999 999999 16768 17171 999999 14819 999999 999999 999999 17307 999999 999999 15208 999999 999999 999999 999999 999999 14350 999999 999999 17953 999999 17708 999999 999999 999999 17886 999999 14332 999999 999999 999999 999999 999999 999999 999999 999999 999999 999999 999999 999999 999999 999999 999999 15039 999999 999999 19710 999999
999999 999999 999999 999999 999999 999999 999999 999999 999999 999999 999999 999999 999999 999999 999999 999999 999999 999999 999999 999999 0 999999 999999 999999 999999 999999 999999 999999 999999 999999 999999 999999 999999 999999 999999 999999 999999 999999 999999 999999 999999 999999 999999 999999 999999 999999 999999 999999 999999 999999 999999 999999 999999 999999 999999 999999 999999 999999 999999 999999 999999 999999 999999 999999 999999 999999 999999 999999 999999 999999 999999 999999 999999 999999 12641 16148 999999 11612 999999 999999 999999 19853 999999 999999 10632 999999 999999 999999 999999 999999 10046 999999 999999 16392 999999 11092 999999 999999 999999 14599 999999 13827 999999 999999 999999 999999 999999 999999 999999 999999 999999 999999 999999 999999 999999 999999 999999 14229 999999 999999 15801 999999
999999 999999 999999 999999 999999 999999 999999 999999 999999 999999 999999 999999 999999 999999 999999 999999 999999 999999 999999 999999 999999 0 999999 999999 999999 999999 999999 999999 999999 999999 999999 999999 999999 999999 999999 999999 999999 999999 999999 999999 999999 999999 999999 999999 999999 999999 999999 999999 999999 999999 999999 999999 999999 999999 999999 999999 999999 999999 999999 999999 999999 999999 999999 999999 999999 999999 999999 999999 999999 999999 999999 999999 999999 999999 16154 13312 999999 11568 999999 999999 999999 14920 999999 999999 10999 999999 999999 999999 999999 999999 12117 999999 999999 12153 999999 11358 999999 999999 999999 10183 999999 12185 999999 999999 999999 999999 999999 999999 999999 999999 999999 999999 999999 999999 999999 999999 999999 10402 999999 999999 11259 999999
999999 999999 999999 999999 999999 999999 999999 999999 999999 999999 999999 999999 999999 999999 999999 999999 999999 999999 999999 999999 999999 999999 0 999999 999999 999999 999999 999999 999999 999999 999999 999999 999999 999999 999999 999999 999999 999999 999999 999999 999999 999999 999999 999999 999999 999999 999999 999999 999999 999999 999999 999999 999999 999999 999999 999999 999999 999999 999999 999999 999999 999999 999999 999999 999999 999999 999999 999999 999999 999999 999999 999999 999999 999999 14647 19479 999999 17479 999999 999999 999999 15737 999999 999999 16363 999999 999999 999999 999999 999999 18334 999999 999999 15155 999999 11431 999999 999999 999999 16256 999999 12778 999999 999999 999999 999999 999999 999999 999999 999999 999999 999999 999999 999999 999999 999999 999999 12368 999999 999999 16595 999999
999999 999999 999999 999999 999999 999999 999999 999999 999999 999999 999999 999999 999999 999999 999999 999999 999999 999999 999999 999999 999999 999999 999999 0 999999 999999 999999 999999 999999 999999 999999 999999 999999 999999 999999 999999 999999 999999 999999 999999 999999 999999 999999 999999 999999 999999 999999 999999 999999 999999 999999 999999 999999 999999 999999 999999 999999 999999 999999 999999 999999 999999 999999 999999 999999 999999 999999 999999 999999 999999 999999 999999 999999 999999 10768 12851 999999 13672 999999 999999 999999 14715 999999 999999 16717 999999 999999 999999 999999 999999 13626 999999 999999 10530 999999 15976 999999 999999 999999 11976 999999 16631 999999 999999 999999 999999 999999 999999 999999 999999 999999 999999 999999 999999 999999 999999 999999 19816 999999 999999 14300 999999
999999 999999 999999 999999 999999 999999 999999 999999 999999 999999 999999 999999 999999 999999 999999 999999 999999 999999 999999 999999 999999 999999 999999 999999 0 999999 999999 999999 999999 999999 999999 999999 999999 999999 999999 999999 999999 999999 999999 999999 999999 999999 999999 999999 999999 999999 999999 999999 999999 999999 999999 999999 999999 999999 999999 999999 999999 999999 999999 999999 999999 999999 999999 999999 999999 999999 999999 999999 999999 999999 999999 999999 999999 999999 19172 10537 999999 12189 999999 999999 999999 18593 999999 999999 15579 999999 999999 999999 999999 999999 16399 999999 999999 13562 999999 18623 999999 999999 999999 18508 999999 13215 999999 999999 999999 999999 999999 999999 999999 999999 999999 999999 999999 999999 999999 999999 999999 19557 999999 999999 10084 999999
999999 999999 999999 999999 999999 999999 999999 999999 999999 999999 999999 999999 999999 999999 999999 999999 999999 999999 999999 999999 999999 999999 999999 999999 999999 0 999999 999999 999999 999999 999999 999999 999999 999999 999999 999999 999999 999999 999999 999999 999999 999999 999999 999999 999999 999999 999999 999999 999999 999999 999999 999999 999999 999999 999999 999999 999999 999999 999999 999999 999999 999999 999999 10095 999999 999999 999999 14959 999999 999999 999999 999999 999999 10675 999999 999999 999999 999999 15045 999999 999999 999999 999999 999999 999999 999999 999999 999999 14170 17452 999999 999999 999999 999999 999999 999999 17240 999999 999999 999999 999999 999999 999999 999999 999999 999999 999999 10721 999999 999999 999999 19193 15027 12790 999999 16905 999999 999999 999999 999999 999999 999999
999999 999999 999999 999999 999999 999999 999999 999999 999999 999999 999999 999999 999999 999999 999999 999999 999999 999999 999999 999999 999999 999999 999999 999999 999999 999999 0 999999 999999 999999 999999 999999 999999 999999 999999 999999 999999 999999 999999 999999 999999 999999 999999 999999 999999 999999 999999 999999 999999 999999 999999 999999 999999 999999 999999 999999 999999 999999 999999 999999 999999 999999 999999 14409 999999 999999 999999 10808 999999 999999 999999 999999 999999 19896 999999 999999 999999 999999 13800 999999 999999 999999 999999 999999 999999 999999 999999 999999 19447 17751 999999 999999 999999 999999 999999 999999 18539 999999 999999 999999 999999 999999 999999 999999 999999 999999 999999 19826 999999 999999 999999 11939 11535 12020 999999 17967 999999 999999 999999 999999 999999 999999
999999 999999 999999 999999 999999 999999 999999 999999 999999 999999 999999 999999 999999 999999 999999 999999 999999 999999 999999 999999 999999 999999 999999 999999 999999 999999 999999 0 999999 999999 999999 999999 999999 999999 999999 999999 999999 999999 999999 999999 999999 999999 999999 999999 999999 999999 999999 999999 999999 999999 999999 999999 999999 999999 999999 999999 999999 999999 999999 999999 999999 999999 999999 18973 999999 999999 999999 19682 999999 999999 999999 999999 999999 12169 999999 999999 999999 999999 17219 999999 999999 999999 999999 999999 999999 999999 999999 999999 17981 19539 999999 999999 999999 999999 999999 999999 15914 999999 999999 999999 999999 999999 999999 999999 999999 999999 999999 17323 999999 999999 999999 16738 18269 14288 999999 16557 999999 999999 999999 999999 999999 999999
999999 999999 999999 999999 999999 999999 999999 999999 999999 999999 999999 999999 999999 999999 999999 999999 999999 999999 999999 999999 999999 999999 999999 999999 999999 999999 999999 999999 0 999999 999999 999999 999999 999999 999999 999999 999999 999999 999999 999999 999999 999999 999999 999999 999999 999999 999999 999999 999999 999999 999999 999999 999999 999999 999999 999999 999999 999999 999999 999999 999999 999999 999999 15341 999999 999999 999999 11394 999999 999999 999999 999999 999999 10726 999999 999999 999999 999999 18332 999999 999999 999999 999999 999999 999999 999999 999999 999999 18944 14083 999999 999999 999999 999999 999999 999999 16941 999999 999999 999999 999999 999999 999999 999999 999999 999999 999999 14534 999999 999999 999999 16442 10467 11307 999999 15531 999999 999999 999999 999999 999999 999999
999999 999999 999999 999999 999999 999999 999999 999999 999999 999999 999999 999999 999999 999999 999999 999999 999999 999999 999999 999999 999999 999999 999999 999999 999999 999999 999999 999999 999999 0 999999 999999 999999 999999 999999 999999 999999 999999 999999 999999 999999 999999 999999 999999 999999 999999 999999 999999 999999 999999 999999 999999 999999 999999 999999 999999 999999 999999 999999 999999 999999 999999 999999 12851 999999 999999 999999 10086 999999 999999 999999 999999 999999 11984 999999 999999 999999 999999 15898 999999 999999 999999 999999 999999 999999 999999 999999 999999 14704 13995 999999 999999 999999 999999 999999 999999 17200 999999 999999 999999 999999 999999 999999 999999 999999 999999 999999 15833 999999 999999 999999 19383 19569 12678 999999 16997 999999 999999 999999 999999 999999 999999
999999 999999 999999 999999 999999 999999 999999 999999 999999 999999 999999 999999 999999 999999 999999 999999 999999 999999 999999 999999 999999 999999 999999 999999 999999 999999 999999 999999 999999 999999 0 999999 999999 999999 999999 999999 999999 999999 999999 999999 999999 999999 999999 999999 999999 999999 999999 999999 999999 999999 999999 999999 999999 999999 999999 999999 999999 999999 999999 999999 999999 999999 999999 10983 999999 999999 999999 14506 999999 999999 999999 999999 999999 18162 999999 999999 999999 999999 12321 999999 999999 999999 999999 999999 999999 999999 999999 999999 12686 11579 999999 999999 999999 999999 999999 999999 17838 999999 999999 999999 999999 999999 999999 999999 999999 999999 999999 11542 999999 999999 999999 19095 16448 17709 999999 14586 999999 999999 999999 999999 999999 999999
999999 999999 999999 999999 999999 999999 999999 999999 999999 999999 999999 999999 999999 999999 999999 999999 999999 999999 999999 999999 999999 999999 999999 999999 999999 999999 999999 999999 999999 999999 999999 0 999999 999999 999999 999999 999999 999999 999999 999999 999999 999999 999999 999999 999999 999999 999999 999999 999999 999999 999999 999999 999999 999999 999999 999999 999999 999999 999999 999999 999999 999999 999999 16187 999999 999999 999999 15655 999999 999999 999999 999999 999999 10435 999999 999999 999999 999999 19636 999999 999999 999999 999999 999999 999999 999999 999999 999999 11345 14012 999999 999999 999999 999999 999999 999999 17188 999999 999999 999999 999999 999999 999999 999999 999999 999999 999999 19686 999999 999999 999999 11833 18854 18628 999999 10129 999999 999999 999999 999999 999999 999999
999999 999999 999999 999999 999999 999999 999999 999999 999999 999999 999999 999999 999999 999999 999999 999999 999999 999999 999999 999999 999999 999999 999999 999999 999999 999999 999999 999999 999999 999999 999999 999999 0 999999 999999 999999 999999 999999 999999 999999 999999 999999 999999 999999 999999 999999 999999 999999 999999 999999 999999 999999 999999 999999 999999 999999 999999 999999 999999 999999 999999 999999 999999 17424 999999 999999 999999 14798 999999 999999 999999 999999 999999 19916 999999 999999 999999 999999 19232 999999 999999 999999 999999 999999 999999 999999 999999 999999 14999 17126 999999 999999 999999 999999 999999 999999 14872 999999 999999 999999 999999 999999 999999 999999 999999 999999 999999 19650 999999 999999 999999 14268 11808 19123 999999 12763 999999 999999 999999 999999 999999 999999
999999 999999 999999 999999 999999 999999 999999 999999 999999 999999 999999 999999 999999 999999 999999 999999 999999 999999 999999 999999 999999 999999 999999 999999 999999 999999 999999 999999 999999 999999 999999 999999 999999 0 999999 999999 999999 999999 999999 999999 999999 999999 999999 999999 999999 999999 999999 999999 999999 999999 999999 999999 999999 999999 999999 999999 999999 999999 999999 999999 999999 999999 999999 17974 999999 999999 999999 10712 999999 999999 999999 999999 999999 11062 999999 999999 999999 999999 18279 999999 999999 999999 999999 999999 999999 999999 999999 999999 19967 12789 999999 999999 999999 999999 999999 999999 16558 999999 999999 999999 999999 999999 999999 999999 999999 999999 999999 13020 999999 999999 999999 19657 16959 14226 999999 17621 999999 999999 999999 999999 999999 999999
999999 999999 999999 999999 999999 999999 999999 999999 999999 999999 999999 999999 999999 999999 999999 999999 999999 999999 999999 999999 999999 999999 999999 999999 999999 999999 999999 999999 999999 999999 999999 999999 999999 999999 0 999999 999999 999999 999999 999999 999999 999999 999999 999999 999999 999999 999999 999999 999999 999999 999999 999999 999999 999999 999999 999999 999999 999999 999999 999999 999999 999999 999999 12790 999999 999999 999999 15109 999999 999999 999999 999999 999999 14259 999999 999999 999999 999999 14339 999999 999999 999999 999999 999999 999999 999999 999999 999999 11502 17620 999999 999999 999999 999999 999999 999999 15999 999999 999999 999999 999999 999999 999999 999999 999999 999999 999999 16133 999999 999999 999999 14299 14259 19180 999999 12101 999999 999999 999999 999999 999999 999999
999999 999999 999999 999999 999999 999999 999999 999999 999999 999999 999999 999999 999999 999999 999999 999999 999999 999999 999999 999999 999999 999999 999999 999999 999999 999999 999999 999999 999999 999999 999999 999999 999999 999999 999999 0 999999 999999 999999 999999 999999 999999 999999 999999 999999 999999 999999 999999 999999 999999 999999 999999 999999 999999 999999 999999 999999 999999 999999 999999 999999 999999 999999 12668 999999 999999 999999 19329 999999 999999 999999 999999 999999 13811 999999 999999 999999 999999 12243 999999 999999 999999 999999 999999 999999 999999 999999 999999 15136 19116 999999 999999 999999 999999 999999 999999 15312 999999 999999 999999 999999 999999 999999 999999 999999 999999 999999 12284 999999 999999 999999 19467 19391 10474 999999 18311 999999 999999 999999 999999 999999 999999
999999 999999 999999 999999 999999 999999 999999 999999 999999 999999 999999 999999 999999 999999 999999 999999 999999 999999 999999 999999 999999 999999 999999 999999 999999 999999 999999 999999 999999 999999 999999 999999 999999 999999 999999 999999 0 999999 999999 999999 999999 999999 999999 999999 999999 999999 999999 999999 999999 999999 999999 999999 999999 999999 999999 999999 999999 999999 999999 999999 999999 999999 999999 14182 999999 999999 999999 15865 999999 999999 999999 999999 999999 13841 999999 999999 999999 999999 15996 999999 999999 999999 999999 999999 999999 999999 999999 999999 10909 16521 999999 999999 999999 999999 999999 999999 14948 999999 999999 999999 999999 999999 999999 999999 999999 999999 999999 17130 999999 999999 999999 13843 19479 13949 999999 11760 999999 999999 999999 999999 999999 999999
999999 999999 999999 999999 999999 999999 999999 999999 999999 999999 999999 999999 999999 999999 999999 999999 999999 999999 999999 999999 999999 999999 999999 999999 999999 999999 999999 999999 999999 999999 999999 999999 999999 999999 999999 999999 999999 0 999999 999999 999999 999999 999999 999999 999999 999999 999999 999999 999999 999999 999999 999999 999999 999999 999999 999999 999999 999999 999999 999999 999999 999999 999999 999999 11058 10518 999999 999999 999999 999999 999999 16617 999999 999999 999999 999999 999999 999999 999999 999999 17355 999999 17518 999999 999999 18415 12798 999999 999999 999999 999999 999999 999999 999999 999999 999999 999999 999999 999999 999999 999999 999999 17586 999999 999999 18734 999999 999999 999999 999999 13009 999999 999999 999999 999999 999999 999999 999999 18637 18881 999999 999999
999999 999999 999999 999999 999999 999999 999999 999999 999999 999999 999999 999999 999999 999999 999999 999999 999999 999999 999999 999999 999999 999999 999999 999999 999999 999999 999999 999999 999999 999999 999999 999999 999999 999999 999999 999999 999999 999999 0 999999 999999 999999 999999 999999 999999 999999 999999 999999 999999 999999 999999 999999 999999 999999 999999 999999 999999 999999 999999 999999 999999 999999 999999 999999 14767 14610 999999 999999 999999 999999 999999 10865 999999 999999 999999 999999 999999 999999 999999 999999 15762 999999 17172 999999 999999 18228 14488 999999 999999 999999 999999 999999 999999 999999 999999 999999 999999 999999 999999 999999 999999 999999 17319 999999 999999 11560 999999 999999 999999 999999 17190 999999 999999 999999 999999 999999 999999 999999 12194 18626 999999 999999
999999 999999 999999 999999 999999 999999 999999 999999 999999 999999 999999 999999 999999 999999 999999 999999 999999 999999 999999 999999 999999 999999 999999 999999 999999 999999 999999 999999 999999 999999 999999 999999 999999 999999 999999 999999 999999 999999 999999 0 999999 999999 999999 999999 999999 999999 999999 999999 999999 999999 999999 999999 999999 999999 999999 999999 999999 999999 999999 999999 999999 999999 999999 999999 19668 18441 999999 999999 999999 999999 999999 12612 999999 999999 999999 999999 999999 999999 999999 999999 18006 999999 17191 999999 999999 14232 14608 999999 999999 999999 999999 999999 999999 999999 999999 999999 999999 999999 999999 999999 999999 999999 14299 999999 999999 19465 999999 999999 999999 999999 17759 999999 999999 999999 999999 999999 999999 999999 11246 18676 999999 999999
999999 999999 999999 999999 999999 999999 999999 999999 999999 999999 999999 999999 999999 999999 999999 999999 999999 999999 999999 999999 999999 999999 999999 999999 999999 999999 999999 999999 999999 999999 999999 999999 999999 999999 999999 999999 999999 999999 999999 999999 0 999999 999999 999999 999999 999999 999999 999999 999999 999999 999999 999999 999999 999999 999999 999999 999999 999999 999999 999999 999999 999999 999999 999999 13902 11735 999999 999999 999999 999999 999999 13744 999999 999999 999999 999999 999999 999999 999999 999999 15003 999999 14427 999999 999999 14953 12751 999999 999999 999999 999999 999999 999999 999999 999999 999999 999999 999999 999999 999999 999999 999999 16117 999999 999999 17319 999999 999999 999999 999999 18530 999999 999999 999999 999999 999999 999999 999999 16628 19659 999999 999999
999999 999999 999999 999999 999999 999999 999999 999999 999999 999999 999999 999999 999999 999999 999999 999999 999999 999999 999999 999999 999999 999999 999999 999999 999999 999999 999999 999999 999999 999999 999999 999999 999999 999999 999999 999999 999999 999999 999999 999999 999999 0 999999 999999 999999 999999 999999 999999 999999 999999 999999 999999 999999 999999 999999 999999 999999 999999 999999 999999 999999 999999 999999 999999 10981 16769 999999 999999 999999 999999 999999 15138 999999 999999 999999 999999 999999 999999 999999 999999 13246 999999 12899 999999 999999 14638 10311 999999 999999 999999 999999 999999 999999 999999 999999 999999 999999 999999 999999 999999 999999 999999 11781 999999 999999 12583 999999 999999 999999 999999 10403 999999 999999 999999 999999 999999 999999 999999 13102 10339 999999 999999
999999 999999 999999 999999 999999 999999 999999 999999 999999 999999 999999 999999 999999 999999 999999 999999 999999 999999 999999 999999 999999 999999 999999 999999 999999 999999 999999 999999 999999 999999 999999 999999 999999 999999 999999 999999 999999 999999 999999 999999 999999 999999 0 999999 999999 999999 999999 999999 999999 999999 999999 999999 999999 999999 999999 999999 999999 999999 999999 999999 999999 999999 999999 999999 14456 19846 999999 999999 999999 999999 999999 11098 999999 999999 999999 999999 999999 999999 999999 999999 18241 999999 19612 999999 999999 12243 13260 999999 999999 999999 999999 999999 999999 999999 999999 999999 999999 999999 999999 999999 999999 999999 19420 999999 999999 15330 999999 999999 999999 999999 19844 999999 999999 999999 999999 999999 999999 999999 17911 10921 999999 999999
999999 999999 999999 999999 999999 999999 999999 999999 999999 999999 999999 999999 999999 999999 999999 999999 999999 999999 999999 999999 999999 999999 999999 999999 999999 999999 999999 999999 999999 999999 999999 999999 999999 999999 999999 999999 999999 999999 999999 999999 999999 999999 999999 0 999999 999999 999999 999999 999999 999999 999999 999999 999999 999999 999999 999999 999999 999999 999999 999999 999999 999999 999999 999999 18189 11255 999999 999999 999999 999999 999999 16922 999999 999999 999999 999999 999999 999999 999999 999999 18802 999999 15589 999999 999999 16079 13036 999999 999999 999999 999999 999999 999999 999999 999999 999999 999999 999999 999999 999999 999999 999999 13097 999999 999999 19243 999999 999999 999999 999999 16227 999999 999999 999999 999999 999999 999999 999999 14681 12358 999999 999999
999999 999999 999999 999999 999999 999999 999999 999999 999999 999999 999999 999999 999999 999999 999999 999999 999999 999999 999999 999999 999999 999999 999999 999999 999999 999999 999999 999999 999999 999999 999999 999999 999999 999999 999999 999999 999999 999999 999999 999999 999999 999999 999999 999999 0 999999 999999 999999 999999 999999 999999 999999 999999 999999 999999 999999 999999 999999 999999 999999 999999 999999 999999 999999 17083 16203 999999 999999 999999 999999 999999 10827 999999 999999 999999 999999 999999 999999 999999 999999 10185 999999 12950 999999 999999 11090 11147 999999 999999 999999 999999 999999 999999 999999 999999 999999 999999 999999 999999 999999 999999 999999 18288 999999 999999 19910 999999 999999 999999 999999 11921 999999 999999 999999 999999 999999 999999 999999 19057 10400 999999 999999
999999 999999 999999 999999 999999 999999 999999 999999 999999 999999 999999 999999 999999 999999 999999 999999 999999 999999 999999 999999 999999 999999 999999 999999 999999 999999 999999 999999 999999 999999 999999 999999 999999 999999 999999 999999 999999 999999 999999 999999 999999 999999 999999 999999 999999 0 999999 999999 999999 999999 999999 999999 999999 999999 999999 999999 999999 999999 999999 999999 999999 999999 999999 999999 19636 16125 999999 999999 999999 999999 999999 16020 999999 999999 999999 999999 999999 999999 999999 999999 11604 999999 17429 999999 999999 11129 15559 999999 999999 999999 999999 999999 999999 999999 999999 999999 999999 999999 999999 999999 999999 999999 14893 999999 999999 17838 999999 999999 999999 999999 19075 999999 999999 999999 999999 999999 999999 999999 17169 10824 999999 999999
999999 999999 999999 999999 999999 999999 999999 999999 999999 999999 999999 999999 999999 999999 999999 999999 999999 999999 999999 999999 999999 999999 999999 999999 999999 999999 999999 999999 999999 999999 999999 999999 999999 999999 999999 999999 999999 999999 999999 999999 999999 999999 999999 999999 999999 999999 0 999999 999999 999999 999999 999999 999999 999999 999999 999999 999999 999999 999999 999999 999999 999999 999999 999999 13279 16291 999999 999999 999999 999999 999999 18127 999999 999999 999999 999999 999999 999999 999999 999999 14911 999999 12017 999999 999999 15597 19069 999999 999999 999999 999999 999999 999999 999999 999999 999999 999999 999999 999999 999999 999999 999999 16275 999999 999999 19719 999999 999999 999999 999999 12052 999999 999999 999999 999999 999999 999999 999999 11935 17517 999999 999999
999999 999999 999999 999999 999999 999999 999999 999999 999999 999999 999999 999999 999999 999999 999999 999999 999999 999999 999999 999999 999999 999999 999999 999999 999999 999999 999999 999999 999999 999999 999999 999999 999999 999999 999999 999999 999999 999999 999999 999999 999999 999999 999999 999999 999999 999999 999999 0 999999 999999 999999 999999 999999 999999 999999 999999 999999 999999 999999 999999 999999 999999 999999 999999 13350 19736 999999 999999 999999 999999 999999 11593 999999 999999 999999 999999 999999 999999 999999 999999 19808 999999 13672 999999 999999 15595 11554 999999 999999 999999 999999 999999 999999 999999 999999 999999 999999 999999 999999 999999 999999 999999 12693 999999 999999 10434 999999 999999 999999 999999 10451 999999 999999 999999 999999 999999 999999 999999 11044 13858 999999 999999
999999 999999 999999 999999 999999 999999 999999 999999 999999 999999 999999 999999 999999 999999 999999 999999 999999 999999 999999 999999 999999 999999 999999 999999 999999 999999 999999 999999 999999 999999 999999 999999 999999 999999 999999 999999 999999 999999 999999 999999 999999 999999 999999 999999 999999 999999 999999 999999 0 999999 999999 999999 999999 999999 999999 999999 999999 999999 999999 999999 999999 999999 999999 999999 12589 16803 999999 999999 999999 999999 999999 19903 999999 999999 999999 999999 999999 999999 999999 999999 19553 999999 15353 999999 999999 18928 14295 999999 999999 999999 999999 999999 999999 999999 999999 999999 999999 999999 999999 999999 999999 999999 14250 999999 999999 13671 999999 999999 999999 999999 15502 999999 999999 999999 999999 999999 999999 999999 18566 18102 999999 999999
999999 999999 999999 999999 999999 999999 999999 999999 999999 999999 999999 999999 999999 999999 999999 999999 999999 999999 999999 999999 999999 999999 999999 999999 999999 999999 999999 999999 999999 999999 999999 999999 999999 999999 999999 999999 999999 999999 999999 999999 999999 999999 999999 999999 999999 999999 999999 999999 999999 0 999999 999999 999999 999999 999999 999999 999999 999999 999999 999999 999999 999999 19941 999999 999999 999999 17777 999999 999999 17402 999999 999999 999999 999999 999999 999999 999999 999999 999999 999999 999999 999999 999999 999999 999999 999999 999999 16597 999999 999999 999999 999999 999999 999999 18891 999999 999999 11543 999999 999999 999999 999999 999999 14158 18683 999999 18028 999999 12889 15034 999999 999999 999999 999999 999999 999999 19711 999999 999999 999999 999999 999999
999999 999999 999999 999999 999999 999999 999999 999999 999999 999999 999999 999999 999999 999999 999999 999999 999999 999999 999999 999999 999999 999999 999999 999999 999999 999999 999999 999999 999999 999999 999999 999999 999999 999999 999999 999999 999999 999999 999999 999999 999999 999999 999999 999999 999999 999999 999999 999999 999999 999999 0 999999 999999 999999 999999 999999 999999 999999 999999 999999 999999 999999 10899 999999 999999 999999 12385 999999 999999 13841 999999 999999 999999 999999 999999 999999 999999 999999 999999 999999 999999 999999 999999 999999 999999 999999 999999 17912 999999 999999 999999 999999 999999 999999 16315 999999 999999 10261 999999 999999 999999 999999 999999 13449 10079 999999 18957 999999 13512 18622 999999 999999 999999 999999 999999 999999 10530 999999 999999 999999 999999 999999
999999 999999 999999 999999 999999 999999 999999 999999 999999 999999 999999 999999 999999 999999 999999 999999 999999 999999 999999 999999 999999 999999 999999 999999 999999 999999 999999 999999 999999 999999 999999 999999 999999 999999 999999 999999 999999 999999 999999 999999 999999 999999 999999 999999 999999 999999 999999 999999 999999 999999 999999 0 999999 999999 999999 999999 999999 999999 999999 999999 999999 999999 19813 999999 999999 999999 14865 999999 999999 16678 999999 999999 999999 999999 999999 999999 999999 999999 999999 999999 999999 999999 999999 999999 999999 999999 999999 13204 999999 999999 999999 999999 999999 999999 17905 999999 999999 10478 999999 999999 999999 999999 999999 14571 16174 999999 15271 999999 12802 16914 999999 999999 999999 999999 999999 999999 19626 999999 999999 999999 999999 999999
999999 999999 999999 999999 999999 999999 999999 999999 999999 999999 999999 999999 999999 999999 999999 999999 999999 999999 999999 999999 999999 999999 999999 999999 999999 999999 999999 999999 999999 999999 999999 999999 999999 999999 999999 999999 999999 999999 999999 999999 999999 999999 999999 999999 999999 999999 999999 999999 999999 999999 999999 999999 0 999999 999999 999999 999999 999999 999999 999999 999999 999999 15486 999999 999999 999999 13079 999999 999999 11666 999999 999999 999999 999999 999999 999999 999999 999999 999999 999999 999999 999999 999999 999999 999999 999999 999999 15792 999999 999999 999999 999999 999999 999999 12073 999999 999999 15164 999999 999999 999999 999999 999999 13844 13437 999999 17547 999999 15059 11631 999999 999999 999999 999999 999999 999999 14899 999999 999999 999999 999999 999999
999999 999999 999999 999999 999999 999999 999999 999999 999999 999999 999999 999999 999999 999999 999999 999999 999999 999999 999999 999999 999999 999999 999999 999999 999999 999999 999999 999999 999999 999999 999999 999999 999999 999999 999999 999999 999999 999999 999999 999999 999999 999999 999999 999999 999999 999999 999999 999999 999999 999999 999999 999999 999999 0 999999 999999 999999 999999 999999 999999 999999 999999 13332 999999 999999 999999 17165 999999 999999 11909 999999 999999 999999 999999 999999 999999 999999 999999 999999 999999 999999 999999 999999 999999 999999 999999 999999 11944 999999 999999 999999 999999 999999 999999 12624 999999 999999 13210 999999 999999 999999 999999 999999 11321 13117 999999 19738 999999 17543 14184 999999 999999 999999 999999 999999 999999 17788 999999 999999 999999 999999 999999
999999 999999 999999 999999 999999 999999 999999 999999 999999 999999 999999 999999 999999 999999 999999 999999 999999 999999 999999 999999 999999 999999 999999 999999 999999 999999 999999 999999 999999 999999 999999 999999 999999 999999 999999 999999 999999 999999 999999 999999 999999 999999 999999 999999 999999 999999 999999 999999 999999 999999 999999 999999 999999 999999 0 999999 999999 999999 999999 999999 999999 999999 10900 999999 999999 999999 18856 999999 999999 10086 999999 999999 999999 999999 999999 999999 999999 999999 999999 999999 999999 999999 999999 999999 999999 999999 999999 13098 999999 999999 999999 999999 999999 999999 19559 999999 999999 11122 999999 999999 999999 999999 999999 14639 12063 999999 16012 999999 12438 16382 999999 999999 999999 999999 999999 999999 12627 999999 999999 999999 999999 999999
999999 999999 999999 999999 999999 999999 999999 999999 999999 999999 999999 999999 999999 999999 999999 999999 999999 999999 999999 999999 999999 999999 999999 999999 999999 999999 999999 999999 999999 999999 999999 999999 999999 999999 999999 999999 999999 999999 999999 999999 999999 999999 999999 999999 999999 999999 999999 999999 999999 999999 999999 999999 999999 999999 999999 0 999999 999999 999999 999999 999999 999999 11911 999999 999999 999999 14864 999999 999999 16041 999999 999999 999999 999999 999999 999999 999999 999999 999999 999999 999999 999999 999999 999999 999999 999999 999999 10566 999999 999999 999999 999999 999999 999999 16252 999999 999999 13935 999999 999999 999999 999999 999999 15258 17605 999999 16569 999999 18876 17887 999999 999999 999999 999999 999999 999999 12207 999999 999999 999999 999999 999999
999999 999999 999999 999999 999999 999999 999999 999999 999999 999999 999999 999999 999999 999999 999999 999999 999999 999999 999999 999999 999999 999999 999999 999999 999999 999999 999999 999999 999999 999999 999999 999999 999999 999999 999999 999999 999999 999999 999999 999999 999999 999999 999999 999999 999999 999999 999999 999999 999999 999999 999999 999999 999999 999999 999999 999999 0 999999 999999 999999 999999 999999 17987 999999 999999 999999 14370 999999 999999 11113 999999 999999 999999 999999 999999 999999 999999 999999 999999 999999 999999 999999 999999 999999 999999 999999 999999 13536 999999 999999 999999 999999 999999 999999 10661 999999 999999 15742 999999 999999 999999 999999 999999 12318 13671 999999 10171 999999 16004 10077 999999 999999 999999 999999 999999 999999 14771 999999 999999 999999 999999 999999
999999 999999 999999 999999 999999 999999 999999 999999 999999 999999 999999 999999 999999 999999 999999 999999 999999 999999 999999 999999 999999 999999 999999 999999 999999 999999 999999 999999 999999 999999 999999 999999 999999 999999 999999 999999 999999 999999 999999 999999 999999 999999 999999 999999 999999 999999 999999 999999 999999 999999 999999 999999 999999 999999 999999 999999 999999 0 999999 999999 999999 999999 10970 999999 999999 999999 15599 999999 999999 16082 999999 999999 999999 999999 999999 999999 999999 999999 999999 999999 999999 999999 999999 999999 999999 999999 999999 18765 999999 999999 999999 999999 999999 999999 15177 999999 999999 10033 999999 999999 999999 999999 999999 13636 17239 999999 11302 999999 19300 14473 999999 999999 999999 999999 999999 999999 17737 999999 999999 999999 999999 999999
999999 999999 999999 999999 999999 999999 999999 999999 999999 999999 999999 999999 999999 999999 999999 999999 999999 999999 999999 999999 999999 999999 999999 999999 999999 999999 999999 999999 999999 999999 999999 999999 999999 999999 999999 999999 999999 999999 999999 999999 999999 999999 999999 999999 999999 999999 999999 999999 999999 999999 999999 999999 999999 999999 999999 999999 999999 999999 0 999999 999999 999999 18839 999999 999999 999999 13325 999999 999999 18239 999999 999999 999999 999999 999999 999999 999999 999999 999999 999999 999999 999999 999999 999999 999999 999999 999999 19846 999999 999999 999999 999999 999999 999999 11918 999999 999999 16294 999999 999999 999999 999999 999999 18044 14841 999999 15267 999999 12039 12933 999999 999999 999999 999999 999999 999999 19417 999999 999999 999999 999999 999999
999999 999999 999999 999999 999999 999999 999999 999999 999999 999999 999999 999999 999999 999999 999999 999999 999999 999999 999999 999999 999999 999999 999999 999999 999999 999999 999999 999999 999999 999999 999999 999999 999999 999999 999999 999999 999999 999999 999999 999999 999999 999999 999999 999999 999999 999999 999999 999999 999999 999999 999999 999999 999999 999999 999999 999999 999999 999999 999999 0 999999 999999 16603 999999 999999 999999 19601 999999 999999 17341 999999 999999 999999 999999 999999 999999 999999 999999 999999 999999 999999 999999 999999 999999 999999 999999 999999 18754 999999 999999 999999 999999 999999 999999 17598 999999 999999 19502 999999 999999 999999 999999 999999 13040 19519 999999 18050 999999 13700 18675 999999 999999 999999 999999 999999 999999 13472 999999 999999 999999 999999 999999
999999 999999 999999 999999 999999 999999 999999 999999 999999 999999 999999 999999 999999 999999 999999 999999 999999 999999 999999 999999 999999 999999 999999 999999 999999 999999 999999 999999 999999 999999 999999 999999 999999 999999 999999 999999 999999 999999 999999 999999 999999 999999 999999 999999 999999 999999 999999 999999 999999 999999 999999 999999 999999 999999 999999 999999 999999 999999 999999 999999 0 999999 15564 999999 999999 999999 19874 999999 999999 10189 999999 999999 999999 999999 999999 999999 999999 999999 999999 999999 999999 999999 999999 999999 999999 999999 999999 15192 999999 999999 999999 999999 999999 999999 10894 999999 999999 18864 999999 999999 999999 999999 999999 18696 13892 999999 11347 999999 10455 16531 999999 999999 999999 999999 999999 999999 10764 999999 999999 999999 999999 999999
999999 13107 16639 18089 15991 16352 19886 12011 14898 11638 16695 13536 12655 14085 13069 18737 10291 12012 19730 13088 16227 14169 13207 14537 19227 14508 11096 10358 13382 16937 19487 12128 14397 15726 11445 14885 15491 13612 12847 14126 19779 16248 14537 11869 11327 13388 19855 11893 19935 17739 13452 17727 11270 18300 17532 10280 17162 13516 16281 16453 14396 0 999999 999999 999999 999999 999999 999999 999999 999999 999999 999999 999999 999999 999999 999999 999999 999999 999999 999999 999999 999999 999999 999999 999999 999999 999999 999999 999999 999999 999999 999999 999999 999999 999999 999999 999999 999999 999999 999999 999999 999999 999999 999999 999999 999999 999999 999999 999999 999999 999999 999999 999999 999999 999999 999999 999999 999999 999999 999999 999999 11376
999999 19387 15678 15032 12788 19432 18998 15443 16484 11867 18333 13666 16803 14070 14728 15624 10034 19693 14313 12776 17239 17255 14367 19360 16660 16827 19654 17681 14278 17343 16366 12434 10931 12921 13006 15979 19612 16871 13342 14141 16184 17587 14968 11779 15596 11893 17707 15815 12752 19941 10899 19813 15486 13332 10900 11911 17987 10970 18839 16603 15564 999999 0 999999 999999 999999 999999 999999 999999 999999 999999 999999 999999 999999 999999 999999 999999 999999 999999 999999 999999 999999 999999 999999 999999 999999 999999 999999 999999 999999 999999 999999 999999 999999 999999 999999 999999 999999 999999 999999 999999 999999 999999 999999 999999 999999 999999 999999 999999 999999 999999 999999 999999 999999 999999 999999 999999 999999 999999 999999 999999 14553
999999 14208 17785 14312 15192 13124 17888 17543 18230 14679 17122 13149 18407 14134 18496 14131 17724 13974 16220 15842 17324 12408 19603 10437 12954 10095 14409 18973 15341 12851 10983 16187 17424 17974 12790 12668 14182 19780 17975 13880 15160 16304 13430 10019 16454 18548 13496 12471 13056 15560 15086 17575 17548 11761 16925 13137 12601 19668 12858 18544 17920 999999 999999 0 999999 999999 999999 999999 999999 999999 999999 999999 999999 999999 999999 999999 999999 999999 999999 999999 999999 999999 999999 999999 999999 999999 999999 999999 999999 999999 999999 999999 999999 999999 999999 999999 999999 999999 999999 999999 999999 999999 999999 999999 999999 999999 999999 999999 999999 999999 999999 999999 999999 999999 999999 999999 999999 999999 999999 999999 999999 13494
999999 15832 14523 13366 10239 17064 10543 13668 18900 17473 13855 17008 19090 17399 17174 17453 15430 11336 12285 11392 14457 13863 19292 10214 19809 14226 19511 18194 13678 15718 11248 15953 11437 17450 17650 12725 12642 11058 14767 19668 13902 10981 14456 18189 17083 19636 13279 13350 12589 19020 10976 14330 12729 16293 10501 18911 13564 18937 17376 18837 19188 999999 999999 999999 0 999999 999999 999999 999999 999999 999999 999999 999999 999999 999999 999999 999999 999999 999999 999999 999999 999999 999999 999999 999999 999999 999999 999999 999999 999999 999999 999999 999999 999999 999999 999999 999999 999999 999999 999999 999999 999999 999999 999999 999999 999999 999999 999999 999999 999999 999999 999999 999999 999999 999999 999999 999999 999999 999999 999999 999999 7138
999999 18946 19453 12164 16446 15286 13496 13900 16417 11275 13148 12140 15422 17176 15374 12809 12497 11016 16892 18447 10093 11516 15527 14156 10461 15869 12364 15006 18250 13547 16462 13763 13274 11677 14273 15336 18536 10518 14610 18441 11735 16769 19846 11255 16203 16125 16291 19736 16803 11360 10953 18108 16551 11843 17450 10727 18187 12470 13500 14534 14461 999999 999999 999999 999999 0 999999 999999 999999 999999 999999 999999 999999 999999 999999 999999 999999 999999 999999 999999 999999 999999 999999 999999 999999 999999 999999 999999 999999 999999 999999 999999 999999 999999 999999 999999 999999 999999 999999 999999 999999 999999 999999 999999 999999 999999 999999 999999 999999 999999 999999 999999 999999 999999 999999 999999 999999 999999 999999 999999 999999 7418
999999 12844 15146 13198 19316 19940 13102 19022 19978 12906 17094 13176 19557 15172 11203 19193 10824 13170 10489 11240 16261 10434 19886 17292 14355 13674 18282 14039 18915 10319 11308 13899 18484 17873 16837 13708 16797 15119 14970 18923 14820 11159 12438 10518 15254 17129 11773 13629 18092 17777 12385 14865 13079 17165 18856 14864 14370 15599 13325 19601 19874 999999 999999 999999 999999 999999 0 999999 999999 999999 999999 999999 999999 999999 999999 999999 999999 999999 999999 999999 999999 999999 999999 999999 999999 999999 999999 999999 999999 999999 999999 999999 999999 999999 999999 999999 999999 999999 999999 999999 999999 999999 999999 999999 999999 999999 999999 999999 999999 999999 999999 999999 999999 999999 999999 999999 999999 999999 999999 999999 999999 6213
999999 14213 19686 18338 13839 16850 18307 17938 15483 15362 18987 10548 17208 16868 17624 19812 12602 12037 14331 10019 18928 16996 17731 19595 10373 14959 10808 19682 11394 10086 14506 15655 14798 10712 15109 19329 15865 11196 11667 10331 15157 15001 19165 14826 12105 17115 16796 19211 17098 11864 10799 16206 14151 10144 16450 11938 12370 17872 16476 16413 13356 999999 999999 999999 999999 999999 999999 0 999999 999999 999999 999999 999999 999999 999999 999999 999999 999999 999999 999999 999999 999999 999999 999999 999999 999999 999999 999999 999999 999999 999999 999999 999999 999999 999999 999999 999999 999999 999999 999999 999999 999999 999999 999999 999999 999999 999999 999999 999999 999999 999999 999999 999999 999999 999999 999999 999999 999999 999999 999999 999999 10719
999999 15660 19187 19207 12131 10710 19908 15648 13255 19514 10086 18285 17551 14284 16353 15114 13381 10272 12285 13999 10134 18722 11064 11003 18457 10094 19762 14177 11931 11372 15743 17074 13919 14321 11719 14927 15734 19712 18280 19915 15613 19234 10858 16639 12623 10283 14547 13655 16194 11035 17403 12684 19032 13560 15858 19306 13440 13078 10028 16525 18386 999999 999999 999999 999999 999999 999999 999999 0 999999 999999 999999 999999 999999 999999 999999 999999 999999 999999 999999 999999 999999 999999 999999 999999 999999 999999 999999 999999 999999 999999 999999 999999 999999 999999 999999 999999 999999 999999 999999 999999 999999 999999 999999 999999 999999 999999 999999 999999 999999 999999 999999 999999 999999 999999 999999 999999 999999 999999 999999 999999 10880
999999 17658 15476 12619 13714 15605 17597 10693 18604 12169 18503 10301 17357 13617 10978 16496 11349 16440 10048 14878 19826 19563 19792 15750 19819 18076 12280 17763 19357 12325 10972 18946 11441 18713 17639 17012 11598 17581 14191 12612 14307 10432 19428 17477 16232 13380 11649 12100 11788 17402 13841 16678 11666 11909 10086 16041 11113 16082 18239 17341 10189 999999 999999 999999 999999 999999 999999 999999 999999 0 999999 999999 999999 999999 999999 999999 999999 999999 999999 999999 999999 999999 999999 999999 999999 999999 999999 999999 999999 999999 999999 999999 999999 999999 999999 999999 999999 999999 999999 999999 999999 999999 999999 999999 999999 999999 999999 999999 999999 999999 999999 999999 999999 999999 999999 999999 999999 999999 999999 999999 999999 8387
999999 13225 17948 10889 10334 15758 17593 19882 17607 17062 11871 16808 15279 10627 14691 13737 16711 16525 10382 14179 15095 16938 10142 13747 16116 17359 19173 17568 12094 17030 13152 18326 12890 18497 13209 13493 17093 13545 12414 11241 14710 18702 16138 14502 10740 10695 19617 10124 17546 11991 17406 13053 10069 14039 11206 15217 19845 12687 17351 11561 13492 999999 999999 999999 999999 999999 999999 999999 999999 999999 0 999999 999999 999999 999999 999999 999999 999999 999999 999999 999999 999999 999999 999999 999999 999999 999999 999999 999999 999999 999999 999999 999999 999999 999999 999999 999999 999999 999999 999999 999999 999999 999999 999999 999999 999999 999999 999999 999999 999999 999999 999999 999999 999999 999999 999999 999999 999999 999999 999999 999999 9345
999999 10226 18167 14719 13193 10331 19483 15682 12703 17848 13995 14166 13457 10850 19229 19606 14049 13996 13896 13710 13008 18641 13712 19828 14474 12441 13721 15405 14382 12698 15563 18110 17456 12914 18155 16862 15695 16617 10865 12612 13744 15138 11098 16922 10827 16020 18127 11593 19903 10399 13908 17732 11520 16727 17745 19772 19778 16883 18503 10639 18515 999999 999999 999999 999999 999999 999999 999999 999999 999999 999999 0 999999 999999 999999 999999 999999 999999 999999 999999 999999 999999 999999 999999 999999 999999 999999 999999 999999 999999 999999 999999 999999 999999 999999 999999 999999 999999 999999 999999 999999 999999 999999 999999 999999 999999 999999 999999 999999 999999 999999 999999 999999 999999 999999 999999 999999 999999 999999 999999 999999 12872
999999 16350 11419 19759 12321 17022 13593 16406 19040 12902 18982 15506 11315 12386 14165 12919 15661 18012 15269 13914 14922 11879 10790 10913 13672 16221 18123 13779 16822 14199 14462 14799 10286 14230 17959 14076 15132 16645 10447 12434 15742 11567 17823 18829 14006 11500 10446 14042 13219 15580 10009 13747 17661 15314 10993 17498 19503 19983 18655 11309 19022 999999 999999 999999 999999 999999 999999 999999 999999 999999 999999 999999 0 999999 999999 999999 999999 999999 999999 999999 999999 999999 999999 999999 999999 999999 999999 999999 999999 999999 999999 999999 999999 999999 999999 999999 999999 999999 999999 999999 999999 999999 999999 999999 999999 999999 999999 999999 999999 999999 999999 999999 999999 999999 999999 999999 999999 999999 999999 999999 999999 7130
999999 18445 16703 12487 14284 19288 14525 11032 13427 17641 16897 10804 14981 17921 10840 17791 18184 11663 13970 10776 18930 18898 15332 10539 18462 10675 19896 12169 10726 11984 18162 10435 19916 11062 14259 13811 13841 16717 16717 16643 15096 19842 19312 10030 15259 16363 10303 17486 14870 12461 11363 15845 10891 17386 16271 11283 11523 12980 13394 16481 15278 999999 999999 999999 999999 999999 999999 999999 999999 999999 999999 999999 999999 0 999999 999999 999999 999999 999999 999999 999999 999999 999999 999999 999999 999999 999999 999999 999999 999999 999999 999999 999999 999999 999999 999999 999999 999999 999999 999999 999999 999999 999999 999999 999999 999999 999999 999999 999999 999999 999999 999999 999999 999999 999999 999999 999999 999999 999999 999999 999999 10292
999999 17612 16120 17405 15081 14328 12425 10400 11787 19604 13552 15125 18484 11169 16997 10959 15369 15652 10800 16768 12641 16154 14647 10768 19172 11949 13720 16237 14100 15562 17811 10740 12046 14698 10921 19208 19110 10248 19788 11821 16490 12750 13949 14725 13487 15727 12349 12254 14084 12574 14456 11677 10668 10870 10002 15335 18443 19219 10695 14220 16247 999999 999999 999999 999999 999999 999999 999999 999999 999999 999999 999999 999999 999999 0 999999 999999 999999 999999 999999 999999 999999 999999 999999 999999 999999 999999 999999 999999 999999 999999 999999 999999 999999 999999 999999 999999 999999 999999 999999 999999 999999 999999 999999 999999 999999 999999 999999 999999 999999 999999 999999 999999 999999 999999 999999 999999 999999 999999 999999 999999 8599
999999 15357 12329 19375 11815 13888 14018 18372 17926 12535 17221 16456 11564 13147 15031 13884 12227 10217 16697 17171 16148 13312 19479 12851 10537 12273 18095 12935 18099 16308 12246 11478 12851 17126 10533 12218 17622 11875 11501 14869 18939 10687 17440 14304 16873 16357 13390 12619 12034 18910 12229 18837 17948 19211 12564 13280 18181 14667 17935 13553 14636 999999 999999 999999 999999 999999 999999 999999 999999 999999 999999 999999 999999 999999 999999 0 999999 999999 999999 999999 999999 999999 999999 999999 999999 999999 999999 999999 999999 999999 999999 999999 999999 999999 999999 999999 999999 999999 999999 999999 999999 999999 999999 999999 999999 999999 999999 999999 999999 999999 999999 999999 999999 999999 999999 999999 999999 999999 999999 999999 999999 9176
999999 10037 15514 12740 11118 13659 14208 13891 19746 11477 18241 14832 14141 11549 17405 13641 14533 18576 10481 11758 16144 12948 13563 10446 17072 18949 17540 15829 17033 19304 14783 14188 13189 18724 18758 12451 13366 19492 12106 14809 13841 11835 13551 19399 13247 12496 18698 10452 15444 12709 10761 16959 11385 13873 16694 10576 11779 10056 18297 18811 12817 999999 999999 999999 999999 999999 999999 999999 999999 999999 999999 999999 999999 999999 999999 999999 0 999999 999999 999999 999999 999999 999999 999999 999999 999999 999999 999999 999999 999999 999999 999999 999999 999999 999999 999999 999999 999999 999999 999999 999999 999999 999999 999999 999999 999999 999999 999999 999999 999999 999999 999999 999999 999999 999999 999999 999999 999999 999999 999999 999999 5707
999999 10894 11749 12637 10003 15705 16174 11895 11625 11659 11529 13753 18117 15003 13021 19901 15755 11941 18597 14819 11612 11568 17479 13672 12189 18761 18027 10591 10677 16669 18458 14170 11170 15971 16011 10520 19104 15548 17041 13760 19303 18469 19001 19966 12224 16200 19654 10994 18774 19453 12798 10611 17107 12545 10393 10857 19366 19827 14563 12293 12923 999999 999999 999999 999999 999999 999999 999999 999999 999999 999999 999999 999999 999999 999999 999999 999999 0 999999 999999 999999 999999 999999 999999 999999 999999 999999 999999 999999 999999 999999 999999 999999 999999 999999 999999 999999 999999 999999 999999 999999 999999 999999 999999 999999 999999 999999 999999 999999 999999 999999 999999 999999 999999 999999 999999 999999 999999 999999 999999 999999 6903
999999 18843 10396 13314 17141 19016 13591 17507 11807 18226 18494 19351 11273 12440 13328 12340 17062 15884 19910 13997 19656 13800 19856 13841 15501 15045 13800 17219 18332 15898 12321 19636 19232 18279 14339 12243 15996 17835 13600 10464 14007 14332 17453 11539 15153 15206 10912 11738 15496 10431 19733 13438 19964 15587 19273 14264 11302 19060 18237 14386 10802 999999 999999 999999 999999 999999 999999 999999 999999 999999 999999 999999 999999 999999 999999 999999 999999 999999 0 999999 999999 999999 999999 999999 999999 999999 999999 999999 999999 999999 999999 999999 999999 999999 999999 999999 999999 999999 999999 999999 999999 999999 999999 999999 999999 999999 999999 999999 999999 999999 999999 999999 999999 999999 999999 999999 999999 999999 999999 999999 999999 14262
999999 17931 12125 13580 16154 12806 16627 19908 16999 17385 17662 16745 11155 13395 16179 15278 18592 13909 10034 13764 13996 10709 13426 18754 15703 11756 17176 14631 19853 12836 13535 15259 15387 12413 19035 17998 12767 12278 13783 19188 17989 11848 13607 19571 16355 16800 11766 15572 18549 18792 12947 13192 12226 14849 13011 10142 18862 19037 10712 19488 14624 999999 999999 999999 999999 999999 999999 999999 999999 999999 999999 999999 999999 999999 999999 999999 999999 999999 999999 0 999999 999999 999999 999999 999999 999999 999999 999999 999999 999999 999999 999999 999999 999999 999999 999999 999999 999999 999999 999999 999999 999999 999999 999999 999999 999999 999999 999999 999999 999999 999999 999999 999999 999999 999999 999999 999999 999999 999999 999999 999999 7026
999999 16517 11630 14544 17307 18346 18167 18912 17204 15949 16070 19624 13547 18207 15012 18433 10570 12082 13947 18180 12773 17676 17939 16313 10187 12617 12638 17836 13638 14162 10748 10180 19398 10216 14036 13547 10032 17355 15762 18006 15003 13246 18241 18802 10185 11604 14911 19808 19553 17374 10481 15605 12511 19866 19077 14762 13107 19550 14243 13065 13907 999999 999999 999999 999999 999999 999999 999999 999999 999999 999999 999999 999999 999999 999999 999999 999999 999999 999999 999999 0 999999 999999 999999 999999 999999 999999 999999 999999 999999 999999 999999 999999 999999 999999 999999 999999 999999 999999 999999 999999 999999 999999 999999 999999 999999 999999 999999 999999 999999 999999 999999 999999 999999 999999 999999 999999 999999 999999 999999 999999 10277
999999 19345 16215 13663 13368 11122 16602 15597 17516 16617 16847 11399 16186 14852 11139 16384 11567 11593 17536 17307 19853 14920 15737 14715 18593 18814 17622 14410 17749 13891 11399 19003 13113 18313 16775 17514 18237 19980 13175 17257 10962 18576 13664 16041 16616 16858 11378 15140 19026 17540 13955 15341 15774 18553 11268 17225 17321 12884 16077 17624 14251 999999 999999 999999 999999 999999 999999 999999 999999 999999 999999 999999 999999 999999 999999 999999 999999 999999 999999 999999 999999 0 999999 999999 999999 999999 999999 999999 999999 999999 999999 999999 999999 999999 999999 999999 999999 999999 999999 999999 999999 999999 999999 999999 999999 999999 999999 999999 999999 999999 999999 999999 999999 999999 999999 999999 999999 999999 999999 999999 999999 6914
999999 19118 13009 14977 14460 11836 15787 16542 17575 14877 17358 11000 14192 15893 14166 14323 15463 17817 19690 14117 15423 14025 14763 13697 14037 17485 12725 10963 14123 17369 11345 18623 15159 12657 16146 11390 17688 17518 17172 17191 14427 12899 19612 15589 12950 17429 12017 13672 15353 16264 13648 17437 14061 12814 13095 17766 15123 10795 10273 17655 15409 999999 999999 999999 999999 999999 999999 999999 999999 999999 999999 999999 999999 999999 999999 999999 999999 999999 999999 999999 999999 999999 0 999999 999999 999999 999999 999999 999999 999999 999999 999999 999999 999999 999999 999999 999999 999999 999999 999999 999999 999999 999999 999999 999999 999999 999999 999999 999999 999999 999999 999999 999999 999999 999999 999999 999999 999999 999999 999999 999999 14221
999999 19650 18834 17369 16567 14028 14540 12892 18883 12094 13636 17670 11322 14790 16943 16780 10693 17036 10230 10094 18993 18736 18624 17238 12712 13498 16066 10949 11301 13659 16166 12693 18015 13562 12998 17432 10072 17823 12686 15525 13433 10601 16811 11055 17520 16531 18528 14432 15331 16644 11308 18814 10962 16953 15347 15258 15918 19624 14473 10823 19405 999999 999999 999999 999999 999999 999999 999999 999999 999999 999999 999999 999999 999999 999999 999999 999999 999999 999999 999999 999999 999999 999999 0 999999 999999 999999 999999 999999 999999 999999 999999 999999 999999 999999 999999 999999 999999 999999 999999 999999 999999 999999 999999 999999 999999 999999 999999 999999 999999 999999 999999 999999 999999 999999 999999 999999 999999 999999 999999 999999 11673
999999 15882 18768 12617 18255 19911 12958 10988 17478 13825 19153 15161 16732 18692 13622 10228 12018 17485 10782 15208 10632 10999 16363 16717 15579 10638 12242 19528 17517 15226 13737 16648 15950 16492 12875 10637 14092 15264 13990 14793 19080 14106 10716 17650 15302 19857 19181 14882 19632 11551 17289 13473 11476 12700 13228 15349 18716 12302 19347 18285 13612 999999 999999 999999 999999 999999 999999 999999 999999 999999 999999 999999 999999 999999 999999 999999 999999 999999 999999 999999 999999 999999 999999 999999 0 999999 999999 999999 999999 999999 999999 999999 999999 999999 999999 999999 999999 999999 999999 999999 999999 999999 999999 999999 999999 999999 999999 999999 999999 999999 999999 999999 999999 999999 999999 999999 999999 999999 999999 999999 999999 8230
999999 19566 17976 10721 18159 10890 18046 15440 12775 19527 16405 10934 18218 13553 15099 15442 12200 10115 15692 15327 13565 15690 14269 13525 10932 13112 12563 16845 15181 12089 14763 18545 13056 15873 11584 12945 13496 18415 18228 14232 14953 14638 12243 16079 11090 11129 15597 15595 18928 16845 19761 19865 16991 13800 10481 16593 18481 18236 16061 13297 15325 999999 999999 999999 999999 999999 999999 999999 999999 999999 999999 999999 999999 999999 999999 999999 999999 999999 999999 999999 999999 999999 999999 999999 999999 0 999999 999999 999999 999999 999999 999999 999999 999999 999999 999999 999999 999999 999999 999999 999999 999999 999999 999999 999999 999999 999999 999999 999999 999999 999999 999999 999999 999999 999999 999999 999999 999999 999999 999999 999999 13986
999999 18990 10302 11652 14313 16258 16774 18161 13006 19433 18592 17501 17294 10424 11102 14789 19953 18170 19426 18569 10885 18025 18038 15722 18962 18312 15321 18036 14184 18135 11439 13178 11505 11406 18359 15268 10063 12798 14488 14608 12751 10311 13260 13036 11147 15559 19069 11554 14295 17888 16569 10325 16577 14828 13226 11384 12187 13831 17906 13849 14992 999999 999999 999999 999999 999999 999999 999999 999999 999999 999999 999999 999999 999999 999999 999999 999999 999999 999999 999999 999999 999999 999999 999999 999999 999999 0 999999 999999 999999 999999 999999 999999 999999 999999 999999 999999 999999 999999 999999 999999 999999 999999 999999 999999 999999 999999 999999 999999 999999 999999 999999 999999 999999 999999 999999 999999 999999 999999 999999 999999 6142
999999 10971 11323 10680 15881 19445 19223 12146 11835 12114 18318 12511 12519 19654 12203 13498 15907 11103 12707 11655 10840 14619 15349 16133 17828 16808 16771 15196 11351 14736 19470 13375 10409 13157 11442 11784 17921 11989 12669 10658 15150 15112 15000 18787 15771 11705 16465 14365 15914 16597 17912 13204 15792 11944 13098 10566 13536 18765 19846 18754 15192 999999 999999 999999 999999 999999 999999 999999 999999 999999 999999 999999 999999 999999 999999 999999 999999 999999 999999 999999 999999 999999 999999 999999 999999 999999 999999 0 999999 999999 999999 999999 999999 999999 999999 999999 999999 999999 999999 999999 999999 999999 999999 999999 999999 999999 999999 999999 999999 999999 999999 999999 999999 999999 999999 999999 999999 999999 999999 999999 999999 5510
999999 14035 15522 13035 13060 13555 19655 16246 14874 15124 18388 15022 13399 15774 12846 19615 19530 10945 14265 11495 11472 15828 16680 18896 13359 14170 19447 17981 18944 14704 12686 11345 14999 19967 11502 15136 10909 15264 15742 10429 11665 17734 14071 10822 12444 11627 13398 13134 18917 15989 17426 12066 19569 16856 14644 12719 14310 17193 14102 15858 18437 999999 999999 999999 999999 999999 999999 999999 999999 999999 999999 999999 999999 999999 999999 999999 999999 999999 999999 999999 999999 999999 999999 999999 999999 999999 999999 999999 0 999999 999999 999999 999999 999999 999999 999999 999999 999999 999999 999999 999999 999999 999999 999999 999999 999999 999999 999999 999999 999999 999999 999999 999999 999999 999999 999999 999999 999999 999999 999999 999999 6554
999999 19329 13709 19478 17564 17731 10453 12025 16459 14789 18899 18913 17029 15409 14539 13548 13434 11202 14445 15085 14617 17894 18525 13341 14253 17452 17751 19539 14083 13995 11579 14012 17126 12789 17620 19116 16521 11406 11266 17357 14837 10859 17927 15394 11302 11633 17892 12477 12181 17456 14534 13688 10298 10015 17909 17610 10331 14508 14648 14367 17176 999999 999999 999999 999999 999999 999999 999999 999999 999999 999999 999999 999999 999999 999999 999999 999999 999999 999999 999999 999999 999999 999999 999999 999999 999999 999999 999999 999999 0 999999 999999 999999 999999 999999 999999 999999 999999 999999 999999 999999 999999 999999 999999 999999 999999 999999 999999 999999 999999 999999 999999 999999 999999 999999 999999 999999 999999 999999 999999 999999 11439
999999 13144 14341 12420 13012 13936 15232 12491 16045 19771 16324 17753 10261 12488 16684 19215 13140 12778 11988 14350 10046 12117 18334 13626 16399 11663 18806 13366 16651 10346 11269 17857 10934 10422 11581 11314 16414 15512 16060 17898 14369 15497 19055 17060 13376 17740 16318 18646 10260 18313 17472 10689 13433 11987 14115 12406 14800 14691 16015 11219 14914 999999 999999 999999 999999 999999 999999 999999 999999 999999 999999 999999 999999 999999 999999 999999 999999 999999 999999 999999 999999 999999 999999 999999 999999 999999 999999 999999 999999 999999 0 999999 999999 999999 999999 999999 999999 999999 999999 999999 999999 999999 999999 999999 999999 999999 999999 999999 999999 999999 999999 999999 999999 999999 999999 999999 999999 999999 999999 999999 999999 5252
999999 17243 15936 13699 18384 19689 17038 15600 13602 10991 18581 19989 16064 10250 12968 16875 13454 16557 19300 11037 14361 18492 19363 11341 11917 17067 13583 18741 13018 19412 17010 19514 14220 13450 14527 18915 17727 19063 15393 17494 16797 18563 16003 12728 13841 11454 19387 15615 11215 12583 17856 14253 10702 19202 14337 16936 14883 16676 16864 17269 11708 999999 999999 999999 999999 999999 999999 999999 999999 999999 999999 999999 999999 999999 999999 999999 999999 999999 999999 999999 999999 999999 999999 999999 999999 999999 999999 999999 999999 999999 999999 0 999999 999999 999999 999999 999999 999999 999999 999999 999999 999999 999999 999999 999999 999999 999999 999999 999999 999999 999999 999999 999999 999999 999999 999999 999999 999999 999999 999999 999999 7587
999999 18771 13021 13751 12396 18674 15687 13679 18667 10885 13136 19942 14321 17081 10606 13060 18023 11499 17129 15573 11724 19737 15711 18470 11239 19669 19788 13522 15766 16143 19060 11837 12036 12593 10778 16233 18981 14221 10648 10598 19999 14514 11617 13910 14702 18425 14484 13942 15044 17217 15210 19855 12764 15837 16412 18248 19536 18287 17777 13168 11141 999999 999999 999999 999999 999999 999999 999999 999999 999999 999999 999999 999999 999999 999999 999999 999999 999999 999999 999999 999999 999999 999999 999999 999999 999999 999999 999999 999999 999999 999999 999999 0 999999 999999 999999 999999 999999 999999 999999 999999 999999 999999 999999 999999 999999 999999 999999 999999 999999 999999 999999 999999 999999 999999 999999 999999 999999 999999 999999 999999 7784
999999 10219 15270 14714 15224 15748 12317 18538 10025 13563 11352 14201 13054 13418 15898 12050 19841 15111 14428 17953 16392 12153 15155 10530 13562 11053 17700 17883 14923 16047 10526 15268 13546 18575 19633 19578 14730 17196 14809 18521 17931 17473 11758 19392 10194 13190 17123 14453 18875 19975 12018 18623 14669 19859 19564 11642 12497 18546 18581 13594 16786 999999 999999 999999 999999 999999 999999 999999 999999 999999 999999 999999 999999 999999 999999 999999 999999 999999 999999 999999 999999 999999 999999 999999 999999 999999 999999 999999 999999 999999 999999 999999 999999 0 999999 999999 999999 999999 999999 999999 999999 999999 999999 999999 999999 999999 999999 999999 999999 999999 999999 999999 999999 999999 999999 999999 999999 999999 999999 999999 999999 12473
999999 13184 14505 10964 17441 11626 11852 12050 13393 19930 11556 13505 12531 11892 14343 15084 16505 12956 16092 14630 18390 13496 19997 12520 17106 17256 16058 15036 15724 18675 14179 11277 15584 13586 18131 12214 16466 15733 15626 15588 11161 19576 15848 12422 15209 11767 10513 12409 16588 18891 16315 17905 12073 12624 19559 16252 10661 15177 11918 17598 10894 999999 999999 999999 999999 999999 999999 999999 999999 999999 999999 999999 999999 999999 999999 999999 999999 999999 999999 999999 999999 999999 999999 999999 999999 999999 999999 999999 999999 999999 999999 999999 999999 999999 0 999999 999999 999999 999999 999999 999999 999999 999999 999999 999999 999999 999999 999999 999999 999999 999999 999999 999999 999999 999999 999999 999999 999999 999999 999999 999999 14984
999999 16853 18189 14521 16505 18407 16889 10794 19931 19370 17259 19015 16376 19698 10923 13697 18810 17916 12973 17708 11092 11358 11431 15976 18623 13241 15658 16748 19825 18470 12512 14055 12133 18585 10270 11366 13542 12589 15980 17817 15789 12156 18563 10961 18120 11952 13477 16555 19999 15161 14733 13422 10738 12827 17761 11217 18645 12312 17766 16960 14027 999999 999999 999999 999999 999999 999999 999999 999999 999999 999999 999999 999999 999999 999999 999999 999999 999999 999999 999999 999999 999999 999999 999999 999999 999999 999999 999999 999999 999999 999999 999999 999999 999999 999999 0 999999 999999 999999 999999 999999 999999 999999 999999 999999 999999 999999 999999 999999 999999 999999 999999 999999 999999 999999 999999 999999 999999 999999 999999 999999 5777
999999 15380 10248 19301 14261 15467 12953 18732 11089 11175 10093 10959 14635 16825 19936 17849 19681 11970 18166 12626 16589 18817 11605 14185 13994 17240 18539 15914 16941 17200 17838 17188 14872 16558 15999 15312 14948 17578 10976 18589 19879 16461 12154 17307 13457 17090 14288 15997 12087 13831 16856 19178 11922 12213 18368 10362 17544 17586 19206 17942 13357 999999 999999 999999 999999 999999 999999 999999 999999 999999 999999 999999 999999 999999 999999 999999 999999 999999 999999 999999 999999 999999 999999 999999 999999 999999 999999 999999 999999 999999 999999 999999 999999 999999 999999 999999 0 999999 999999 999999 999999 999999 999999 999999 999999 999999 999999 999999 999999 999999 999999 999999 999999 999999 999999 999999 999999 999999 999999 999999 999999 13483
999999 16190 19449 18451 11330 17728 17816 18155 17060 12835 19169 19866 17581 19292 17741 11127 16438 10659 18589 16758 11341 19085 19455 12267 16054 11999 10529 13134 11833 19822 15545 17881 16319 19469 18191 15607 10801 13673 17962 14811 19975 17715 11115 12137 12742 12540 12982 11977 17574 11543 10261 10478 15164 13210 11122 13935 15742 10033 16294 19502 18864 999999 999999 999999 999999 999999 999999 999999 999999 999999 999999 999999 999999 999999 999999 999999 999999 999999 999999 999999 999999 999999 999999 999999 999999 999999 999999 999999 999999 999999 999999 999999 999999 999999 999999 999999 999999 0 999999 999999 999999 999999 999999 999999 999999 999999 999999 999999 999999 999999 999999 999999 999999 999999 999999 999999 999999 999999 999999 999999 999999 9864
999999 13800 12119 13895 19836 17668 15679 14111 17320 10832 12013 15958 10643 17938 19568 13477 13600 12208 17886 17321 13457 15697 17622 13644 18383 15156 12347 18966 10311 16242 15251 18759 17514 12478 10444 15188 14285 17399 11592 14996 16664 17219 17747 14245 19298 19919 10941 14707 18354 11326 14628 14895 18617 16396 16978 18844 10180 16880 12118 12560 16625 999999 999999 999999 999999 999999 999999 999999 999999 999999 999999 999999 999999 999999 999999 999999 999999 999999 999999 999999 999999 999999 999999 999999 999999 999999 999999 999999 999999 999999 999999 999999 999999 999999 999999 999999 999999 999999 0 999999 999999 999999 999999 999999 999999 999999 999999 999999 999999 999999 999999 999999 999999 999999 999999 999999 999999 999999 999999 999999 999999 5402
999999 19508 19260 17119 18566 18025 15179 16224 17383 12319 11450 18717 15285 19286 17097 18136 16157 14928 13508 17886 14599 10183 16256 11976 18508 12204 17764 10154 14246 12054 19493 13668 16614 12868 15249 16291 18360 14891 13538 10966 15177 14447 16702 14151 19779 10685 16069 17454 15971 10911 11358 11792 13373 19085 17128 12574 14234 10376 10070 11487 17600 999999 999999 999999 999999 999999 999999 999999 999999 999999 999999 999999 999999 999999 999999 999999 999999 999999 999999 999999 999999 999999 999999 999999 999999 999999 999999 999999 999999 999999 999999 999999 999999 999999 999999 999999 999999 999999 999999 0 999999 999999 999999 999999 999999 999999 999999 999999 999999 999999 999999 999999 999999 999999 999999 999999 999999 999999 999999 999999 999999 14881
999999 18800 12196 16608 13281 16904 14426 16549 17971 11192 11668 11106 13255 13720 13608 19078 12376 10061 12765 13019 12424 13513 19805 13596 16368 16859 17055 13304 14226 14545 10124 17155 13804 16149 12397 15502 17604 14653 11545 15402 14103 12794 10859 18037 18776 19972 15095 11915 18691 11815 17196 10759 13007 18608 14902 19122 14760 17006 12335 18131 16545 999999 999999 999999 999999 999999 999999 999999 999999 999999 999999 999999 999999 999999 999999 999999 999999 999999 999999 999999 999999 999999 999999 999999 999999 999999 999999 999999 999999 999999 999999 999999 999999 999999 999999 999999 999999 999999 999999 999999 0 999999 999999 999999 999999 999999 999999 999999 999999 999999 999999 999999 999999 999999 999999 999999 999999 999999 999999 999999 999999 12887
999999 11596 14155 10704 13403 10720 14385 11752 10435 15417 10386 19069 14852 18853 15456 10662 12675 15779 15037 14332 13827 12185 12778 16631 13215 15137 15128 11066 12062 16121 14926 16485 14103 14482 15683 17796 19258 12012 14390 14641 16142 10528 15683 17651 11107 13989 16901 11796 19531 12991 18591 12847 13770 17818 11574 12628 12014 18613 19983 10033 10630 999999 999999 999999 999999 999999 999999 999999 999999 999999 999999 999999 999999 999999 999999 999999 999999 999999 999999 999999 999999 999999 999999 999999 999999 999999 999999 999999 999999 999999 999999 999999 999999 999999 999999 999999 999999 999999 999999 999999 999999 0 999999 999999 999999 999999 999999 999999 999999 999999 999999 999999 999999 999999 999999 999999 999999 999999 999999 999999 999999 5933
999999 11748 17661 15590 14221 10495 13712 13964 14668 17475 19428 10276 11537 18970 16492 14609 18183 17152 11456 15701 15205 19741 14101 11707 18004 17546 12684 13108 16318 11437 10145 13517 11964 19123 18156 18990 16795 17586 17319 14299 16117 11781 19420 13097 18288 14893 16275 12693 14250 19291 15447 15503 19533 13474 12716 11156 14325 17373 13563 11990 19197 999999 999999 999999 999999 999999 999999 999999 999999 999999 999999 999999 999999 999999 999999 999999 999999 999999 999999 999999 999999 999999 999999 999999 999999 999999 999999 999999 999999 999999 999999 999999 999999 999999 999999 999999 999999 999999 999999 999999 999999 999999 0 999999 999999 999999 999999 999999 999999 999999 999999 999999 999999 999999 999999 999999 999999 999999 999999 999999 999999 11685
999999 18922 16550 16986 10444 13688 16987 14844 13765 17376 18233 10227 17582 16513 11750 13492 12676 16804 18828 19404 18813 12538 16126 18554 13997 10289 11066 14622 14112 12801 12057 18613 11954 17551 15247 19261 10527 14382 17209 16812 17067 10493 15735 17530 13046 15169 13696 19354 17921 14158 13449 14571 13844 11321 14639 15258 12318 13636 18044 13040 18696 999999 999999 999999 999999 999999 999999 999999 999999 999999 999999 999999 999999 999999 999999 999999 999999 999999 999999 999999 999999 999999 999999 999999 999999 999999 999999 999999 999999 999999 999999 999999 999999 999999 999999 999999 999999 999999 999999 999999 999999 999999 999999 0 999999 999999 999999 999999 999999 999999 999999 999999 999999 999999 999999 999999 999999 999999 999999 999999 999999 12020
999999 15370 19031 12853 17863 15212 15303 17165 11186 16873 12299 12060 10439 12407 11320 16918 16458 10916 18498 18963 17226 12085 16644 17728 12211 14268 13016 17955 18037 14969 14068 13837 11825 16866 19844 15659 16202 13928 10372 12346 14645 16920 13035 16488 14608 17716 13437 13783 14916 18683 10079 16174 13437 13117 12063 17605 13671 17239 14841 19519 13892 999999 999999 999999 999999 999999 999999 999999 999999 999999 999999 999999 999999 999999 999999 999999 999999 999999 999999 999999 999999 999999 999999 999999 999999 999999 999999 999999 999999 999999 999999 999999 999999 999999 999999 999999 999999 999999 999999 999999 999999 999999 999999 999999 0 999999 999999 999999 999999 999999 999999 999999 999999 999999 999999 999999 999999 999999 999999 999999 999999 5700
999999 14271 15428 11258 11739 17856 19095 16203 19187 13872 11359 17846 16093 18889 12454 11033 15523 12691 11131 14595 16058 14203 12555 10484 10702 19767 12164 14279 19729 16763 17368 10833 15244 11944 19646 14030 15343 18734 11560 19465 17319 12583 15330 19243 19910 17838 19719 10434 13671 10899 11386 17766 17825 11541 10445 15148 10996 12675 18312 16378 17867 999999 999999 999999 999999 999999 999999 999999 999999 999999 999999 999999 999999 999999 999999 999999 999999 999999 999999 999999 999999 999999 999999 999999 999999 999999 999999 999999 999999 999999 999999 999999 999999 999999 999999 999999 999999 999999 999999 999999 999999 999999 999999 999999 999999 0 999999 999999 999999 999999 999999 999999 999999 999999 999999 999999 999999 999999 999999 999999 999999 7956
999999 17885 15684 17572 16990 18667 19649 16170 18444 15252 18887 17800 18501 15007 17241 17043 16592 19037 17099 13130 18701 15289 18089 11339 18877 12786 11354 17881 14604 11336 13009 17551 11537 13055 15945 19796 12078 17679 19305 13762 16994 18854 12900 14035 13302 17422 12361 14202 19126 18028 18957 15271 17547 19738 16012 16569 10171 11302 15267 18050 11347 999999 999999 999999 999999 999999 999999 999999 999999 999999 999999 999999 999999 999999 999999 999999 999999 999999 999999 999999 999999 999999 999999 999999 999999 999999 999999 999999 999999 999999 999999 999999 999999 999999 999999 999999 999999 999999 999999 999999 999999 999999 999999 999999 999999 999999 0 999999 999999 999999 999999 999999 999999 999999 999999 999999 999999 999999 999999 999999 999999 12583
999999 18003 14414 19363 17462 14219 18017 13299 13931 17647 13461 16934 15026 14424 15301 12318 18804 17441 19085 13865 13148 17175 10371 16829 10606 10721 19826 17323 14534 15833 11542 19686 19650 13020 16133 12284 17130 15620 12974 13611 10394 14003 17067 14326 13771 15600 11829 16560 18243 19874 12709 18383 12363 13868 16972 18205 10044 18651 12014 18753 16876 999999 999999 999999 999999 999999 999999 999999 999999 999999 999999 999999 999999 999999 999999 999999 999999 999999 999999 999999 999999 999999 999999 999999 999999 999999 999999 999999 999999 999999 999999 999999 999999 999999 999999 999999 999999 999999 999999 999999 999999 999999 999999 999999 999999 999999 999999 0 999999 999999 999999 999999 999999 999999 999999 999999 999999 999999 999999 999999 999999 13772
999999 14692 16454 15730 10059 14132 18820 10824 19860 10884 17218 17187 14487 13797 10956 11061 15842 14454 11475 14781 11206 16895 18448 18508 16741 15329 12279 17680 11342 11630 16958 17345 14956 13369 10908 18716 13587 19951 12321 14643 19551 15532 17773 10067 17958 13329 18549 11164 15148 12889 13512 12802 15059 17543 12438 18876 16004 19300 12039 13700 10455 999999 999999 999999 999999 999999 999999 999999 999999 999999 999999 999999 999999 999999 999999 999999 999999 999999 999999 999999 999999 999999 999999 999999 999999 999999 999999 999999 999999 999999 999999 999999 999999 999999 999999 999999 999999 999999 999999 999999 999999 999999 999999 999999 999999 999999 999999 999999 0 999999 999999 999999 999999 999999 999999 999999 999999 999999 999999 999999 999999 6709
999999 14829 10007 11025 16444 18671 14998 19776 19560 13529 11483 15544 18877 10207 13722 16761 18319 11153 15957 18523 13846 10849 13069 10041 16946 10437 12520 19317 19182 15067 19303 18704 15215 17130 19444 12527 17985 19097 13859 19607 14561 16553 12154 17695 16344 11760 12985 13084 10937 15034 18622 16914 11631 14184 16382 17887 10077 14473 12933 18675 16531 999999 999999 999999 999999 999999 999999 999999 999999 999999 999999 999999 999999 999999 999999 999999 999999 999999 999999 999999 999999 999999 999999 999999 999999 999999 999999 999999 999999 999999 999999 999999 999999 999999 999999 999999 999999 999999 999999 999999 999999 999999 999999 999999 999999 999999 999999 999999 999999 0 999999 999999 999999 999999 999999 999999 999999 999999 999999 999999 999999 5382
999999 18358 17115 13931 11199 19143 16331 10014 13610 15344 13921 13156 18743 14991 15000 11163 10621 15216 18129 15562 16939 17363 13840 18379 11223 18918 16612 19924 11179 11534 16540 13365 11837 10473 12686 17740 14961 13009 17190 17759 18530 10403 19844 16227 11921 19075 12052 10451 15502 17100 12942 17280 11538 12595 14523 18497 13370 18455 10282 14192 17512 999999 999999 999999 999999 999999 999999 999999 999999 999999 999999 999999 999999 999999 999999 999999 999999 999999 999999 999999 999999 999999 999999 999999 999999 999999 999999 999999 999999 999999 999999 999999 999999 999999 999999 999999 999999 999999 999999 999999 999999 999999 999999 999999 999999 999999 999999 999999 999999 999999 0 999999 999999 999999 999999 999999 999999 999999 999999 999999 999999 10600
999999 15154 18771 18133 14403 15073 16867 18636 10809 15779 11779 10256 16057 13961 16460 18093 19151 11256 12702 10926 10976 15173 16247 15181 10983 19193 11939 16738 16442 19383 19095 11833 14268 19657 14299 19467 13843 16578 13024 18803 19740 19633 16427 18526 12024 13576 18127 15310 10938 15884 19087 17576 14848 19426 15977 12315 17447 13617 13012 11185 11737 999999 999999 999999 999999 999999 999999 999999 999999 999999 999999 999999 999999 999999 999999 999999 999999 999999 999999 999999 999999 999999 999999 999999 999999 999999 999999 999999 999999 999999 999999 999999 999999 999999 999999 999999 999999 999999 999999 999999 999999 999999 999999 999999 999999 999999 999999 999999 999999 999999 999999 0 999999 999999 999999 999999 999999 999999 999999 999999 999999 6154
999999 17791 13435 17040 10425 17985 11405 16003 19569 13289 16548 14435 10862 19194 15420 18038 18601 14381 19762 16080 16734 17746 11035 17107 10578 15027 11535 18269 10467 19569 16448 18854 11808 16959 14259 19391 19479 12317 14981 12385 15557 15020 11025 13887 10314 13557 11533 13980 12594 14231 18976 18259 19030 15567 19723 19826 10376 10587 14276 13327 13796 999999 999999 999999 999999 999999 999999 999999 999999 999999 999999 999999 999999 999999 999999 999999 999999 999999 999999 999999 999999 999999 999999 999999 999999 999999 999999 999999 999999 999999 999999 999999 999999 999999 999999 999999 999999 999999 999999 999999 999999 999999 999999 999999 999999 999999 999999 999999 999999 999999 999999 999999 0 999999 999999 999999 999999 999999 999999 999999 999999 12251
999999 18454 16342 16873 11176 13348 11259 13735 11422 16006 16468 10135 14213 15149 13641 13129 12977 13697 18700 12654 17763 19482 19456 18764 16041 12790 12020 14288 11307 12678 17709 18628 19123 14226 19180 10474 13949 18377 17925 15647 18390 18710 11063 18580 19059 12410 16085 18375 18430 15299 14224 13660 12620 17145 11169 17040 17562 14891 12881 15709 16288 999999 999999 999999 999999 999999 999999 999999 999999 999999 999999 999999 999999 999999 999999 999999 999999 999999 999999 999999 999999 999999 999999 999999 999999 999999 999999 999999 999999 999999 999999 999999 999999 999999 999999 999999 999999 999999 999999 999999 999999 999999 999999 999999 999999 999999 999999 999999 999999 999999 999999 999999 999999 0 999999 999999 999999 999999 999999 999999 999999 6517
999999 12862 16408 17679 19483 15404 12758 10568 12191 11729 16774 10001 10694 11913 14253 11189 10928 14594 12986 19509 18371 18301 17804 11134 13474 13966 11537 14119 12942 17919 11542 13288 11171 16982 14708 13028 11959 19081 13905 11509 11706 13284 10781 19686 13466 19148 18017 13052 18958 14369 19193 13145 17357 11038 18573 15114 11236 17963 15756 18010 19317 999999 999999 999999 999999 999999 999999 999999 999999 999999 999999 999999 999999 999999 999999 999999 999999 999999 999999 999999 999999 999999 999999 999999 999999 999999 999999 999999 999999 999999 999999 999999 999999 999999 999999 999999 999999 999999 999999 999999 999999 999999 999999 999999 999999 999999 999999 999999 999999 999999 999999 999999 999999 999999 0 999999 999999 999999 999999 999999 999999 10091
999999 15024 12340 16622 15252 19341 19974 17032 12672 15126 14793 18787 19622 12049 18692 14617 14751 12595 19841 18991 13508 11877 13525 12461 17155 16905 17967 16557 15531 16997 14586 10129 12763 17621 12101 18311 11760 18800 16320 12521 13088 13342 11424 14269 15259 17413 14441 11208 13248 19531 13028 14182 18409 18016 15861 15346 10488 15240 15766 13855 16807 999999 999999 999999 999999 999999 999999 999999 999999 999999 999999 999999 999999 999999 999999 999999 999999 999999 999999 999999 999999 999999 999999 999999 999999 999999 999999 999999 999999 999999 999999 999999 999999 999999 999999 999999 999999 999999 999999 999999 999999 999999 999999 999999 999999 999999 999999 999999 999999 999999 999999 999999 999999 999999 999999 0 999999 999999 999999 999999 999999 6544
999999 10830 17684 10661 11918 15208 16994 12605 16669 14010 15995 14622 17874 18890 18222 17086 13037 10470 13985 13003 13006 14061 11420 19666 16539 13434 12967 11875 15550 18906 13203 15865 11017 19631 10096 19263 19000 12797 16201 15517 14450 19612 18017 16307 14409 12228 18158 13170 12027 19711 10530 19626 14899 17788 12627 12207 14771 17737 19417 13472 10764 999999 999999 999999 999999 999999 999999 999999 999999 999999 999999 999999 999999 999999 999999 999999 999999 999999 999999 999999 999999 999999 999999 999999 999999 999999 999999 999999 999999 999999 999999 999999 999999 999999 999999 999999 999999 999999 999999 999999 999999 999999 999999 999999 999999 999999 999999 999999 999999 999999 999999 999999 999999 999999 999999 999999 0 999999 999999 999999 999999 10345
999999 16385 11947 12577 12664 16243 16129 16429 17181 12396 18829 13634 19920 17685 10932 18449 18303 18598 16017 15039 14229 10402 12368 19816 19557 10956 15712 18172 15322 11037 19785 13069 14403 17587 14351 10488 10617 13955 15312 14020 15294 15421 19475 18121 17879 12272 19624 16771 15680 13304 17539 15286 12521 13262 12704 10000 16504 18370 18412 15873 13751 999999 999999 999999 999999 999999 999999 999999 999999 999999 999999 999999 999999 999999 999999 999999 999999 999999 999999 999999 999999 999999 999999 999999 999999 999999 999999 999999 999999 999999 999999 999999 999999 999999 999999 999999 999999 999999 999999 999999 999999 999999 999999 999999 999999 999999 999999 999999 999999 999999 999999 999999 999999 999999 999999 999999 999999 0 999999 999999 999999 10376
999999 16984 10661 16692 14904 10098 13595 12077 18626 10016 16859 15958 14683 18701 16441 18890 15344 12185 18241 15674 13074 12968 12651 15665 10491 17342 19854 12974 15535 13429 18439 19045 19807 12601 17017 11055 16026 18637 12194 11246 16628 13102 17911 14681 19057 17169 11935 11044 18566 19277 10698 16620 14569 12756 14395 10975 14015 10097 10071 15353 12905 999999 999999 999999 999999 999999 999999 999999 999999 999999 999999 999999 999999 999999 999999 999999 999999 999999 999999 999999 999999 999999 999999 999999 999999 999999 999999 999999 999999 999999 999999 999999 999999 999999 999999 999999 999999 999999 999999 999999 999999 999999 999999 999999 999999 999999 999999 999999 999999 999999 999999 999999 999999 999999 999999 999999 999999 999999 0 999999 999999 5055
999999 16186 17045 15739 13252 16703 10411 12103 10847 11634 16862 18791 12192 15169 17564 11845 15046 11220 16691 10001 18294 12820 11966 16359 15409 17678 16297 11310 10230 11008 14412 11372 15018 18875 17270 18560 12966 18881 18626 18676 19659 10339 10921 12358 10400 10824 17517 13858 18102 10594 16859 16504 15747 12557 18942 19362 11962 10944 13089 18695 15969 999999 999999 999999 999999 999999 999999 999999 999999 999999 999999 999999 999999 999999 999999 999999 999999 999999 999999 999999 999999 999999 999999 999999 999999 999999 999999 999999 999999 999999 999999 999999 999999 999999 999999 999999 999999 999999 999999 999999 999999 999999 999999 999999 999999 999999 999999 999999 999999 999999 999999 999999 999999 999999 999999 999999 999999 999999 999999 0 999999 10828
999999 12235 10379 13031 10050 13028 18658 16683 10545 15866 14280 11547 16295 17473 12308 16802 12450 11608 19486 19710 15801 11259 16595 14300 10084 17437 19862 15485 12873 15814 10551 13840 13162 12767 13744 14227 16916 14058 16831 15990 11814 15873 13982 18232 14668 18564 19519 10302 19523 16298 18249 11418 16497 12968 18568 11000 14204 17925 10820 13758 10379 999999 999999 999999 999999 999999 999999 999999 999999 999999 999999 999999 999999 999999 999999 999999 999999 999999 999999 999999 999999 999999 999999 999999 999999 999999 999999 999999 999999 999999 999999 999999 999999 999999 999999 999999 999999 999999 999999 999999 999999 999999 999999 999999 999999 999999 999999 999999 999999 999999 999999 999999 999999 999999 999999 999999 999999 999999 999999 999999 0 8391
1 999999 999999 999999 999999 999999 999999 999999 999999 999999 999999 999999 999999 999999 999999 999999 999999 999999 999999 999999 999999 999999 999999 999999 999999 999999 999999 999999 999999 999999 999999 999999 999999 999999 999999 999999 999999 999999 999999 999999 999999 999999 999999 999999 999999 999999 999999 999999 999999 999999 999999 999999 999999 999999 999999 999999 999999 999999 999999 999999 999999 999999 999999 999999 999999 999999 999999 999999 999999 999999 999999 999999 999999 999999 999999 999999 999999 999999 999999 999999 999999 999999 999999 999999 999999 999999 999999 999999 999999 999999 999999 999999 999999 999999 999999 999999 999999 999999 999999 999999 999999 999999 999999 999999 999999 999999 999999 999999 999999 999999 999999 999999 999999 999999 999999 999999 999999 999999 999999 999999 999999 0
EOF