NAME: GR_1x2x30_KH_5x10_Run_6
TYPE: TSP
COMMENT: BTSP instance |A|=60 GR nodes |B|=50 KH nodes depot=0.0 end=0.0.0
DIMENSION: 112
EDGE_WEIGHT_TYPE: EXPLICIT
EDGE_WEIGHT_FORMAT: FULL_MATRIX
NODE_COORD_TYPE: NO_COORDS
EDGE_WEIGHT_SECTION
0 9773 8124 9824 6353 8052 9378 11236 13240 5463 9316 12807 12279 11101 10030 11213 7318 10673 8697 11483 12588 14760 8929 13062 13437 10838 13960 7628 14922 6970 13753 11464 11195 14745 9315 14056 11420 8539 12568 7153 8608 8545 6630 8122 6453 8623 11431 8731 8829 6359 7129 14595 11745 11066 7836 14083 11341 13596 12062 13739 14490 999999 999999 999999 999999 999999 999999 999999 999999 999999 999999 999999 999999 999999 999999 999999 999999 999999 999999 999999 999999 999999 999999 999999 999999 999999 999999 999999 999999 999999 999999 999999 999999 999999 999999 999999 999999 999999 999999 999999 999999 999999 999999 999999 999999 999999 999999 999999 999999 999999 999999 999999
999999 0 999999 999999 999999 999999 999999 999999 999999 999999 999999 999999 999999 999999 999999 999999 999999 999999 999999 999999 999999 999999 999999 999999 999999 999999 999999 999999 999999 999999 999999 999999 999999 999999 999999 999999 999999 999999 999999 999999 999999 999999 999999 999999 999999 999999 999999 999999 999999 999999 999999 999999 999999 999999 999999 999999 999999 999999 999999 999999 999999 15252 15256 18185 18009 13303 18059 16326 15808 14622 11042 17852 12638 11433 17783 16877 19144 11926 18796 12156 17678 15690 16563 14111 13090 19918 17637 13559 17459 19158 12790 13350 13814 10798 11024 11913 10411 16205 12933 14248 18884 15435 10202 13759 12114 11515 10630 16534 19603 12255 11397 999999
999999 999999 0 999999 999999 999999 999999 999999 999999 999999 999999 999999 999999 999999 999999 999999 999999 999999 999999 999999 999999 999999 999999 999999 999999 999999 999999 999999 999999 999999 999999 999999 999999 999999 999999 999999 999999 999999 999999 999999 999999 999999 999999 999999 999999 999999 999999 999999 999999 999999 999999 999999 999999 999999 999999 999999 999999 999999 999999 999999 999999 10406 13663 13221 18327 15123 18839 17062 13697 13451 18872 13792 17220 17516 16343 14495 16656 16480 10156 19495 18242 15185 11887 14537 15145 16573 17496 19958 17440 12065 10779 14633 18803 15860 14426 12162 19167 13404 11540 12029 12091 11310 19530 19114 10855 10480 16976 11517 19914 15883 17020 999999
999999 999999 999999 0 999999 999999 999999 999999 999999 999999 999999 999999 999999 999999 999999 999999 999999 999999 999999 999999 999999 999999 999999 999999 999999 999999 999999 999999 999999 999999 999999 999999 999999 999999 999999 999999 999999 999999 999999 999999 999999 999999 999999 999999 999999 999999 999999 999999 999999 999999 999999 999999 999999 999999 999999 999999 999999 999999 999999 999999 999999 15073 13367 12786 11024 15479 12331 19707 18418 16600 13992 15644 18619 15350 19303 16930 11579 13120 17164 13161 14102 12217 10442 10156 14626 19262 15972 16190 11882 12669 12846 15715 13295 16867 19922 10438 16093 18923 13199 13643 10061 16367 11852 14361 15676 18499 16477 15612 10540 10801 18201 999999
999999 999999 999999 999999 0 999999 999999 999999 999999 999999 999999 999999 999999 999999 999999 999999 999999 999999 999999 999999 999999 999999 999999 999999 999999 999999 999999 999999 999999 999999 999999 999999 999999 999999 999999 999999 999999 999999 999999 999999 999999 999999 999999 999999 999999 999999 999999 999999 999999 999999 999999 999999 999999 999999 999999 999999 999999 999999 999999 999999 999999 14565 17988 18877 15589 10570 10458 15718 15202 19613 19058 15332 12169 15597 12336 15758 14857 12113 15788 17379 12989 14842 15536 12494 10592 17131 14148 11626 11191 14714 18432 15613 12637 11093 10032 12957 18123 15988 16565 15339 10714 10049 16699 17710 10036 17721 10807 16124 15431 10422 11789 999999
999999 999999 999999 999999 999999 0 999999 999999 999999 999999 999999 999999 999999 999999 999999 999999 999999 999999 999999 999999 999999 999999 999999 999999 999999 999999 999999 999999 999999 999999 999999 999999 999999 999999 999999 999999 999999 999999 999999 999999 999999 999999 999999 999999 999999 999999 999999 999999 999999 999999 999999 999999 999999 999999 999999 999999 999999 999999 999999 999999 999999 12220 12525 14999 15553 10300 10007 13658 15315 18020 19215 14886 17498 16314 15684 19233 15151 13421 12354 14338 14262 16585 18294 10904 11803 12275 17589 19779 15180 19387 12310 10716 15705 17149 11226 11008 12860 16415 18073 17684 16667 15855 15680 12442 18155 17129 10439 12996 15228 13380 17017 999999
999999 999999 999999 999999 999999 999999 0 999999 999999 999999 999999 999999 999999 999999 999999 999999 999999 999999 999999 999999 999999 999999 999999 999999 999999 999999 999999 999999 999999 999999 999999 999999 999999 999999 999999 999999 999999 999999 999999 999999 999999 999999 999999 999999 999999 999999 999999 999999 999999 999999 999999 999999 999999 999999 999999 999999 999999 999999 999999 999999 999999 10292 18413 12592 16077 14934 13848 13360 16874 13859 18364 16690 13420 17024 19538 16587 13603 14377 10694 11413 19643 18914 17034 15650 13744 19376 13110 14045 13429 19284 19593 14083 10322 15352 16148 15539 19064 16129 10996 18387 16950 13305 18643 15505 10803 16364 11206 14668 11785 19424 15476 999999
999999 999999 999999 999999 999999 999999 999999 0 999999 999999 999999 999999 999999 999999 999999 999999 999999 999999 999999 999999 999999 999999 999999 999999 999999 999999 999999 999999 999999 999999 999999 999999 999999 999999 999999 999999 999999 999999 999999 999999 999999 999999 999999 999999 999999 999999 999999 999999 999999 999999 999999 999999 999999 999999 999999 999999 999999 999999 999999 999999 999999 16410 15252 10905 14181 11988 19610 18155 15581 13961 16442 18432 18946 16510 10158 17377 13666 15178 14225 10697 19693 11472 16541 14020 17116 19094 19007 17288 16021 15833 19295 19953 14247 16111 19694 10703 17306 11378 17029 15342 17445 12011 10697 11176 15395 18923 18326 17692 13119 18102 19647 999999
999999 999999 999999 999999 999999 999999 999999 999999 0 999999 999999 999999 999999 999999 999999 999999 999999 999999 999999 999999 999999 999999 999999 999999 999999 999999 999999 999999 999999 999999 999999 999999 999999 999999 999999 999999 999999 999999 999999 999999 999999 999999 999999 999999 999999 999999 999999 999999 999999 999999 999999 999999 999999 999999 999999 999999 999999 999999 999999 999999 999999 19655 10617 19115 14776 17423 19184 12808 16427 15850 17121 18690 16400 10367 12083 11758 13742 12836 15208 17171 19979 13857 14489 13286 15921 13860 13612 13076 14521 11260 11352 10545 19242 19624 11290 16023 18226 12624 14922 17339 10440 11786 17029 14739 17594 14839 18465 17467 11564 13348 13208 999999
999999 999999 999999 999999 999999 999999 999999 999999 999999 0 999999 999999 999999 999999 999999 999999 999999 999999 999999 999999 999999 999999 999999 999999 999999 999999 999999 999999 999999 999999 999999 999999 999999 999999 999999 999999 999999 999999 999999 999999 999999 999999 999999 999999 999999 999999 999999 999999 999999 999999 999999 999999 999999 999999 999999 999999 999999 999999 999999 999999 999999 16226 11306 14520 17766 12762 11683 13349 16214 15094 18161 10606 14000 12170 10514 10803 10360 12983 17082 10538 19346 13404 18464 16054 14647 13146 18021 19022 17056 19717 19562 12853 10029 12871 12547 15382 16920 16249 17060 17314 12282 18389 14609 19685 10890 12060 16920 17672 16727 12650 17178 999999
999999 999999 999999 999999 999999 999999 999999 999999 999999 999999 0 999999 999999 999999 999999 999999 999999 999999 999999 999999 999999 999999 999999 999999 999999 999999 999999 999999 999999 999999 999999 999999 999999 999999 999999 999999 999999 999999 999999 999999 999999 999999 999999 999999 999999 999999 999999 999999 999999 999999 999999 999999 999999 999999 999999 999999 999999 999999 999999 999999 999999 10616 11120 16432 17712 15951 14987 17406 12267 13246 10977 16204 15123 15953 19670 14459 10490 12223 13007 15204 13454 10968 12599 14768 14932 12197 13253 19121 18827 14086 17884 12416 15473 11881 13094 12898 10939 12793 12438 19212 13891 12914 16131 12456 17547 18575 16195 14412 15815 18200 15675 999999
999999 999999 999999 999999 999999 999999 999999 999999 999999 999999 999999 0 999999 999999 999999 999999 999999 999999 999999 999999 999999 999999 999999 999999 999999 999999 999999 999999 999999 999999 999999 999999 999999 999999 999999 999999 999999 999999 999999 999999 999999 999999 999999 999999 999999 999999 999999 999999 999999 999999 999999 999999 999999 999999 999999 999999 999999 999999 999999 999999 999999 13293 16327 11860 12567 18256 11401 15363 15584 19082 15252 10685 17791 11158 12952 16580 17999 19909 13131 12462 18890 15619 15045 17940 18956 12634 13080 11000 17264 12324 15891 14266 12131 11500 13231 19185 12180 12434 19131 19108 11320 17234 15619 15562 18680 13333 13442 11851 13181 15529 16767 999999
999999 999999 999999 999999 999999 999999 999999 999999 999999 999999 999999 999999 0 999999 999999 999999 999999 999999 999999 999999 999999 999999 999999 999999 999999 999999 999999 999999 999999 999999 999999 999999 999999 999999 999999 999999 999999 999999 999999 999999 999999 999999 999999 999999 999999 999999 999999 999999 999999 999999 999999 999999 999999 999999 999999 999999 999999 999999 999999 999999 999999 16303 14011 10548 15275 11064 12889 11449 10536 11805 11796 17054 16633 15349 17556 17597 11129 15145 14200 14709 13203 15948 12456 19820 16990 12696 12538 17561 11101 12851 10139 17102 19291 12371 10034 12448 15763 12545 10208 11167 11855 10957 12236 16462 13115 19798 10943 10794 19908 17012 19514 999999
999999 999999 999999 999999 999999 999999 999999 999999 999999 999999 999999 999999 999999 0 999999 999999 999999 999999 999999 999999 999999 999999 999999 999999 999999 999999 999999 999999 999999 999999 999999 999999 999999 999999 999999 999999 999999 999999 999999 999999 999999 999999 999999 999999 999999 999999 999999 999999 999999 999999 999999 999999 999999 999999 999999 999999 999999 999999 999999 999999 999999 14210 14688 18069 19307 13941 10945 15911 17071 15467 19666 18742 14019 19021 17030 14002 11574 10962 14351 19634 14604 14746 16503 13889 10483 13012 18436 17515 14314 17414 10067 17735 11522 15915 19220 12355 19307 17097 17510 17658 10656 18092 19875 17409 16890 12203 11701 18881 19804 17793 10792 999999
999999 999999 999999 999999 999999 999999 999999 999999 999999 999999 999999 999999 999999 999999 0 999999 999999 999999 999999 999999 999999 999999 999999 999999 999999 999999 999999 999999 999999 999999 999999 999999 999999 999999 999999 999999 999999 999999 999999 999999 999999 999999 999999 999999 999999 999999 999999 999999 999999 999999 999999 999999 999999 999999 999999 999999 999999 999999 999999 999999 999999 14442 15137 14409 14252 13730 15094 19372 17056 10944 15876 19450 14427 14569 13620 11135 16716 14749 15530 14867 10146 18120 17424 11166 15868 13982 13695 12850 10197 11443 13770 11998 13576 13010 19733 13862 16095 18710 13455 15112 17543 18071 12045 13586 10072 14484 14629 13224 15253 12025 12420 999999
999999 999999 999999 999999 999999 999999 999999 999999 999999 999999 999999 999999 999999 999999 999999 0 999999 999999 999999 999999 999999 999999 999999 999999 999999 999999 999999 999999 999999 999999 999999 999999 999999 999999 999999 999999 999999 999999 999999 999999 999999 999999 999999 999999 999999 999999 999999 999999 999999 999999 999999 999999 999999 999999 999999 999999 999999 999999 999999 999999 999999 16136 15756 18618 11940 12268 17854 13827 18779 15557 10442 17656 14292 14516 18357 10391 11415 14968 12396 16169 13415 10313 11997 11690 10948 18549 14516 15820 13239 14105 13083 14001 19957 12120 15837 18170 13162 11038 15482 10871 16628 19693 12812 14073 16922 18083 19854 16635 14225 16011 17905 999999
999999 999999 999999 999999 999999 999999 999999 999999 999999 999999 999999 999999 999999 999999 999999 999999 0 999999 999999 999999 999999 999999 999999 999999 999999 999999 999999 999999 999999 999999 999999 999999 999999 999999 999999 999999 999999 999999 999999 999999 999999 999999 999999 999999 999999 999999 999999 999999 999999 999999 999999 999999 999999 999999 999999 999999 999999 999999 999999 999999 999999 10475 18113 16470 14941 17871 17814 10231 17565 17530 19551 14430 10999 15742 17144 15393 11345 19499 18157 10140 16562 17731 10687 14378 10275 13588 10184 16589 13538 11896 13725 13149 19322 15972 18200 13454 17811 14704 14082 10242 19485 14851 11555 14681 10162 11544 12017 17244 15722 15986 17183 999999
999999 999999 999999 999999 999999 999999 999999 999999 999999 999999 999999 999999 999999 999999 999999 999999 999999 0 999999 999999 999999 999999 999999 999999 999999 999999 999999 999999 999999 999999 999999 999999 999999 999999 999999 999999 999999 999999 999999 999999 999999 999999 999999 999999 999999 999999 999999 999999 999999 999999 999999 999999 999999 999999 999999 999999 999999 999999 999999 999999 999999 13902 17059 16141 18173 16308 10216 10732 11253 17005 12110 19840 17643 15014 12771 19790 16942 10189 18816 11357 15492 13120 19872 17105 10976 15353 16199 19948 14483 17420 15509 15429 17641 15385 14342 11559 11287 10002 19452 15829 16564 13945 15476 19274 11841 13552 14191 11452 13452 16136 14470 999999
999999 999999 999999 999999 999999 999999 999999 999999 999999 999999 999999 999999 999999 999999 999999 999999 999999 999999 0 999999 999999 999999 999999 999999 999999 999999 999999 999999 999999 999999 999999 999999 999999 999999 999999 999999 999999 999999 999999 999999 999999 999999 999999 999999 999999 999999 999999 999999 999999 999999 999999 999999 999999 999999 999999 999999 999999 999999 999999 999999 999999 12989 11598 19461 19817 17760 11966 12343 15483 13222 19241 17642 17884 17286 13826 17639 10453 19443 19152 18176 18522 16706 16961 18454 15488 17445 17472 11894 14958 12958 17845 14762 13181 10376 17254 17229 12128 19025 19022 14457 13696 13902 11169 18357 16466 17073 18078 12842 14176 13686 19055 999999
999999 999999 999999 999999 999999 999999 999999 999999 999999 999999 999999 999999 999999 999999 999999 999999 999999 999999 999999 0 999999 999999 999999 999999 999999 999999 999999 999999 999999 999999 999999 999999 999999 999999 999999 999999 999999 999999 999999 999999 999999 999999 999999 999999 999999 999999 999999 999999 999999 999999 999999 999999 999999 999999 999999 999999 999999 999999 999999 999999 999999 13640 11474 18976 16206 17372 11970 14234 16850 16967 13559 18358 16527 18483 13218 15414 11862 15880 16258 15663 18106 10769 13429 16765 18462 15816 19747 11907 19457 14691 12249 17788 11690 11431 19968 12652 15097 18398 11778 14341 12798 14094 18241 19317 10296 14427 15048 15270 17059 19227 10292 999999
999999 999999 999999 999999 999999 999999 999999 999999 999999 999999 999999 999999 999999 999999 999999 999999 999999 999999 999999 999999 0 999999 999999 999999 999999 999999 999999 999999 999999 999999 999999 999999 999999 999999 999999 999999 999999 999999 999999 999999 999999 999999 999999 999999 999999 999999 999999 999999 999999 999999 999999 999999 999999 999999 999999 999999 999999 999999 999999 999999 999999 19205 16430 18858 18167 17618 19628 17537 17025 18115 17704 10976 16089 13460 17276 19509 19270 19330 11554 10300 15079 15838 19022 10983 17357 13473 18438 10116 19156 16162 16543 12013 14739 14389 14184 13034 15208 10797 16922 16094 12276 13816 10320 16512 16509 17322 15236 16352 12409 19903 16052 999999
999999 999999 999999 999999 999999 999999 999999 999999 999999 999999 999999 999999 999999 999999 999999 999999 999999 999999 999999 999999 999999 0 999999 999999 999999 999999 999999 999999 999999 999999 999999 999999 999999 999999 999999 999999 999999 999999 999999 999999 999999 999999 999999 999999 999999 999999 999999 999999 999999 999999 999999 999999 999999 999999 999999 999999 999999 999999 999999 999999 999999 19705 16773 19176 10820 17420 15491 18027 18866 16133 13571 17707 15272 19280 10806 12523 12577 17820 15573 13481 11509 10848 14966 13242 12558 19867 17198 10748 13330 17922 16099 16722 19871 15819 15431 14416 16293 19142 11717 16054 10844 19100 11973 13779 17263 12193 13601 19325 18939 19014 15286 999999
999999 999999 999999 999999 999999 999999 999999 999999 999999 999999 999999 999999 999999 999999 999999 999999 999999 999999 999999 999999 999999 999999 0 999999 999999 999999 999999 999999 999999 999999 999999 999999 999999 999999 999999 999999 999999 999999 999999 999999 999999 999999 999999 999999 999999 999999 999999 999999 999999 999999 999999 999999 999999 999999 999999 999999 999999 999999 999999 999999 999999 11780 12646 18587 17932 19638 17281 16605 14195 15863 17694 19682 19491 14274 18817 19185 18867 17752 14620 17705 16082 17406 19249 13254 13678 19120 14548 12200 10576 16027 13511 14582 19088 16234 18864 17102 17918 14969 11798 15169 17954 14942 15195 15457 13393 15216 12868 19130 10383 10080 12056 999999
999999 999999 999999 999999 999999 999999 999999 999999 999999 999999 999999 999999 999999 999999 999999 999999 999999 999999 999999 999999 999999 999999 999999 0 999999 999999 999999 999999 999999 999999 999999 999999 999999 999999 999999 999999 999999 999999 999999 999999 999999 999999 999999 999999 999999 999999 999999 999999 999999 999999 999999 999999 999999 999999 999999 999999 999999 999999 999999 999999 999999 10842 19715 16471 15564 17316 12428 15940 16279 14115 12070 18179 16667 18224 14843 16022 13627 13927 18858 18269 13364 13533 10169 14192 13308 12095 18909 14708 19531 10032 19537 10806 16318 19291 17034 15149 11136 18420 13073 16069 14039 15830 16078 18488 11011 17945 15372 13147 17323 12563 12672 999999
999999 999999 999999 999999 999999 999999 999999 999999 999999 999999 999999 999999 999999 999999 999999 999999 999999 999999 999999 999999 999999 999999 999999 999999 0 999999 999999 999999 999999 999999 999999 999999 999999 999999 999999 999999 999999 999999 999999 999999 999999 999999 999999 999999 999999 999999 999999 999999 999999 999999 999999 999999 999999 999999 999999 999999 999999 999999 999999 999999 999999 14366 17883 18831 16588 16893 15324 16108 18165 12092 18891 18323 17106 18404 18867 18271 19820 12211 19530 10495 17747 15362 13247 16689 17853 10627 17549 14683 18899 19296 17087 15472 10303 14520 13841 19748 15110 12437 14947 11660 16375 18004 14327 18747 11010 16111 19900 10381 16883 14121 11863 999999
999999 999999 999999 999999 999999 999999 999999 999999 999999 999999 999999 999999 999999 999999 999999 999999 999999 999999 999999 999999 999999 999999 999999 999999 999999 0 999999 999999 999999 999999 999999 999999 999999 999999 999999 999999 999999 999999 999999 999999 999999 999999 999999 999999 999999 999999 999999 999999 999999 999999 999999 999999 999999 999999 999999 999999 999999 999999 999999 999999 999999 17121 18470 11295 15784 19958 16042 16860 14349 17957 10971 15396 10741 10718 16528 19575 18035 11322 14177 19346 14333 17047 15162 17452 10541 15821 10248 13256 12538 19900 19569 15391 16031 11710 19933 19397 13343 15103 18051 15657 19010 12256 15143 16489 18246 10857 15538 16423 16443 13422 17966 999999
999999 999999 999999 999999 999999 999999 999999 999999 999999 999999 999999 999999 999999 999999 999999 999999 999999 999999 999999 999999 999999 999999 999999 999999 999999 999999 0 999999 999999 999999 999999 999999 999999 999999 999999 999999 999999 999999 999999 999999 999999 999999 999999 999999 999999 999999 999999 999999 999999 999999 999999 999999 999999 999999 999999 999999 999999 999999 999999 999999 999999 19787 12370 16323 19909 10409 18288 14685 17819 14154 17444 19817 15931 11962 11630 10969 13063 18966 19694 12156 12966 13195 12723 18444 14372 10202 18940 13781 16759 14846 10148 16409 11028 17262 11489 17806 19515 13715 16710 18888 17605 18099 11584 19497 10935 11473 13345 11550 14209 11723 12695 999999
999999 999999 999999 999999 999999 999999 999999 999999 999999 999999 999999 999999 999999 999999 999999 999999 999999 999999 999999 999999 999999 999999 999999 999999 999999 999999 999999 0 999999 999999 999999 999999 999999 999999 999999 999999 999999 999999 999999 999999 999999 999999 999999 999999 999999 999999 999999 999999 999999 999999 999999 999999 999999 999999 999999 999999 999999 999999 999999 999999 999999 19491 18163 19650 18917 15931 16397 15850 14473 16540 14603 16337 11100 17739 15015 15016 13655 15417 19126 17910 18770 15027 18463 13134 13929 15983 11046 16068 15499 15171 12300 15388 17603 17589 15143 11144 10403 12335 17981 11821 11801 13266 16558 12894 10173 18297 16885 17028 15524 13354 10373 999999
999999 999999 999999 999999 999999 999999 999999 999999 999999 999999 999999 999999 999999 999999 999999 999999 999999 999999 999999 999999 999999 999999 999999 999999 999999 999999 999999 999999 0 999999 999999 999999 999999 999999 999999 999999 999999 999999 999999 999999 999999 999999 999999 999999 999999 999999 999999 999999 999999 999999 999999 999999 999999 999999 999999 999999 999999 999999 999999 999999 999999 13139 13921 16395 11020 12118 15140 18057 12748 16012 13800 13161 10428 13555 18962 10173 16854 16893 11946 11348 14368 16951 17307 10817 11783 13219 15060 10670 14364 13678 13420 14552 19905 14431 14530 18284 10149 19339 14429 18298 11166 12380 17424 13189 13403 11888 12115 11632 17501 15628 10926 999999
999999 999999 999999 999999 999999 999999 999999 999999 999999 999999 999999 999999 999999 999999 999999 999999 999999 999999 999999 999999 999999 999999 999999 999999 999999 999999 999999 999999 999999 0 999999 999999 999999 999999 999999 999999 999999 999999 999999 999999 999999 999999 999999 999999 999999 999999 999999 999999 999999 999999 999999 999999 999999 999999 999999 999999 999999 999999 999999 999999 999999 10467 17919 13420 13240 14074 19089 19185 14034 19217 19194 16452 14783 15754 17682 19799 14816 16595 18370 19303 10484 14135 17738 14424 15559 19929 13416 11193 12418 13981 12258 17297 15674 12042 12620 17023 15751 11895 18264 15186 15470 13117 11919 12991 14840 10629 13836 11919 15955 17589 17656 999999
999999 999999 999999 999999 999999 999999 999999 999999 999999 999999 999999 999999 999999 999999 999999 999999 999999 999999 999999 999999 999999 999999 999999 999999 999999 999999 999999 999999 999999 999999 0 999999 999999 999999 999999 999999 999999 999999 999999 999999 999999 999999 999999 999999 999999 999999 999999 999999 999999 999999 999999 999999 999999 999999 999999 999999 999999 999999 999999 999999 999999 19975 17610 18407 12260 19128 13756 18024 11572 18866 10476 16687 16612 17339 17805 14327 15618 18313 16830 12999 13710 11268 10168 15239 13933 18175 12073 16938 12449 13019 12299 12330 16532 13181 19358 19646 17860 12476 17299 19087 12187 16550 14466 13823 16249 13332 12276 16374 15234 16620 19936 999999
999999 999999 999999 999999 999999 999999 999999 999999 999999 999999 999999 999999 999999 999999 999999 999999 999999 999999 999999 999999 999999 999999 999999 999999 999999 999999 999999 999999 999999 999999 999999 0 999999 999999 999999 999999 999999 999999 999999 999999 999999 999999 999999 999999 999999 999999 999999 999999 999999 999999 999999 999999 999999 999999 999999 999999 999999 999999 999999 999999 999999 11503 14035 15324 17828 15793 18785 14336 19334 18993 16303 19683 10082 18117 15951 16605 12985 16116 19758 16080 13689 17803 10975 14941 11991 15358 19407 17920 19882 17874 10891 18196 19568 16231 17502 18559 13754 14333 19928 10224 11429 16195 14341 16206 11777 19659 13772 15131 11575 19637 15569 999999
999999 999999 999999 999999 999999 999999 999999 999999 999999 999999 999999 999999 999999 999999 999999 999999 999999 999999 999999 999999 999999 999999 999999 999999 999999 999999 999999 999999 999999 999999 999999 999999 0 999999 999999 999999 999999 999999 999999 999999 999999 999999 999999 999999 999999 999999 999999 999999 999999 999999 999999 999999 999999 999999 999999 999999 999999 999999 999999 999999 999999 18019 14420 13549 15359 14533 15609 10113 10274 12486 10550 15636 13310 18503 16938 14757 19075 17344 11958 18993 11714 10997 19381 15566 16534 16239 16542 19838 18628 18498 12858 15487 16707 19704 10807 15640 10521 18039 19627 16278 12502 15050 10509 16695 17538 15577 11631 14412 14190 18436 18827 999999
999999 999999 999999 999999 999999 999999 999999 999999 999999 999999 999999 999999 999999 999999 999999 999999 999999 999999 999999 999999 999999 999999 999999 999999 999999 999999 999999 999999 999999 999999 999999 999999 999999 0 999999 999999 999999 999999 999999 999999 999999 999999 999999 999999 999999 999999 999999 999999 999999 999999 999999 999999 999999 999999 999999 999999 999999 999999 999999 999999 999999 17451 16186 18797 13938 15564 15409 18889 18507 14067 18102 14930 17287 17670 15362 16954 11109 10822 11665 13368 16660 12747 15917 17667 17275 11010 17490 18096 17948 10761 17780 11371 12420 10867 15441 16690 16590 15929 18620 15082 13462 11775 15494 11739 16010 10992 11982 16960 19084 11318 13549 999999
999999 999999 999999 999999 999999 999999 999999 999999 999999 999999 999999 999999 999999 999999 999999 999999 999999 999999 999999 999999 999999 999999 999999 999999 999999 999999 999999 999999 999999 999999 999999 999999 999999 999999 0 999999 999999 999999 999999 999999 999999 999999 999999 999999 999999 999999 999999 999999 999999 999999 999999 999999 999999 999999 999999 999999 999999 999999 999999 999999 999999 17349 10299 16483 14862 18276 13749 14055 12942 16681 19339 18427 15847 10495 18911 16455 14920 13269 10165 10989 10018 18360 18360 13519 12605 16506 10622 11213 19757 16207 19902 15334 13678 14540 16723 12886 11088 12745 15096 14676 18868 10332 13008 15617 15652 18264 15263 18069 14246 14221 19448 999999
999999 999999 999999 999999 999999 999999 999999 999999 999999 999999 999999 999999 999999 999999 999999 999999 999999 999999 999999 999999 999999 999999 999999 999999 999999 999999 999999 999999 999999 999999 999999 999999 999999 999999 999999 0 999999 999999 999999 999999 999999 999999 999999 999999 999999 999999 999999 999999 999999 999999 999999 999999 999999 999999 999999 999999 999999 999999 999999 999999 999999 16243 13310 10908 12977 12797 16876 18129 16793 15668 10234 15196 17655 12694 13456 15707 11017 12872 13676 10774 10688 17273 13984 13491 10640 18663 17005 10527 12395 13316 18002 15468 17434 13440 16759 14935 17611 17469 10276 10784 14547 15746 11333 12643 13851 14438 11085 13898 18666 19649 18111 999999
999999 999999 999999 999999 999999 999999 999999 999999 999999 999999 999999 999999 999999 999999 999999 999999 999999 999999 999999 999999 999999 999999 999999 999999 999999 999999 999999 999999 999999 999999 999999 999999 999999 999999 999999 999999 0 999999 999999 999999 999999 999999 999999 999999 999999 999999 999999 999999 999999 999999 999999 999999 999999 999999 999999 999999 999999 999999 999999 999999 999999 11684 11510 16534 16289 12177 11881 11997 15238 12113 18530 16376 12941 17103 11986 17788 18953 13868 12675 14613 10903 16132 13043 11083 19164 13437 18220 19878 16171 15672 16366 19732 11899 15651 12534 15858 10116 12827 19921 13716 10607 17521 13196 13243 16572 19181 10257 18298 14849 10718 13223 999999
999999 999999 999999 999999 999999 999999 999999 999999 999999 999999 999999 999999 999999 999999 999999 999999 999999 999999 999999 999999 999999 999999 999999 999999 999999 999999 999999 999999 999999 999999 999999 999999 999999 999999 999999 999999 999999 0 999999 999999 999999 999999 999999 999999 999999 999999 999999 999999 999999 999999 999999 999999 999999 999999 999999 999999 999999 999999 999999 999999 999999 19266 12217 11277 13893 12794 11815 16146 13901 12039 11942 18326 16452 13530 10341 19936 16347 18028 10999 10682 13892 18318 18196 15060 18960 14950 10179 18192 19157 19296 17258 14961 17880 16752 12464 12875 13128 13827 18092 10383 13837 18317 18898 18191 18640 19572 10013 17661 19289 17952 11548 999999
999999 999999 999999 999999 999999 999999 999999 999999 999999 999999 999999 999999 999999 999999 999999 999999 999999 999999 999999 999999 999999 999999 999999 999999 999999 999999 999999 999999 999999 999999 999999 999999 999999 999999 999999 999999 999999 999999 0 999999 999999 999999 999999 999999 999999 999999 999999 999999 999999 999999 999999 999999 999999 999999 999999 999999 999999 999999 999999 999999 999999 13865 16275 13177 16279 18614 12623 12712 17119 14876 15261 11184 15391 15894 17556 11539 11848 13766 18060 13148 18777 16428 10104 14997 16770 16277 19243 18634 14933 18264 13983 11691 15026 13822 14795 12197 15888 10529 10970 12821 10374 17319 18432 18140 13239 16471 10120 17588 10454 14898 10970 999999
999999 999999 999999 999999 999999 999999 999999 999999 999999 999999 999999 999999 999999 999999 999999 999999 999999 999999 999999 999999 999999 999999 999999 999999 999999 999999 999999 999999 999999 999999 999999 999999 999999 999999 999999 999999 999999 999999 999999 0 999999 999999 999999 999999 999999 999999 999999 999999 999999 999999 999999 999999 999999 999999 999999 999999 999999 999999 999999 999999 999999 19413 16885 14910 14849 10457 14661 14997 18995 10669 19642 14878 12840 12449 10184 12954 13766 16396 11710 11577 12464 19957 12468 16086 12441 15697 19346 19955 15364 19226 16077 17114 10501 17357 15775 19358 13487 14800 17744 19020 12591 15462 10193 19857 13138 17395 19530 19706 11586 14325 11239 999999
999999 999999 999999 999999 999999 999999 999999 999999 999999 999999 999999 999999 999999 999999 999999 999999 999999 999999 999999 999999 999999 999999 999999 999999 999999 999999 999999 999999 999999 999999 999999 999999 999999 999999 999999 999999 999999 999999 999999 999999 0 999999 999999 999999 999999 999999 999999 999999 999999 999999 999999 999999 999999 999999 999999 999999 999999 999999 999999 999999 999999 17843 15224 11584 12155 13046 19486 16390 17916 10948 13778 14370 18646 13651 12074 14093 12983 13381 17741 12675 14585 16791 13588 18113 11530 10874 16019 13775 17810 16659 17696 17596 14746 19739 11384 19614 15227 14032 11674 18455 11214 19858 17069 17164 10052 18563 13850 16056 10134 16501 10392 999999
999999 999999 999999 999999 999999 999999 999999 999999 999999 999999 999999 999999 999999 999999 999999 999999 999999 999999 999999 999999 999999 999999 999999 999999 999999 999999 999999 999999 999999 999999 999999 999999 999999 999999 999999 999999 999999 999999 999999 999999 999999 0 999999 999999 999999 999999 999999 999999 999999 999999 999999 999999 999999 999999 999999 999999 999999 999999 999999 999999 999999 13889 12509 11675 14472 17037 18447 11021 17108 10833 16889 11942 19984 14171 14670 13294 16229 17972 13645 14185 16024 12343 16378 13465 15284 10002 15848 15537 19942 19447 19281 12683 13951 10129 11782 12459 17126 13732 17770 13907 13694 18853 14174 12946 11093 18537 17155 10343 16339 15207 13304 999999
999999 999999 999999 999999 999999 999999 999999 999999 999999 999999 999999 999999 999999 999999 999999 999999 999999 999999 999999 999999 999999 999999 999999 999999 999999 999999 999999 999999 999999 999999 999999 999999 999999 999999 999999 999999 999999 999999 999999 999999 999999 999999 0 999999 999999 999999 999999 999999 999999 999999 999999 999999 999999 999999 999999 999999 999999 999999 999999 999999 999999 12316 15702 17882 16320 14820 12215 11132 15391 13845 19640 13396 13765 12611 13653 12071 16838 15784 11576 14443 15837 17387 12717 18650 18797 14052 15324 17479 12908 18919 16048 12990 19023 19543 16053 11171 13907 11362 18775 11689 17487 16762 17835 16645 17924 16885 11097 16392 12220 10090 11326 999999
999999 999999 999999 999999 999999 999999 999999 999999 999999 999999 999999 999999 999999 999999 999999 999999 999999 999999 999999 999999 999999 999999 999999 999999 999999 999999 999999 999999 999999 999999 999999 999999 999999 999999 999999 999999 999999 999999 999999 999999 999999 999999 999999 0 999999 999999 999999 999999 999999 999999 999999 999999 999999 999999 999999 999999 999999 999999 999999 999999 999999 12956 17915 14620 16847 16422 11893 13469 12440 16361 11100 19303 18545 16110 19280 15922 15179 18129 14490 19475 15335 19007 18814 15767 12325 12865 11511 11278 14954 16748 14977 12006 13893 12522 10457 11718 12678 17141 11828 18462 17596 13293 12968 15630 12946 12961 14184 15537 10639 12845 14358 999999
999999 999999 999999 999999 999999 999999 999999 999999 999999 999999 999999 999999 999999 999999 999999 999999 999999 999999 999999 999999 999999 999999 999999 999999 999999 999999 999999 999999 999999 999999 999999 999999 999999 999999 999999 999999 999999 999999 999999 999999 999999 999999 999999 999999 0 999999 999999 999999 999999 999999 999999 999999 999999 999999 999999 999999 999999 999999 999999 999999 999999 13547 11317 12297 10449 18177 13640 11219 19756 10067 14678 11625 12885 19046 12889 17038 17031 18674 13422 13023 16189 18539 14662 15166 13353 12404 12337 19934 10023 10786 14224 10269 12426 14522 11516 11495 15079 19995 17973 12063 17820 11225 11489 14506 14631 18177 16459 19716 19954 14118 12181 999999
999999 999999 999999 999999 999999 999999 999999 999999 999999 999999 999999 999999 999999 999999 999999 999999 999999 999999 999999 999999 999999 999999 999999 999999 999999 999999 999999 999999 999999 999999 999999 999999 999999 999999 999999 999999 999999 999999 999999 999999 999999 999999 999999 999999 999999 0 999999 999999 999999 999999 999999 999999 999999 999999 999999 999999 999999 999999 999999 999999 999999 16492 12575 10718 13937 14959 12566 14093 13887 13280 18496 11138 18464 12730 19054 17489 18908 14833 10487 16710 15815 11040 16496 12751 10153 14472 13647 11481 10542 17110 16019 17397 19041 17639 15377 10837 14759 18577 13169 18158 19707 12107 17104 14147 15613 15915 13052 12176 11870 15871 16622 999999
999999 999999 999999 999999 999999 999999 999999 999999 999999 999999 999999 999999 999999 999999 999999 999999 999999 999999 999999 999999 999999 999999 999999 999999 999999 999999 999999 999999 999999 999999 999999 999999 999999 999999 999999 999999 999999 999999 999999 999999 999999 999999 999999 999999 999999 999999 0 999999 999999 999999 999999 999999 999999 999999 999999 999999 999999 999999 999999 999999 999999 14839 13910 19964 12262 14686 15757 10530 16093 15526 11704 10722 15411 15146 16419 14878 18784 12109 12311 14935 14051 10235 17165 14665 14272 10285 18578 17943 15253 19234 16169 18598 14739 17428 15891 12111 19508 14037 12993 17009 14690 18530 19717 18362 10298 11443 11773 11109 16124 16993 15752 999999
999999 999999 999999 999999 999999 999999 999999 999999 999999 999999 999999 999999 999999 999999 999999 999999 999999 999999 999999 999999 999999 999999 999999 999999 999999 999999 999999 999999 999999 999999 999999 999999 999999 999999 999999 999999 999999 999999 999999 999999 999999 999999 999999 999999 999999 999999 999999 0 999999 999999 999999 999999 999999 999999 999999 999999 999999 999999 999999 999999 999999 16842 13521 18544 13722 15836 10219 10619 13232 16929 10689 18804 14178 19075 13814 14070 10044 15422 10215 11559 15796 13722 12809 18181 14414 14955 17438 16902 19497 18096 16278 17680 14459 10527 12900 17548 16081 11818 18622 14063 11421 18557 17077 11964 10648 11985 17698 11432 12709 10976 11254 999999
999999 999999 999999 999999 999999 999999 999999 999999 999999 999999 999999 999999 999999 999999 999999 999999 999999 999999 999999 999999 999999 999999 999999 999999 999999 999999 999999 999999 999999 999999 999999 999999 999999 999999 999999 999999 999999 999999 999999 999999 999999 999999 999999 999999 999999 999999 999999 999999 0 999999 999999 999999 999999 999999 999999 999999 999999 999999 999999 999999 999999 15489 19645 13279 12024 12891 10616 14834 13837 18703 10477 14540 17351 19959 12446 12808 11430 10974 16198 12913 12887 11812 14858 13889 10090 18029 10102 13476 11918 16575 15682 19926 14883 18349 19594 10567 16259 17880 13601 10638 19857 10139 11656 19578 14117 17691 12202 16683 18400 15893 19465 999999
999999 999999 999999 999999 999999 999999 999999 999999 999999 999999 999999 999999 999999 999999 999999 999999 999999 999999 999999 999999 999999 999999 999999 999999 999999 999999 999999 999999 999999 999999 999999 999999 999999 999999 999999 999999 999999 999999 999999 999999 999999 999999 999999 999999 999999 999999 999999 999999 999999 0 999999 999999 999999 999999 999999 999999 999999 999999 999999 999999 999999 16723 10774 13953 12318 14041 17564 11373 16473 11599 13110 10505 10718 10526 17521 18014 19921 19738 19319 11295 19008 17781 12122 18935 15508 17684 16954 10089 12424 15652 19296 15991 10914 17301 12701 17021 10236 15480 19629 17525 15252 19674 11179 11023 19557 13643 15551 12109 14255 19976 15809 999999
999999 999999 999999 999999 999999 999999 999999 999999 999999 999999 999999 999999 999999 999999 999999 999999 999999 999999 999999 999999 999999 999999 999999 999999 999999 999999 999999 999999 999999 999999 999999 999999 999999 999999 999999 999999 999999 999999 999999 999999 999999 999999 999999 999999 999999 999999 999999 999999 999999 999999 0 999999 999999 999999 999999 999999 999999 999999 999999 999999 999999 11180 19624 12500 17035 19249 10622 15016 18563 11010 14074 14346 18972 11674 17049 15839 17164 17802 11126 14766 14338 11435 12759 11192 10272 11277 16340 14207 11791 15751 17019 13583 14640 19926 15697 18098 11496 12716 17730 16513 10259 18695 10791 10700 11249 19911 17461 18591 17790 16275 13615 999999
999999 999999 999999 999999 999999 999999 999999 999999 999999 999999 999999 999999 999999 999999 999999 999999 999999 999999 999999 999999 999999 999999 999999 999999 999999 999999 999999 999999 999999 999999 999999 999999 999999 999999 999999 999999 999999 999999 999999 999999 999999 999999 999999 999999 999999 999999 999999 999999 999999 999999 999999 0 999999 999999 999999 999999 999999 999999 999999 999999 999999 17235 16099 18035 14575 15299 13035 13864 16157 14839 16977 18137 10703 16322 13539 15162 17216 18315 17488 15280 19221 16339 12863 16676 13744 18129 16489 13789 11586 16598 13124 10243 11603 17686 16891 15196 19252 15806 16524 17345 19102 12497 13757 14329 16826 11264 11181 19350 16595 18098 13597 999999
999999 999999 999999 999999 999999 999999 999999 999999 999999 999999 999999 999999 999999 999999 999999 999999 999999 999999 999999 999999 999999 999999 999999 999999 999999 999999 999999 999999 999999 999999 999999 999999 999999 999999 999999 999999 999999 999999 999999 999999 999999 999999 999999 999999 999999 999999 999999 999999 999999 999999 999999 999999 0 999999 999999 999999 999999 999999 999999 999999 999999 13415 19459 18404 18144 19242 11286 11643 10512 15020 15000 11776 10399 16264 17838 17957 16778 19632 10760 17332 13746 11878 19062 15056 12650 17605 16819 14400 19774 15369 10782 11808 14692 19737 15858 19999 19630 10598 13440 18887 14661 19664 11235 16645 14121 14470 18701 15386 14957 17910 11878 999999
999999 999999 999999 999999 999999 999999 999999 999999 999999 999999 999999 999999 999999 999999 999999 999999 999999 999999 999999 999999 999999 999999 999999 999999 999999 999999 999999 999999 999999 999999 999999 999999 999999 999999 999999 999999 999999 999999 999999 999999 999999 999999 999999 999999 999999 999999 999999 999999 999999 999999 999999 999999 999999 0 999999 999999 999999 999999 999999 999999 999999 16771 11905 12409 13304 10675 17253 16978 10503 18354 15241 14275 13494 17819 11540 12570 16285 19702 19179 15844 11009 15325 16506 15345 13205 15874 18633 15935 10620 11873 16640 13028 15189 10742 13048 13436 17860 18671 15001 17243 18350 12136 13414 10722 14782 13823 16631 15491 10227 13178 14549 999999
999999 999999 999999 999999 999999 999999 999999 999999 999999 999999 999999 999999 999999 999999 999999 999999 999999 999999 999999 999999 999999 999999 999999 999999 999999 999999 999999 999999 999999 999999 999999 999999 999999 999999 999999 999999 999999 999999 999999 999999 999999 999999 999999 999999 999999 999999 999999 999999 999999 999999 999999 999999 999999 999999 0 999999 999999 999999 999999 999999 999999 14256 11377 18851 13478 10774 10698 18590 17569 16436 19473 13602 14122 16167 12507 13066 13138 17457 13707 11202 19776 15219 12941 19677 15820 14155 14517 13805 17513 14409 17651 11566 10691 15282 13722 13133 13296 16664 15726 17764 14560 15221 18984 16876 15700 18169 17864 13398 16485 18558 11284 999999
999999 999999 999999 999999 999999 999999 999999 999999 999999 999999 999999 999999 999999 999999 999999 999999 999999 999999 999999 999999 999999 999999 999999 999999 999999 999999 999999 999999 999999 999999 999999 999999 999999 999999 999999 999999 999999 999999 999999 999999 999999 999999 999999 999999 999999 999999 999999 999999 999999 999999 999999 999999 999999 999999 999999 0 999999 999999 999999 999999 999999 11875 11789 13435 10676 10360 16381 18052 13881 18177 17887 15142 13155 12746 11482 14797 18383 19971 18303 18713 14705 13865 16599 10359 10184 14374 19901 15699 16155 13039 16425 19949 18353 17492 11960 11535 19712 15701 18966 18271 15474 15841 13312 12779 13131 12979 13993 10132 18807 15203 14389 999999
999999 999999 999999 999999 999999 999999 999999 999999 999999 999999 999999 999999 999999 999999 999999 999999 999999 999999 999999 999999 999999 999999 999999 999999 999999 999999 999999 999999 999999 999999 999999 999999 999999 999999 999999 999999 999999 999999 999999 999999 999999 999999 999999 999999 999999 999999 999999 999999 999999 999999 999999 999999 999999 999999 999999 999999 0 999999 999999 999999 999999 12735 11952 18231 11048 18570 12709 16784 19966 17422 12743 10128 12491 19003 19534 14743 13332 10743 13314 15649 12273 12801 15407 10325 11201 14636 10728 16765 12859 11516 13926 18104 19336 14842 10867 15154 13035 18644 10785 12351 13585 19782 18538 12957 14404 18013 12008 19635 19519 16206 10925 999999
999999 999999 999999 999999 999999 999999 999999 999999 999999 999999 999999 999999 999999 999999 999999 999999 999999 999999 999999 999999 999999 999999 999999 999999 999999 999999 999999 999999 999999 999999 999999 999999 999999 999999 999999 999999 999999 999999 999999 999999 999999 999999 999999 999999 999999 999999 999999 999999 999999 999999 999999 999999 999999 999999 999999 999999 999999 0 999999 999999 999999 17204 11063 12792 12875 17658 10779 16242 14188 12884 19184 19294 10723 16738 16729 16615 10626 19762 18765 13121 15506 19544 11804 18291 17955 16157 11928 11997 18524 19414 14084 17292 10774 11868 13984 14799 12666 18008 12871 18950 18655 13644 13954 19201 15349 14038 17708 18215 12582 16246 15799 999999
999999 999999 999999 999999 999999 999999 999999 999999 999999 999999 999999 999999 999999 999999 999999 999999 999999 999999 999999 999999 999999 999999 999999 999999 999999 999999 999999 999999 999999 999999 999999 999999 999999 999999 999999 999999 999999 999999 999999 999999 999999 999999 999999 999999 999999 999999 999999 999999 999999 999999 999999 999999 999999 999999 999999 999999 999999 999999 0 999999 999999 16981 12338 16107 15008 16660 12197 19786 13484 18556 15506 17763 14523 17488 13507 12770 12647 18895 12603 17821 18075 19273 10613 17342 12457 12037 17268 17567 10094 12552 19033 17719 15104 19657 18809 15845 18938 19649 19406 15964 16704 14239 19689 12600 14035 14578 19210 13486 17211 12597 13607 999999
999999 999999 999999 999999 999999 999999 999999 999999 999999 999999 999999 999999 999999 999999 999999 999999 999999 999999 999999 999999 999999 999999 999999 999999 999999 999999 999999 999999 999999 999999 999999 999999 999999 999999 999999 999999 999999 999999 999999 999999 999999 999999 999999 999999 999999 999999 999999 999999 999999 999999 999999 999999 999999 999999 999999 999999 999999 999999 999999 0 999999 18299 15213 11474 19617 16582 10317 12729 11715 11375 14198 10744 14303 13072 13494 15439 17448 10771 19873 10890 13141 10956 17762 17181 16879 12452 16961 16385 14080 19938 10244 18596 12723 16232 16945 14029 12634 10055 12632 13389 15022 12575 13127 12380 10193 14244 10675 18398 14277 13982 16324 999999
999999 999999 999999 999999 999999 999999 999999 999999 999999 999999 999999 999999 999999 999999 999999 999999 999999 999999 999999 999999 999999 999999 999999 999999 999999 999999 999999 999999 999999 999999 999999 999999 999999 999999 999999 999999 999999 999999 999999 999999 999999 999999 999999 999999 999999 999999 999999 999999 999999 999999 999999 999999 999999 999999 999999 999999 999999 999999 999999 999999 0 14139 13845 15013 18390 17721 11521 18560 17883 19204 16680 18573 19867 12534 19221 12073 15497 15107 16451 10283 10361 14281 16684 13890 10566 12180 17898 16917 12499 12037 17651 17834 14065 12219 19434 15714 11316 10402 10060 15368 16859 15116 15579 11988 19916 17024 15057 14751 15573 19994 12995 999999
999999 15252 10406 15073 14565 12220 10292 16410 19655 16226 10616 13293 16303 14210 14442 16136 10475 13902 12989 13640 19205 19705 11780 10842 14366 17121 19787 19491 13139 10467 19975 11503 18019 17451 17349 16243 11684 19266 13865 19413 17843 13889 12316 12956 13547 16492 14839 16842 15489 16723 11180 17235 13415 16771 14256 11875 12735 17204 16981 18299 14139 0 999999 999999 999999 999999 999999 999999 999999 999999 999999 999999 999999 999999 999999 999999 999999 999999 999999 999999 999999 999999 999999 999999 999999 999999 999999 999999 999999 999999 999999 999999 999999 999999 999999 999999 999999 999999 999999 999999 999999 999999 999999 999999 999999 999999 999999 999999 999999 999999 999999 9568
999999 15256 13663 13367 17988 12525 18413 15252 10617 11306 11120 16327 14011 14688 15137 15756 18113 17059 11598 11474 16430 16773 12646 19715 17883 18470 12370 18163 13921 17919 17610 14035 14420 16186 10299 13310 11510 12217 16275 16885 15224 12509 15702 17915 11317 12575 13910 13521 19645 10774 19624 16099 19459 11905 11377 11789 11952 11063 12338 15213 13845 999999 0 999999 999999 999999 999999 999999 999999 999999 999999 999999 999999 999999 999999 999999 999999 999999 999999 999999 999999 999999 999999 999999 999999 999999 999999 999999 999999 999999 999999 999999 999999 999999 999999 999999 999999 999999 999999 999999 999999 999999 999999 999999 999999 999999 999999 999999 999999 999999 999999 7354
999999 18185 13221 12786 18877 14999 12592 10905 19115 14520 16432 11860 10548 18069 14409 18618 16470 16141 19461 18976 18858 19176 18587 16471 18831 11295 16323 19650 16395 13420 18407 15324 13549 18797 16483 10908 16534 11277 13177 14910 11584 11675 17882 14620 12297 10718 19964 18544 13279 13953 12500 18035 18404 12409 18851 13435 18231 12792 16107 11474 15013 999999 999999 0 999999 999999 999999 999999 999999 999999 999999 999999 999999 999999 999999 999999 999999 999999 999999 999999 999999 999999 999999 999999 999999 999999 999999 999999 999999 999999 999999 999999 999999 999999 999999 999999 999999 999999 999999 999999 999999 999999 999999 999999 999999 999999 999999 999999 999999 999999 999999 6992
999999 18009 18327 11024 15589 15553 16077 14181 14776 17766 17712 12567 15275 19307 14252 11940 14941 18173 19817 16206 18167 10820 17932 15564 16588 15784 19909 18917 11020 13240 12260 17828 15359 13938 14862 12977 16289 13893 16279 14849 12155 14472 16320 16847 10449 13937 12262 13722 12024 12318 17035 14575 18144 13304 13478 10676 11048 12875 15008 19617 18390 999999 999999 999999 0 999999 999999 999999 999999 999999 999999 999999 999999 999999 999999 999999 999999 999999 999999 999999 999999 999999 999999 999999 999999 999999 999999 999999 999999 999999 999999 999999 999999 999999 999999 999999 999999 999999 999999 999999 999999 999999 999999 999999 999999 999999 999999 999999 999999 999999 999999 5204
999999 13303 15123 15479 10570 10300 14934 11988 17423 12762 15951 18256 11064 13941 13730 12268 17871 16308 17760 17372 17618 17420 19638 17316 16893 19958 10409 15931 12118 14074 19128 15793 14533 15564 18276 12797 12177 12794 18614 10457 13046 17037 14820 16422 18177 14959 14686 15836 12891 14041 19249 15299 19242 10675 10774 10360 18570 17658 16660 16582 17721 999999 999999 999999 999999 0 999999 999999 999999 999999 999999 999999 999999 999999 999999 999999 999999 999999 999999 999999 999999 999999 999999 999999 999999 999999 999999 999999 999999 999999 999999 999999 999999 999999 999999 999999 999999 999999 999999 999999 999999 999999 999999 999999 999999 999999 999999 999999 999999 999999 999999 13681
999999 18059 18839 12331 10458 10007 13848 19610 19184 11683 14987 11401 12889 10945 15094 17854 17814 10216 11966 11970 19628 15491 17281 12428 15324 16042 18288 16397 15140 19089 13756 18785 15609 15409 13749 16876 11881 11815 12623 14661 19486 18447 12215 11893 13640 12566 15757 10219 10616 17564 10622 13035 11286 17253 10698 16381 12709 10779 12197 10317 11521 999999 999999 999999 999999 999999 0 999999 999999 999999 999999 999999 999999 999999 999999 999999 999999 999999 999999 999999 999999 999999 999999 999999 999999 999999 999999 999999 999999 999999 999999 999999 999999 999999 999999 999999 999999 999999 999999 999999 999999 999999 999999 999999 999999 999999 999999 999999 999999 999999 999999 5383
999999 16326 17062 19707 15718 13658 13360 18155 12808 13349 17406 15363 11449 15911 19372 13827 10231 10732 12343 14234 17537 18027 16605 15940 16108 16860 14685 15850 18057 19185 18024 14336 10113 18889 14055 18129 11997 16146 12712 14997 16390 11021 11132 13469 11219 14093 10530 10619 14834 11373 15016 13864 11643 16978 18590 18052 16784 16242 19786 12729 18560 999999 999999 999999 999999 999999 999999 0 999999 999999 999999 999999 999999 999999 999999 999999 999999 999999 999999 999999 999999 999999 999999 999999 999999 999999 999999 999999 999999 999999 999999 999999 999999 999999 999999 999999 999999 999999 999999 999999 999999 999999 999999 999999 999999 999999 999999 999999 999999 999999 999999 14426
999999 15808 13697 18418 15202 15315 16874 15581 16427 16214 12267 15584 10536 17071 17056 18779 17565 11253 15483 16850 17025 18866 14195 16279 18165 14349 17819 14473 12748 14034 11572 19334 10274 18507 12942 16793 15238 13901 17119 18995 17916 17108 15391 12440 19756 13887 16093 13232 13837 16473 18563 16157 10512 10503 17569 13881 19966 14188 13484 11715 17883 999999 999999 999999 999999 999999 999999 999999 0 999999 999999 999999 999999 999999 999999 999999 999999 999999 999999 999999 999999 999999 999999 999999 999999 999999 999999 999999 999999 999999 999999 999999 999999 999999 999999 999999 999999 999999 999999 999999 999999 999999 999999 999999 999999 999999 999999 999999 999999 999999 999999 6262
999999 14622 13451 16600 19613 18020 13859 13961 15850 15094 13246 19082 11805 15467 10944 15557 17530 17005 13222 16967 18115 16133 15863 14115 12092 17957 14154 16540 16012 19217 18866 18993 12486 14067 16681 15668 12113 12039 14876 10669 10948 10833 13845 16361 10067 13280 15526 16929 18703 11599 11010 14839 15020 18354 16436 18177 17422 12884 18556 11375 19204 999999 999999 999999 999999 999999 999999 999999 999999 0 999999 999999 999999 999999 999999 999999 999999 999999 999999 999999 999999 999999 999999 999999 999999 999999 999999 999999 999999 999999 999999 999999 999999 999999 999999 999999 999999 999999 999999 999999 999999 999999 999999 999999 999999 999999 999999 999999 999999 999999 999999 5515
999999 11042 18872 13992 19058 19215 18364 16442 17121 18161 10977 15252 11796 19666 15876 10442 19551 12110 19241 13559 17704 13571 17694 12070 18891 10971 17444 14603 13800 19194 10476 16303 10550 18102 19339 10234 18530 11942 15261 19642 13778 16889 19640 11100 14678 18496 11704 10689 10477 13110 14074 16977 15000 15241 19473 17887 12743 19184 15506 14198 16680 999999 999999 999999 999999 999999 999999 999999 999999 999999 0 999999 999999 999999 999999 999999 999999 999999 999999 999999 999999 999999 999999 999999 999999 999999 999999 999999 999999 999999 999999 999999 999999 999999 999999 999999 999999 999999 999999 999999 999999 999999 999999 999999 999999 999999 999999 999999 999999 999999 999999 13618
999999 17852 13792 15644 15332 14886 16690 18432 18690 10606 16204 10685 17054 18742 19450 17656 14430 19840 17642 18358 10976 17707 19682 18179 18323 15396 19817 16337 13161 16452 16687 19683 15636 14930 18427 15196 16376 18326 11184 14878 14370 11942 13396 19303 11625 11138 10722 18804 14540 10505 14346 18137 11776 14275 13602 15142 10128 19294 17763 10744 18573 999999 999999 999999 999999 999999 999999 999999 999999 999999 999999 0 999999 999999 999999 999999 999999 999999 999999 999999 999999 999999 999999 999999 999999 999999 999999 999999 999999 999999 999999 999999 999999 999999 999999 999999 999999 999999 999999 999999 999999 999999 999999 999999 999999 999999 999999 999999 999999 999999 999999 6318
999999 12638 17220 18619 12169 17498 13420 18946 16400 14000 15123 17791 16633 14019 14427 14292 10999 17643 17884 16527 16089 15272 19491 16667 17106 10741 15931 11100 10428 14783 16612 10082 13310 17287 15847 17655 12941 16452 15391 12840 18646 19984 13765 18545 12885 18464 15411 14178 17351 10718 18972 10703 10399 13494 14122 13155 12491 10723 14523 14303 19867 999999 999999 999999 999999 999999 999999 999999 999999 999999 999999 999999 0 999999 999999 999999 999999 999999 999999 999999 999999 999999 999999 999999 999999 999999 999999 999999 999999 999999 999999 999999 999999 999999 999999 999999 999999 999999 999999 999999 999999 999999 999999 999999 999999 999999 999999 999999 999999 999999 999999 6454
999999 11433 17516 15350 15597 16314 17024 16510 10367 12170 15953 11158 15349 19021 14569 14516 15742 15014 17286 18483 13460 19280 14274 18224 18404 10718 11962 17739 13555 15754 17339 18117 18503 17670 10495 12694 17103 13530 15894 12449 13651 14171 12611 16110 19046 12730 15146 19075 19959 10526 11674 16322 16264 17819 16167 12746 19003 16738 17488 13072 12534 999999 999999 999999 999999 999999 999999 999999 999999 999999 999999 999999 999999 0 999999 999999 999999 999999 999999 999999 999999 999999 999999 999999 999999 999999 999999 999999 999999 999999 999999 999999 999999 999999 999999 999999 999999 999999 999999 999999 999999 999999 999999 999999 999999 999999 999999 999999 999999 999999 999999 10604
999999 17783 16343 19303 12336 15684 19538 10158 12083 10514 19670 12952 17556 17030 13620 18357 17144 12771 13826 13218 17276 10806 18817 14843 18867 16528 11630 15015 18962 17682 17805 15951 16938 15362 18911 13456 11986 10341 17556 10184 12074 14670 13653 19280 12889 19054 16419 13814 12446 17521 17049 13539 17838 11540 12507 11482 19534 16729 13507 13494 19221 999999 999999 999999 999999 999999 999999 999999 999999 999999 999999 999999 999999 999999 0 999999 999999 999999 999999 999999 999999 999999 999999 999999 999999 999999 999999 999999 999999 999999 999999 999999 999999 999999 999999 999999 999999 999999 999999 999999 999999 999999 999999 999999 999999 999999 999999 999999 999999 999999 999999 12126
999999 16877 14495 16930 15758 19233 16587 17377 11758 10803 14459 16580 17597 14002 11135 10391 15393 19790 17639 15414 19509 12523 19185 16022 18271 19575 10969 15016 10173 19799 14327 16605 14757 16954 16455 15707 17788 19936 11539 12954 14093 13294 12071 15922 17038 17489 14878 14070 12808 18014 15839 15162 17957 12570 13066 14797 14743 16615 12770 15439 12073 999999 999999 999999 999999 999999 999999 999999 999999 999999 999999 999999 999999 999999 999999 0 999999 999999 999999 999999 999999 999999 999999 999999 999999 999999 999999 999999 999999 999999 999999 999999 999999 999999 999999 999999 999999 999999 999999 999999 999999 999999 999999 999999 999999 999999 999999 999999 999999 999999 999999 5952
999999 19144 16656 11579 14857 15151 13603 13666 13742 10360 10490 17999 11129 11574 16716 11415 11345 16942 10453 11862 19270 12577 18867 13627 19820 18035 13063 13655 16854 14816 15618 12985 19075 11109 14920 11017 18953 16347 11848 13766 12983 16229 16838 15179 17031 18908 18784 10044 11430 19921 17164 17216 16778 16285 13138 18383 13332 10626 12647 17448 15497 999999 999999 999999 999999 999999 999999 999999 999999 999999 999999 999999 999999 999999 999999 999999 0 999999 999999 999999 999999 999999 999999 999999 999999 999999 999999 999999 999999 999999 999999 999999 999999 999999 999999 999999 999999 999999 999999 999999 999999 999999 999999 999999 999999 999999 999999 999999 999999 999999 999999 6986
999999 11926 16480 13120 12113 13421 14377 15178 12836 12983 12223 19909 15145 10962 14749 14968 19499 10189 19443 15880 19330 17820 17752 13927 12211 11322 18966 15417 16893 16595 18313 16116 17344 10822 13269 12872 13868 18028 13766 16396 13381 17972 15784 18129 18674 14833 12109 15422 10974 19738 17802 18315 19632 19702 17457 19971 10743 19762 18895 10771 15107 999999 999999 999999 999999 999999 999999 999999 999999 999999 999999 999999 999999 999999 999999 999999 999999 0 999999 999999 999999 999999 999999 999999 999999 999999 999999 999999 999999 999999 999999 999999 999999 999999 999999 999999 999999 999999 999999 999999 999999 999999 999999 999999 999999 999999 999999 999999 999999 999999 999999 14991
999999 18796 10156 17164 15788 12354 10694 14225 15208 17082 13007 13131 14200 14351 15530 12396 18157 18816 19152 16258 11554 15573 14620 18858 19530 14177 19694 19126 11946 18370 16830 19758 11958 11665 10165 13676 12675 10999 18060 11710 17741 13645 11576 14490 13422 10487 12311 10215 16198 19319 11126 17488 10760 19179 13707 18303 13314 18765 12603 19873 16451 999999 999999 999999 999999 999999 999999 999999 999999 999999 999999 999999 999999 999999 999999 999999 999999 999999 0 999999 999999 999999 999999 999999 999999 999999 999999 999999 999999 999999 999999 999999 999999 999999 999999 999999 999999 999999 999999 999999 999999 999999 999999 999999 999999 999999 999999 999999 999999 999999 999999 6042
999999 12156 19495 13161 17379 14338 11413 10697 17171 10538 15204 12462 14709 19634 14867 16169 10140 11357 18176 15663 10300 13481 17705 18269 10495 19346 12156 17910 11348 19303 12999 16080 18993 13368 10989 10774 14613 10682 13148 11577 12675 14185 14443 19475 13023 16710 14935 11559 12913 11295 14766 15280 17332 15844 11202 18713 15649 13121 17821 10890 10283 999999 999999 999999 999999 999999 999999 999999 999999 999999 999999 999999 999999 999999 999999 999999 999999 999999 999999 0 999999 999999 999999 999999 999999 999999 999999 999999 999999 999999 999999 999999 999999 999999 999999 999999 999999 999999 999999 999999 999999 999999 999999 999999 999999 999999 999999 999999 999999 999999 999999 12552
999999 17678 18242 14102 12989 14262 19643 19693 19979 19346 13454 18890 13203 14604 10146 13415 16562 15492 18522 18106 15079 11509 16082 13364 17747 14333 12966 18770 14368 10484 13710 13689 11714 16660 10018 10688 10903 13892 18777 12464 14585 16024 15837 15335 16189 15815 14051 15796 12887 19008 14338 19221 13746 11009 19776 14705 12273 15506 18075 13141 10361 999999 999999 999999 999999 999999 999999 999999 999999 999999 999999 999999 999999 999999 999999 999999 999999 999999 999999 999999 0 999999 999999 999999 999999 999999 999999 999999 999999 999999 999999 999999 999999 999999 999999 999999 999999 999999 999999 999999 999999 999999 999999 999999 999999 999999 999999 999999 999999 999999 999999 5506
999999 15690 15185 12217 14842 16585 18914 11472 13857 13404 10968 15619 15948 14746 18120 10313 17731 13120 16706 10769 15838 10848 17406 13533 15362 17047 13195 15027 16951 14135 11268 17803 10997 12747 18360 17273 16132 18318 16428 19957 16791 12343 17387 19007 18539 11040 10235 13722 11812 17781 11435 16339 11878 15325 15219 13865 12801 19544 19273 10956 14281 999999 999999 999999 999999 999999 999999 999999 999999 999999 999999 999999 999999 999999 999999 999999 999999 999999 999999 999999 999999 0 999999 999999 999999 999999 999999 999999 999999 999999 999999 999999 999999 999999 999999 999999 999999 999999 999999 999999 999999 999999 999999 999999 999999 999999 999999 999999 999999 999999 999999 9501
999999 16563 11887 10442 15536 18294 17034 16541 14489 18464 12599 15045 12456 16503 17424 11997 10687 19872 16961 13429 19022 14966 19249 10169 13247 15162 12723 18463 17307 17738 10168 10975 19381 15917 18360 13984 13043 18196 10104 12468 13588 16378 12717 18814 14662 16496 17165 12809 14858 12122 12759 12863 19062 16506 12941 16599 15407 11804 10613 17762 16684 999999 999999 999999 999999 999999 999999 999999 999999 999999 999999 999999 999999 999999 999999 999999 999999 999999 999999 999999 999999 999999 0 999999 999999 999999 999999 999999 999999 999999 999999 999999 999999 999999 999999 999999 999999 999999 999999 999999 999999 999999 999999 999999 999999 999999 999999 999999 999999 999999 999999 11499
999999 14111 14537 10156 12494 10904 15650 14020 13286 16054 14768 17940 19820 13889 11166 11690 14378 17105 18454 16765 10983 13242 13254 14192 16689 17452 18444 13134 10817 14424 15239 14941 15566 17667 13519 13491 11083 15060 14997 16086 18113 13465 18650 15767 15166 12751 14665 18181 13889 18935 11192 16676 15056 15345 19677 10359 10325 18291 17342 17181 13890 999999 999999 999999 999999 999999 999999 999999 999999 999999 999999 999999 999999 999999 999999 999999 999999 999999 999999 999999 999999 999999 999999 0 999999 999999 999999 999999 999999 999999 999999 999999 999999 999999 999999 999999 999999 999999 999999 999999 999999 999999 999999 999999 999999 999999 999999 999999 999999 999999 999999 10479
999999 13090 15145 14626 10592 11803 13744 17116 15921 14647 14932 18956 16990 10483 15868 10948 10275 10976 15488 18462 17357 12558 13678 13308 17853 10541 14372 13929 11783 15559 13933 11991 16534 17275 12605 10640 19164 18960 16770 12441 11530 15284 18797 12325 13353 10153 14272 14414 10090 15508 10272 13744 12650 13205 15820 10184 11201 17955 12457 16879 10566 999999 999999 999999 999999 999999 999999 999999 999999 999999 999999 999999 999999 999999 999999 999999 999999 999999 999999 999999 999999 999999 999999 999999 0 999999 999999 999999 999999 999999 999999 999999 999999 999999 999999 999999 999999 999999 999999 999999 999999 999999 999999 999999 999999 999999 999999 999999 999999 999999 999999 9107
999999 19918 16573 19262 17131 12275 19376 19094 13860 13146 12197 12634 12696 13012 13982 18549 13588 15353 17445 15816 13473 19867 19120 12095 10627 15821 10202 15983 13219 19929 18175 15358 16239 11010 16506 18663 13437 14950 16277 15697 10874 10002 14052 12865 12404 14472 10285 14955 18029 17684 11277 18129 17605 15874 14155 14374 14636 16157 12037 12452 12180 999999 999999 999999 999999 999999 999999 999999 999999 999999 999999 999999 999999 999999 999999 999999 999999 999999 999999 999999 999999 999999 999999 999999 999999 0 999999 999999 999999 999999 999999 999999 999999 999999 999999 999999 999999 999999 999999 999999 999999 999999 999999 999999 999999 999999 999999 999999 999999 999999 999999 8559
999999 17637 17496 15972 14148 17589 13110 19007 13612 18021 13253 13080 12538 18436 13695 14516 10184 16199 17472 19747 18438 17198 14548 18909 17549 10248 18940 11046 15060 13416 12073 19407 16542 17490 10622 17005 18220 10179 19243 19346 16019 15848 15324 11511 12337 13647 18578 17438 10102 16954 16340 16489 16819 18633 14517 19901 10728 11928 17268 16961 17898 999999 999999 999999 999999 999999 999999 999999 999999 999999 999999 999999 999999 999999 999999 999999 999999 999999 999999 999999 999999 999999 999999 999999 999999 999999 0 999999 999999 999999 999999 999999 999999 999999 999999 999999 999999 999999 999999 999999 999999 999999 999999 999999 999999 999999 999999 999999 999999 999999 999999 13667
999999 13559 19958 16190 11626 19779 14045 17288 13076 19022 19121 11000 17561 17515 12850 15820 16589 19948 11894 11907 10116 10748 12200 14708 14683 13256 13781 16068 10670 11193 16938 17920 19838 18096 11213 10527 19878 18192 18634 19955 13775 15537 17479 11278 19934 11481 17943 16902 13476 10089 14207 13789 14400 15935 13805 15699 16765 11997 17567 16385 16917 999999 999999 999999 999999 999999 999999 999999 999999 999999 999999 999999 999999 999999 999999 999999 999999 999999 999999 999999 999999 999999 999999 999999 999999 999999 999999 0 999999 999999 999999 999999 999999 999999 999999 999999 999999 999999 999999 999999 999999 999999 999999 999999 999999 999999 999999 999999 999999 999999 999999 9508
999999 17459 17440 11882 11191 15180 13429 16021 14521 17056 18827 17264 11101 14314 10197 13239 13538 14483 14958 19457 19156 13330 10576 19531 18899 12538 16759 15499 14364 12418 12449 19882 18628 17948 19757 12395 16171 19157 14933 15364 17810 19942 12908 14954 10023 10542 15253 19497 11918 12424 11791 11586 19774 10620 17513 16155 12859 18524 10094 14080 12499 999999 999999 999999 999999 999999 999999 999999 999999 999999 999999 999999 999999 999999 999999 999999 999999 999999 999999 999999 999999 999999 999999 999999 999999 999999 999999 999999 0 999999 999999 999999 999999 999999 999999 999999 999999 999999 999999 999999 999999 999999 999999 999999 999999 999999 999999 999999 999999 999999 999999 11496
999999 19158 12065 12669 14714 19387 19284 15833 11260 19717 14086 12324 12851 17414 11443 14105 11896 17420 12958 14691 16162 17922 16027 10032 19296 19900 14846 15171 13678 13981 13019 17874 18498 10761 16207 13316 15672 19296 18264 19226 16659 19447 18919 16748 10786 17110 19234 18096 16575 15652 15751 16598 15369 11873 14409 13039 11516 19414 12552 19938 12037 999999 999999 999999 999999 999999 999999 999999 999999 999999 999999 999999 999999 999999 999999 999999 999999 999999 999999 999999 999999 999999 999999 999999 999999 999999 999999 999999 999999 0 999999 999999 999999 999999 999999 999999 999999 999999 999999 999999 999999 999999 999999 999999 999999 999999 999999 999999 999999 999999 999999 12260
999999 12790 10779 12846 18432 12310 19593 19295 11352 19562 17884 15891 10139 10067 13770 13083 13725 15509 17845 12249 16543 16099 13511 19537 17087 19569 10148 12300 13420 12258 12299 10891 12858 17780 19902 18002 16366 17258 13983 16077 17696 19281 16048 14977 14224 16019 16169 16278 15682 19296 17019 13124 10782 16640 17651 16425 13926 14084 19033 10244 17651 999999 999999 999999 999999 999999 999999 999999 999999 999999 999999 999999 999999 999999 999999 999999 999999 999999 999999 999999 999999 999999 999999 999999 999999 999999 999999 999999 999999 999999 0 999999 999999 999999 999999 999999 999999 999999 999999 999999 999999 999999 999999 999999 999999 999999 999999 999999 999999 999999 999999 12712
999999 13350 14633 15715 15613 10716 14083 19953 10545 12853 12416 14266 17102 17735 11998 14001 13149 15429 14762 17788 12013 16722 14582 10806 15472 15391 16409 15388 14552 17297 12330 18196 15487 11371 15334 15468 19732 14961 11691 17114 17596 12683 12990 12006 10269 17397 18598 17680 19926 15991 13583 10243 11808 13028 11566 19949 18104 17292 17719 18596 17834 999999 999999 999999 999999 999999 999999 999999 999999 999999 999999 999999 999999 999999 999999 999999 999999 999999 999999 999999 999999 999999 999999 999999 999999 999999 999999 999999 999999 999999 999999 0 999999 999999 999999 999999 999999 999999 999999 999999 999999 999999 999999 999999 999999 999999 999999 999999 999999 999999 999999 10382
999999 13814 18803 13295 12637 15705 10322 14247 19242 10029 15473 12131 19291 11522 13576 19957 19322 17641 13181 11690 14739 19871 19088 16318 10303 16031 11028 17603 19905 15674 16532 19568 16707 12420 13678 17434 11899 17880 15026 10501 14746 13951 19023 13893 12426 19041 14739 14459 14883 10914 14640 11603 14692 15189 10691 18353 19336 10774 15104 12723 14065 999999 999999 999999 999999 999999 999999 999999 999999 999999 999999 999999 999999 999999 999999 999999 999999 999999 999999 999999 999999 999999 999999 999999 999999 999999 999999 999999 999999 999999 999999 999999 0 999999 999999 999999 999999 999999 999999 999999 999999 999999 999999 999999 999999 999999 999999 999999 999999 999999 999999 13552
999999 10798 15860 16867 11093 17149 15352 16111 19624 12871 11881 11500 12371 15915 13010 12120 15972 15385 10376 11431 14389 15819 16234 19291 14520 11710 17262 17589 14431 12042 13181 16231 19704 10867 14540 13440 15651 16752 13822 17357 19739 10129 19543 12522 14522 17639 17428 10527 18349 17301 19926 17686 19737 10742 15282 17492 14842 11868 19657 16232 12219 999999 999999 999999 999999 999999 999999 999999 999999 999999 999999 999999 999999 999999 999999 999999 999999 999999 999999 999999 999999 999999 999999 999999 999999 999999 999999 999999 999999 999999 999999 999999 999999 0 999999 999999 999999 999999 999999 999999 999999 999999 999999 999999 999999 999999 999999 999999 999999 999999 999999 14980
999999 11024 14426 19922 10032 11226 16148 19694 11290 12547 13094 13231 10034 19220 19733 15837 18200 14342 17254 19968 14184 15431 18864 17034 13841 19933 11489 15143 14530 12620 19358 17502 10807 15441 16723 16759 12534 12464 14795 15775 11384 11782 16053 10457 11516 15377 15891 12900 19594 12701 15697 16891 15858 13048 13722 11960 10867 13984 18809 16945 19434 999999 999999 999999 999999 999999 999999 999999 999999 999999 999999 999999 999999 999999 999999 999999 999999 999999 999999 999999 999999 999999 999999 999999 999999 999999 999999 999999 999999 999999 999999 999999 999999 999999 0 999999 999999 999999 999999 999999 999999 999999 999999 999999 999999 999999 999999 999999 999999 999999 999999 11392
999999 11913 12162 10438 12957 11008 15539 10703 16023 15382 12898 19185 12448 12355 13862 18170 13454 11559 17229 12652 13034 14416 17102 15149 19748 19397 17806 11144 18284 17023 19646 18559 15640 16690 12886 14935 15858 12875 12197 19358 19614 12459 11171 11718 11495 10837 12111 17548 10567 17021 18098 15196 19999 13436 13133 11535 15154 14799 15845 14029 15714 999999 999999 999999 999999 999999 999999 999999 999999 999999 999999 999999 999999 999999 999999 999999 999999 999999 999999 999999 999999 999999 999999 999999 999999 999999 999999 999999 999999 999999 999999 999999 999999 999999 999999 0 999999 999999 999999 999999 999999 999999 999999 999999 999999 999999 999999 999999 999999 999999 999999 11352
999999 10411 19167 16093 18123 12860 19064 17306 18226 16920 10939 12180 15763 19307 16095 13162 17811 11287 12128 15097 15208 16293 17918 11136 15110 13343 19515 10403 10149 15751 17860 13754 10521 16590 11088 17611 10116 13128 15888 13487 15227 17126 13907 12678 15079 14759 19508 16081 16259 10236 11496 19252 19630 17860 13296 19712 13035 12666 18938 12634 11316 999999 999999 999999 999999 999999 999999 999999 999999 999999 999999 999999 999999 999999 999999 999999 999999 999999 999999 999999 999999 999999 999999 999999 999999 999999 999999 999999 999999 999999 999999 999999 999999 999999 999999 999999 0 999999 999999 999999 999999 999999 999999 999999 999999 999999 999999 999999 999999 999999 999999 14882
999999 16205 13404 18923 15988 16415 16129 11378 12624 16249 12793 12434 12545 17097 18710 11038 14704 10002 19025 18398 10797 19142 14969 18420 12437 15103 13715 12335 19339 11895 12476 14333 18039 15929 12745 17469 12827 13827 10529 14800 14032 13732 11362 17141 19995 18577 14037 11818 17880 15480 12716 15806 10598 18671 16664 15701 18644 18008 19649 10055 10402 999999 999999 999999 999999 999999 999999 999999 999999 999999 999999 999999 999999 999999 999999 999999 999999 999999 999999 999999 999999 999999 999999 999999 999999 999999 999999 999999 999999 999999 999999 999999 999999 999999 999999 999999 999999 0 999999 999999 999999 999999 999999 999999 999999 999999 999999 999999 999999 999999 999999 13293
999999 12933 11540 13199 16565 18073 10996 17029 14922 17060 12438 19131 10208 17510 13455 15482 14082 19452 19022 11778 16922 11717 11798 13073 14947 18051 16710 17981 14429 18264 17299 19928 19627 18620 15096 10276 19921 18092 10970 17744 11674 17770 18775 11828 17973 13169 12993 18622 13601 19629 17730 16524 13440 15001 15726 18966 10785 12871 19406 12632 10060 999999 999999 999999 999999 999999 999999 999999 999999 999999 999999 999999 999999 999999 999999 999999 999999 999999 999999 999999 999999 999999 999999 999999 999999 999999 999999 999999 999999 999999 999999 999999 999999 999999 999999 999999 999999 999999 0 999999 999999 999999 999999 999999 999999 999999 999999 999999 999999 999999 999999 8708
999999 14248 12029 13643 15339 17684 18387 15342 17339 17314 19212 19108 11167 17658 15112 10871 10242 15829 14457 14341 16094 16054 15169 16069 11660 15657 18888 11821 18298 15186 19087 10224 16278 15082 14676 10784 13716 10383 12821 19020 18455 13907 11689 18462 12063 18158 17009 14063 10638 17525 16513 17345 18887 17243 17764 18271 12351 18950 15964 13389 15368 999999 999999 999999 999999 999999 999999 999999 999999 999999 999999 999999 999999 999999 999999 999999 999999 999999 999999 999999 999999 999999 999999 999999 999999 999999 999999 999999 999999 999999 999999 999999 999999 999999 999999 999999 999999 999999 999999 0 999999 999999 999999 999999 999999 999999 999999 999999 999999 999999 999999 6145
999999 18884 12091 10061 10714 16667 16950 17445 10440 12282 13891 11320 11855 10656 17543 16628 19485 16564 13696 12798 12276 10844 17954 14039 16375 19010 17605 11801 11166 15470 12187 11429 12502 13462 18868 14547 10607 13837 10374 12591 11214 13694 17487 17596 17820 19707 14690 11421 19857 15252 10259 19102 14661 18350 14560 15474 13585 18655 16704 15022 16859 999999 999999 999999 999999 999999 999999 999999 999999 999999 999999 999999 999999 999999 999999 999999 999999 999999 999999 999999 999999 999999 999999 999999 999999 999999 999999 999999 999999 999999 999999 999999 999999 999999 999999 999999 999999 999999 999999 999999 0 999999 999999 999999 999999 999999 999999 999999 999999 999999 999999 12614
999999 15435 11310 16367 10049 15855 13305 12011 11786 18389 12914 17234 10957 18092 18071 19693 14851 13945 13902 14094 13816 19100 14942 15830 18004 12256 18099 13266 12380 13117 16550 16195 15050 11775 10332 15746 17521 18317 17319 15462 19858 18853 16762 13293 11225 12107 18530 18557 10139 19674 18695 12497 19664 12136 15221 15841 19782 13644 14239 12575 15116 999999 999999 999999 999999 999999 999999 999999 999999 999999 999999 999999 999999 999999 999999 999999 999999 999999 999999 999999 999999 999999 999999 999999 999999 999999 999999 999999 999999 999999 999999 999999 999999 999999 999999 999999 999999 999999 999999 999999 999999 0 999999 999999 999999 999999 999999 999999 999999 999999 999999 7159
999999 10202 19530 11852 16699 15680 18643 10697 17029 14609 16131 15619 12236 19875 12045 12812 11555 15476 11169 18241 10320 11973 15195 16078 14327 15143 11584 16558 17424 11919 14466 14341 10509 15494 13008 11333 13196 18898 18432 10193 17069 14174 17835 12968 11489 17104 19717 17077 11656 11179 10791 13757 11235 13414 18984 13312 18538 13954 19689 13127 15579 999999 999999 999999 999999 999999 999999 999999 999999 999999 999999 999999 999999 999999 999999 999999 999999 999999 999999 999999 999999 999999 999999 999999 999999 999999 999999 999999 999999 999999 999999 999999 999999 999999 999999 999999 999999 999999 999999 999999 999999 999999 0 999999 999999 999999 999999 999999 999999 999999 999999 9219
999999 13759 19114 14361 17710 12442 15505 11176 14739 19685 12456 15562 16462 17409 13586 14073 14681 19274 18357 19317 16512 13779 15457 18488 18747 16489 19497 12894 13189 12991 13823 16206 16695 11739 15617 12643 13243 18191 18140 19857 17164 12946 16645 15630 14506 14147 18362 11964 19578 11023 10700 14329 16645 10722 16876 12779 12957 19201 12600 12380 11988 999999 999999 999999 999999 999999 999999 999999 999999 999999 999999 999999 999999 999999 999999 999999 999999 999999 999999 999999 999999 999999 999999 999999 999999 999999 999999 999999 999999 999999 999999 999999 999999 999999 999999 999999 999999 999999 999999 999999 999999 999999 999999 0 999999 999999 999999 999999 999999 999999 999999 9897
999999 12114 10855 15676 10036 18155 10803 15395 17594 10890 17547 18680 13115 16890 10072 16922 10162 11841 16466 10296 16509 17263 13393 11011 11010 18246 10935 10173 13403 14840 16249 11777 17538 16010 15652 13851 16572 18640 13239 13138 10052 11093 17924 12946 14631 15613 10298 10648 14117 19557 11249 16826 14121 14782 15700 13131 14404 15349 14035 10193 19916 999999 999999 999999 999999 999999 999999 999999 999999 999999 999999 999999 999999 999999 999999 999999 999999 999999 999999 999999 999999 999999 999999 999999 999999 999999 999999 999999 999999 999999 999999 999999 999999 999999 999999 999999 999999 999999 999999 999999 999999 999999 999999 999999 0 999999 999999 999999 999999 999999 999999 9581
999999 11515 10480 18499 17721 17129 16364 18923 14839 12060 18575 13333 19798 12203 14484 18083 11544 13552 17073 14427 17322 12193 15216 17945 16111 10857 11473 18297 11888 10629 13332 19659 15577 10992 18264 14438 19181 19572 16471 17395 18563 18537 16885 12961 18177 15915 11443 11985 17691 13643 19911 11264 14470 13823 18169 12979 18013 14038 14578 14244 17024 999999 999999 999999 999999 999999 999999 999999 999999 999999 999999 999999 999999 999999 999999 999999 999999 999999 999999 999999 999999 999999 999999 999999 999999 999999 999999 999999 999999 999999 999999 999999 999999 999999 999999 999999 999999 999999 999999 999999 999999 999999 999999 999999 999999 0 999999 999999 999999 999999 999999 5342
999999 10630 16976 16477 10807 10439 11206 18326 18465 16920 16195 13442 10943 11701 14629 19854 12017 14191 18078 15048 15236 13601 12868 15372 19900 15538 13345 16885 12115 13836 12276 13772 11631 11982 15263 11085 10257 10013 10120 19530 13850 17155 11097 14184 16459 13052 11773 17698 12202 15551 17461 11181 18701 16631 17864 13993 12008 17708 19210 10675 15057 999999 999999 999999 999999 999999 999999 999999 999999 999999 999999 999999 999999 999999 999999 999999 999999 999999 999999 999999 999999 999999 999999 999999 999999 999999 999999 999999 999999 999999 999999 999999 999999 999999 999999 999999 999999 999999 999999 999999 999999 999999 999999 999999 999999 999999 0 999999 999999 999999 999999 7821
999999 16534 11517 15612 16124 12996 14668 17692 17467 17672 14412 11851 10794 18881 13224 16635 17244 11452 12842 15270 16352 19325 19130 13147 10381 16423 11550 17028 11632 11919 16374 15131 14412 16960 18069 13898 18298 17661 17588 19706 16056 10343 16392 15537 19716 12176 11109 11432 16683 12109 18591 19350 15386 15491 13398 10132 19635 18215 13486 18398 14751 999999 999999 999999 999999 999999 999999 999999 999999 999999 999999 999999 999999 999999 999999 999999 999999 999999 999999 999999 999999 999999 999999 999999 999999 999999 999999 999999 999999 999999 999999 999999 999999 999999 999999 999999 999999 999999 999999 999999 999999 999999 999999 999999 999999 999999 999999 0 999999 999999 999999 13570
999999 19603 19914 10540 15431 15228 11785 13119 11564 16727 15815 13181 19908 19804 15253 14225 15722 13452 14176 17059 12409 18939 10383 17323 16883 16443 14209 15524 17501 15955 15234 11575 14190 19084 14246 18666 14849 19289 10454 11586 10134 16339 12220 10639 19954 11870 16124 12709 18400 14255 17790 16595 14957 10227 16485 18807 19519 12582 17211 14277 15573 999999 999999 999999 999999 999999 999999 999999 999999 999999 999999 999999 999999 999999 999999 999999 999999 999999 999999 999999 999999 999999 999999 999999 999999 999999 999999 999999 999999 999999 999999 999999 999999 999999 999999 999999 999999 999999 999999 999999 999999 999999 999999 999999 999999 999999 999999 999999 0 999999 999999 7338
999999 12255 15883 10801 10422 13380 19424 18102 13348 12650 18200 15529 17012 17793 12025 16011 15986 16136 13686 19227 19903 19014 10080 12563 14121 13422 11723 13354 15628 17589 16620 19637 18436 11318 14221 19649 10718 17952 14898 14325 16501 15207 10090 12845 14118 15871 16993 10976 15893 19976 16275 18098 17910 13178 18558 15203 16206 16246 12597 13982 19994 999999 999999 999999 999999 999999 999999 999999 999999 999999 999999 999999 999999 999999 999999 999999 999999 999999 999999 999999 999999 999999 999999 999999 999999 999999 999999 999999 999999 999999 999999 999999 999999 999999 999999 999999 999999 999999 999999 999999 999999 999999 999999 999999 999999 999999 999999 999999 999999 0 999999 9818
999999 11397 17020 18201 11789 17017 15476 19647 13208 17178 15675 16767 19514 10792 12420 17905 17183 14470 19055 10292 16052 15286 12056 12672 11863 17966 12695 10373 10926 17656 19936 15569 18827 13549 19448 18111 13223 11548 10970 11239 10392 13304 11326 14358 12181 16622 15752 11254 19465 15809 13615 13597 11878 14549 11284 14389 10925 15799 13607 16324 12995 999999 999999 999999 999999 999999 999999 999999 999999 999999 999999 999999 999999 999999 999999 999999 999999 999999 999999 999999 999999 999999 999999 999999 999999 999999 999999 999999 999999 999999 999999 999999 999999 999999 999999 999999 999999 999999 999999 999999 999999 999999 999999 999999 999999 999999 999999 999999 999999 999999 0 9815
1 999999 999999 999999 999999 999999 999999 999999 999999 999999 999999 999999 999999 999999 999999 999999 999999 999999 999999 999999 999999 999999 999999 999999 999999 999999 999999 999999 999999 999999 999999 999999 999999 999999 999999 999999 999999 999999 999999 999999 999999 999999 999999 999999 999999 999999 999999 999999 999999 999999 999999 999999 999999 999999 999999 999999 999999 999999 999999 999999 999999 999999 999999 999999 999999 999999 999999 999999 999999 999999 999999 999999 999999 999999 999999 999999 999999 999999 999999 999999 999999 999999 999999 999999 999999 999999 999999 999999 999999 999999 999999 999999 999999 999999 999999 999999 999999 999999 999999 999999 999999 999999 999999 999999 999999 999999 999999 999999 999999 999999 999999 0
EOF