NAME: GR_1x2x10_KH_2x10_Run_6
TYPE: TSP
COMMENT: BTSP instance |A|=20 GR nodes |B|=20 KH nodes depot=0.0 end=0.0.0
DIMENSION: 42
EDGE_WEIGHT_TYPE: EXPLICIT
EDGE_WEIGHT_FORMAT: FULL_MATRIX
NODE_COORD_TYPE: NO_COORDS
EDGE_WEIGHT_SECTION
0 8937 7405 12794 7805 12843 11150 6131 12677 5618 8500 8488 11348 5601 9938 11034 10110 7874 10310 14162 5882 999999 999999 999999 999999 999999 999999 999999 999999 999999 999999 999999 999999 999999 999999 999999 999999 999999 999999 999999 999999 999999
999999 0 999999 999999 999999 999999 999999 999999 999999 999999 999999 999999 999999 999999 999999 999999 999999 999999 999999 999999 999999 19174 18757 999999 999999 12378 999999 999999 999999 999999 11928 17162 18120 12232 999999 11763 999999 16954 999999 999999 17503 999999
999999 999999 0 999999 999999 999999 999999 999999 999999 999999 999999 999999 999999 999999 999999 999999 999999 999999 999999 999999 999999 14771 17688 999999 999999 18761 999999 999999 999999 999999 17500 17559 19655 10270 999999 16947 999999 13392 999999 999999 17447 999999
999999 999999 999999 0 999999 999999 999999 999999 999999 999999 999999 999999 999999 999999 999999 999999 999999 999999 999999 999999 999999 11271 13997 999999 999999 17079 999999 999999 999999 999999 13244 17953 17629 10968 999999 16530 999999 16229 999999 999999 17024 999999
999999 999999 999999 999999 0 999999 999999 999999 999999 999999 999999 999999 999999 999999 999999 999999 999999 999999 999999 999999 999999 17693 13480 999999 999999 11556 999999 999999 999999 999999 13293 14313 15085 10311 999999 11753 999999 17003 999999 999999 10408 999999
999999 999999 999999 999999 999999 0 999999 999999 999999 999999 999999 999999 999999 999999 999999 999999 999999 999999 999999 999999 999999 18138 18906 999999 999999 14127 999999 999999 999999 999999 13947 13308 10912 13293 999999 18370 999999 18193 999999 999999 13731 999999
999999 999999 999999 999999 999999 999999 0 999999 999999 999999 999999 999999 999999 999999 999999 999999 999999 999999 999999 999999 999999 19732 11574 999999 999999 18085 999999 999999 999999 999999 12810 18785 18496 16516 999999 13497 999999 15883 999999 999999 17668 999999
999999 999999 999999 999999 999999 999999 999999 0 999999 999999 999999 999999 999999 999999 999999 999999 999999 999999 999999 999999 999999 14593 11187 999999 999999 15002 999999 999999 999999 999999 10532 14364 11091 15908 999999 10936 999999 14393 999999 999999 13228 999999
999999 999999 999999 999999 999999 999999 999999 999999 0 999999 999999 999999 999999 999999 999999 999999 999999 999999 999999 999999 999999 17109 17354 999999 999999 15222 999999 999999 999999 999999 12135 12891 13185 18902 999999 13699 999999 17034 999999 999999 10293 999999
999999 999999 999999 999999 999999 999999 999999 999999 999999 0 999999 999999 999999 999999 999999 999999 999999 999999 999999 999999 999999 16088 15617 999999 999999 17661 999999 999999 999999 999999 10525 16638 16683 19235 999999 13056 999999 17418 999999 999999 17486 999999
999999 999999 999999 999999 999999 999999 999999 999999 999999 999999 0 999999 999999 999999 999999 999999 999999 999999 999999 999999 999999 16308 11826 999999 999999 18002 999999 999999 999999 999999 10825 19444 10782 14565 999999 15062 999999 11770 999999 999999 11009 999999
999999 999999 999999 999999 999999 999999 999999 999999 999999 999999 999999 0 999999 999999 999999 999999 999999 999999 999999 999999 999999 999999 999999 13036 12399 999999 11616 13443 15570 14957 999999 999999 999999 999999 14424 999999 15807 999999 17460 17130 999999 999999
999999 999999 999999 999999 999999 999999 999999 999999 999999 999999 999999 999999 0 999999 999999 999999 999999 999999 999999 999999 999999 999999 999999 14891 13360 999999 13418 18951 11970 17322 999999 999999 999999 999999 12136 999999 16936 999999 11497 12039 999999 999999
999999 999999 999999 999999 999999 999999 999999 999999 999999 999999 999999 999999 999999 0 999999 999999 999999 999999 999999 999999 999999 999999 999999 17182 13316 999999 18885 14980 11299 18668 999999 999999 999999 999999 17611 999999 16078 999999 15788 16668 999999 999999
999999 999999 999999 999999 999999 999999 999999 999999 999999 999999 999999 999999 999999 999999 0 999999 999999 999999 999999 999999 999999 999999 999999 15696 15074 999999 17207 10723 13233 14076 999999 999999 999999 999999 11295 999999 14050 999999 13500 11189 999999 999999
999999 999999 999999 999999 999999 999999 999999 999999 999999 999999 999999 999999 999999 999999 999999 0 999999 999999 999999 999999 999999 999999 999999 10140 10042 999999 19632 13137 10708 13954 999999 999999 999999 999999 12219 999999 16150 999999 12732 15752 999999 999999
999999 999999 999999 999999 999999 999999 999999 999999 999999 999999 999999 999999 999999 999999 999999 999999 0 999999 999999 999999 999999 999999 999999 15788 16883 999999 15590 13796 19395 10414 999999 999999 999999 999999 10998 999999 19740 999999 19805 18972 999999 999999
999999 999999 999999 999999 999999 999999 999999 999999 999999 999999 999999 999999 999999 999999 999999 999999 999999 0 999999 999999 999999 999999 999999 10001 16468 999999 15405 19969 13339 13973 999999 999999 999999 999999 15341 999999 13900 999999 17247 17238 999999 999999
999999 999999 999999 999999 999999 999999 999999 999999 999999 999999 999999 999999 999999 999999 999999 999999 999999 999999 0 999999 999999 999999 999999 10114 16672 999999 12058 13377 16452 15318 999999 999999 999999 999999 18832 999999 17379 999999 11663 12036 999999 999999
999999 999999 999999 999999 999999 999999 999999 999999 999999 999999 999999 999999 999999 999999 999999 999999 999999 999999 999999 0 999999 999999 999999 14551 13309 999999 17052 19017 10004 15838 999999 999999 999999 999999 11740 999999 12915 999999 16363 13984 999999 999999
999999 999999 999999 999999 999999 999999 999999 999999 999999 999999 999999 999999 999999 999999 999999 999999 999999 999999 999999 999999 0 999999 999999 13175 12550 999999 19599 13878 19839 19522 999999 999999 999999 999999 18784 999999 13172 999999 15519 10343 999999 999999
999999 19174 14771 11271 17693 18138 19732 14593 17109 16088 16308 17433 17692 17459 15980 13632 19029 19844 14193 17990 10922 0 999999 999999 999999 999999 999999 999999 999999 999999 999999 999999 999999 999999 999999 999999 999999 999999 999999 999999 999999 14070
999999 18757 17688 13997 13480 18906 11574 11187 17354 15617 11826 12522 16634 18061 14420 12923 18780 18278 17520 18221 19499 999999 0 999999 999999 999999 999999 999999 999999 999999 999999 999999 999999 999999 999999 999999 999999 999999 999999 999999 999999 7509
999999 19773 12248 19661 14106 17276 15120 17919 14135 12386 10372 13036 14891 17182 15696 10140 15788 10001 10114 14551 13175 999999 999999 0 999999 999999 999999 999999 999999 999999 999999 999999 999999 999999 999999 999999 999999 999999 999999 999999 999999 8475
999999 10298 17414 10743 18555 12943 18146 15969 19478 19374 14437 12399 13360 13316 15074 10042 16883 16468 16672 13309 12550 999999 999999 999999 0 999999 999999 999999 999999 999999 999999 999999 999999 999999 999999 999999 999999 999999 999999 999999 999999 11667
999999 12378 18761 17079 11556 14127 18085 15002 15222 17661 18002 14611 18985 12735 18633 17866 13925 14235 14191 14870 12972 999999 999999 999999 999999 0 999999 999999 999999 999999 999999 999999 999999 999999 999999 999999 999999 999999 999999 999999 999999 11767
999999 18076 14052 18889 12173 16066 12859 18771 15209 13517 12852 11616 13418 18885 17207 19632 15590 15405 12058 17052 19599 999999 999999 999999 999999 999999 0 999999 999999 999999 999999 999999 999999 999999 999999 999999 999999 999999 999999 999999 999999 13373
999999 11695 12629 15248 11000 10227 15404 11178 14927 12807 11301 13443 18951 14980 10723 13137 13796 19969 13377 19017 13878 999999 999999 999999 999999 999999 999999 0 999999 999999 999999 999999 999999 999999 999999 999999 999999 999999 999999 999999 999999 8338
999999 13866 17047 19954 19945 13182 12053 18533 17131 11436 15268 15570 11970 11299 13233 10708 19395 13339 16452 10004 19839 999999 999999 999999 999999 999999 999999 999999 0 999999 999999 999999 999999 999999 999999 999999 999999 999999 999999 999999 999999 9056
999999 17527 17618 16237 15929 10088 11514 15540 17006 13395 17262 14957 17322 18668 14076 13954 10414 13973 15318 15838 19522 999999 999999 999999 999999 999999 999999 999999 999999 0 999999 999999 999999 999999 999999 999999 999999 999999 999999 999999 999999 10681
999999 11928 17500 13244 13293 13947 12810 10532 12135 10525 10825 10657 10828 10130 16779 13722 14375 17058 16426 14324 17680 999999 999999 999999 999999 999999 999999 999999 999999 999999 0 999999 999999 999999 999999 999999 999999 999999 999999 999999 999999 12941
999999 17162 17559 17953 14313 13308 18785 14364 12891 16638 19444 18421 15098 12613 15604 18084 17259 17151 13054 13020 10102 999999 999999 999999 999999 999999 999999 999999 999999 999999 999999 0 999999 999999 999999 999999 999999 999999 999999 999999 999999 5142
999999 18120 19655 17629 15085 10912 18496 11091 13185 16683 10782 13818 13863 19684 12269 18737 11434 11438 10588 17317 14523 999999 999999 999999 999999 999999 999999 999999 999999 999999 999999 999999 0 999999 999999 999999 999999 999999 999999 999999 999999 6088
999999 12232 10270 10968 10311 13293 16516 15908 18902 19235 14565 12307 12961 15470 14709 13945 10640 18535 16704 14484 15125 999999 999999 999999 999999 999999 999999 999999 999999 999999 999999 999999 999999 0 999999 999999 999999 999999 999999 999999 999999 10361
999999 16179 14895 19653 13738 18727 19507 18941 10426 10106 17638 14424 12136 17611 11295 12219 10998 15341 18832 11740 18784 999999 999999 999999 999999 999999 999999 999999 999999 999999 999999 999999 999999 999999 0 999999 999999 999999 999999 999999 999999 12226
999999 11763 16947 16530 11753 18370 13497 10936 13699 13056 15062 12033 11325 14629 19696 10843 10921 10164 18161 16876 17558 999999 999999 999999 999999 999999 999999 999999 999999 999999 999999 999999 999999 999999 999999 0 999999 999999 999999 999999 999999 11361
999999 12909 15980 16326 17102 11434 18069 19871 16404 13526 16600 15807 16936 16078 14050 16150 19740 13900 17379 12915 13172 999999 999999 999999 999999 999999 999999 999999 999999 999999 999999 999999 999999 999999 999999 999999 0 999999 999999 999999 999999 11385
999999 16954 13392 16229 17003 18193 15883 14393 17034 17418 11770 11254 17988 17450 16257 11360 18949 11287 11211 10414 12700 999999 999999 999999 999999 999999 999999 999999 999999 999999 999999 999999 999999 999999 999999 999999 999999 0 999999 999999 999999 8057
999999 19088 10224 13619 16591 10831 13809 19463 10472 18596 11179 17460 11497 15788 13500 12732 19805 17247 11663 16363 15519 999999 999999 999999 999999 999999 999999 999999 999999 999999 999999 999999 999999 999999 999999 999999 999999 999999 0 999999 999999 6552
999999 17344 10954 17892 13121 16014 19538 15951 19273 11597 19035 17130 12039 16668 11189 15752 18972 17238 12036 13984 10343 999999 999999 999999 999999 999999 999999 999999 999999 999999 999999 999999 999999 999999 999999 999999 999999 999999 999999 0 999999 11628
999999 17503 17447 17024 10408 13731 17668 13228 10293 17486 11009 19061 14696 18540 14660 13100 15639 10713 17580 18621 10227 999999 999999 999999 999999 999999 999999 999999 999999 999999 999999 999999 999999 999999 999999 999999 999999 999999 999999 999999 0 6367
1 999999 999999 999999 999999 999999 999999 999999 999999 999999 999999 999999 999999 999999 999999 999999 999999 999999 999999 999999 999999 999999 999999 999999 999999 999999 999999 999999 999999 999999 999999 999999 999999 999999 999999 999999 999999 999999 999999 999999 999999 0
EOF