NAME: GR_1x5x6_KH_5x6_Run_2
TYPE: TSP
COMMENT: BTSP instance |A|=30 GR nodes |B|=30 KH nodes depot=0.0 end=0.0.0
DIMENSION: 62
EDGE_WEIGHT_TYPE: EXPLICIT
EDGE_WEIGHT_FORMAT: FULL_MATRIX
NODE_COORD_TYPE: NO_COORDS
EDGE_WEIGHT_SECTION
0 12475 7067 11764 7135 13455 6037 13633 10131 14779 14298 8555 9858 7844 12033 5241 11231 10687 14420 7834 14201 5122 9708 14402 11699 7955 6262 14963 9035 7769 10480 999999 999999 999999 999999 999999 999999 999999 999999 999999 999999 999999 999999 999999 999999 999999 999999 999999 999999 999999 999999 999999 999999 999999 999999 999999 999999 999999 999999 999999 999999 999999
999999 0 999999 999999 999999 999999 999999 999999 999999 999999 999999 999999 999999 999999 999999 999999 999999 999999 999999 999999 999999 999999 999999 999999 999999 999999 999999 999999 999999 999999 999999 999999 14720 999999 999999 16243 999999 999999 12555 999999 999999 999999 999999 999999 11176 999999 999999 999999 15298 999999 999999 999999 999999 999999 999999 999999 999999 999999 999999 14024 999999 999999
999999 999999 0 999999 999999 999999 999999 999999 999999 999999 999999 999999 999999 999999 999999 999999 999999 999999 999999 999999 999999 999999 999999 999999 999999 999999 999999 999999 999999 999999 999999 999999 17666 999999 999999 13606 999999 999999 19184 999999 999999 999999 999999 999999 18217 999999 999999 999999 10972 999999 999999 999999 999999 999999 999999 999999 999999 999999 999999 14416 999999 999999
999999 999999 999999 0 999999 999999 999999 999999 999999 999999 999999 999999 999999 999999 999999 999999 999999 999999 999999 999999 999999 999999 999999 999999 999999 999999 999999 999999 999999 999999 999999 999999 12693 999999 999999 11100 999999 999999 10710 999999 999999 999999 999999 999999 12851 999999 999999 999999 19391 999999 999999 999999 999999 999999 999999 999999 999999 999999 999999 13254 999999 999999
999999 999999 999999 999999 0 999999 999999 999999 999999 999999 999999 999999 999999 999999 999999 999999 999999 999999 999999 999999 999999 999999 999999 999999 999999 999999 999999 999999 999999 999999 999999 999999 16075 999999 999999 19953 999999 999999 18478 999999 999999 999999 999999 999999 16562 999999 999999 999999 10714 999999 999999 999999 999999 999999 999999 999999 999999 999999 999999 14526 999999 999999
999999 999999 999999 999999 999999 0 999999 999999 999999 999999 999999 999999 999999 999999 999999 999999 999999 999999 999999 999999 999999 999999 999999 999999 999999 999999 999999 999999 999999 999999 999999 999999 19557 999999 999999 19390 999999 999999 13094 999999 999999 999999 999999 999999 18089 999999 999999 999999 18169 999999 999999 999999 999999 999999 999999 999999 999999 999999 999999 16933 999999 999999
999999 999999 999999 999999 999999 999999 0 999999 999999 999999 999999 999999 999999 999999 999999 999999 999999 999999 999999 999999 999999 999999 999999 999999 999999 999999 999999 999999 999999 999999 999999 999999 11915 999999 999999 14618 999999 999999 10643 999999 999999 999999 999999 999999 10954 999999 999999 999999 14562 999999 999999 999999 999999 999999 999999 999999 999999 999999 999999 12890 999999 999999
999999 999999 999999 999999 999999 999999 999999 0 999999 999999 999999 999999 999999 999999 999999 999999 999999 999999 999999 999999 999999 999999 999999 999999 999999 999999 999999 999999 999999 999999 999999 999999 999999 999999 999999 999999 999999 999999 999999 999999 999999 999999 11323 999999 999999 999999 999999 999999 999999 13223 999999 999999 15639 19517 17267 13348 999999 999999 999999 999999 999999 999999
999999 999999 999999 999999 999999 999999 999999 999999 0 999999 999999 999999 999999 999999 999999 999999 999999 999999 999999 999999 999999 999999 999999 999999 999999 999999 999999 999999 999999 999999 999999 999999 999999 999999 999999 999999 999999 999999 999999 999999 999999 999999 19329 999999 999999 999999 999999 999999 999999 15808 999999 999999 14339 11802 15454 18160 999999 999999 999999 999999 999999 999999
999999 999999 999999 999999 999999 999999 999999 999999 999999 0 999999 999999 999999 999999 999999 999999 999999 999999 999999 999999 999999 999999 999999 999999 999999 999999 999999 999999 999999 999999 999999 999999 999999 999999 999999 999999 999999 999999 999999 999999 999999 999999 13750 999999 999999 999999 999999 999999 999999 19781 999999 999999 16414 12545 13777 10156 999999 999999 999999 999999 999999 999999
999999 999999 999999 999999 999999 999999 999999 999999 999999 999999 0 999999 999999 999999 999999 999999 999999 999999 999999 999999 999999 999999 999999 999999 999999 999999 999999 999999 999999 999999 999999 999999 999999 999999 999999 999999 999999 999999 999999 999999 999999 999999 12175 999999 999999 999999 999999 999999 999999 10182 999999 999999 18464 13048 13005 13662 999999 999999 999999 999999 999999 999999
999999 999999 999999 999999 999999 999999 999999 999999 999999 999999 999999 0 999999 999999 999999 999999 999999 999999 999999 999999 999999 999999 999999 999999 999999 999999 999999 999999 999999 999999 999999 999999 999999 999999 999999 999999 999999 999999 999999 999999 999999 999999 11934 999999 999999 999999 999999 999999 999999 10156 999999 999999 19036 18557 16681 17261 999999 999999 999999 999999 999999 999999
999999 999999 999999 999999 999999 999999 999999 999999 999999 999999 999999 999999 0 999999 999999 999999 999999 999999 999999 999999 999999 999999 999999 999999 999999 999999 999999 999999 999999 999999 999999 999999 999999 999999 999999 999999 999999 999999 999999 999999 999999 999999 11418 999999 999999 999999 999999 999999 999999 18255 999999 999999 13261 18745 12683 18858 999999 999999 999999 999999 999999 999999
999999 999999 999999 999999 999999 999999 999999 999999 999999 999999 999999 999999 999999 0 999999 999999 999999 999999 999999 999999 999999 999999 999999 999999 999999 999999 999999 999999 999999 999999 999999 999999 999999 999999 999999 999999 999999 12994 999999 999999 999999 15758 999999 999999 999999 999999 999999 12243 999999 999999 11576 14650 999999 999999 999999 999999 999999 999999 12207 999999 999999 999999
999999 999999 999999 999999 999999 999999 999999 999999 999999 999999 999999 999999 999999 999999 0 999999 999999 999999 999999 999999 999999 999999 999999 999999 999999 999999 999999 999999 999999 999999 999999 999999 999999 999999 999999 999999 999999 17888 999999 999999 999999 14897 999999 999999 999999 999999 999999 19527 999999 999999 12111 12961 999999 999999 999999 999999 999999 999999 12021 999999 999999 999999
999999 999999 999999 999999 999999 999999 999999 999999 999999 999999 999999 999999 999999 999999 999999 0 999999 999999 999999 999999 999999 999999 999999 999999 999999 999999 999999 999999 999999 999999 999999 999999 999999 999999 999999 999999 999999 12985 999999 999999 999999 11920 999999 999999 999999 999999 999999 17986 999999 999999 18497 19906 999999 999999 999999 999999 999999 999999 14127 999999 999999 999999
999999 999999 999999 999999 999999 999999 999999 999999 999999 999999 999999 999999 999999 999999 999999 999999 0 999999 999999 999999 999999 999999 999999 999999 999999 999999 999999 999999 999999 999999 999999 999999 999999 999999 999999 999999 999999 12365 999999 999999 999999 13165 999999 999999 999999 999999 999999 15435 999999 999999 11101 18418 999999 999999 999999 999999 999999 999999 18731 999999 999999 999999
999999 999999 999999 999999 999999 999999 999999 999999 999999 999999 999999 999999 999999 999999 999999 999999 999999 0 999999 999999 999999 999999 999999 999999 999999 999999 999999 999999 999999 999999 999999 999999 999999 999999 999999 999999 999999 17663 999999 999999 999999 13274 999999 999999 999999 999999 999999 11122 999999 999999 12547 14594 999999 999999 999999 999999 999999 999999 14190 999999 999999 999999
999999 999999 999999 999999 999999 999999 999999 999999 999999 999999 999999 999999 999999 999999 999999 999999 999999 999999 0 999999 999999 999999 999999 999999 999999 999999 999999 999999 999999 999999 999999 999999 999999 999999 999999 999999 999999 17055 999999 999999 999999 17026 999999 999999 999999 999999 999999 19550 999999 999999 12720 13579 999999 999999 999999 999999 999999 999999 16308 999999 999999 999999
999999 999999 999999 999999 999999 999999 999999 999999 999999 999999 999999 999999 999999 999999 999999 999999 999999 999999 999999 0 999999 999999 999999 999999 999999 999999 999999 999999 999999 999999 999999 11791 999999 14076 999999 999999 999999 999999 999999 999999 999999 999999 999999 15264 999999 999999 18057 999999 999999 999999 999999 999999 999999 999999 999999 999999 999999 17635 999999 999999 19771 999999
999999 999999 999999 999999 999999 999999 999999 999999 999999 999999 999999 999999 999999 999999 999999 999999 999999 999999 999999 999999 0 999999 999999 999999 999999 999999 999999 999999 999999 999999 999999 15130 999999 18842 999999 999999 999999 999999 999999 999999 999999 999999 999999 13988 999999 999999 14927 999999 999999 999999 999999 999999 999999 999999 999999 999999 999999 17515 999999 999999 17186 999999
999999 999999 999999 999999 999999 999999 999999 999999 999999 999999 999999 999999 999999 999999 999999 999999 999999 999999 999999 999999 999999 0 999999 999999 999999 999999 999999 999999 999999 999999 999999 19368 999999 16335 999999 999999 999999 999999 999999 999999 999999 999999 999999 19224 999999 999999 11727 999999 999999 999999 999999 999999 999999 999999 999999 999999 999999 13991 999999 999999 15486 999999
999999 999999 999999 999999 999999 999999 999999 999999 999999 999999 999999 999999 999999 999999 999999 999999 999999 999999 999999 999999 999999 999999 0 999999 999999 999999 999999 999999 999999 999999 999999 18476 999999 17570 999999 999999 999999 999999 999999 999999 999999 999999 999999 19941 999999 999999 12977 999999 999999 999999 999999 999999 999999 999999 999999 999999 999999 11788 999999 999999 13950 999999
999999 999999 999999 999999 999999 999999 999999 999999 999999 999999 999999 999999 999999 999999 999999 999999 999999 999999 999999 999999 999999 999999 999999 0 999999 999999 999999 999999 999999 999999 999999 11914 999999 10912 999999 999999 999999 999999 999999 999999 999999 999999 999999 10939 999999 999999 15607 999999 999999 999999 999999 999999 999999 999999 999999 999999 999999 15249 999999 999999 15839 999999
999999 999999 999999 999999 999999 999999 999999 999999 999999 999999 999999 999999 999999 999999 999999 999999 999999 999999 999999 999999 999999 999999 999999 999999 0 999999 999999 999999 999999 999999 999999 13167 999999 12052 999999 999999 999999 999999 999999 999999 999999 999999 999999 13742 999999 999999 12254 999999 999999 999999 999999 999999 999999 999999 999999 999999 999999 16181 999999 999999 12455 999999
999999 999999 999999 999999 999999 999999 999999 999999 999999 999999 999999 999999 999999 999999 999999 999999 999999 999999 999999 999999 999999 999999 999999 999999 999999 0 999999 999999 999999 999999 999999 999999 999999 999999 11355 999999 14062 999999 999999 12519 16202 999999 999999 999999 999999 15816 999999 999999 999999 999999 999999 999999 999999 999999 999999 999999 12782 999999 999999 999999 999999 999999
999999 999999 999999 999999 999999 999999 999999 999999 999999 999999 999999 999999 999999 999999 999999 999999 999999 999999 999999 999999 999999 999999 999999 999999 999999 999999 0 999999 999999 999999 999999 999999 999999 999999 15613 999999 19794 999999 999999 19361 10180 999999 999999 999999 999999 18775 999999 999999 999999 999999 999999 999999 999999 999999 999999 999999 10110 999999 999999 999999 999999 999999
999999 999999 999999 999999 999999 999999 999999 999999 999999 999999 999999 999999 999999 999999 999999 999999 999999 999999 999999 999999 999999 999999 999999 999999 999999 999999 999999 0 999999 999999 999999 999999 999999 999999 17211 999999 12591 999999 999999 14132 16306 999999 999999 999999 999999 18347 999999 999999 999999 999999 999999 999999 999999 999999 999999 999999 16287 999999 999999 999999 999999 999999
999999 999999 999999 999999 999999 999999 999999 999999 999999 999999 999999 999999 999999 999999 999999 999999 999999 999999 999999 999999 999999 999999 999999 999999 999999 999999 999999 999999 0 999999 999999 999999 999999 999999 18748 999999 18383 999999 999999 18301 13179 999999 999999 999999 999999 13593 999999 999999 999999 999999 999999 999999 999999 999999 999999 999999 14418 999999 999999 999999 999999 999999
999999 999999 999999 999999 999999 999999 999999 999999 999999 999999 999999 999999 999999 999999 999999 999999 999999 999999 999999 999999 999999 999999 999999 999999 999999 999999 999999 999999 999999 0 999999 999999 999999 999999 13373 999999 14063 999999 999999 12498 11280 999999 999999 999999 999999 17998 999999 999999 999999 999999 999999 999999 999999 999999 999999 999999 13160 999999 999999 999999 999999 999999
999999 999999 999999 999999 999999 999999 999999 999999 999999 999999 999999 999999 999999 999999 999999 999999 999999 999999 999999 999999 999999 999999 999999 999999 999999 999999 999999 999999 999999 999999 0 999999 999999 999999 18480 999999 14290 999999 999999 15302 13413 999999 999999 999999 999999 18256 999999 999999 999999 999999 999999 999999 999999 999999 999999 999999 13442 999999 999999 999999 999999 999999
999999 15763 12197 12837 17099 10301 11935 11624 16032 14901 17016 11626 14593 14553 15955 14498 11134 17088 16437 11791 15130 19368 18476 11914 13167 12177 12476 14983 13566 16629 15628 0 999999 999999 999999 999999 999999 999999 999999 999999 999999 999999 999999 999999 999999 999999 999999 999999 999999 999999 999999 999999 999999 999999 999999 999999 999999 999999 999999 999999 999999 5848
999999 14720 17666 12693 16075 19557 11915 19758 12350 16260 13833 12032 12643 18198 15128 19737 15748 15440 16320 11569 19706 18944 10804 10558 17128 13896 17295 14436 15685 18614 13282 999999 0 999999 999999 999999 999999 999999 999999 999999 999999 999999 999999 999999 999999 999999 999999 999999 999999 999999 999999 999999 999999 999999 999999 999999 999999 999999 999999 999999 999999 11584
999999 16574 16021 16966 17177 15388 15845 10585 16824 16891 17823 10414 17727 11617 10252 11281 11504 12050 18115 14076 18842 16335 17570 10912 12052 17812 17121 16716 14687 11880 10995 999999 999999 0 999999 999999 999999 999999 999999 999999 999999 999999 999999 999999 999999 999999 999999 999999 999999 999999 999999 999999 999999 999999 999999 999999 999999 999999 999999 999999 999999 13933
999999 16478 12193 14578 14040 11763 16079 19049 19012 16182 16924 13152 18112 13117 16473 18692 14724 11036 11430 17573 19094 17748 12123 11946 14086 11355 15613 17211 18748 13373 18480 999999 999999 999999 0 999999 999999 999999 999999 999999 999999 999999 999999 999999 999999 999999 999999 999999 999999 999999 999999 999999 999999 999999 999999 999999 999999 999999 999999 999999 999999 12225
999999 16243 13606 11100 19953 19390 14618 15967 15610 11694 11587 19767 18092 15504 13989 14364 17877 11299 11249 17004 16679 12674 16887 16219 12734 13530 15584 10217 11595 11382 19211 999999 999999 999999 999999 0 999999 999999 999999 999999 999999 999999 999999 999999 999999 999999 999999 999999 999999 999999 999999 999999 999999 999999 999999 999999 999999 999999 999999 999999 999999 7087
999999 11767 15854 18751 10596 17631 13362 11415 17826 14623 18842 13162 19445 15682 18197 16127 16427 18368 13220 14732 13957 19417 17993 12517 17321 14062 19794 12591 18383 14063 14290 999999 999999 999999 999999 999999 0 999999 999999 999999 999999 999999 999999 999999 999999 999999 999999 999999 999999 999999 999999 999999 999999 999999 999999 999999 999999 999999 999999 999999 999999 6406
999999 12230 14324 10663 13642 14373 13201 13891 17202 11514 17023 14230 12232 12994 17888 12985 12365 17663 17055 12014 16979 13663 17503 16345 17849 17459 15889 16445 15669 17081 12328 999999 999999 999999 999999 999999 999999 0 999999 999999 999999 999999 999999 999999 999999 999999 999999 999999 999999 999999 999999 999999 999999 999999 999999 999999 999999 999999 999999 999999 999999 8511
999999 12555 19184 10710 18478 13094 10643 17992 17067 12269 19409 17018 15315 18944 16267 18323 16050 14863 18610 13071 10331 14115 19359 18630 17717 13177 14322 16111 12136 19275 18145 999999 999999 999999 999999 999999 999999 999999 0 999999 999999 999999 999999 999999 999999 999999 999999 999999 999999 999999 999999 999999 999999 999999 999999 999999 999999 999999 999999 999999 999999 8035
999999 12316 12594 14419 19546 11865 10198 10658 17762 19561 10412 11094 15293 19059 12112 11492 12021 17427 16717 14592 19157 15744 16163 13508 19228 12519 19361 14132 18301 12498 15302 999999 999999 999999 999999 999999 999999 999999 999999 0 999999 999999 999999 999999 999999 999999 999999 999999 999999 999999 999999 999999 999999 999999 999999 999999 999999 999999 999999 999999 999999 13809
999999 17634 13423 17320 15735 19390 11099 15696 15467 13571 17018 10378 17872 19760 12145 10928 13461 17674 16370 10177 17101 13206 13200 19031 12959 16202 10180 16306 13179 11280 13413 999999 999999 999999 999999 999999 999999 999999 999999 999999 0 999999 999999 999999 999999 999999 999999 999999 999999 999999 999999 999999 999999 999999 999999 999999 999999 999999 999999 999999 999999 12110
999999 16407 14742 14293 16185 12218 16185 16069 11536 13794 18311 18371 10039 15758 14897 11920 13165 13274 17026 14434 14781 17536 16622 16530 13808 11727 18245 16944 12188 10486 14351 999999 999999 999999 999999 999999 999999 999999 999999 999999 999999 0 999999 999999 999999 999999 999999 999999 999999 999999 999999 999999 999999 999999 999999 999999 999999 999999 999999 999999 999999 11553
999999 10059 17996 10087 11917 19843 17606 11323 19329 13750 12175 11934 11418 12150 18773 10294 11971 15988 12694 16703 11883 16541 14479 13542 19740 10246 13809 19614 12213 11286 19373 999999 999999 999999 999999 999999 999999 999999 999999 999999 999999 999999 0 999999 999999 999999 999999 999999 999999 999999 999999 999999 999999 999999 999999 999999 999999 999999 999999 999999 999999 7791
999999 14357 11287 14454 18450 10841 10738 16755 14968 12499 15312 10954 13260 14346 15562 14717 18828 18284 11476 15264 13988 19224 19941 10939 13742 19805 13542 11643 15517 11726 11132 999999 999999 999999 999999 999999 999999 999999 999999 999999 999999 999999 999999 0 999999 999999 999999 999999 999999 999999 999999 999999 999999 999999 999999 999999 999999 999999 999999 999999 999999 5677
999999 11176 18217 12851 16562 18089 10954 11509 11797 11348 10475 19336 19623 10160 16312 15511 13867 11492 19594 10951 14321 18786 12267 10958 12282 19923 10671 14552 19314 18613 18746 999999 999999 999999 999999 999999 999999 999999 999999 999999 999999 999999 999999 999999 0 999999 999999 999999 999999 999999 999999 999999 999999 999999 999999 999999 999999 999999 999999 999999 999999 10656
999999 13617 14903 16946 13528 13719 10494 15929 17092 18977 18244 17214 13676 18383 19838 15162 16572 18264 17665 14791 15488 17386 12848 12359 11169 15816 18775 18347 13593 17998 18256 999999 999999 999999 999999 999999 999999 999999 999999 999999 999999 999999 999999 999999 999999 0 999999 999999 999999 999999 999999 999999 999999 999999 999999 999999 999999 999999 999999 999999 999999 8429
999999 11425 17858 15663 18643 11598 18286 18522 13708 15201 13170 18280 12514 10861 19833 17702 19282 13843 12288 18057 14927 11727 12977 15607 12254 18385 14559 13841 12938 11318 10613 999999 999999 999999 999999 999999 999999 999999 999999 999999 999999 999999 999999 999999 999999 999999 0 999999 999999 999999 999999 999999 999999 999999 999999 999999 999999 999999 999999 999999 999999 14564
999999 13367 15136 12061 14495 17243 12051 17011 10026 14483 18771 14862 15903 12243 19527 17986 15435 11122 19550 12369 13777 14684 17892 10929 11763 19795 18466 11919 16089 17428 12082 999999 999999 999999 999999 999999 999999 999999 999999 999999 999999 999999 999999 999999 999999 999999 999999 0 999999 999999 999999 999999 999999 999999 999999 999999 999999 999999 999999 999999 999999 12796
999999 15298 10972 19391 10714 18169 14562 12689 17452 16494 18478 10545 15287 11222 19600 10229 12438 14224 17024 18875 12211 14847 12735 16573 11828 13068 16300 19016 16327 16491 14240 999999 999999 999999 999999 999999 999999 999999 999999 999999 999999 999999 999999 999999 999999 999999 999999 999999 0 999999 999999 999999 999999 999999 999999 999999 999999 999999 999999 999999 999999 14148
999999 14141 10755 11051 19144 11217 17358 13223 15808 19781 10182 10156 18255 19861 19234 15048 12460 10808 12251 12732 14307 11683 14100 15607 12156 19877 10803 11620 17180 15183 18297 999999 999999 999999 999999 999999 999999 999999 999999 999999 999999 999999 999999 999999 999999 999999 999999 999999 999999 0 999999 999999 999999 999999 999999 999999 999999 999999 999999 999999 999999 5115
999999 13120 18915 11029 13591 18811 17217 10534 10881 17989 11580 13622 16027 11576 12111 18497 11101 12547 12720 11340 11119 13486 19141 18259 14092 11973 14881 14606 14935 12461 16025 999999 999999 999999 999999 999999 999999 999999 999999 999999 999999 999999 999999 999999 999999 999999 999999 999999 999999 999999 0 999999 999999 999999 999999 999999 999999 999999 999999 999999 999999 5242
999999 13200 16074 12175 18129 11860 13229 15226 18755 18102 10898 16583 17769 14650 12961 19906 18418 14594 13579 12669 14858 19102 16727 18882 16854 16263 10567 10933 14708 18078 12228 999999 999999 999999 999999 999999 999999 999999 999999 999999 999999 999999 999999 999999 999999 999999 999999 999999 999999 999999 999999 0 999999 999999 999999 999999 999999 999999 999999 999999 999999 5334
999999 12569 11305 15825 14583 11431 10104 15639 14339 16414 18464 19036 13261 13208 18421 18273 14006 16059 10550 15531 15259 18918 11153 13063 18247 18581 10341 12986 18001 13413 10358 999999 999999 999999 999999 999999 999999 999999 999999 999999 999999 999999 999999 999999 999999 999999 999999 999999 999999 999999 999999 999999 0 999999 999999 999999 999999 999999 999999 999999 999999 10688
999999 16534 19053 12482 15948 18969 14170 19517 11802 12545 13048 18557 18745 16069 14039 10907 11116 14832 17192 14615 10106 19690 12490 18244 15186 14850 14879 16288 17057 17002 19476 999999 999999 999999 999999 999999 999999 999999 999999 999999 999999 999999 999999 999999 999999 999999 999999 999999 999999 999999 999999 999999 999999 0 999999 999999 999999 999999 999999 999999 999999 11002
999999 11316 12000 19268 15283 17121 14208 17267 15454 13777 13005 16681 12683 10240 12587 14231 15562 11435 12834 13196 15256 15452 19197 12103 14764 13648 19129 16513 12421 19552 11965 999999 999999 999999 999999 999999 999999 999999 999999 999999 999999 999999 999999 999999 999999 999999 999999 999999 999999 999999 999999 999999 999999 999999 0 999999 999999 999999 999999 999999 999999 7237
999999 10680 13614 10564 12857 15165 15809 13348 18160 10156 13662 17261 18858 13924 13918 11606 16954 11659 11047 10218 19535 15779 15809 11237 10331 17676 11134 10872 19972 16270 19909 999999 999999 999999 999999 999999 999999 999999 999999 999999 999999 999999 999999 999999 999999 999999 999999 999999 999999 999999 999999 999999 999999 999999 999999 0 999999 999999 999999 999999 999999 7748
999999 13012 19205 11945 16279 16420 18134 17773 10904 17419 10939 14595 15187 18072 12939 12375 18756 14746 10794 15563 19506 15304 18098 14565 10506 12782 10110 16287 14418 13160 13442 999999 999999 999999 999999 999999 999999 999999 999999 999999 999999 999999 999999 999999 999999 999999 999999 999999 999999 999999 999999 999999 999999 999999 999999 999999 0 999999 999999 999999 999999 13871
999999 18658 11804 18485 14553 16575 17077 13748 13808 19357 17330 18226 17241 16955 14166 16187 14128 19585 11493 17635 17515 13991 11788 15249 16181 11123 14398 15712 11308 10636 13455 999999 999999 999999 999999 999999 999999 999999 999999 999999 999999 999999 999999 999999 999999 999999 999999 999999 999999 999999 999999 999999 999999 999999 999999 999999 999999 0 999999 999999 999999 13213
999999 19497 14779 11368 13800 17502 16928 18636 16192 17896 18687 14712 13173 12207 12021 14127 18731 14190 16308 16207 10485 14655 12890 11384 10045 12311 13093 15877 17352 18720 12539 999999 999999 999999 999999 999999 999999 999999 999999 999999 999999 999999 999999 999999 999999 999999 999999 999999 999999 999999 999999 999999 999999 999999 999999 999999 999999 999999 0 999999 999999 13014
999999 14024 14416 13254 14526 16933 12890 14062 17707 17969 14001 11585 15386 18650 19224 17835 17628 18113 19726 12981 13108 16091 10850 14795 10977 13258 15244 13703 14955 10511 14629 999999 999999 999999 999999 999999 999999 999999 999999 999999 999999 999999 999999 999999 999999 999999 999999 999999 999999 999999 999999 999999 999999 999999 999999 999999 999999 999999 999999 0 999999 6304
999999 10248 12389 17892 16533 12431 13061 16728 14429 18484 11643 18193 19786 17778 10411 14707 11211 12555 15683 19771 17186 15486 13950 15839 12455 11627 13292 16594 17868 11381 18931 999999 999999 999999 999999 999999 999999 999999 999999 999999 999999 999999 999999 999999 999999 999999 999999 999999 999999 999999 999999 999999 999999 999999 999999 999999 999999 999999 999999 999999 0 12189
1 999999 999999 999999 999999 999999 999999 999999 999999 999999 999999 999999 999999 999999 999999 999999 999999 999999 999999 999999 999999 999999 999999 999999 999999 999999 999999 999999 999999 999999 999999 999999 999999 999999 999999 999999 999999 999999 999999 999999 999999 999999 999999 999999 999999 999999 999999 999999 999999 999999 999999 999999 999999 999999 999999 999999 999999 999999 999999 999999 999999 0
EOF