NAME: GR_1x2x5_KH_2x5_Run_7
TYPE: TSP
COMMENT: BTSP instance |A|=10 GR nodes |B|=10 KH nodes depot=0.0 end=0.0.0
DIMENSION: 22
EDGE_WEIGHT_TYPE: EXPLICIT
EDGE_WEIGHT_FORMAT: FULL_MATRIX
NODE_COORD_TYPE: NO_COORDS
EDGE_WEIGHT_SECTION
0 14713 11615 12784 14038 5527 5419 14179 14554 8180 8944 999999 999999 999999 999999 999999 999999 999999 999999 999999 999999 999999
999999 0 999999 999999 999999 999999 999999 999999 999999 999999 999999 19451 999999 999999 999999 999999 999999 999999 999999 999999 999999 999999
999999 999999 0 999999 999999 999999 999999 999999 999999 999999 999999 999999 18469 999999 999999 999999 999999 999999 999999 999999 999999 999999
999999 999999 999999 0 999999 999999 999999 999999 999999 999999 999999 999999 999999 16298 999999 999999 999999 999999 999999 999999 999999 999999
999999 999999 999999 999999 0 999999 999999 999999 999999 999999 999999 999999 999999 999999 11934 999999 999999 999999 999999 999999 999999 999999
999999 999999 999999 999999 999999 0 999999 999999 999999 999999 999999 999999 999999 999999 999999 11050 999999 999999 999999 999999 999999 999999
999999 999999 999999 999999 999999 999999 0 999999 999999 999999 999999 999999 999999 999999 999999 999999 11410 999999 999999 999999 999999 999999
999999 999999 999999 999999 999999 999999 999999 0 999999 999999 999999 999999 999999 999999 999999 999999 999999 10964 999999 999999 999999 999999
999999 999999 999999 999999 999999 999999 999999 999999 0 999999 999999 999999 999999 999999 999999 999999 999999 999999 18929 999999 999999 999999
999999 999999 999999 999999 999999 999999 999999 999999 999999 0 999999 999999 999999 999999 999999 999999 999999 999999 999999 15093 999999 999999
999999 999999 999999 999999 999999 999999 999999 999999 999999 999999 0 999999 999999 999999 999999 999999 999999 999999 999999 999999 10612 999999
999999 19451 11101 17677 16290 11903 11142 11306 15577 16652 10755 0 999999 999999 999999 999999 999999 999999 999999 999999 999999 11054
999999 19394 18469 13653 19310 18611 11939 19630 11976 17171 18931 999999 0 999999 999999 999999 999999 999999 999999 999999 999999 8756
999999 11133 14614 16298 18586 19210 18548 11522 12243 16378 19267 999999 999999 0 999999 999999 999999 999999 999999 999999 999999 14589
999999 11857 11392 13350 11934 16199 10666 12002 15375 17922 17134 999999 999999 999999 0 999999 999999 999999 999999 999999 999999 8678
999999 17060 10897 15371 15119 11050 17426 16304 15883 17435 15852 999999 999999 999999 999999 0 999999 999999 999999 999999 999999 13070
999999 13568 14269 18732 19149 11783 11410 16335 14394 10316 11655 999999 999999 999999 999999 999999 0 999999 999999 999999 999999 5335
999999 19863 13013 15290 19553 17175 18353 10964 11877 17290 11789 999999 999999 999999 999999 999999 999999 0 999999 999999 999999 9638
999999 11810 19649 16338 16214 10411 11317 16061 18929 11503 14470 999999 999999 999999 999999 999999 999999 999999 0 999999 999999 10139
999999 11722 17758 19498 18172 17101 16852 11245 16663 15093 16465 999999 999999 999999 999999 999999 999999 999999 999999 0 999999 13991
999999 19742 10311 14476 11288 19912 17921 11138 12920 15388 10612 999999 999999 999999 999999 999999 999999 999999 999999 999999 0 6899
1 999999 999999 999999 999999 999999 999999 999999 999999 999999 999999 999999 999999 999999 999999 999999 999999 999999 999999 999999 999999 0
EOF