NAME: GR_1x5x12_KH_5x12_Run_8
TYPE: TSP
COMMENT: BTSP instance |A|=60 GR nodes |B|=60 KH nodes depot=0.0 end=0.0.0
DIMENSION: 122
EDGE_WEIGHT_TYPE: EXPLICIT
EDGE_WEIGHT_FORMAT: FULL_MATRIX
NODE_COORD_TYPE: NO_COORDS
EDGE_WEIGHT_SECTION
0 7181 9853 8171 13500 9689 12230 13164 8844 5080 5617 10976 14894 6712 7200 14344 13566 13308 7295 14502 13622 12310 11846 8842 6323 12090 5239 10343 13835 12285 10583 5558 12143 10430 12583 13744 11928 13386 9831 7232 7159 8610 6366 11382 6899 9576 12842 9773 9153 7962 5738 12584 14252 14750 6959 11793 7492 10050 8732 6901 9534 999999 999999 999999 999999 999999 999999 999999 999999 999999 999999 999999 999999 999999 999999 999999 999999 999999 999999 999999 999999 999999 999999 999999 999999 999999 999999 999999 999999 999999 999999 999999 999999 999999 999999 999999 999999 999999 999999 999999 999999 999999 999999 999999 999999 999999 999999 999999 999999 999999 999999 999999 999999 999999 999999 999999 999999 999999 999999 999999 999999 999999
999999 0 999999 999999 999999 999999 999999 999999 999999 999999 999999 999999 999999 999999 999999 999999 999999 999999 999999 999999 999999 999999 999999 999999 999999 999999 999999 999999 999999 999999 999999 999999 999999 999999 999999 999999 999999 999999 999999 999999 999999 999999 999999 999999 999999 999999 999999 999999 999999 999999 999999 999999 999999 999999 999999 999999 999999 999999 999999 999999 999999 999999 999999 999999 999999 999999 14807 999999 10337 999999 999999 999999 999999 999999 12177 14217 999999 999999 999999 999999 999999 999999 13102 999999 11227 999999 999999 999999 999999 999999 999999 999999 999999 14624 999999 999999 999999 999999 999999 999999 11419 999999 999999 12759 999999 999999 999999 13069 999999 999999 999999 14562 999999 999999 999999 999999 999999 999999 999999 17774 999999 999999
999999 999999 0 999999 999999 999999 999999 999999 999999 999999 999999 999999 999999 999999 999999 999999 999999 999999 999999 999999 999999 999999 999999 999999 999999 999999 999999 999999 999999 999999 999999 999999 999999 999999 999999 999999 999999 999999 999999 999999 999999 999999 999999 999999 999999 999999 999999 999999 999999 999999 999999 999999 999999 999999 999999 999999 999999 999999 999999 999999 999999 999999 999999 999999 999999 999999 11174 999999 19241 999999 999999 999999 999999 999999 15385 14270 999999 999999 999999 999999 999999 999999 19848 999999 17165 999999 999999 999999 999999 999999 999999 999999 999999 16881 999999 999999 999999 999999 999999 999999 11646 999999 999999 16085 999999 999999 999999 18721 999999 999999 999999 13202 999999 999999 999999 999999 999999 999999 999999 14601 999999 999999
999999 999999 999999 0 999999 999999 999999 999999 999999 999999 999999 999999 999999 999999 999999 999999 999999 999999 999999 999999 999999 999999 999999 999999 999999 999999 999999 999999 999999 999999 999999 999999 999999 999999 999999 999999 999999 999999 999999 999999 999999 999999 999999 999999 999999 999999 999999 999999 999999 999999 999999 999999 999999 999999 999999 999999 999999 999999 999999 999999 999999 999999 999999 999999 999999 999999 10679 999999 13877 999999 999999 999999 999999 999999 12703 15851 999999 999999 999999 999999 999999 999999 15440 999999 19360 999999 999999 999999 999999 999999 999999 999999 999999 15425 999999 999999 999999 999999 999999 999999 16900 999999 999999 10213 999999 999999 999999 18046 999999 999999 999999 19619 999999 999999 999999 999999 999999 999999 999999 18577 999999 999999
999999 999999 999999 999999 0 999999 999999 999999 999999 999999 999999 999999 999999 999999 999999 999999 999999 999999 999999 999999 999999 999999 999999 999999 999999 999999 999999 999999 999999 999999 999999 999999 999999 999999 999999 999999 999999 999999 999999 999999 999999 999999 999999 999999 999999 999999 999999 999999 999999 999999 999999 999999 999999 999999 999999 999999 999999 999999 999999 999999 999999 999999 999999 999999 999999 999999 13175 999999 16512 999999 999999 999999 999999 999999 14082 16632 999999 999999 999999 999999 999999 999999 17171 999999 16107 999999 999999 999999 999999 999999 999999 999999 999999 12043 999999 999999 999999 999999 999999 999999 15447 999999 999999 16276 999999 999999 999999 11555 999999 999999 999999 12841 999999 999999 999999 999999 999999 999999 999999 16355 999999 999999
999999 999999 999999 999999 999999 0 999999 999999 999999 999999 999999 999999 999999 999999 999999 999999 999999 999999 999999 999999 999999 999999 999999 999999 999999 999999 999999 999999 999999 999999 999999 999999 999999 999999 999999 999999 999999 999999 999999 999999 999999 999999 999999 999999 999999 999999 999999 999999 999999 999999 999999 999999 999999 999999 999999 999999 999999 999999 999999 999999 999999 999999 999999 999999 999999 999999 13409 999999 19270 999999 999999 999999 999999 999999 14672 10663 999999 999999 999999 999999 999999 999999 16041 999999 18651 999999 999999 999999 999999 999999 999999 999999 999999 14218 999999 999999 999999 999999 999999 999999 15428 999999 999999 18201 999999 999999 999999 10329 999999 999999 999999 19419 999999 999999 999999 999999 999999 999999 999999 16710 999999 999999
999999 999999 999999 999999 999999 999999 0 999999 999999 999999 999999 999999 999999 999999 999999 999999 999999 999999 999999 999999 999999 999999 999999 999999 999999 999999 999999 999999 999999 999999 999999 999999 999999 999999 999999 999999 999999 999999 999999 999999 999999 999999 999999 999999 999999 999999 999999 999999 999999 999999 999999 999999 999999 999999 999999 999999 999999 999999 999999 999999 999999 999999 999999 999999 999999 999999 11609 999999 10417 999999 999999 999999 999999 999999 19651 10244 999999 999999 999999 999999 999999 999999 15979 999999 19317 999999 999999 999999 999999 999999 999999 999999 999999 13216 999999 999999 999999 999999 999999 999999 11845 999999 999999 10435 999999 999999 999999 15798 999999 999999 999999 12396 999999 999999 999999 999999 999999 999999 999999 15661 999999 999999
999999 999999 999999 999999 999999 999999 999999 0 999999 999999 999999 999999 999999 999999 999999 999999 999999 999999 999999 999999 999999 999999 999999 999999 999999 999999 999999 999999 999999 999999 999999 999999 999999 999999 999999 999999 999999 999999 999999 999999 999999 999999 999999 999999 999999 999999 999999 999999 999999 999999 999999 999999 999999 999999 999999 999999 999999 999999 999999 999999 999999 999999 999999 999999 999999 999999 14783 999999 17252 999999 999999 999999 999999 999999 15941 10527 999999 999999 999999 999999 999999 999999 19261 999999 16891 999999 999999 999999 999999 999999 999999 999999 999999 18751 999999 999999 999999 999999 999999 999999 18024 999999 999999 13794 999999 999999 999999 14337 999999 999999 999999 11396 999999 999999 999999 999999 999999 999999 999999 11750 999999 999999
999999 999999 999999 999999 999999 999999 999999 999999 0 999999 999999 999999 999999 999999 999999 999999 999999 999999 999999 999999 999999 999999 999999 999999 999999 999999 999999 999999 999999 999999 999999 999999 999999 999999 999999 999999 999999 999999 999999 999999 999999 999999 999999 999999 999999 999999 999999 999999 999999 999999 999999 999999 999999 999999 999999 999999 999999 999999 999999 999999 999999 999999 999999 999999 999999 999999 17584 999999 16563 999999 999999 999999 999999 999999 14711 15910 999999 999999 999999 999999 999999 999999 14202 999999 15009 999999 999999 999999 999999 999999 999999 999999 999999 11172 999999 999999 999999 999999 999999 999999 15895 999999 999999 13306 999999 999999 999999 12787 999999 999999 999999 18937 999999 999999 999999 999999 999999 999999 999999 15277 999999 999999
999999 999999 999999 999999 999999 999999 999999 999999 999999 0 999999 999999 999999 999999 999999 999999 999999 999999 999999 999999 999999 999999 999999 999999 999999 999999 999999 999999 999999 999999 999999 999999 999999 999999 999999 999999 999999 999999 999999 999999 999999 999999 999999 999999 999999 999999 999999 999999 999999 999999 999999 999999 999999 999999 999999 999999 999999 999999 999999 999999 999999 999999 999999 999999 999999 999999 15111 999999 19481 999999 999999 999999 999999 999999 17072 12288 999999 999999 999999 999999 999999 999999 18862 999999 13577 999999 999999 999999 999999 999999 999999 999999 999999 12357 999999 999999 999999 999999 999999 999999 15894 999999 999999 19290 999999 999999 999999 19887 999999 999999 999999 15320 999999 999999 999999 999999 999999 999999 999999 15069 999999 999999
999999 999999 999999 999999 999999 999999 999999 999999 999999 999999 0 999999 999999 999999 999999 999999 999999 999999 999999 999999 999999 999999 999999 999999 999999 999999 999999 999999 999999 999999 999999 999999 999999 999999 999999 999999 999999 999999 999999 999999 999999 999999 999999 999999 999999 999999 999999 999999 999999 999999 999999 999999 999999 999999 999999 999999 999999 999999 999999 999999 999999 999999 999999 999999 999999 999999 10198 999999 11648 999999 999999 999999 999999 999999 12421 13719 999999 999999 999999 999999 999999 999999 15892 999999 12343 999999 999999 999999 999999 999999 999999 999999 999999 11142 999999 999999 999999 999999 999999 999999 15616 999999 999999 14086 999999 999999 999999 14924 999999 999999 999999 10264 999999 999999 999999 999999 999999 999999 999999 17595 999999 999999
999999 999999 999999 999999 999999 999999 999999 999999 999999 999999 999999 0 999999 999999 999999 999999 999999 999999 999999 999999 999999 999999 999999 999999 999999 999999 999999 999999 999999 999999 999999 999999 999999 999999 999999 999999 999999 999999 999999 999999 999999 999999 999999 999999 999999 999999 999999 999999 999999 999999 999999 999999 999999 999999 999999 999999 999999 999999 999999 999999 999999 999999 999999 999999 999999 999999 19639 999999 17197 999999 999999 999999 999999 999999 14583 18327 999999 999999 999999 999999 999999 999999 19827 999999 15959 999999 999999 999999 999999 999999 999999 999999 999999 13833 999999 999999 999999 999999 999999 999999 14004 999999 999999 18923 999999 999999 999999 19568 999999 999999 999999 12199 999999 999999 999999 999999 999999 999999 999999 12689 999999 999999
999999 999999 999999 999999 999999 999999 999999 999999 999999 999999 999999 999999 0 999999 999999 999999 999999 999999 999999 999999 999999 999999 999999 999999 999999 999999 999999 999999 999999 999999 999999 999999 999999 999999 999999 999999 999999 999999 999999 999999 999999 999999 999999 999999 999999 999999 999999 999999 999999 999999 999999 999999 999999 999999 999999 999999 999999 999999 999999 999999 999999 999999 999999 999999 999999 999999 11132 999999 11130 999999 999999 999999 999999 999999 18801 11442 999999 999999 999999 999999 999999 999999 17195 999999 10854 999999 999999 999999 999999 999999 999999 999999 999999 16001 999999 999999 999999 999999 999999 999999 13465 999999 999999 11689 999999 999999 999999 12810 999999 999999 999999 16296 999999 999999 999999 999999 999999 999999 999999 12029 999999 999999
999999 999999 999999 999999 999999 999999 999999 999999 999999 999999 999999 999999 999999 0 999999 999999 999999 999999 999999 999999 999999 999999 999999 999999 999999 999999 999999 999999 999999 999999 999999 999999 999999 999999 999999 999999 999999 999999 999999 999999 999999 999999 999999 999999 999999 999999 999999 999999 999999 999999 999999 999999 999999 999999 999999 999999 999999 999999 999999 999999 999999 999999 999999 19873 19024 999999 999999 999999 999999 999999 999999 19644 999999 999999 999999 999999 999999 12252 999999 15301 999999 999999 999999 999999 999999 999999 999999 999999 19983 999999 11713 999999 999999 999999 999999 999999 999999 999999 11865 999999 999999 999999 999999 999999 15476 999999 19174 999999 999999 999999 999999 999999 12499 999999 999999 999999 999999 11215 999999 999999 999999 999999
999999 999999 999999 999999 999999 999999 999999 999999 999999 999999 999999 999999 999999 999999 0 999999 999999 999999 999999 999999 999999 999999 999999 999999 999999 999999 999999 999999 999999 999999 999999 999999 999999 999999 999999 999999 999999 999999 999999 999999 999999 999999 999999 999999 999999 999999 999999 999999 999999 999999 999999 999999 999999 999999 999999 999999 999999 999999 999999 999999 999999 999999 999999 15174 11106 999999 999999 999999 999999 999999 999999 14920 999999 999999 999999 999999 999999 16534 999999 11990 999999 999999 999999 999999 999999 999999 999999 999999 12658 999999 17336 999999 999999 999999 999999 999999 999999 999999 17792 999999 999999 999999 999999 999999 12216 999999 18183 999999 999999 999999 999999 999999 13400 999999 999999 999999 999999 17680 999999 999999 999999 999999
999999 999999 999999 999999 999999 999999 999999 999999 999999 999999 999999 999999 999999 999999 999999 0 999999 999999 999999 999999 999999 999999 999999 999999 999999 999999 999999 999999 999999 999999 999999 999999 999999 999999 999999 999999 999999 999999 999999 999999 999999 999999 999999 999999 999999 999999 999999 999999 999999 999999 999999 999999 999999 999999 999999 999999 999999 999999 999999 999999 999999 999999 999999 17024 14464 999999 999999 999999 999999 999999 999999 16580 999999 999999 999999 999999 999999 17397 999999 18532 999999 999999 999999 999999 999999 999999 999999 999999 15690 999999 16696 999999 999999 999999 999999 999999 999999 999999 16587 999999 999999 999999 999999 999999 18487 999999 18848 999999 999999 999999 999999 999999 11791 999999 999999 999999 999999 19262 999999 999999 999999 999999
999999 999999 999999 999999 999999 999999 999999 999999 999999 999999 999999 999999 999999 999999 999999 999999 0 999999 999999 999999 999999 999999 999999 999999 999999 999999 999999 999999 999999 999999 999999 999999 999999 999999 999999 999999 999999 999999 999999 999999 999999 999999 999999 999999 999999 999999 999999 999999 999999 999999 999999 999999 999999 999999 999999 999999 999999 999999 999999 999999 999999 999999 999999 15440 18774 999999 999999 999999 999999 999999 999999 17689 999999 999999 999999 999999 999999 15344 999999 14120 999999 999999 999999 999999 999999 999999 999999 999999 13177 999999 16527 999999 999999 999999 999999 999999 999999 999999 17499 999999 999999 999999 999999 999999 17214 999999 19729 999999 999999 999999 999999 999999 10099 999999 999999 999999 999999 18274 999999 999999 999999 999999
999999 999999 999999 999999 999999 999999 999999 999999 999999 999999 999999 999999 999999 999999 999999 999999 999999 0 999999 999999 999999 999999 999999 999999 999999 999999 999999 999999 999999 999999 999999 999999 999999 999999 999999 999999 999999 999999 999999 999999 999999 999999 999999 999999 999999 999999 999999 999999 999999 999999 999999 999999 999999 999999 999999 999999 999999 999999 999999 999999 999999 999999 999999 19204 16829 999999 999999 999999 999999 999999 999999 10863 999999 999999 999999 999999 999999 19520 999999 15876 999999 999999 999999 999999 999999 999999 999999 999999 11552 999999 16723 999999 999999 999999 999999 999999 999999 999999 18891 999999 999999 999999 999999 999999 10968 999999 12028 999999 999999 999999 999999 999999 16477 999999 999999 999999 999999 10961 999999 999999 999999 999999
999999 999999 999999 999999 999999 999999 999999 999999 999999 999999 999999 999999 999999 999999 999999 999999 999999 999999 0 999999 999999 999999 999999 999999 999999 999999 999999 999999 999999 999999 999999 999999 999999 999999 999999 999999 999999 999999 999999 999999 999999 999999 999999 999999 999999 999999 999999 999999 999999 999999 999999 999999 999999 999999 999999 999999 999999 999999 999999 999999 999999 999999 999999 18445 10686 999999 999999 999999 999999 999999 999999 13865 999999 999999 999999 999999 999999 18843 999999 16252 999999 999999 999999 999999 999999 999999 999999 999999 11734 999999 18126 999999 999999 999999 999999 999999 999999 999999 19707 999999 999999 999999 999999 999999 17291 999999 11590 999999 999999 999999 999999 999999 13766 999999 999999 999999 999999 19826 999999 999999 999999 999999
999999 999999 999999 999999 999999 999999 999999 999999 999999 999999 999999 999999 999999 999999 999999 999999 999999 999999 999999 0 999999 999999 999999 999999 999999 999999 999999 999999 999999 999999 999999 999999 999999 999999 999999 999999 999999 999999 999999 999999 999999 999999 999999 999999 999999 999999 999999 999999 999999 999999 999999 999999 999999 999999 999999 999999 999999 999999 999999 999999 999999 999999 999999 13887 16912 999999 999999 999999 999999 999999 999999 15080 999999 999999 999999 999999 999999 10827 999999 16201 999999 999999 999999 999999 999999 999999 999999 999999 16339 999999 10143 999999 999999 999999 999999 999999 999999 999999 15593 999999 999999 999999 999999 999999 18722 999999 10214 999999 999999 999999 999999 999999 10446 999999 999999 999999 999999 10706 999999 999999 999999 999999
999999 999999 999999 999999 999999 999999 999999 999999 999999 999999 999999 999999 999999 999999 999999 999999 999999 999999 999999 999999 0 999999 999999 999999 999999 999999 999999 999999 999999 999999 999999 999999 999999 999999 999999 999999 999999 999999 999999 999999 999999 999999 999999 999999 999999 999999 999999 999999 999999 999999 999999 999999 999999 999999 999999 999999 999999 999999 999999 999999 999999 999999 999999 13261 17370 999999 999999 999999 999999 999999 999999 19915 999999 999999 999999 999999 999999 17093 999999 19914 999999 999999 999999 999999 999999 999999 999999 999999 13987 999999 10675 999999 999999 999999 999999 999999 999999 999999 10009 999999 999999 999999 999999 999999 10620 999999 16574 999999 999999 999999 999999 999999 10062 999999 999999 999999 999999 10938 999999 999999 999999 999999
999999 999999 999999 999999 999999 999999 999999 999999 999999 999999 999999 999999 999999 999999 999999 999999 999999 999999 999999 999999 999999 0 999999 999999 999999 999999 999999 999999 999999 999999 999999 999999 999999 999999 999999 999999 999999 999999 999999 999999 999999 999999 999999 999999 999999 999999 999999 999999 999999 999999 999999 999999 999999 999999 999999 999999 999999 999999 999999 999999 999999 999999 999999 18436 15482 999999 999999 999999 999999 999999 999999 13402 999999 999999 999999 999999 999999 14033 999999 12389 999999 999999 999999 999999 999999 999999 999999 999999 16777 999999 13857 999999 999999 999999 999999 999999 999999 999999 10093 999999 999999 999999 999999 999999 11306 999999 12381 999999 999999 999999 999999 999999 10240 999999 999999 999999 999999 18351 999999 999999 999999 999999
999999 999999 999999 999999 999999 999999 999999 999999 999999 999999 999999 999999 999999 999999 999999 999999 999999 999999 999999 999999 999999 999999 0 999999 999999 999999 999999 999999 999999 999999 999999 999999 999999 999999 999999 999999 999999 999999 999999 999999 999999 999999 999999 999999 999999 999999 999999 999999 999999 999999 999999 999999 999999 999999 999999 999999 999999 999999 999999 999999 999999 999999 999999 10748 16414 999999 999999 999999 999999 999999 999999 16456 999999 999999 999999 999999 999999 12502 999999 15824 999999 999999 999999 999999 999999 999999 999999 999999 13855 999999 10934 999999 999999 999999 999999 999999 999999 999999 11141 999999 999999 999999 999999 999999 12033 999999 16455 999999 999999 999999 999999 999999 10490 999999 999999 999999 999999 19976 999999 999999 999999 999999
999999 999999 999999 999999 999999 999999 999999 999999 999999 999999 999999 999999 999999 999999 999999 999999 999999 999999 999999 999999 999999 999999 999999 0 999999 999999 999999 999999 999999 999999 999999 999999 999999 999999 999999 999999 999999 999999 999999 999999 999999 999999 999999 999999 999999 999999 999999 999999 999999 999999 999999 999999 999999 999999 999999 999999 999999 999999 999999 999999 999999 999999 999999 18063 14437 999999 999999 999999 999999 999999 999999 10647 999999 999999 999999 999999 999999 15275 999999 16274 999999 999999 999999 999999 999999 999999 999999 999999 10370 999999 11412 999999 999999 999999 999999 999999 999999 999999 12714 999999 999999 999999 999999 999999 16452 999999 18489 999999 999999 999999 999999 999999 16412 999999 999999 999999 999999 19076 999999 999999 999999 999999
999999 999999 999999 999999 999999 999999 999999 999999 999999 999999 999999 999999 999999 999999 999999 999999 999999 999999 999999 999999 999999 999999 999999 999999 0 999999 999999 999999 999999 999999 999999 999999 999999 999999 999999 999999 999999 999999 999999 999999 999999 999999 999999 999999 999999 999999 999999 999999 999999 999999 999999 999999 999999 999999 999999 999999 999999 999999 999999 999999 999999 999999 999999 15684 11338 999999 999999 999999 999999 999999 999999 15600 999999 999999 999999 999999 999999 17670 999999 17043 999999 999999 999999 999999 999999 999999 999999 999999 17094 999999 16596 999999 999999 999999 999999 999999 999999 999999 19422 999999 999999 999999 999999 999999 19603 999999 19571 999999 999999 999999 999999 999999 17015 999999 999999 999999 999999 16272 999999 999999 999999 999999
999999 999999 999999 999999 999999 999999 999999 999999 999999 999999 999999 999999 999999 999999 999999 999999 999999 999999 999999 999999 999999 999999 999999 999999 999999 0 999999 999999 999999 999999 999999 999999 999999 999999 999999 999999 999999 999999 999999 999999 999999 999999 999999 999999 999999 999999 999999 999999 999999 999999 999999 999999 999999 999999 999999 999999 999999 999999 999999 999999 999999 18075 999999 999999 999999 999999 999999 11564 999999 999999 999999 999999 999999 17675 999999 999999 999999 999999 18004 999999 999999 10070 999999 18169 999999 999999 15343 999999 999999 999999 999999 999999 18643 999999 15504 999999 999999 999999 999999 999999 999999 999999 999999 999999 999999 999999 999999 999999 999999 15910 999999 999999 999999 999999 999999 999999 999999 999999 19808 999999 19169 999999
999999 999999 999999 999999 999999 999999 999999 999999 999999 999999 999999 999999 999999 999999 999999 999999 999999 999999 999999 999999 999999 999999 999999 999999 999999 999999 0 999999 999999 999999 999999 999999 999999 999999 999999 999999 999999 999999 999999 999999 999999 999999 999999 999999 999999 999999 999999 999999 999999 999999 999999 999999 999999 999999 999999 999999 999999 999999 999999 999999 999999 15032 999999 999999 999999 999999 999999 15522 999999 999999 999999 999999 999999 11467 999999 999999 999999 999999 16571 999999 999999 12642 999999 12254 999999 999999 14604 999999 999999 999999 999999 999999 17791 999999 18177 999999 999999 999999 999999 999999 999999 999999 999999 999999 999999 999999 999999 999999 999999 13363 999999 999999 999999 999999 999999 999999 999999 999999 17388 999999 12684 999999
999999 999999 999999 999999 999999 999999 999999 999999 999999 999999 999999 999999 999999 999999 999999 999999 999999 999999 999999 999999 999999 999999 999999 999999 999999 999999 999999 0 999999 999999 999999 999999 999999 999999 999999 999999 999999 999999 999999 999999 999999 999999 999999 999999 999999 999999 999999 999999 999999 999999 999999 999999 999999 999999 999999 999999 999999 999999 999999 999999 999999 16331 999999 999999 999999 999999 999999 12625 999999 999999 999999 999999 999999 10276 999999 999999 999999 999999 18466 999999 999999 12777 999999 16073 999999 999999 16554 999999 999999 999999 999999 999999 11401 999999 10695 999999 999999 999999 999999 999999 999999 999999 999999 999999 999999 999999 999999 999999 999999 16072 999999 999999 999999 999999 999999 999999 999999 999999 14994 999999 18998 999999
999999 999999 999999 999999 999999 999999 999999 999999 999999 999999 999999 999999 999999 999999 999999 999999 999999 999999 999999 999999 999999 999999 999999 999999 999999 999999 999999 999999 0 999999 999999 999999 999999 999999 999999 999999 999999 999999 999999 999999 999999 999999 999999 999999 999999 999999 999999 999999 999999 999999 999999 999999 999999 999999 999999 999999 999999 999999 999999 999999 999999 19997 999999 999999 999999 999999 999999 15733 999999 999999 999999 999999 999999 11225 999999 999999 999999 999999 14315 999999 999999 10684 999999 19733 999999 999999 12863 999999 999999 999999 999999 999999 10864 999999 14497 999999 999999 999999 999999 999999 999999 999999 999999 999999 999999 999999 999999 999999 999999 18907 999999 999999 999999 999999 999999 999999 999999 999999 17930 999999 11720 999999
999999 999999 999999 999999 999999 999999 999999 999999 999999 999999 999999 999999 999999 999999 999999 999999 999999 999999 999999 999999 999999 999999 999999 999999 999999 999999 999999 999999 999999 0 999999 999999 999999 999999 999999 999999 999999 999999 999999 999999 999999 999999 999999 999999 999999 999999 999999 999999 999999 999999 999999 999999 999999 999999 999999 999999 999999 999999 999999 999999 999999 16144 999999 999999 999999 999999 999999 10125 999999 999999 999999 999999 999999 15210 999999 999999 999999 999999 18600 999999 999999 13003 999999 13632 999999 999999 17611 999999 999999 999999 999999 999999 12859 999999 16622 999999 999999 999999 999999 999999 999999 999999 999999 999999 999999 999999 999999 999999 999999 11838 999999 999999 999999 999999 999999 999999 999999 999999 19827 999999 13862 999999
999999 999999 999999 999999 999999 999999 999999 999999 999999 999999 999999 999999 999999 999999 999999 999999 999999 999999 999999 999999 999999 999999 999999 999999 999999 999999 999999 999999 999999 999999 0 999999 999999 999999 999999 999999 999999 999999 999999 999999 999999 999999 999999 999999 999999 999999 999999 999999 999999 999999 999999 999999 999999 999999 999999 999999 999999 999999 999999 999999 999999 14884 999999 999999 999999 999999 999999 16212 999999 999999 999999 999999 999999 13150 999999 999999 999999 999999 13080 999999 999999 17498 999999 15105 999999 999999 11154 999999 999999 999999 999999 999999 19351 999999 13337 999999 999999 999999 999999 999999 999999 999999 999999 999999 999999 999999 999999 999999 999999 14355 999999 999999 999999 999999 999999 999999 999999 999999 18203 999999 17076 999999
999999 999999 999999 999999 999999 999999 999999 999999 999999 999999 999999 999999 999999 999999 999999 999999 999999 999999 999999 999999 999999 999999 999999 999999 999999 999999 999999 999999 999999 999999 999999 0 999999 999999 999999 999999 999999 999999 999999 999999 999999 999999 999999 999999 999999 999999 999999 999999 999999 999999 999999 999999 999999 999999 999999 999999 999999 999999 999999 999999 999999 12987 999999 999999 999999 999999 999999 11288 999999 999999 999999 999999 999999 10587 999999 999999 999999 999999 16345 999999 999999 18657 999999 12185 999999 999999 11116 999999 999999 999999 999999 999999 19747 999999 14582 999999 999999 999999 999999 999999 999999 999999 999999 999999 999999 999999 999999 999999 999999 14677 999999 999999 999999 999999 999999 999999 999999 999999 11616 999999 13610 999999
999999 999999 999999 999999 999999 999999 999999 999999 999999 999999 999999 999999 999999 999999 999999 999999 999999 999999 999999 999999 999999 999999 999999 999999 999999 999999 999999 999999 999999 999999 999999 999999 0 999999 999999 999999 999999 999999 999999 999999 999999 999999 999999 999999 999999 999999 999999 999999 999999 999999 999999 999999 999999 999999 999999 999999 999999 999999 999999 999999 999999 14354 999999 999999 999999 999999 999999 11577 999999 999999 999999 999999 999999 19686 999999 999999 999999 999999 16495 999999 999999 19588 999999 19604 999999 999999 18453 999999 999999 999999 999999 999999 18159 999999 14641 999999 999999 999999 999999 999999 999999 999999 999999 999999 999999 999999 999999 999999 999999 12279 999999 999999 999999 999999 999999 999999 999999 999999 10598 999999 15234 999999
999999 999999 999999 999999 999999 999999 999999 999999 999999 999999 999999 999999 999999 999999 999999 999999 999999 999999 999999 999999 999999 999999 999999 999999 999999 999999 999999 999999 999999 999999 999999 999999 999999 0 999999 999999 999999 999999 999999 999999 999999 999999 999999 999999 999999 999999 999999 999999 999999 999999 999999 999999 999999 999999 999999 999999 999999 999999 999999 999999 999999 14722 999999 999999 999999 999999 999999 13371 999999 999999 999999 999999 999999 14748 999999 999999 999999 999999 10480 999999 999999 18296 999999 17116 999999 999999 10907 999999 999999 999999 999999 999999 18423 999999 19105 999999 999999 999999 999999 999999 999999 999999 999999 999999 999999 999999 999999 999999 999999 16021 999999 999999 999999 999999 999999 999999 999999 999999 14395 999999 10989 999999
999999 999999 999999 999999 999999 999999 999999 999999 999999 999999 999999 999999 999999 999999 999999 999999 999999 999999 999999 999999 999999 999999 999999 999999 999999 999999 999999 999999 999999 999999 999999 999999 999999 999999 0 999999 999999 999999 999999 999999 999999 999999 999999 999999 999999 999999 999999 999999 999999 999999 999999 999999 999999 999999 999999 999999 999999 999999 999999 999999 999999 16877 999999 999999 999999 999999 999999 15207 999999 999999 999999 999999 999999 10354 999999 999999 999999 999999 11363 999999 999999 19402 999999 17128 999999 999999 11382 999999 999999 999999 999999 999999 17095 999999 13260 999999 999999 999999 999999 999999 999999 999999 999999 999999 999999 999999 999999 999999 999999 12524 999999 999999 999999 999999 999999 999999 999999 999999 17372 999999 18882 999999
999999 999999 999999 999999 999999 999999 999999 999999 999999 999999 999999 999999 999999 999999 999999 999999 999999 999999 999999 999999 999999 999999 999999 999999 999999 999999 999999 999999 999999 999999 999999 999999 999999 999999 999999 0 999999 999999 999999 999999 999999 999999 999999 999999 999999 999999 999999 999999 999999 999999 999999 999999 999999 999999 999999 999999 999999 999999 999999 999999 999999 13720 999999 999999 999999 999999 999999 19982 999999 999999 999999 999999 999999 14325 999999 999999 999999 999999 16519 999999 999999 13961 999999 15789 999999 999999 18499 999999 999999 999999 999999 999999 14072 999999 16999 999999 999999 999999 999999 999999 999999 999999 999999 999999 999999 999999 999999 999999 999999 16328 999999 999999 999999 999999 999999 999999 999999 999999 18723 999999 17542 999999
999999 999999 999999 999999 999999 999999 999999 999999 999999 999999 999999 999999 999999 999999 999999 999999 999999 999999 999999 999999 999999 999999 999999 999999 999999 999999 999999 999999 999999 999999 999999 999999 999999 999999 999999 999999 0 999999 999999 999999 999999 999999 999999 999999 999999 999999 999999 999999 999999 999999 999999 999999 999999 999999 999999 999999 999999 999999 999999 999999 999999 16800 999999 999999 999999 999999 999999 15179 999999 999999 999999 999999 999999 17439 999999 999999 999999 999999 16694 999999 999999 10108 999999 15752 999999 999999 13116 999999 999999 999999 999999 999999 16332 999999 19257 999999 999999 999999 999999 999999 999999 999999 999999 999999 999999 999999 999999 999999 999999 19236 999999 999999 999999 999999 999999 999999 999999 999999 10853 999999 19117 999999
999999 999999 999999 999999 999999 999999 999999 999999 999999 999999 999999 999999 999999 999999 999999 999999 999999 999999 999999 999999 999999 999999 999999 999999 999999 999999 999999 999999 999999 999999 999999 999999 999999 999999 999999 999999 999999 0 999999 999999 999999 999999 999999 999999 999999 999999 999999 999999 999999 999999 999999 999999 999999 999999 999999 999999 999999 999999 999999 999999 999999 999999 19763 999999 999999 999999 999999 999999 999999 999999 999999 999999 18211 999999 999999 999999 13563 999999 999999 999999 17497 999999 999999 999999 999999 999999 999999 14488 999999 13345 999999 999999 999999 999999 999999 999999 999999 10695 999999 18639 999999 999999 999999 999999 999999 11643 999999 999999 14926 999999 999999 999999 999999 19170 11214 999999 999999 999999 999999 999999 999999 999999
999999 999999 999999 999999 999999 999999 999999 999999 999999 999999 999999 999999 999999 999999 999999 999999 999999 999999 999999 999999 999999 999999 999999 999999 999999 999999 999999 999999 999999 999999 999999 999999 999999 999999 999999 999999 999999 999999 0 999999 999999 999999 999999 999999 999999 999999 999999 999999 999999 999999 999999 999999 999999 999999 999999 999999 999999 999999 999999 999999 999999 999999 17574 999999 999999 999999 999999 999999 999999 999999 999999 999999 14783 999999 999999 999999 12338 999999 999999 999999 15349 999999 999999 999999 999999 999999 999999 14104 999999 14072 999999 999999 999999 999999 999999 999999 999999 19254 999999 16453 999999 999999 999999 999999 999999 15887 999999 999999 12263 999999 999999 999999 999999 15223 17049 999999 999999 999999 999999 999999 999999 999999
999999 999999 999999 999999 999999 999999 999999 999999 999999 999999 999999 999999 999999 999999 999999 999999 999999 999999 999999 999999 999999 999999 999999 999999 999999 999999 999999 999999 999999 999999 999999 999999 999999 999999 999999 999999 999999 999999 999999 0 999999 999999 999999 999999 999999 999999 999999 999999 999999 999999 999999 999999 999999 999999 999999 999999 999999 999999 999999 999999 999999 999999 12181 999999 999999 999999 999999 999999 999999 999999 999999 999999 17875 999999 999999 999999 18045 999999 999999 999999 18664 999999 999999 999999 999999 999999 999999 10706 999999 15491 999999 999999 999999 999999 999999 999999 999999 15418 999999 15585 999999 999999 999999 999999 999999 15933 999999 999999 17703 999999 999999 999999 999999 15852 18699 999999 999999 999999 999999 999999 999999 999999
999999 999999 999999 999999 999999 999999 999999 999999 999999 999999 999999 999999 999999 999999 999999 999999 999999 999999 999999 999999 999999 999999 999999 999999 999999 999999 999999 999999 999999 999999 999999 999999 999999 999999 999999 999999 999999 999999 999999 999999 0 999999 999999 999999 999999 999999 999999 999999 999999 999999 999999 999999 999999 999999 999999 999999 999999 999999 999999 999999 999999 999999 12128 999999 999999 999999 999999 999999 999999 999999 999999 999999 13196 999999 999999 999999 18749 999999 999999 999999 10253 999999 999999 999999 999999 999999 999999 18453 999999 17949 999999 999999 999999 999999 999999 999999 999999 11202 999999 17065 999999 999999 999999 999999 999999 13330 999999 999999 13281 999999 999999 999999 999999 17955 15086 999999 999999 999999 999999 999999 999999 999999
999999 999999 999999 999999 999999 999999 999999 999999 999999 999999 999999 999999 999999 999999 999999 999999 999999 999999 999999 999999 999999 999999 999999 999999 999999 999999 999999 999999 999999 999999 999999 999999 999999 999999 999999 999999 999999 999999 999999 999999 999999 0 999999 999999 999999 999999 999999 999999 999999 999999 999999 999999 999999 999999 999999 999999 999999 999999 999999 999999 999999 999999 14303 999999 999999 999999 999999 999999 999999 999999 999999 999999 18480 999999 999999 999999 14651 999999 999999 999999 15209 999999 999999 999999 999999 999999 999999 15686 999999 19087 999999 999999 999999 999999 999999 999999 999999 14606 999999 15401 999999 999999 999999 999999 999999 12401 999999 999999 12835 999999 999999 999999 999999 11086 19194 999999 999999 999999 999999 999999 999999 999999
999999 999999 999999 999999 999999 999999 999999 999999 999999 999999 999999 999999 999999 999999 999999 999999 999999 999999 999999 999999 999999 999999 999999 999999 999999 999999 999999 999999 999999 999999 999999 999999 999999 999999 999999 999999 999999 999999 999999 999999 999999 999999 0 999999 999999 999999 999999 999999 999999 999999 999999 999999 999999 999999 999999 999999 999999 999999 999999 999999 999999 999999 18354 999999 999999 999999 999999 999999 999999 999999 999999 999999 12728 999999 999999 999999 16429 999999 999999 999999 18304 999999 999999 999999 999999 999999 999999 16759 999999 16103 999999 999999 999999 999999 999999 999999 999999 13993 999999 12848 999999 999999 999999 999999 999999 10240 999999 999999 17818 999999 999999 999999 999999 14047 19522 999999 999999 999999 999999 999999 999999 999999
999999 999999 999999 999999 999999 999999 999999 999999 999999 999999 999999 999999 999999 999999 999999 999999 999999 999999 999999 999999 999999 999999 999999 999999 999999 999999 999999 999999 999999 999999 999999 999999 999999 999999 999999 999999 999999 999999 999999 999999 999999 999999 999999 0 999999 999999 999999 999999 999999 999999 999999 999999 999999 999999 999999 999999 999999 999999 999999 999999 999999 999999 19526 999999 999999 999999 999999 999999 999999 999999 999999 999999 10840 999999 999999 999999 17145 999999 999999 999999 16577 999999 999999 999999 999999 999999 999999 10923 999999 17101 999999 999999 999999 999999 999999 999999 999999 13215 999999 18011 999999 999999 999999 999999 999999 13338 999999 999999 16853 999999 999999 999999 999999 17836 13968 999999 999999 999999 999999 999999 999999 999999
999999 999999 999999 999999 999999 999999 999999 999999 999999 999999 999999 999999 999999 999999 999999 999999 999999 999999 999999 999999 999999 999999 999999 999999 999999 999999 999999 999999 999999 999999 999999 999999 999999 999999 999999 999999 999999 999999 999999 999999 999999 999999 999999 999999 0 999999 999999 999999 999999 999999 999999 999999 999999 999999 999999 999999 999999 999999 999999 999999 999999 999999 18010 999999 999999 999999 999999 999999 999999 999999 999999 999999 18361 999999 999999 999999 16105 999999 999999 999999 12282 999999 999999 999999 999999 999999 999999 14883 999999 14577 999999 999999 999999 999999 999999 999999 999999 11472 999999 16280 999999 999999 999999 999999 999999 11149 999999 999999 14143 999999 999999 999999 999999 13671 13276 999999 999999 999999 999999 999999 999999 999999
999999 999999 999999 999999 999999 999999 999999 999999 999999 999999 999999 999999 999999 999999 999999 999999 999999 999999 999999 999999 999999 999999 999999 999999 999999 999999 999999 999999 999999 999999 999999 999999 999999 999999 999999 999999 999999 999999 999999 999999 999999 999999 999999 999999 999999 0 999999 999999 999999 999999 999999 999999 999999 999999 999999 999999 999999 999999 999999 999999 999999 999999 16984 999999 999999 999999 999999 999999 999999 999999 999999 999999 11113 999999 999999 999999 10350 999999 999999 999999 16013 999999 999999 999999 999999 999999 999999 13887 999999 17492 999999 999999 999999 999999 999999 999999 999999 18635 999999 18655 999999 999999 999999 999999 999999 17413 999999 999999 12837 999999 999999 999999 999999 19981 14994 999999 999999 999999 999999 999999 999999 999999
999999 999999 999999 999999 999999 999999 999999 999999 999999 999999 999999 999999 999999 999999 999999 999999 999999 999999 999999 999999 999999 999999 999999 999999 999999 999999 999999 999999 999999 999999 999999 999999 999999 999999 999999 999999 999999 999999 999999 999999 999999 999999 999999 999999 999999 999999 0 999999 999999 999999 999999 999999 999999 999999 999999 999999 999999 999999 999999 999999 999999 999999 19413 999999 999999 999999 999999 999999 999999 999999 999999 999999 12333 999999 999999 999999 12869 999999 999999 999999 11821 999999 999999 999999 999999 999999 999999 19158 999999 12272 999999 999999 999999 999999 999999 999999 999999 13151 999999 18752 999999 999999 999999 999999 999999 13421 999999 999999 11027 999999 999999 999999 999999 12435 14242 999999 999999 999999 999999 999999 999999 999999
999999 999999 999999 999999 999999 999999 999999 999999 999999 999999 999999 999999 999999 999999 999999 999999 999999 999999 999999 999999 999999 999999 999999 999999 999999 999999 999999 999999 999999 999999 999999 999999 999999 999999 999999 999999 999999 999999 999999 999999 999999 999999 999999 999999 999999 999999 999999 0 999999 999999 999999 999999 999999 999999 999999 999999 999999 999999 999999 999999 999999 999999 19926 999999 999999 999999 999999 999999 999999 999999 999999 999999 17422 999999 999999 999999 18389 999999 999999 999999 15048 999999 999999 999999 999999 999999 999999 12389 999999 12603 999999 999999 999999 999999 999999 999999 999999 11383 999999 16095 999999 999999 999999 999999 999999 10334 999999 999999 17243 999999 999999 999999 999999 18548 16911 999999 999999 999999 999999 999999 999999 999999
999999 999999 999999 999999 999999 999999 999999 999999 999999 999999 999999 999999 999999 999999 999999 999999 999999 999999 999999 999999 999999 999999 999999 999999 999999 999999 999999 999999 999999 999999 999999 999999 999999 999999 999999 999999 999999 999999 999999 999999 999999 999999 999999 999999 999999 999999 999999 999999 0 999999 999999 999999 999999 999999 999999 999999 999999 999999 999999 999999 999999 999999 11781 999999 999999 999999 999999 999999 999999 999999 999999 999999 14564 999999 999999 999999 16151 999999 999999 999999 15330 999999 999999 999999 999999 999999 999999 19587 999999 14635 999999 999999 999999 999999 999999 999999 999999 14433 999999 15295 999999 999999 999999 999999 999999 10602 999999 999999 20000 999999 999999 999999 999999 14605 17086 999999 999999 999999 999999 999999 999999 999999
999999 999999 999999 999999 999999 999999 999999 999999 999999 999999 999999 999999 999999 999999 999999 999999 999999 999999 999999 999999 999999 999999 999999 999999 999999 999999 999999 999999 999999 999999 999999 999999 999999 999999 999999 999999 999999 999999 999999 999999 999999 999999 999999 999999 999999 999999 999999 999999 999999 0 999999 999999 999999 999999 999999 999999 999999 999999 999999 999999 999999 999999 999999 999999 999999 12662 999999 999999 999999 10935 10314 999999 999999 999999 999999 999999 999999 999999 999999 999999 999999 999999 999999 999999 999999 14795 999999 999999 999999 999999 999999 12575 999999 999999 999999 19242 16224 999999 999999 999999 999999 17967 17897 999999 999999 999999 999999 999999 999999 999999 14071 999999 999999 999999 999999 19151 10305 999999 999999 999999 999999 999999
999999 999999 999999 999999 999999 999999 999999 999999 999999 999999 999999 999999 999999 999999 999999 999999 999999 999999 999999 999999 999999 999999 999999 999999 999999 999999 999999 999999 999999 999999 999999 999999 999999 999999 999999 999999 999999 999999 999999 999999 999999 999999 999999 999999 999999 999999 999999 999999 999999 999999 0 999999 999999 999999 999999 999999 999999 999999 999999 999999 999999 999999 999999 999999 999999 17398 999999 999999 999999 15528 16086 999999 999999 999999 999999 999999 999999 999999 999999 999999 999999 999999 999999 999999 999999 15781 999999 999999 999999 999999 999999 19194 999999 999999 999999 19904 16033 999999 999999 999999 999999 11874 18822 999999 999999 999999 999999 999999 999999 999999 11843 999999 999999 999999 999999 13541 18977 999999 999999 999999 999999 999999
999999 999999 999999 999999 999999 999999 999999 999999 999999 999999 999999 999999 999999 999999 999999 999999 999999 999999 999999 999999 999999 999999 999999 999999 999999 999999 999999 999999 999999 999999 999999 999999 999999 999999 999999 999999 999999 999999 999999 999999 999999 999999 999999 999999 999999 999999 999999 999999 999999 999999 999999 0 999999 999999 999999 999999 999999 999999 999999 999999 999999 999999 999999 999999 999999 16403 999999 999999 999999 13362 15349 999999 999999 999999 999999 999999 999999 999999 999999 999999 999999 999999 999999 999999 999999 12315 999999 999999 999999 999999 999999 16703 999999 999999 999999 14087 14256 999999 999999 999999 999999 13384 12071 999999 999999 999999 999999 999999 999999 999999 11283 999999 999999 999999 999999 18124 18003 999999 999999 999999 999999 999999
999999 999999 999999 999999 999999 999999 999999 999999 999999 999999 999999 999999 999999 999999 999999 999999 999999 999999 999999 999999 999999 999999 999999 999999 999999 999999 999999 999999 999999 999999 999999 999999 999999 999999 999999 999999 999999 999999 999999 999999 999999 999999 999999 999999 999999 999999 999999 999999 999999 999999 999999 999999 0 999999 999999 999999 999999 999999 999999 999999 999999 999999 999999 999999 999999 13629 999999 999999 999999 18789 19164 999999 999999 999999 999999 999999 999999 999999 999999 999999 999999 999999 999999 999999 999999 11248 999999 999999 999999 999999 999999 13331 999999 999999 999999 13725 12339 999999 999999 999999 999999 14308 18900 999999 999999 999999 999999 999999 999999 999999 14989 999999 999999 999999 999999 11402 19132 999999 999999 999999 999999 999999
999999 999999 999999 999999 999999 999999 999999 999999 999999 999999 999999 999999 999999 999999 999999 999999 999999 999999 999999 999999 999999 999999 999999 999999 999999 999999 999999 999999 999999 999999 999999 999999 999999 999999 999999 999999 999999 999999 999999 999999 999999 999999 999999 999999 999999 999999 999999 999999 999999 999999 999999 999999 999999 0 999999 999999 999999 999999 999999 999999 999999 999999 999999 999999 999999 19652 999999 999999 999999 19761 17271 999999 999999 999999 999999 999999 999999 999999 999999 999999 999999 999999 999999 999999 999999 17351 999999 999999 999999 999999 999999 16162 999999 999999 999999 18931 15253 999999 999999 999999 999999 12284 15162 999999 999999 999999 999999 999999 999999 999999 15254 999999 999999 999999 999999 15998 18892 999999 999999 999999 999999 999999
999999 999999 999999 999999 999999 999999 999999 999999 999999 999999 999999 999999 999999 999999 999999 999999 999999 999999 999999 999999 999999 999999 999999 999999 999999 999999 999999 999999 999999 999999 999999 999999 999999 999999 999999 999999 999999 999999 999999 999999 999999 999999 999999 999999 999999 999999 999999 999999 999999 999999 999999 999999 999999 999999 0 999999 999999 999999 999999 999999 999999 999999 999999 999999 999999 19994 999999 999999 999999 18545 11707 999999 999999 999999 999999 999999 999999 999999 999999 999999 999999 999999 999999 999999 999999 10171 999999 999999 999999 999999 999999 10055 999999 999999 999999 19592 15203 999999 999999 999999 999999 17230 11703 999999 999999 999999 999999 999999 999999 999999 14926 999999 999999 999999 999999 17113 18865 999999 999999 999999 999999 999999
999999 999999 999999 999999 999999 999999 999999 999999 999999 999999 999999 999999 999999 999999 999999 999999 999999 999999 999999 999999 999999 999999 999999 999999 999999 999999 999999 999999 999999 999999 999999 999999 999999 999999 999999 999999 999999 999999 999999 999999 999999 999999 999999 999999 999999 999999 999999 999999 999999 999999 999999 999999 999999 999999 999999 0 999999 999999 999999 999999 999999 999999 999999 999999 999999 18265 999999 999999 999999 17019 12047 999999 999999 999999 999999 999999 999999 999999 999999 999999 999999 999999 999999 999999 999999 13984 999999 999999 999999 999999 999999 10015 999999 999999 999999 16428 16932 999999 999999 999999 999999 18037 13690 999999 999999 999999 999999 999999 999999 999999 11664 999999 999999 999999 999999 17008 12903 999999 999999 999999 999999 999999
999999 999999 999999 999999 999999 999999 999999 999999 999999 999999 999999 999999 999999 999999 999999 999999 999999 999999 999999 999999 999999 999999 999999 999999 999999 999999 999999 999999 999999 999999 999999 999999 999999 999999 999999 999999 999999 999999 999999 999999 999999 999999 999999 999999 999999 999999 999999 999999 999999 999999 999999 999999 999999 999999 999999 999999 0 999999 999999 999999 999999 999999 999999 999999 999999 13917 999999 999999 999999 18762 19330 999999 999999 999999 999999 999999 999999 999999 999999 999999 999999 999999 999999 999999 999999 17351 999999 999999 999999 999999 999999 14610 999999 999999 999999 19458 19874 999999 999999 999999 999999 11053 13617 999999 999999 999999 999999 999999 999999 999999 11822 999999 999999 999999 999999 13182 10550 999999 999999 999999 999999 999999
999999 999999 999999 999999 999999 999999 999999 999999 999999 999999 999999 999999 999999 999999 999999 999999 999999 999999 999999 999999 999999 999999 999999 999999 999999 999999 999999 999999 999999 999999 999999 999999 999999 999999 999999 999999 999999 999999 999999 999999 999999 999999 999999 999999 999999 999999 999999 999999 999999 999999 999999 999999 999999 999999 999999 999999 999999 0 999999 999999 999999 999999 999999 999999 999999 11193 999999 999999 999999 14138 12087 999999 999999 999999 999999 999999 999999 999999 999999 999999 999999 999999 999999 999999 999999 19925 999999 999999 999999 999999 999999 14914 999999 999999 999999 11217 14717 999999 999999 999999 999999 14972 12079 999999 999999 999999 999999 999999 999999 999999 16645 999999 999999 999999 999999 10475 10684 999999 999999 999999 999999 999999
999999 999999 999999 999999 999999 999999 999999 999999 999999 999999 999999 999999 999999 999999 999999 999999 999999 999999 999999 999999 999999 999999 999999 999999 999999 999999 999999 999999 999999 999999 999999 999999 999999 999999 999999 999999 999999 999999 999999 999999 999999 999999 999999 999999 999999 999999 999999 999999 999999 999999 999999 999999 999999 999999 999999 999999 999999 999999 0 999999 999999 999999 999999 999999 999999 10712 999999 999999 999999 12477 16245 999999 999999 999999 999999 999999 999999 999999 999999 999999 999999 999999 999999 999999 999999 18891 999999 999999 999999 999999 999999 13959 999999 999999 999999 13257 19616 999999 999999 999999 999999 17372 12369 999999 999999 999999 999999 999999 999999 999999 13523 999999 999999 999999 999999 12096 13709 999999 999999 999999 999999 999999
999999 999999 999999 999999 999999 999999 999999 999999 999999 999999 999999 999999 999999 999999 999999 999999 999999 999999 999999 999999 999999 999999 999999 999999 999999 999999 999999 999999 999999 999999 999999 999999 999999 999999 999999 999999 999999 999999 999999 999999 999999 999999 999999 999999 999999 999999 999999 999999 999999 999999 999999 999999 999999 999999 999999 999999 999999 999999 999999 0 999999 999999 999999 999999 999999 11897 999999 999999 999999 12516 10014 999999 999999 999999 999999 999999 999999 999999 999999 999999 999999 999999 999999 999999 999999 11675 999999 999999 999999 999999 999999 16947 999999 999999 999999 10254 11693 999999 999999 999999 999999 13517 19132 999999 999999 999999 999999 999999 999999 999999 14910 999999 999999 999999 999999 17848 13097 999999 999999 999999 999999 999999
999999 999999 999999 999999 999999 999999 999999 999999 999999 999999 999999 999999 999999 999999 999999 999999 999999 999999 999999 999999 999999 999999 999999 999999 999999 999999 999999 999999 999999 999999 999999 999999 999999 999999 999999 999999 999999 999999 999999 999999 999999 999999 999999 999999 999999 999999 999999 999999 999999 999999 999999 999999 999999 999999 999999 999999 999999 999999 999999 999999 0 999999 999999 999999 999999 18824 999999 999999 999999 12549 14517 999999 999999 999999 999999 999999 999999 999999 999999 999999 999999 999999 999999 999999 999999 11798 999999 999999 999999 999999 999999 11915 999999 999999 999999 10522 10602 999999 999999 999999 999999 11245 12860 999999 999999 999999 999999 999999 999999 999999 15834 999999 999999 999999 999999 12761 12018 999999 999999 999999 999999 999999
999999 11733 16622 10490 19201 15551 12541 11387 19836 15537 19060 14352 11152 19514 15232 11445 11415 15997 11225 13612 16926 12912 12343 17286 13873 18075 15032 16331 19997 16144 14884 12987 14354 14722 16877 13720 16800 10860 13353 14913 16145 12467 18984 10190 19144 18934 17024 10788 19314 15368 12437 12231 17984 14506 16533 11460 19015 15435 14274 11581 15503 0 999999 999999 999999 999999 999999 999999 999999 999999 999999 999999 999999 999999 999999 999999 999999 999999 999999 999999 999999 999999 999999 999999 999999 999999 999999 999999 999999 999999 999999 999999 999999 999999 999999 999999 999999 999999 999999 999999 999999 999999 999999 999999 999999 999999 999999 999999 999999 999999 999999 999999 999999 999999 999999 999999 999999 999999 999999 999999 999999 10898
999999 14208 18664 17987 12898 15186 18242 17441 13037 10121 18642 13758 13228 12693 11477 12527 15627 12982 10052 10514 12079 16033 14304 10952 11414 13810 17126 15068 14147 17501 14508 15335 19461 10553 17428 18312 10625 19763 17574 12181 12128 14303 18354 19526 18010 16984 19413 19926 11781 18773 17819 17709 14743 13431 18738 15390 13631 16154 14955 14359 19087 999999 0 999999 999999 999999 999999 999999 999999 999999 999999 999999 999999 999999 999999 999999 999999 999999 999999 999999 999999 999999 999999 999999 999999 999999 999999 999999 999999 999999 999999 999999 999999 999999 999999 999999 999999 999999 999999 999999 999999 999999 999999 999999 999999 999999 999999 999999 999999 999999 999999 999999 999999 999999 999999 999999 999999 999999 999999 999999 999999 10401
999999 12346 14848 17405 10960 12952 12634 16391 14385 15492 18590 11046 16752 19873 15174 17024 15440 19204 18445 13887 13261 18436 10748 18063 15684 11772 18856 14990 10437 12135 14414 17712 13932 18070 10333 19979 16382 12388 12360 18935 13494 14383 14450 11652 15935 18048 11537 17872 19733 13566 14824 14587 12673 17387 10711 12064 15956 17478 15273 17732 14137 999999 999999 0 999999 999999 999999 999999 999999 999999 999999 999999 999999 999999 999999 999999 999999 999999 999999 999999 999999 999999 999999 999999 999999 999999 999999 999999 999999 999999 999999 999999 999999 999999 999999 999999 999999 999999 999999 999999 999999 999999 999999 999999 999999 999999 999999 999999 999999 999999 999999 999999 999999 999999 999999 999999 999999 999999 999999 999999 999999 10982
999999 13651 10392 19430 12622 17987 17634 12340 16455 18267 11509 10139 18873 19024 11106 14464 18774 16829 10686 16912 17370 15482 16414 14437 11338 19351 11791 15753 13035 18647 11498 16761 15740 12330 12241 17538 15185 14687 15444 10761 11180 15649 18811 18254 16705 12839 19009 10936 11925 15877 15198 16065 18159 15738 10426 18011 10221 10676 18835 17861 16814 999999 999999 999999 0 999999 999999 999999 999999 999999 999999 999999 999999 999999 999999 999999 999999 999999 999999 999999 999999 999999 999999 999999 999999 999999 999999 999999 999999 999999 999999 999999 999999 999999 999999 999999 999999 999999 999999 999999 999999 999999 999999 999999 999999 999999 999999 999999 999999 999999 999999 999999 999999 999999 999999 999999 999999 999999 999999 999999 999999 10910
999999 19673 16544 12755 12260 17449 14659 13088 15009 17568 13151 12166 12119 14410 16131 16476 14673 14473 14264 16476 18297 11125 14749 13354 19870 19351 11039 16715 15637 13155 11696 16434 18592 15295 11815 10973 18956 19517 15817 19250 19885 14708 16255 14488 17587 10171 14651 17662 18311 12662 17398 16403 13629 19652 19994 18265 13917 11193 10712 11897 18824 999999 999999 999999 999999 0 999999 999999 999999 999999 999999 999999 999999 999999 999999 999999 999999 999999 999999 999999 999999 999999 999999 999999 999999 999999 999999 999999 999999 999999 999999 999999 999999 999999 999999 999999 999999 999999 999999 999999 999999 999999 999999 999999 999999 999999 999999 999999 999999 999999 999999 999999 999999 999999 999999 999999 999999 999999 999999 999999 999999 10586
999999 14807 11174 10679 13175 13409 11609 14783 17584 15111 10198 19639 11132 13959 17899 11420 18155 19643 12049 19930 10813 12634 14173 16200 16084 15482 15958 13826 19272 18610 18408 10307 12995 13873 18446 11607 13874 13574 15898 19153 16906 12597 11634 15453 12472 11921 12362 16737 11999 10338 19559 15688 10301 17279 13431 12573 12252 13357 15485 11950 14756 999999 999999 999999 999999 999999 0 999999 999999 999999 999999 999999 999999 999999 999999 999999 999999 999999 999999 999999 999999 999999 999999 999999 999999 999999 999999 999999 999999 999999 999999 999999 999999 999999 999999 999999 999999 999999 999999 999999 999999 999999 999999 999999 999999 999999 999999 999999 999999 999999 999999 999999 999999 999999 999999 999999 999999 999999 999999 999999 999999 8103
999999 12337 16611 14439 17695 13595 17388 11880 13774 13416 18081 15634 12278 12484 19896 14312 11783 15695 19639 14685 18381 11265 11400 16058 19160 11564 15522 12625 15733 10125 16212 11288 11577 13371 15207 19982 15179 17523 11113 19457 10769 14226 16424 15916 18440 18648 13512 13257 13691 10549 12966 12135 18964 16580 13644 12060 16770 10092 17989 17462 15343 999999 999999 999999 999999 999999 999999 0 999999 999999 999999 999999 999999 999999 999999 999999 999999 999999 999999 999999 999999 999999 999999 999999 999999 999999 999999 999999 999999 999999 999999 999999 999999 999999 999999 999999 999999 999999 999999 999999 999999 999999 999999 999999 999999 999999 999999 999999 999999 999999 999999 999999 999999 999999 999999 999999 999999 999999 999999 999999 999999 12524
999999 10337 19241 13877 16512 19270 10417 17252 16563 19481 11648 17197 11130 18023 17179 13614 12445 19284 13243 18583 19722 12678 10513 12956 18799 17140 16467 11896 14482 12975 16120 19316 12421 10592 17005 12164 12682 17970 13346 15773 13124 11662 10278 10153 18400 11189 13599 17027 11956 19104 12499 19759 17585 16937 13736 12506 16023 11282 13669 15661 15856 999999 999999 999999 999999 999999 999999 999999 0 999999 999999 999999 999999 999999 999999 999999 999999 999999 999999 999999 999999 999999 999999 999999 999999 999999 999999 999999 999999 999999 999999 999999 999999 999999 999999 999999 999999 999999 999999 999999 999999 999999 999999 999999 999999 999999 999999 999999 999999 999999 999999 999999 999999 999999 999999 999999 999999 999999 999999 999999 999999 10387
999999 16922 15363 15701 13438 15616 12571 12742 16361 19814 10361 14080 13845 18092 13005 14344 17674 13607 12697 15819 12468 18119 17310 16742 11821 11911 13175 14354 15710 13042 14254 19075 11670 16592 11397 12935 16349 18034 12752 15324 19050 12015 18133 18481 12592 12650 14492 16987 17286 10935 15528 13362 18789 19761 18545 17019 18762 14138 12477 12516 12549 999999 999999 999999 999999 999999 999999 999999 999999 0 999999 999999 999999 999999 999999 999999 999999 999999 999999 999999 999999 999999 999999 999999 999999 999999 999999 999999 999999 999999 999999 999999 999999 999999 999999 999999 999999 999999 999999 999999 999999 999999 999999 999999 999999 999999 999999 999999 999999 999999 999999 999999 999999 999999 999999 999999 999999 999999 999999 999999 999999 7227
999999 12695 14983 13018 19792 14839 18780 11368 15338 15516 13200 12292 11328 15299 16973 19746 10746 18016 15324 11266 13018 15963 13913 12459 15926 17696 18805 19840 17546 19793 11390 18809 17467 13869 13012 10346 16118 10667 10126 12174 12358 11108 14466 10768 14948 11319 11443 16077 14504 10314 16086 15349 19164 17271 11707 12047 19330 12087 16245 10014 14517 999999 999999 999999 999999 999999 999999 999999 999999 999999 0 999999 999999 999999 999999 999999 999999 999999 999999 999999 999999 999999 999999 999999 999999 999999 999999 999999 999999 999999 999999 999999 999999 999999 999999 999999 999999 999999 999999 999999 999999 999999 999999 999999 999999 999999 999999 999999 999999 999999 999999 999999 999999 999999 999999 999999 999999 999999 999999 999999 999999 12111
999999 10087 18776 17077 10343 13190 15324 16098 15567 11788 16844 14742 18118 19644 14920 16580 17689 10863 13865 15080 19915 13402 16456 10647 15600 19256 15518 14430 13126 16116 11083 19734 14011 13077 12888 12542 16435 16641 19348 18213 11059 17179 15976 14068 13588 12287 12012 18329 17153 17689 16032 17570 13021 13581 10159 10736 15626 12039 15902 18878 12256 999999 999999 999999 999999 999999 999999 999999 999999 999999 999999 0 999999 999999 999999 999999 999999 999999 999999 999999 999999 999999 999999 999999 999999 999999 999999 999999 999999 999999 999999 999999 999999 999999 999999 999999 999999 999999 999999 999999 999999 999999 999999 999999 999999 999999 999999 999999 999999 999999 999999 999999 999999 999999 999999 999999 999999 999999 999999 999999 999999 9180
999999 15311 19862 10344 15426 11264 10637 12129 18848 15932 16770 16497 11094 19396 19026 13340 16208 15359 15130 16323 18632 10726 12033 16135 12996 19659 14238 12634 17523 14094 15746 17665 18299 11746 18398 11598 10362 18211 14783 17875 13196 18480 12728 10840 18361 11113 12333 17422 14564 11371 16915 15981 13870 18215 14973 17926 18435 14923 19723 14166 12573 999999 999999 999999 999999 999999 999999 999999 999999 999999 999999 999999 0 999999 999999 999999 999999 999999 999999 999999 999999 999999 999999 999999 999999 999999 999999 999999 999999 999999 999999 999999 999999 999999 999999 999999 999999 999999 999999 999999 999999 999999 999999 999999 999999 999999 999999 999999 999999 999999 999999 999999 999999 999999 999999 999999 999999 999999 999999 999999 999999 10479
999999 16007 10795 16475 19469 16950 14796 11513 11510 16198 13299 16881 10552 12419 12624 11303 15136 14982 10171 11070 11695 17677 13012 19318 13411 17675 11467 10276 11225 15210 13150 10587 19686 14748 10354 14325 17439 18960 15817 11286 11984 12124 12412 12081 13734 14154 15133 10094 18824 15331 15214 18865 17609 11292 10044 10062 19274 13511 14406 14254 18461 999999 999999 999999 999999 999999 999999 999999 999999 999999 999999 999999 999999 0 999999 999999 999999 999999 999999 999999 999999 999999 999999 999999 999999 999999 999999 999999 999999 999999 999999 999999 999999 999999 999999 999999 999999 999999 999999 999999 999999 999999 999999 999999 999999 999999 999999 999999 999999 999999 999999 999999 999999 999999 999999 999999 999999 999999 999999 999999 999999 10660
999999 12177 15385 12703 14082 14672 19651 15941 14711 17072 12421 14583 18801 17216 19552 10228 14955 14542 10491 18185 10757 18138 10140 13318 13348 12196 17129 10972 12250 15176 10964 16314 19443 16630 14550 13290 17457 18208 10363 12431 17304 15869 12549 16684 19176 18993 14692 17613 19686 16668 16652 15179 16038 10889 16761 18737 13715 16776 17827 16218 12610 999999 999999 999999 999999 999999 999999 999999 999999 999999 999999 999999 999999 999999 0 999999 999999 999999 999999 999999 999999 999999 999999 999999 999999 999999 999999 999999 999999 999999 999999 999999 999999 999999 999999 999999 999999 999999 999999 999999 999999 999999 999999 999999 999999 999999 999999 999999 999999 999999 999999 999999 999999 999999 999999 999999 999999 999999 999999 999999 999999 5410
999999 14217 14270 15851 16632 10663 10244 10527 15910 12288 13719 18327 11442 12101 18804 10919 18189 18147 17621 14670 11196 11915 10906 15300 14526 15352 11887 19199 17625 19182 11935 10487 15323 19122 15634 12179 15154 17613 14765 12066 19531 13207 10497 12609 11446 18000 10751 19708 13205 14016 14455 16168 16123 11553 13329 11881 14190 14768 16567 19628 17004 999999 999999 999999 999999 999999 999999 999999 999999 999999 999999 999999 999999 999999 999999 0 999999 999999 999999 999999 999999 999999 999999 999999 999999 999999 999999 999999 999999 999999 999999 999999 999999 999999 999999 999999 999999 999999 999999 999999 999999 999999 999999 999999 999999 999999 999999 999999 999999 999999 999999 999999 999999 999999 999999 999999 999999 999999 999999 999999 999999 9130
999999 17505 10909 17051 18615 19569 11134 14153 16525 12467 10200 13792 10012 16007 10853 14806 11588 12814 17781 13279 14159 15684 13787 10270 14926 17781 10595 18368 15668 11489 10379 18951 18900 14422 15835 17227 17775 13563 12338 18045 18749 14651 16429 17145 16105 10350 12869 18389 16151 10706 10650 18231 18306 14877 19616 14887 14764 10597 14912 10222 19352 999999 999999 999999 999999 999999 999999 999999 999999 999999 999999 999999 999999 999999 999999 999999 0 999999 999999 999999 999999 999999 999999 999999 999999 999999 999999 999999 999999 999999 999999 999999 999999 999999 999999 999999 999999 999999 999999 999999 999999 999999 999999 999999 999999 999999 999999 999999 999999 999999 999999 999999 999999 999999 999999 999999 999999 999999 999999 999999 999999 12747
999999 18172 10818 17851 16205 19314 10272 10644 11317 15061 13767 16625 14970 12252 16534 17397 15344 19520 18843 10827 17093 14033 12502 15275 17670 16433 14030 15388 13228 15389 15738 13198 16898 18463 11374 12535 17885 11799 19695 17654 19541 13161 18016 13148 10363 10289 18162 17665 15507 15471 15301 14948 19831 18384 18402 18206 11952 12374 16790 14000 11487 999999 999999 999999 999999 999999 999999 999999 999999 999999 999999 999999 999999 999999 999999 999999 999999 0 999999 999999 999999 999999 999999 999999 999999 999999 999999 999999 999999 999999 999999 999999 999999 999999 999999 999999 999999 999999 999999 999999 999999 999999 999999 999999 999999 999999 999999 999999 999999 999999 999999 999999 999999 999999 999999 999999 999999 999999 999999 999999 999999 5939
999999 14417 16781 13525 11081 12866 14669 11109 12723 19037 10196 17515 12263 14509 19099 16108 10552 11415 13990 19532 15331 18536 10680 10317 13040 18004 16571 18466 14315 18600 13080 16345 16495 10480 11363 16519 16694 16548 11832 12366 11287 11829 11336 13372 10613 14741 19767 10029 12547 13882 14901 19559 10808 12199 16737 17165 16316 16942 11886 13771 19695 999999 999999 999999 999999 999999 999999 999999 999999 999999 999999 999999 999999 999999 999999 999999 999999 999999 0 999999 999999 999999 999999 999999 999999 999999 999999 999999 999999 999999 999999 999999 999999 999999 999999 999999 999999 999999 999999 999999 999999 999999 999999 999999 999999 999999 999999 999999 999999 999999 999999 999999 999999 999999 999999 999999 999999 999999 999999 999999 999999 6028
999999 12208 17642 17911 17083 14705 14731 13073 11506 13196 10029 18614 17546 15301 11990 18532 14120 15876 16252 16201 19914 12389 15824 16274 17043 18619 15336 10332 15640 18441 11021 17009 12974 13246 10818 19447 19267 11702 11042 15238 12264 13327 12758 18452 17414 10096 17124 14959 18161 18490 18374 18376 10539 19661 16971 16248 14207 18728 11695 19654 10860 999999 999999 999999 999999 999999 999999 999999 999999 999999 999999 999999 999999 999999 999999 999999 999999 999999 999999 0 999999 999999 999999 999999 999999 999999 999999 999999 999999 999999 999999 999999 999999 999999 999999 999999 999999 999999 999999 999999 999999 999999 999999 999999 999999 999999 999999 999999 999999 999999 999999 999999 999999 999999 999999 999999 999999 999999 999999 999999 999999 6209
999999 14864 13573 19636 15269 10873 11438 11800 12955 12179 12107 10378 13853 12356 12623 17719 12156 14399 18369 19287 10152 18286 17734 10472 17674 12855 16660 17112 10438 17116 10443 15979 13248 13289 18971 17071 10114 17497 15349 18664 10253 15209 18304 16577 12282 16013 11821 15048 15330 14891 13885 18740 12808 19637 11350 15840 13819 14069 12281 16170 10978 999999 999999 999999 999999 999999 999999 999999 999999 999999 999999 999999 999999 999999 999999 999999 999999 999999 999999 999999 0 999999 999999 999999 999999 999999 999999 999999 999999 999999 999999 999999 999999 999999 999999 999999 999999 999999 999999 999999 999999 999999 999999 999999 999999 999999 999999 999999 999999 999999 999999 999999 999999 999999 999999 999999 999999 999999 999999 999999 999999 10835
999999 14808 14543 18406 14769 14541 13942 12660 11344 14457 15697 11309 14462 13135 10188 10708 13928 15729 15111 13570 18137 14861 15505 15467 18225 10070 12642 12777 10684 13003 17498 18657 19588 18296 19402 13961 10108 11045 18725 10823 19220 13333 11759 18351 19290 18742 19448 18645 12779 16830 19890 19025 12081 11659 10837 19966 16846 13236 15221 18790 18352 999999 999999 999999 999999 999999 999999 999999 999999 999999 999999 999999 999999 999999 999999 999999 999999 999999 999999 999999 999999 0 999999 999999 999999 999999 999999 999999 999999 999999 999999 999999 999999 999999 999999 999999 999999 999999 999999 999999 999999 999999 999999 999999 999999 999999 999999 999999 999999 999999 999999 999999 999999 999999 999999 999999 999999 999999 999999 999999 999999 8949
999999 13102 19848 15440 17171 16041 15979 19261 14202 18862 15892 19827 17195 14579 11216 17968 17156 11894 14652 13465 16711 12821 14911 14638 16073 15811 11442 10930 13819 16560 11801 15765 12298 14227 15562 12166 17544 14958 19074 17485 11337 15413 14445 11263 19772 12751 11993 19343 18251 11687 17514 19197 15450 18583 13319 17329 19840 11384 16572 14214 10992 999999 999999 999999 999999 999999 999999 999999 999999 999999 999999 999999 999999 999999 999999 999999 999999 999999 999999 999999 999999 999999 0 999999 999999 999999 999999 999999 999999 999999 999999 999999 999999 999999 999999 999999 999999 999999 999999 999999 999999 999999 999999 999999 999999 999999 999999 999999 999999 999999 999999 999999 999999 999999 999999 999999 999999 999999 999999 999999 999999 6927
999999 19306 19563 10815 14478 17111 12407 10670 18026 10136 18626 14018 11641 15411 14507 15026 17870 10700 10525 18146 13518 18828 14068 18383 11726 18169 12254 16073 19733 13632 15105 12185 19604 17116 17128 15789 15752 12516 14938 14691 11562 18902 15981 14392 12187 15162 10025 14946 15069 12356 19355 16711 18900 14830 15514 11131 19538 15849 15622 14029 16325 999999 999999 999999 999999 999999 999999 999999 999999 999999 999999 999999 999999 999999 999999 999999 999999 999999 999999 999999 999999 999999 999999 0 999999 999999 999999 999999 999999 999999 999999 999999 999999 999999 999999 999999 999999 999999 999999 999999 999999 999999 999999 999999 999999 999999 999999 999999 999999 999999 999999 999999 999999 999999 999999 999999 999999 999999 999999 999999 999999 13156
999999 11227 17165 19360 16107 18651 19317 16891 15009 13577 12343 15959 10854 12420 17057 16271 19289 11866 17388 16931 19161 11083 15808 16793 13480 14349 10736 13135 18909 10062 11649 14131 17308 18490 15324 17340 11603 17325 14778 18285 15997 16343 17025 18798 11438 18082 14592 18573 10348 11616 14250 13839 19484 15444 12349 11474 17682 10909 17988 18999 18704 999999 999999 999999 999999 999999 999999 999999 999999 999999 999999 999999 999999 999999 999999 999999 999999 999999 999999 999999 999999 999999 999999 999999 0 999999 999999 999999 999999 999999 999999 999999 999999 999999 999999 999999 999999 999999 999999 999999 999999 999999 999999 999999 999999 999999 999999 999999 999999 999999 999999 999999 999999 999999 999999 999999 999999 999999 999999 999999 999999 6607
999999 14148 12794 11702 13553 14580 13729 17142 10334 13792 12400 12393 16357 13601 15563 18122 19720 11861 19858 15345 15920 11042 14807 14505 18240 18722 14284 15542 17527 15105 17525 12846 13907 19406 15348 12329 19893 13790 12152 17349 11577 15791 12395 14664 17800 18031 12292 17677 16092 14795 15781 12315 11248 17351 10171 13984 17351 19925 18891 11675 11798 999999 999999 999999 999999 999999 999999 999999 999999 999999 999999 999999 999999 999999 999999 999999 999999 999999 999999 999999 999999 999999 999999 999999 999999 0 999999 999999 999999 999999 999999 999999 999999 999999 999999 999999 999999 999999 999999 999999 999999 999999 999999 999999 999999 999999 999999 999999 999999 999999 999999 999999 999999 999999 999999 999999 999999 999999 999999 999999 999999 10984
999999 19141 17436 18602 12894 18734 10999 13297 11827 15200 11939 11412 14019 11626 14513 18145 16090 10959 19753 18259 12420 16219 13038 11874 15844 15343 14604 16554 12863 17611 11154 11116 18453 10907 11382 18499 13116 15989 16415 17702 19810 16290 18431 18238 13375 18943 14604 12736 16368 19297 15013 12620 18838 19585 12211 13134 14958 11564 11882 17290 10632 999999 999999 999999 999999 999999 999999 999999 999999 999999 999999 999999 999999 999999 999999 999999 999999 999999 999999 999999 999999 999999 999999 999999 999999 999999 0 999999 999999 999999 999999 999999 999999 999999 999999 999999 999999 999999 999999 999999 999999 999999 999999 999999 999999 999999 999999 999999 999999 999999 999999 999999 999999 999999 999999 999999 999999 999999 999999 999999 999999 14152
999999 10567 12474 19689 14858 13803 12633 10555 13691 11820 12323 11398 18154 13337 19371 16971 16385 11661 15782 13335 14422 19004 14313 14717 15533 17166 15805 13149 11589 13846 19191 12390 15204 19524 14020 14427 17700 14488 14104 10706 18453 15686 16759 10923 14883 13887 19158 12389 19587 10468 19699 14219 18466 17491 10302 19249 15501 15255 17638 17561 18159 999999 999999 999999 999999 999999 999999 999999 999999 999999 999999 999999 999999 999999 999999 999999 999999 999999 999999 999999 999999 999999 999999 999999 999999 999999 999999 0 999999 999999 999999 999999 999999 999999 999999 999999 999999 999999 999999 999999 999999 999999 999999 999999 999999 999999 999999 999999 999999 999999 999999 999999 999999 999999 999999 999999 999999 999999 999999 999999 999999 10786
999999 19600 16848 18712 14347 18335 10339 16041 11293 17373 12848 12826 12647 19983 12658 15690 13177 11552 11734 16339 13987 16777 13855 10370 17094 18658 18945 18112 13064 11515 18457 10505 13388 11451 13711 18737 17857 16393 19517 18055 13202 10607 13851 17399 14501 18533 13047 19301 13306 18735 19609 15266 19126 15992 14415 16448 13182 11929 15798 13548 18478 999999 999999 999999 999999 999999 999999 999999 999999 999999 999999 999999 999999 999999 999999 999999 999999 999999 999999 999999 999999 999999 999999 999999 999999 999999 999999 999999 0 999999 999999 999999 999999 999999 999999 999999 999999 999999 999999 999999 999999 999999 999999 999999 999999 999999 999999 999999 999999 999999 999999 999999 999999 999999 999999 999999 999999 999999 999999 999999 999999 13607
999999 14908 11557 12454 16203 12980 10312 17940 17531 13446 13347 17079 18826 14706 16315 11221 10000 10369 19664 15136 17850 12156 10334 15554 16274 17313 15420 17320 17576 17656 17531 16774 17997 19535 12852 19577 13317 13345 14072 15491 17949 19087 16103 17101 14577 17492 12272 12603 14635 19914 14175 16707 15436 15158 15678 18776 18846 18700 12042 12612 10522 999999 999999 999999 999999 999999 999999 999999 999999 999999 999999 999999 999999 999999 999999 999999 999999 999999 999999 999999 999999 999999 999999 999999 999999 999999 999999 999999 999999 0 999999 999999 999999 999999 999999 999999 999999 999999 999999 999999 999999 999999 999999 999999 999999 999999 999999 999999 999999 999999 999999 999999 999999 999999 999999 999999 999999 999999 999999 999999 999999 12783
999999 18840 19287 14448 11603 10328 19760 15962 12809 12125 19036 12594 19508 11713 17336 16696 16527 16723 18126 10143 10675 13857 10934 11412 16596 15614 16105 13538 14174 11942 19695 18780 18543 11235 17576 15649 16390 10193 18332 13980 18845 15781 11133 13543 11600 19782 19064 14221 13509 15360 16585 16802 15999 10451 13384 16915 10271 19870 17141 15547 11474 999999 999999 999999 999999 999999 999999 999999 999999 999999 999999 999999 999999 999999 999999 999999 999999 999999 999999 999999 999999 999999 999999 999999 999999 999999 999999 999999 999999 999999 0 999999 999999 999999 999999 999999 999999 999999 999999 999999 999999 999999 999999 999999 999999 999999 999999 999999 999999 999999 999999 999999 999999 999999 999999 999999 999999 999999 999999 999999 999999 14667
999999 12232 10153 10869 15590 10313 18192 11560 16607 15585 18264 13705 17207 18689 18950 16988 17418 17418 19948 17764 15562 10583 18883 18708 13314 12933 12898 16981 11986 18899 13536 10696 11626 16003 15012 13531 15929 12640 11005 19055 12805 15042 16244 11631 12431 18486 15188 10102 11063 12575 19194 16703 13331 16162 10055 10015 14610 14914 13959 16947 11915 999999 999999 999999 999999 999999 999999 999999 999999 999999 999999 999999 999999 999999 999999 999999 999999 999999 999999 999999 999999 999999 999999 999999 999999 999999 999999 999999 999999 999999 999999 0 999999 999999 999999 999999 999999 999999 999999 999999 999999 999999 999999 999999 999999 999999 999999 999999 999999 999999 999999 999999 999999 999999 999999 999999 999999 999999 999999 999999 999999 5297
999999 12724 10649 13454 19694 19807 10541 14749 19757 19364 18152 16342 19839 19941 13639 11221 17712 16330 14757 10455 12349 16860 10448 10168 17800 18643 17791 11401 10864 12859 19351 19747 18159 18423 17095 14072 16332 11651 16483 15246 18648 16270 19409 19051 14210 12708 17334 10070 12016 15702 19628 14380 11797 14715 10392 12745 10200 12359 17607 18780 14594 999999 999999 999999 999999 999999 999999 999999 999999 999999 999999 999999 999999 999999 999999 999999 999999 999999 999999 999999 999999 999999 999999 999999 999999 999999 999999 999999 999999 999999 999999 999999 0 999999 999999 999999 999999 999999 999999 999999 999999 999999 999999 999999 999999 999999 999999 999999 999999 999999 999999 999999 999999 999999 999999 999999 999999 999999 999999 999999 999999 13158
999999 14624 16881 15425 12043 14218 13216 18751 11172 12357 11142 13833 16001 13030 16428 14400 15361 16418 13716 18619 17971 11649 15970 15905 11410 15831 14295 14732 11332 15386 16451 15800 16429 12416 13012 13086 11035 18082 12777 15018 13995 19487 18096 11753 13560 19295 19003 11288 10599 10133 11052 10414 15581 10932 16415 19036 15272 19307 13264 12215 17167 999999 999999 999999 999999 999999 999999 999999 999999 999999 999999 999999 999999 999999 999999 999999 999999 999999 999999 999999 999999 999999 999999 999999 999999 999999 999999 999999 999999 999999 999999 999999 999999 0 999999 999999 999999 999999 999999 999999 999999 999999 999999 999999 999999 999999 999999 999999 999999 999999 999999 999999 999999 999999 999999 999999 999999 999999 999999 999999 999999 7543
999999 11618 14120 12471 16178 10942 17324 16854 15366 19650 16460 17066 15881 11975 15133 15884 19032 16272 14989 17109 16709 14753 17577 12294 16795 15504 18177 10695 14497 16622 13337 14582 14641 19105 13260 16999 19257 15860 14712 11192 15533 14937 18330 16795 17476 16167 11987 14523 16582 15273 19824 14024 18477 14917 11806 11112 12065 12256 10432 18060 14529 999999 999999 999999 999999 999999 999999 999999 999999 999999 999999 999999 999999 999999 999999 999999 999999 999999 999999 999999 999999 999999 999999 999999 999999 999999 999999 999999 999999 999999 999999 999999 999999 999999 0 999999 999999 999999 999999 999999 999999 999999 999999 999999 999999 999999 999999 999999 999999 999999 999999 999999 999999 999999 999999 999999 999999 999999 999999 999999 999999 13046
999999 15438 18580 10145 11483 17344 17610 11447 13564 13752 10408 11009 14288 16261 15004 19883 16110 15767 10249 19233 15135 15753 19604 10682 14949 12652 11942 15762 12460 10785 10342 10161 18333 12430 17196 11296 12108 10348 13665 12746 18801 19574 16472 12458 10889 18581 17780 14566 19509 19242 19904 14087 13725 18931 19592 16428 19458 11217 13257 10254 10522 999999 999999 999999 999999 999999 999999 999999 999999 999999 999999 999999 999999 999999 999999 999999 999999 999999 999999 999999 999999 999999 999999 999999 999999 999999 999999 999999 999999 999999 999999 999999 999999 999999 999999 0 999999 999999 999999 999999 999999 999999 999999 999999 999999 999999 999999 999999 999999 999999 999999 999999 999999 999999 999999 999999 999999 999999 999999 999999 999999 11992
999999 18991 11673 19623 13035 13065 10412 14559 14904 15480 10731 16362 12599 10256 10557 18474 10353 11730 13478 11488 10875 14655 16921 10824 12575 10430 18723 17850 11211 12678 17914 16195 14402 10137 12007 11561 15962 17344 19410 15719 14283 10545 19715 16065 15685 17964 11957 11905 18244 16224 16033 14256 12339 15253 15203 16932 19874 14717 19616 11693 10602 999999 999999 999999 999999 999999 999999 999999 999999 999999 999999 999999 999999 999999 999999 999999 999999 999999 999999 999999 999999 999999 999999 999999 999999 999999 999999 999999 999999 999999 999999 999999 999999 999999 999999 999999 0 999999 999999 999999 999999 999999 999999 999999 999999 999999 999999 999999 999999 999999 999999 999999 999999 999999 999999 999999 999999 999999 999999 999999 999999 9986
999999 10554 16057 14664 10739 17486 15686 19620 16999 14838 16372 17157 16197 13447 17189 16455 12943 19257 10569 10056 19327 13115 19838 12531 17420 10194 12447 19965 13216 16066 12247 18349 14027 16515 19986 14044 17880 10695 19254 15418 11202 14606 13993 13215 11472 18635 13151 11383 14433 17061 17360 17265 16876 15862 11289 10494 10410 14530 17598 15281 13379 999999 999999 999999 999999 999999 999999 999999 999999 999999 999999 999999 999999 999999 999999 999999 999999 999999 999999 999999 999999 999999 999999 999999 999999 999999 999999 999999 999999 999999 999999 999999 999999 999999 999999 999999 999999 0 999999 999999 999999 999999 999999 999999 999999 999999 999999 999999 999999 999999 999999 999999 999999 999999 999999 999999 999999 999999 999999 999999 999999 6675
999999 15837 17915 13927 12092 19225 12032 16438 16645 18745 13523 19218 12003 11865 17792 16587 17499 18891 19707 15593 10009 10093 11141 12714 19422 19108 16007 15022 19990 19293 19038 11159 14828 13835 10361 13694 13798 15302 13928 16691 15947 19643 17802 17324 12420 15699 12482 14556 19163 18931 15786 15738 11358 14180 13957 15229 19634 17673 10510 14427 13164 999999 999999 999999 999999 999999 999999 999999 999999 999999 999999 999999 999999 999999 999999 999999 999999 999999 999999 999999 999999 999999 999999 999999 999999 999999 999999 999999 999999 999999 999999 999999 999999 999999 999999 999999 999999 999999 0 999999 999999 999999 999999 999999 999999 999999 999999 999999 999999 999999 999999 999999 999999 999999 999999 999999 999999 999999 999999 999999 999999 13289
999999 14750 13233 16730 14686 10569 18335 12585 13461 14228 12666 17126 14244 12016 16480 17321 18046 14701 19496 15576 13899 14969 18491 19518 17773 17662 11874 19189 14049 12263 10482 11957 17103 14240 18088 12417 11609 18639 16453 15585 17065 15401 12848 18011 16280 18655 18752 16095 15295 18515 12936 17210 17135 10083 12570 11808 18877 16593 17776 18459 15260 999999 999999 999999 999999 999999 999999 999999 999999 999999 999999 999999 999999 999999 999999 999999 999999 999999 999999 999999 999999 999999 999999 999999 999999 999999 999999 999999 999999 999999 999999 999999 999999 999999 999999 999999 999999 999999 999999 0 999999 999999 999999 999999 999999 999999 999999 999999 999999 999999 999999 999999 999999 999999 999999 999999 999999 999999 999999 999999 999999 6602
999999 11419 11646 16900 15447 15428 11845 18024 15895 15894 15616 14004 13465 10601 12545 10213 12991 10570 14409 11366 11598 15961 15006 11357 13345 18142 16470 13232 18961 13721 12735 12077 16149 11839 16376 17620 12847 18648 14807 10785 18482 18220 10300 14341 15481 16528 15594 15462 19990 19924 14065 13510 11968 17333 17372 16086 10822 12543 14490 11799 14793 999999 999999 999999 999999 999999 999999 999999 999999 999999 999999 999999 999999 999999 999999 999999 999999 999999 999999 999999 999999 999999 999999 999999 999999 999999 999999 999999 999999 999999 999999 999999 999999 999999 999999 999999 999999 999999 999999 999999 0 999999 999999 999999 999999 999999 999999 999999 999999 999999 999999 999999 999999 999999 999999 999999 999999 999999 999999 999999 999999 11684
999999 13878 17783 17799 17629 12204 13329 12616 12918 19657 18858 15814 10503 17123 16813 12686 16386 14104 10560 17324 12126 12155 10402 10352 10235 18782 12713 10930 16217 14771 15094 10746 12981 12789 10114 10028 16809 19142 12061 15231 11189 13933 19637 17253 15682 11324 15970 13913 10991 17967 11874 13384 14308 12284 17230 18037 11053 14972 17372 13517 11245 999999 999999 999999 999999 999999 999999 999999 999999 999999 999999 999999 999999 999999 999999 999999 999999 999999 999999 999999 999999 999999 999999 999999 999999 999999 999999 999999 999999 999999 999999 999999 999999 999999 999999 999999 999999 999999 999999 999999 999999 0 999999 999999 999999 999999 999999 999999 999999 999999 999999 999999 999999 999999 999999 999999 999999 999999 999999 999999 999999 13446
999999 13386 12051 19418 14924 10354 18938 11744 19062 14384 11021 16263 17962 10657 15427 11971 19341 17741 12498 12979 12365 15571 15275 10982 15300 15742 16758 19755 11164 11316 16411 14121 19479 19662 11600 17414 14942 14939 13356 10658 16970 14180 13320 13407 10688 17825 15860 17945 19514 17897 18822 12071 18900 15162 11703 13690 13617 12079 12369 19132 12860 999999 999999 999999 999999 999999 999999 999999 999999 999999 999999 999999 999999 999999 999999 999999 999999 999999 999999 999999 999999 999999 999999 999999 999999 999999 999999 999999 999999 999999 999999 999999 999999 999999 999999 999999 999999 999999 999999 999999 999999 999999 0 999999 999999 999999 999999 999999 999999 999999 999999 999999 999999 999999 999999 999999 999999 999999 999999 999999 999999 14425
999999 12759 16085 10213 16276 18201 10435 13794 13306 19290 14086 18923 11689 17323 15227 11302 11452 10932 12914 18291 18331 10117 19042 10202 10927 12334 11789 12985 17420 17674 16240 17077 13921 19081 16729 15554 16393 16639 10508 13643 13105 18279 19351 16584 18839 10998 11480 12160 19329 14853 17313 12032 13073 11973 12164 11837 13030 14616 14108 16721 12455 999999 999999 999999 999999 999999 999999 999999 999999 999999 999999 999999 999999 999999 999999 999999 999999 999999 999999 999999 999999 999999 999999 999999 999999 999999 999999 999999 999999 999999 999999 999999 999999 999999 999999 999999 999999 999999 999999 999999 999999 999999 999999 0 999999 999999 999999 999999 999999 999999 999999 999999 999999 999999 999999 999999 999999 999999 999999 999999 999999 8940
999999 15038 14130 10955 10988 12119 19752 10847 13934 10870 18714 10912 14218 15476 12216 18487 17214 10968 17291 18722 10620 11306 12033 16452 19603 12293 14236 13442 11807 10459 10718 19243 17013 10485 17139 10479 14510 13853 11496 14541 18012 17244 11871 12348 18814 10159 15619 19522 18939 16130 15483 19585 18788 16173 13282 14828 17284 13181 15744 14057 10741 999999 999999 999999 999999 999999 999999 999999 999999 999999 999999 999999 999999 999999 999999 999999 999999 999999 999999 999999 999999 999999 999999 999999 999999 999999 999999 999999 999999 999999 999999 999999 999999 999999 999999 999999 999999 999999 999999 999999 999999 999999 999999 999999 0 999999 999999 999999 999999 999999 999999 999999 999999 999999 999999 999999 999999 999999 999999 999999 999999 12489
999999 10754 18012 14800 10434 12370 13604 14207 12952 15390 15627 14421 19425 15133 12159 14934 14070 19864 19082 19868 19597 13850 18161 13741 15534 19903 14862 10064 17092 13818 19213 14779 17321 16893 13290 13069 16328 11643 15887 15933 13330 12401 10240 13338 11149 17413 13421 10334 10602 13329 16250 14464 15579 12341 17371 11711 12601 17850 14803 13002 19557 999999 999999 999999 999999 999999 999999 999999 999999 999999 999999 999999 999999 999999 999999 999999 999999 999999 999999 999999 999999 999999 999999 999999 999999 999999 999999 999999 999999 999999 999999 999999 999999 999999 999999 999999 999999 999999 999999 999999 999999 999999 999999 999999 999999 0 999999 999999 999999 999999 999999 999999 999999 999999 999999 999999 999999 999999 999999 999999 999999 8141
999999 13844 19505 11753 15491 15297 12627 13784 16708 11514 19559 19444 15429 19174 18183 18848 19729 12028 11590 10214 16574 12381 16455 18489 19571 19231 15590 10214 13885 18657 18821 13746 10208 17508 17265 19604 17410 16901 16806 12794 17521 17928 12123 16891 17969 10258 10131 15140 17592 16278 12776 11630 14569 18686 19732 19395 18639 19122 12695 13388 17121 999999 999999 999999 999999 999999 999999 999999 999999 999999 999999 999999 999999 999999 999999 999999 999999 999999 999999 999999 999999 999999 999999 999999 999999 999999 999999 999999 999999 999999 999999 999999 999999 999999 999999 999999 999999 999999 999999 999999 999999 999999 999999 999999 999999 999999 0 999999 999999 999999 999999 999999 999999 999999 999999 999999 999999 999999 999999 999999 999999 9351
999999 13069 18721 18046 11555 10329 15798 14337 12787 19887 14924 19568 12810 13359 12166 14999 12901 15498 12089 19180 15223 18859 16090 16286 10921 17079 10405 13770 15763 18662 15480 11963 19107 17798 13940 14438 15168 19172 13432 19977 18321 18635 12056 14198 13479 13028 11496 13699 17164 13257 12346 10248 10557 17464 18298 15715 17301 17896 17680 19458 17496 999999 999999 999999 999999 999999 999999 999999 999999 999999 999999 999999 999999 999999 999999 999999 999999 999999 999999 999999 999999 999999 999999 999999 999999 999999 999999 999999 999999 999999 999999 999999 999999 999999 999999 999999 999999 999999 999999 999999 999999 999999 999999 999999 999999 999999 999999 0 999999 999999 999999 999999 999999 999999 999999 999999 999999 999999 999999 999999 999999 10615
999999 11014 18947 11476 17515 10619 16426 19715 17982 14337 14574 14555 13015 14280 11707 10133 14263 12897 15411 14425 19116 15163 14118 18408 14338 16205 10960 17823 18047 13875 15644 11251 17480 12724 18253 14103 12926 14926 12263 17703 13281 12835 17818 16853 14143 12837 11027 17243 20000 12360 18156 19341 11549 10835 12892 15706 17101 11443 14479 13543 15802 999999 999999 999999 999999 999999 999999 999999 999999 999999 999999 999999 999999 999999 999999 999999 999999 999999 999999 999999 999999 999999 999999 999999 999999 999999 999999 999999 999999 999999 999999 999999 999999 999999 999999 999999 999999 999999 999999 999999 999999 999999 999999 999999 999999 999999 999999 999999 0 999999 999999 999999 999999 999999 999999 999999 999999 999999 999999 999999 999999 14077
999999 10546 13826 16030 10217 11059 19615 13156 15935 16877 18543 11341 14451 19616 14932 13870 17182 17188 17078 11342 10984 13716 10105 14646 19653 15910 13363 16072 18907 11838 14355 14677 12279 16021 12524 16328 19236 15455 10756 16469 16349 19103 12634 17543 14527 18501 16518 15414 16333 15001 10857 15904 19476 15179 18981 18197 19422 15404 14327 19623 18069 999999 999999 999999 999999 999999 999999 999999 999999 999999 999999 999999 999999 999999 999999 999999 999999 999999 999999 999999 999999 999999 999999 999999 999999 999999 999999 999999 999999 999999 999999 999999 999999 999999 999999 999999 999999 999999 999999 999999 999999 999999 999999 999999 999999 999999 999999 999999 999999 0 999999 999999 999999 999999 999999 999999 999999 999999 999999 999999 999999 5113
999999 18619 14489 10168 11936 17311 11776 11884 16820 19902 16389 11946 17110 12242 15882 12262 19036 14160 10086 11162 13517 14051 13453 15069 10436 14614 13103 14106 19645 17536 11620 18618 12777 15725 15601 13001 16742 18964 15111 16744 12630 10649 18936 13479 13479 15059 12307 12922 16076 14071 11843 11283 14989 15254 14926 11664 11822 16645 13523 14910 15834 999999 999999 999999 999999 999999 999999 999999 999999 999999 999999 999999 999999 999999 999999 999999 999999 999999 999999 999999 999999 999999 999999 999999 999999 999999 999999 999999 999999 999999 999999 999999 999999 999999 999999 999999 999999 999999 999999 999999 999999 999999 999999 999999 999999 999999 999999 999999 999999 999999 0 999999 999999 999999 999999 999999 999999 999999 999999 999999 999999 10371
999999 14562 13202 19619 12841 19419 12396 11396 18937 15320 10264 12199 16296 11241 10962 18135 14973 11730 14249 15647 14199 19366 10986 10206 15718 17904 17208 13948 13568 10178 17302 16793 10719 15453 11686 19131 18220 14210 14211 18121 13728 13368 18035 12934 10964 17976 15098 11879 17641 16504 18767 10297 19204 13919 13994 15555 14690 15162 15690 13503 13269 999999 999999 999999 999999 999999 999999 999999 999999 999999 999999 999999 999999 999999 999999 999999 999999 999999 999999 999999 999999 999999 999999 999999 999999 999999 999999 999999 999999 999999 999999 999999 999999 999999 999999 999999 999999 999999 999999 999999 999999 999999 999999 999999 999999 999999 999999 999999 999999 999999 999999 0 999999 999999 999999 999999 999999 999999 999999 999999 999999 12071
999999 13371 16224 10138 11898 15815 18784 10039 14888 12581 14136 19900 11926 12499 13400 11791 10099 16477 13766 10446 10062 10240 10490 16412 17015 15031 19734 11727 10058 17822 15422 19203 10904 12898 18942 18047 15769 12641 18773 12956 17048 11603 16735 11000 16588 11764 17732 17153 14907 11012 10282 18143 18273 15322 15688 10645 14057 15520 14177 18519 13076 999999 999999 999999 999999 999999 999999 999999 999999 999999 999999 999999 999999 999999 999999 999999 999999 999999 999999 999999 999999 999999 999999 999999 999999 999999 999999 999999 999999 999999 999999 999999 999999 999999 999999 999999 999999 999999 999999 999999 999999 999999 999999 999999 999999 999999 999999 999999 999999 999999 999999 999999 0 999999 999999 999999 999999 999999 999999 999999 999999 10689
999999 13276 10041 14119 11510 12741 10886 17162 10936 15757 13551 16019 13716 19442 19330 15531 12174 16409 19673 15594 19027 17834 12329 12732 14412 11362 12230 19009 14097 12085 12485 15112 19650 15496 12062 15690 14703 19170 15223 15852 17955 11086 14047 17836 13671 19981 12435 18548 14605 14891 12461 11242 12791 13130 13654 18525 18319 13773 10910 19509 18733 999999 999999 999999 999999 999999 999999 999999 999999 999999 999999 999999 999999 999999 999999 999999 999999 999999 999999 999999 999999 999999 999999 999999 999999 999999 999999 999999 999999 999999 999999 999999 999999 999999 999999 999999 999999 999999 999999 999999 999999 999999 999999 999999 999999 999999 999999 999999 999999 999999 999999 999999 999999 0 999999 999999 999999 999999 999999 999999 999999 14297
999999 11006 16133 16021 15007 18238 15898 10614 15408 18945 11741 15371 15777 19801 13305 17264 17851 13042 10193 15866 14577 12199 13280 12891 14217 12902 16117 15251 14057 11579 16548 17721 14483 11362 17394 17070 13263 11214 17049 18699 15086 19194 19522 13968 13276 14994 14242 16911 17086 18832 10381 17827 18989 12816 10731 15840 11938 12914 19033 19379 14256 999999 999999 999999 999999 999999 999999 999999 999999 999999 999999 999999 999999 999999 999999 999999 999999 999999 999999 999999 999999 999999 999999 999999 999999 999999 999999 999999 999999 999999 999999 999999 999999 999999 999999 999999 999999 999999 999999 999999 999999 999999 999999 999999 999999 999999 999999 999999 999999 999999 999999 999999 999999 999999 0 999999 999999 999999 999999 999999 999999 7659
999999 16657 17869 18872 18981 17777 15522 10041 12807 16914 15317 13398 10716 12196 18882 17200 12303 15370 18548 13128 17969 19751 16638 14662 11284 13612 18406 10619 11652 12762 16974 16663 19469 14349 18178 10277 11084 12170 18422 12377 10468 15948 19482 17484 10049 16932 11234 17101 12484 19151 13541 18124 11402 15998 17113 17008 13182 10475 12096 17848 12761 999999 999999 999999 999999 999999 999999 999999 999999 999999 999999 999999 999999 999999 999999 999999 999999 999999 999999 999999 999999 999999 999999 999999 999999 999999 999999 999999 999999 999999 999999 999999 999999 999999 999999 999999 999999 999999 999999 999999 999999 999999 999999 999999 999999 999999 999999 999999 999999 999999 999999 999999 999999 999999 999999 0 999999 999999 999999 999999 999999 8480
999999 10155 10103 15925 11800 16671 19288 12873 10258 12654 10498 14732 11191 17107 19437 19794 16711 12485 18251 10668 14332 16139 17010 11134 19019 10959 18121 17575 10592 14089 11406 11861 19694 17565 13793 15684 10287 18829 17377 17565 12156 18369 17201 10083 11951 14609 15752 18978 16200 10305 18977 18003 19132 18892 18865 12903 10550 10684 13709 13097 12018 999999 999999 999999 999999 999999 999999 999999 999999 999999 999999 999999 999999 999999 999999 999999 999999 999999 999999 999999 999999 999999 999999 999999 999999 999999 999999 999999 999999 999999 999999 999999 999999 999999 999999 999999 999999 999999 999999 999999 999999 999999 999999 999999 999999 999999 999999 999999 999999 999999 999999 999999 999999 999999 999999 999999 0 999999 999999 999999 999999 10720
999999 18172 17002 10884 13144 15866 11525 14686 15880 16791 12925 18362 18066 11215 17680 19262 18274 10961 19826 10706 10938 18351 19976 19076 16272 16866 12450 19951 11528 11900 18021 16578 16802 16782 13627 14021 17374 10852 11296 12982 13838 19955 11243 16017 15051 17180 14410 19724 11142 17228 11826 14114 17799 10607 13571 14592 17527 14290 17330 14843 12919 999999 999999 999999 999999 999999 999999 999999 999999 999999 999999 999999 999999 999999 999999 999999 999999 999999 999999 999999 999999 999999 999999 999999 999999 999999 999999 999999 999999 999999 999999 999999 999999 999999 999999 999999 999999 999999 999999 999999 999999 999999 999999 999999 999999 999999 999999 999999 999999 999999 999999 999999 999999 999999 999999 999999 999999 0 999999 999999 999999 13410
999999 14069 15797 13170 18556 12259 19762 19400 19573 12877 15927 10486 19159 17266 17464 19209 17737 11458 12928 18491 13848 11149 17486 17717 18454 19808 17388 14994 17930 19827 18203 11616 10598 14395 17372 18723 10853 15572 12965 10056 17366 16170 13025 19167 15998 11036 14457 13457 12479 10252 14096 17801 16568 11081 10773 14486 14154 11952 12711 18792 11770 999999 999999 999999 999999 999999 999999 999999 999999 999999 999999 999999 999999 999999 999999 999999 999999 999999 999999 999999 999999 999999 999999 999999 999999 999999 999999 999999 999999 999999 999999 999999 999999 999999 999999 999999 999999 999999 999999 999999 999999 999999 999999 999999 999999 999999 999999 999999 999999 999999 999999 999999 999999 999999 999999 999999 999999 999999 0 999999 999999 13003
999999 17774 14601 18577 16355 16710 15661 11750 15277 15069 17595 12689 12029 12019 10286 18156 18015 18775 12084 14413 14365 16503 13843 10626 18532 10326 17048 15033 14192 11320 11554 11627 11817 14121 18888 13991 18318 14789 17632 13141 11675 12352 16597 14269 15063 10343 16798 15315 11243 16032 14338 16031 17151 11149 12134 17384 18345 12775 17886 13976 18654 999999 999999 999999 999999 999999 999999 999999 999999 999999 999999 999999 999999 999999 999999 999999 999999 999999 999999 999999 999999 999999 999999 999999 999999 999999 999999 999999 999999 999999 999999 999999 999999 999999 999999 999999 999999 999999 999999 999999 999999 999999 999999 999999 999999 999999 999999 999999 999999 999999 999999 999999 999999 999999 999999 999999 999999 999999 999999 0 999999 5154
999999 10219 11976 16914 13490 11697 19970 16950 10803 17724 10027 15621 10815 17134 14571 14075 17001 16619 10399 15547 16846 11830 19650 10437 14875 19169 12684 18998 11720 13862 17076 13610 15234 10989 18882 17542 19117 19711 10981 13263 18892 10877 15774 16997 18326 13605 16064 14026 11697 18073 14354 14819 12078 19844 19823 16370 18659 19508 19835 17740 16450 999999 999999 999999 999999 999999 999999 999999 999999 999999 999999 999999 999999 999999 999999 999999 999999 999999 999999 999999 999999 999999 999999 999999 999999 999999 999999 999999 999999 999999 999999 999999 999999 999999 999999 999999 999999 999999 999999 999999 999999 999999 999999 999999 999999 999999 999999 999999 999999 999999 999999 999999 999999 999999 999999 999999 999999 999999 999999 999999 0 13650
1 999999 999999 999999 999999 999999 999999 999999 999999 999999 999999 999999 999999 999999 999999 999999 999999 999999 999999 999999 999999 999999 999999 999999 999999 999999 999999 999999 999999 999999 999999 999999 999999 999999 999999 999999 999999 999999 999999 999999 999999 999999 999999 999999 999999 999999 999999 999999 999999 999999 999999 999999 999999 999999 999999 999999 999999 999999 999999 999999 999999 999999 999999 999999 999999 999999 999999 999999 999999 999999 999999 999999 999999 999999 999999 999999 999999 999999 999999 999999 999999 999999 999999 999999 999999 999999 999999 999999 999999 999999 999999 999999 999999 999999 999999 999999 999999 999999 999999 999999 999999 999999 999999 999999 999999 999999 999999 999999 999999 999999 999999 999999 999999 999999 999999 999999 999999 999999 999999 999999 999999 0
EOF