NAME: GR_1x2x5_KH_2x5_Run_8
TYPE: TSP
COMMENT: BTSP instance |A|=10 GR nodes |B|=10 KH nodes depot=0.0 end=0.0.0
DIMENSION: 22
EDGE_WEIGHT_TYPE: EXPLICIT
EDGE_WEIGHT_FORMAT: FULL_MATRIX
NODE_COORD_TYPE: NO_COORDS
EDGE_WEIGHT_SECTION
0 6965 10227 14536 13581 9953 6182 6729 13975 8692 12510 999999 999999 999999 999999 999999 999999 999999 999999 999999 999999 999999
999999 0 999999 999999 999999 999999 999999 999999 999999 999999 999999 18214 19829 19571 14824 11032 14008 13649 12079 15062 13002 999999
999999 999999 0 999999 999999 999999 999999 999999 999999 999999 999999 14484 12629 16667 16203 19948 10855 17410 18237 14389 18430 999999
999999 999999 999999 0 999999 999999 999999 999999 999999 999999 999999 10277 17360 11313 16770 16741 14950 18213 15445 15306 16044 999999
999999 999999 999999 999999 0 999999 999999 999999 999999 999999 999999 17137 14303 10957 16964 12225 19401 16013 16319 11110 17442 999999
999999 999999 999999 999999 999999 0 999999 999999 999999 999999 999999 19693 18835 16516 12744 14193 17220 10022 16674 11144 18582 999999
999999 999999 999999 999999 999999 999999 0 999999 999999 999999 999999 12824 10741 13669 16340 13208 13815 13847 19138 14163 11426 999999
999999 999999 999999 999999 999999 999999 999999 0 999999 999999 999999 17586 19656 18888 12933 11093 13539 13314 11453 15760 11034 999999
999999 999999 999999 999999 999999 999999 999999 999999 0 999999 999999 15558 17876 11971 11932 13348 17578 14652 11698 10133 11479 999999
999999 999999 999999 999999 999999 999999 999999 999999 999999 0 999999 18254 14116 15985 19090 13232 16343 13037 13881 19797 15950 999999
999999 999999 999999 999999 999999 999999 999999 999999 999999 999999 0 10364 11233 10037 12169 14645 13282 17314 14760 17363 11412 999999
999999 18214 14484 10277 17137 19693 12824 17586 15558 18254 10364 0 999999 999999 999999 999999 999999 999999 999999 999999 999999 6867
999999 19829 12629 17360 14303 18835 10741 19656 17876 14116 11233 999999 0 999999 999999 999999 999999 999999 999999 999999 999999 11986
999999 19571 16667 11313 10957 16516 13669 18888 11971 15985 10037 999999 999999 0 999999 999999 999999 999999 999999 999999 999999 11763
999999 14824 16203 16770 16964 12744 16340 12933 11932 19090 12169 999999 999999 999999 0 999999 999999 999999 999999 999999 999999 10278
999999 11032 19948 16741 12225 14193 13208 11093 13348 13232 14645 999999 999999 999999 999999 0 999999 999999 999999 999999 999999 13981
999999 14008 10855 14950 19401 17220 13815 13539 17578 16343 13282 999999 999999 999999 999999 999999 0 999999 999999 999999 999999 14037
999999 13649 17410 18213 16013 10022 13847 13314 14652 13037 17314 999999 999999 999999 999999 999999 999999 0 999999 999999 999999 10426
999999 12079 18237 15445 16319 16674 19138 11453 11698 13881 14760 999999 999999 999999 999999 999999 999999 999999 0 999999 999999 6552
999999 15062 14389 15306 11110 11144 14163 15760 10133 19797 17363 999999 999999 999999 999999 999999 999999 999999 999999 0 999999 9196
999999 13002 18430 16044 17442 18582 11426 11034 11479 15950 11412 999999 999999 999999 999999 999999 999999 999999 999999 999999 0 5007
1 999999 999999 999999 999999 999999 999999 999999 999999 999999 999999 999999 999999 999999 999999 999999 999999 999999 999999 999999 999999 0
EOF