NAME: GR_1x5x12_KH_5x12_Run_9
TYPE: TSP
COMMENT: BTSP instance |A|=60 GR nodes |B|=60 KH nodes depot=0.0 end=0.0.0
DIMENSION: 122
EDGE_WEIGHT_TYPE: EXPLICIT
EDGE_WEIGHT_FORMAT: FULL_MATRIX
NODE_COORD_TYPE: NO_COORDS
EDGE_WEIGHT_SECTION
0 13780 5728 8013 8477 8026 8415 7904 8546 13727 8977 9823 13214 9403 12347 8845 7761 14056 5357 10214 10189 14210 6288 12256 12379 9611 5487 12667 13852 7098 12977 13978 14882 7376 12862 5841 11509 14157 12811 13062 11880 10486 12214 5674 12052 6557 14957 13900 10975 11077 11881 11038 9195 10246 13753 14689 6455 6761 5862 14768 7840 999999 999999 999999 999999 999999 999999 999999 999999 999999 999999 999999 999999 999999 999999 999999 999999 999999 999999 999999 999999 999999 999999 999999 999999 999999 999999 999999 999999 999999 999999 999999 999999 999999 999999 999999 999999 999999 999999 999999 999999 999999 999999 999999 999999 999999 999999 999999 999999 999999 999999 999999 999999 999999 999999 999999 999999 999999 999999 999999 999999 999999
999999 0 999999 999999 999999 999999 999999 999999 999999 999999 999999 999999 999999 999999 999999 999999 999999 999999 999999 999999 999999 999999 999999 999999 999999 999999 999999 999999 999999 999999 999999 999999 999999 999999 999999 999999 999999 999999 999999 999999 999999 999999 999999 999999 999999 999999 999999 999999 999999 999999 999999 999999 999999 999999 999999 999999 999999 999999 999999 999999 999999 16977 19577 18270 11590 13843 12730 13771 10480 12230 12899 17291 15677 11177 18888 14749 16254 11932 11217 16243 17720 12278 13511 10606 13235 18067 16996 19883 11020 14107 19322 17084 10723 19064 16579 19965 18332 13614 13516 19051 19380 10961 11271 14437 10383 19715 14982 11042 14654 10597 19752 18074 19478 13139 13572 19004 11526 14120 19273 13980 10723 999999
999999 999999 0 999999 999999 999999 999999 999999 999999 999999 999999 999999 999999 999999 999999 999999 999999 999999 999999 999999 999999 999999 999999 999999 999999 999999 999999 999999 999999 999999 999999 999999 999999 999999 999999 999999 999999 999999 999999 999999 999999 999999 999999 999999 999999 999999 999999 999999 999999 999999 999999 999999 999999 999999 999999 999999 999999 999999 999999 999999 999999 12358 18716 12334 13648 10419 18774 15347 14421 17954 11564 13931 15721 15811 11013 17099 14396 19100 15745 15414 10403 10044 19225 12568 19689 16071 14193 10670 17383 18362 11132 17573 15729 11010 12048 14296 10236 11276 11797 19999 10379 16644 12251 13982 12615 16290 14955 13246 14778 14012 11905 10473 19667 11906 10961 17412 17995 18018 16091 18614 17772 999999
999999 999999 999999 0 999999 999999 999999 999999 999999 999999 999999 999999 999999 999999 999999 999999 999999 999999 999999 999999 999999 999999 999999 999999 999999 999999 999999 999999 999999 999999 999999 999999 999999 999999 999999 999999 999999 999999 999999 999999 999999 999999 999999 999999 999999 999999 999999 999999 999999 999999 999999 999999 999999 999999 999999 999999 999999 999999 999999 999999 999999 13247 16789 13668 11981 13690 11219 10958 10796 19707 11847 11268 10723 14741 15998 17805 18977 11769 15379 10836 15448 13322 10596 13394 14647 12020 14919 10872 14398 17877 15409 14361 10139 15151 13616 19068 19755 12455 13397 10870 16341 14666 18410 18730 10543 12916 14594 14980 10785 17416 14005 10949 13204 17060 14068 10119 19633 19769 15241 18046 10595 999999
999999 999999 999999 999999 0 999999 999999 999999 999999 999999 999999 999999 999999 999999 999999 999999 999999 999999 999999 999999 999999 999999 999999 999999 999999 999999 999999 999999 999999 999999 999999 999999 999999 999999 999999 999999 999999 999999 999999 999999 999999 999999 999999 999999 999999 999999 999999 999999 999999 999999 999999 999999 999999 999999 999999 999999 999999 999999 999999 999999 999999 17602 15673 16687 17741 19310 13015 10368 11840 13328 17991 16123 14564 15813 14577 18476 11592 18439 13236 11481 14678 15346 12900 19041 16204 19120 15271 14280 17392 18703 16000 16848 12548 11413 10677 13644 14380 14640 11306 15068 14916 19408 18863 11627 15671 17404 11164 15256 15460 16077 17206 15859 16577 10292 12865 17506 16877 12367 18780 19330 15056 999999
999999 999999 999999 999999 999999 0 999999 999999 999999 999999 999999 999999 999999 999999 999999 999999 999999 999999 999999 999999 999999 999999 999999 999999 999999 999999 999999 999999 999999 999999 999999 999999 999999 999999 999999 999999 999999 999999 999999 999999 999999 999999 999999 999999 999999 999999 999999 999999 999999 999999 999999 999999 999999 999999 999999 999999 999999 999999 999999 999999 999999 19265 12507 10630 13257 18067 15103 18949 18595 15112 16653 11302 14411 11157 16020 14252 19720 14706 15720 11597 12577 11051 10798 10630 11134 16899 18407 12789 18856 11180 10098 11440 12573 17388 12146 13609 19625 13033 11186 16838 18917 13591 18019 13821 11581 12171 18289 12850 17215 15398 15869 10045 18806 12582 15539 11114 17896 16536 15652 16088 16297 999999
999999 999999 999999 999999 999999 999999 0 999999 999999 999999 999999 999999 999999 999999 999999 999999 999999 999999 999999 999999 999999 999999 999999 999999 999999 999999 999999 999999 999999 999999 999999 999999 999999 999999 999999 999999 999999 999999 999999 999999 999999 999999 999999 999999 999999 999999 999999 999999 999999 999999 999999 999999 999999 999999 999999 999999 999999 999999 999999 999999 999999 14503 13688 18499 15584 11369 15303 11166 18185 15280 18799 16167 16087 12715 18356 16382 10962 14905 17764 19998 11987 17827 11586 10199 12826 10395 14693 13156 10933 11237 18861 16324 11917 15407 19950 15764 13644 11488 12984 11475 14576 16731 13908 14533 13421 14811 17069 18240 18541 15458 10861 11564 14676 12776 10790 15396 17981 14588 18393 14093 16615 999999
999999 999999 999999 999999 999999 999999 999999 0 999999 999999 999999 999999 999999 999999 999999 999999 999999 999999 999999 999999 999999 999999 999999 999999 999999 999999 999999 999999 999999 999999 999999 999999 999999 999999 999999 999999 999999 999999 999999 999999 999999 999999 999999 999999 999999 999999 999999 999999 999999 999999 999999 999999 999999 999999 999999 999999 999999 999999 999999 999999 999999 19895 13071 16206 14583 17605 12079 14988 10748 12986 16483 14055 17554 18855 10085 18967 18913 13829 12370 18167 17135 16025 10660 17126 11495 16572 18167 11845 11873 19007 14901 14698 13928 16029 19456 15960 11589 13907 19003 14937 14716 15588 17747 10757 15654 11150 10675 11478 18753 17629 14481 10898 18746 17296 11908 18588 11988 12845 16444 17066 12274 999999
999999 999999 999999 999999 999999 999999 999999 999999 0 999999 999999 999999 999999 999999 999999 999999 999999 999999 999999 999999 999999 999999 999999 999999 999999 999999 999999 999999 999999 999999 999999 999999 999999 999999 999999 999999 999999 999999 999999 999999 999999 999999 999999 999999 999999 999999 999999 999999 999999 999999 999999 999999 999999 999999 999999 999999 999999 999999 999999 999999 999999 15627 11245 19997 12114 15799 12506 14626 12775 12696 16904 12502 13970 15772 14123 19489 15477 17592 13113 10858 19226 17403 14342 18837 13654 15067 13296 10676 12506 12042 16069 13547 16789 13275 19725 19677 17128 10403 17262 11470 10944 17631 17722 15179 19897 15861 12395 11120 14476 18397 17293 15718 18846 18424 16516 10082 15080 13312 17440 16260 18104 999999
999999 999999 999999 999999 999999 999999 999999 999999 999999 0 999999 999999 999999 999999 999999 999999 999999 999999 999999 999999 999999 999999 999999 999999 999999 999999 999999 999999 999999 999999 999999 999999 999999 999999 999999 999999 999999 999999 999999 999999 999999 999999 999999 999999 999999 999999 999999 999999 999999 999999 999999 999999 999999 999999 999999 999999 999999 999999 999999 999999 999999 11899 13813 11108 14299 18704 15479 13815 10805 18252 12297 17789 11213 17701 16159 11789 10302 12104 18864 16441 19453 15627 17315 19120 11333 12148 10670 12703 10661 11719 18085 16937 14414 16462 15378 17704 17361 12083 13824 10213 14727 17809 12287 10118 11656 14219 14299 12990 14211 17250 13421 17209 15706 10279 15097 16364 10942 12055 17589 14867 11488 999999
999999 999999 999999 999999 999999 999999 999999 999999 999999 999999 0 999999 999999 999999 999999 999999 999999 999999 999999 999999 999999 999999 999999 999999 999999 999999 999999 999999 999999 999999 999999 999999 999999 999999 999999 999999 999999 999999 999999 999999 999999 999999 999999 999999 999999 999999 999999 999999 999999 999999 999999 999999 999999 999999 999999 999999 999999 999999 999999 999999 999999 14986 11333 12152 12936 17502 17512 16593 11744 16274 15638 18866 12429 17817 13877 12768 11269 15785 14330 14004 15732 15586 13278 13458 19411 11855 15967 18023 18410 11796 18402 16499 18463 12744 18603 13183 18253 19248 17736 19132 12140 13753 14038 14392 14761 11715 16253 14005 13664 17950 16078 10797 11522 11142 12194 12479 15698 19852 19975 19631 12548 999999
999999 999999 999999 999999 999999 999999 999999 999999 999999 999999 999999 0 999999 999999 999999 999999 999999 999999 999999 999999 999999 999999 999999 999999 999999 999999 999999 999999 999999 999999 999999 999999 999999 999999 999999 999999 999999 999999 999999 999999 999999 999999 999999 999999 999999 999999 999999 999999 999999 999999 999999 999999 999999 999999 999999 999999 999999 999999 999999 999999 999999 12137 15660 13739 14631 10973 11303 12274 12983 17295 10743 17818 11400 18987 14725 15790 11879 18276 12817 12415 15041 10515 10284 10043 16162 16831 18653 14197 15237 16844 11013 18123 10051 13777 11475 17873 11070 10215 12880 14557 11002 17922 15069 10076 10877 12479 19762 11051 13967 13524 10410 17290 13347 16025 19821 13255 17452 16860 15100 11906 19900 999999
999999 999999 999999 999999 999999 999999 999999 999999 999999 999999 999999 999999 0 999999 999999 999999 999999 999999 999999 999999 999999 999999 999999 999999 999999 999999 999999 999999 999999 999999 999999 999999 999999 999999 999999 999999 999999 999999 999999 999999 999999 999999 999999 999999 999999 999999 999999 999999 999999 999999 999999 999999 999999 999999 999999 999999 999999 999999 999999 999999 999999 11478 16649 13220 12618 18263 15836 16952 15740 16999 14468 14499 19279 18036 15604 16133 10070 12208 12472 15470 15976 10463 17790 17345 13252 16927 12898 11068 14869 10382 15138 18080 18629 15249 17089 13413 11794 19208 11937 11643 10950 12280 14651 18717 19669 16258 14319 17296 14012 15308 14830 16692 18070 18483 10021 12688 17287 19197 18103 10978 19270 999999
999999 999999 999999 999999 999999 999999 999999 999999 999999 999999 999999 999999 999999 0 999999 999999 999999 999999 999999 999999 999999 999999 999999 999999 999999 999999 999999 999999 999999 999999 999999 999999 999999 999999 999999 999999 999999 999999 999999 999999 999999 999999 999999 999999 999999 999999 999999 999999 999999 999999 999999 999999 999999 999999 999999 999999 999999 999999 999999 999999 999999 14587 19557 11621 15009 16541 18463 16951 16772 17402 19367 16306 11474 10765 18037 18433 10277 15346 10849 12240 16524 12553 17747 16832 17292 18548 17403 16265 14923 12296 13672 12052 19003 12207 17056 17289 12922 15432 11036 11839 16228 12143 15761 19804 10800 19305 18338 17053 10848 15747 12589 18321 12320 19350 12636 17498 17050 15434 18563 10623 10851 999999
999999 999999 999999 999999 999999 999999 999999 999999 999999 999999 999999 999999 999999 999999 0 999999 999999 999999 999999 999999 999999 999999 999999 999999 999999 999999 999999 999999 999999 999999 999999 999999 999999 999999 999999 999999 999999 999999 999999 999999 999999 999999 999999 999999 999999 999999 999999 999999 999999 999999 999999 999999 999999 999999 999999 999999 999999 999999 999999 999999 999999 12387 11567 13842 10401 10596 12100 13977 11694 17086 13842 12424 15715 12711 11581 11156 12969 12975 16356 16236 16899 17072 17093 15087 13493 18261 19539 12987 19224 19563 11311 16112 16235 11728 19933 17135 19863 10593 11317 14596 11149 16733 19571 14187 12143 19399 19879 18022 10934 19465 10162 14833 16451 19406 13684 12960 11337 11138 18985 12955 12804 999999
999999 999999 999999 999999 999999 999999 999999 999999 999999 999999 999999 999999 999999 999999 999999 0 999999 999999 999999 999999 999999 999999 999999 999999 999999 999999 999999 999999 999999 999999 999999 999999 999999 999999 999999 999999 999999 999999 999999 999999 999999 999999 999999 999999 999999 999999 999999 999999 999999 999999 999999 999999 999999 999999 999999 999999 999999 999999 999999 999999 999999 16582 18427 14147 15780 18150 16073 19945 16078 18457 19628 14642 13322 18526 18827 14264 10603 15230 18167 17084 13670 18744 15117 16277 18343 11537 11729 15088 14195 12410 14360 14336 14397 16533 15598 19861 16711 13201 18277 14755 18787 13268 13350 13770 12507 13554 18145 18394 11300 19579 13230 10035 19651 19462 10115 11540 13480 13155 14288 11457 15382 999999
999999 999999 999999 999999 999999 999999 999999 999999 999999 999999 999999 999999 999999 999999 999999 999999 0 999999 999999 999999 999999 999999 999999 999999 999999 999999 999999 999999 999999 999999 999999 999999 999999 999999 999999 999999 999999 999999 999999 999999 999999 999999 999999 999999 999999 999999 999999 999999 999999 999999 999999 999999 999999 999999 999999 999999 999999 999999 999999 999999 999999 13597 18646 13511 17928 13109 15514 10500 18360 11638 16005 19240 10695 11810 10333 19941 10515 18256 13610 10309 10675 14424 10948 14774 19451 16235 16194 17978 10678 14701 14652 10069 18786 14128 13040 12841 10448 11014 17263 11402 19872 14141 18305 17349 17464 13199 11758 11783 12508 14790 10024 10546 16546 18901 18638 16529 19424 18534 11476 14417 19739 999999
999999 999999 999999 999999 999999 999999 999999 999999 999999 999999 999999 999999 999999 999999 999999 999999 999999 0 999999 999999 999999 999999 999999 999999 999999 999999 999999 999999 999999 999999 999999 999999 999999 999999 999999 999999 999999 999999 999999 999999 999999 999999 999999 999999 999999 999999 999999 999999 999999 999999 999999 999999 999999 999999 999999 999999 999999 999999 999999 999999 999999 19155 14589 12005 16591 19459 18691 11359 18802 15848 13756 16601 13157 18053 15353 12204 19528 14469 10027 12090 12005 13208 16063 16478 15424 19462 15157 17650 14787 15697 19465 14592 15540 17023 12609 17476 13138 12200 16264 13980 10293 19578 10296 16394 14649 19157 12599 19981 15534 11637 18682 12682 18137 16645 10580 17560 10680 19119 16654 15362 16375 999999
999999 999999 999999 999999 999999 999999 999999 999999 999999 999999 999999 999999 999999 999999 999999 999999 999999 999999 0 999999 999999 999999 999999 999999 999999 999999 999999 999999 999999 999999 999999 999999 999999 999999 999999 999999 999999 999999 999999 999999 999999 999999 999999 999999 999999 999999 999999 999999 999999 999999 999999 999999 999999 999999 999999 999999 999999 999999 999999 999999 999999 16989 14311 11916 16374 18663 17460 16125 16334 15262 16072 14524 14940 15477 19677 15860 11465 13340 19186 15719 10764 15471 13984 19805 10310 11909 17408 17650 17569 18134 13554 15736 11516 17021 16342 13882 17412 16665 13013 11871 16307 11583 17479 16998 15837 15725 15093 15938 12123 15664 17449 16022 15584 11250 15438 15974 14882 14474 19107 10016 10983 999999
999999 999999 999999 999999 999999 999999 999999 999999 999999 999999 999999 999999 999999 999999 999999 999999 999999 999999 999999 0 999999 999999 999999 999999 999999 999999 999999 999999 999999 999999 999999 999999 999999 999999 999999 999999 999999 999999 999999 999999 999999 999999 999999 999999 999999 999999 999999 999999 999999 999999 999999 999999 999999 999999 999999 999999 999999 999999 999999 999999 999999 16898 10157 13549 11974 18847 11356 12624 10822 10374 18811 12484 12478 11660 11602 10616 11226 10613 14681 15752 11261 16896 10197 12155 10928 11791 18999 16312 14562 19672 17912 12563 16858 14291 11695 14186 15320 10974 16784 18735 15712 14663 19267 13139 13249 16755 14038 10538 10696 18848 15754 12295 11263 16753 19992 19152 12295 19638 13096 11397 10809 999999
999999 999999 999999 999999 999999 999999 999999 999999 999999 999999 999999 999999 999999 999999 999999 999999 999999 999999 999999 999999 0 999999 999999 999999 999999 999999 999999 999999 999999 999999 999999 999999 999999 999999 999999 999999 999999 999999 999999 999999 999999 999999 999999 999999 999999 999999 999999 999999 999999 999999 999999 999999 999999 999999 999999 999999 999999 999999 999999 999999 999999 12248 15355 19011 13431 19004 11149 19411 18699 17939 10008 10189 11850 15716 10419 16842 17171 10463 16721 10130 19155 13249 13280 11697 11529 14471 12401 15946 18472 12728 12113 18013 13209 19383 15912 10199 18827 15030 11830 11781 18123 10165 11064 17785 11877 17291 13468 12636 12766 10487 12899 18490 10153 15937 18059 19370 16523 17977 19578 18566 16050 999999
999999 999999 999999 999999 999999 999999 999999 999999 999999 999999 999999 999999 999999 999999 999999 999999 999999 999999 999999 999999 999999 0 999999 999999 999999 999999 999999 999999 999999 999999 999999 999999 999999 999999 999999 999999 999999 999999 999999 999999 999999 999999 999999 999999 999999 999999 999999 999999 999999 999999 999999 999999 999999 999999 999999 999999 999999 999999 999999 999999 999999 12385 11252 12835 19562 15658 19138 11900 17591 18906 14136 15441 19390 14401 19575 11495 17661 12743 17686 18195 16752 17035 18593 13252 12443 17255 17260 11791 18478 10211 14343 17806 17556 13540 10416 13180 17320 11237 12250 11877 14493 16546 17131 15132 18626 14871 10084 17117 12786 15957 18607 17511 11456 13300 14862 12380 11466 14830 13384 13584 15845 999999
999999 999999 999999 999999 999999 999999 999999 999999 999999 999999 999999 999999 999999 999999 999999 999999 999999 999999 999999 999999 999999 999999 0 999999 999999 999999 999999 999999 999999 999999 999999 999999 999999 999999 999999 999999 999999 999999 999999 999999 999999 999999 999999 999999 999999 999999 999999 999999 999999 999999 999999 999999 999999 999999 999999 999999 999999 999999 999999 999999 999999 18997 14751 18499 15118 19835 17936 18043 14100 11322 17782 17842 12312 12191 18993 16069 18645 15094 12550 17964 10814 13891 13881 12072 12383 12234 18175 18820 13363 14643 11558 10495 11978 18614 17139 18384 10579 13223 15601 17973 11279 11921 19609 19423 16523 19782 15289 18073 19355 13155 18847 16527 18036 10873 10391 15263 19133 18530 12524 17624 12314 999999
999999 999999 999999 999999 999999 999999 999999 999999 999999 999999 999999 999999 999999 999999 999999 999999 999999 999999 999999 999999 999999 999999 999999 0 999999 999999 999999 999999 999999 999999 999999 999999 999999 999999 999999 999999 999999 999999 999999 999999 999999 999999 999999 999999 999999 999999 999999 999999 999999 999999 999999 999999 999999 999999 999999 999999 999999 999999 999999 999999 999999 12173 16532 18180 12730 11758 10511 17691 11252 13238 14044 11563 16165 10648 14534 10526 18251 10425 10710 19659 11011 10076 19883 17732 12901 14421 17017 18748 12288 16479 16770 12519 13733 11843 18030 12966 19250 18339 13810 18877 10426 10374 13336 10549 16070 14113 12380 15190 15495 14508 18634 16571 12259 17167 15857 17835 17812 12721 16929 12816 19277 999999
999999 999999 999999 999999 999999 999999 999999 999999 999999 999999 999999 999999 999999 999999 999999 999999 999999 999999 999999 999999 999999 999999 999999 999999 0 999999 999999 999999 999999 999999 999999 999999 999999 999999 999999 999999 999999 999999 999999 999999 999999 999999 999999 999999 999999 999999 999999 999999 999999 999999 999999 999999 999999 999999 999999 999999 999999 999999 999999 999999 999999 14419 13545 13055 10757 18110 11889 16354 18844 19570 17889 17911 12708 17838 12810 12990 12919 11722 17356 10723 15512 13369 12972 12623 10893 11531 11614 10233 16650 16711 12676 11007 12195 13292 11832 11093 18514 18775 15761 19617 12922 15379 11265 17430 15301 17002 11913 14881 16345 10242 13903 17485 18928 14083 11596 13093 11069 11189 14595 18021 14391 999999
999999 999999 999999 999999 999999 999999 999999 999999 999999 999999 999999 999999 999999 999999 999999 999999 999999 999999 999999 999999 999999 999999 999999 999999 999999 0 999999 999999 999999 999999 999999 999999 999999 999999 999999 999999 999999 999999 999999 999999 999999 999999 999999 999999 999999 999999 999999 999999 999999 999999 999999 999999 999999 999999 999999 999999 999999 999999 999999 999999 999999 19454 14467 17437 14991 15791 11917 14483 12394 14248 14658 18316 11025 13712 14457 18644 15568 19205 10922 13558 14691 12567 13805 13376 14316 14814 14781 11451 18891 12635 10611 15904 13989 14256 14917 18006 13896 18472 16146 19469 14987 10137 16642 16148 13168 19860 13013 18340 17369 15586 12237 17979 14056 13384 13868 13585 15817 12798 17555 18684 19823 999999
999999 999999 999999 999999 999999 999999 999999 999999 999999 999999 999999 999999 999999 999999 999999 999999 999999 999999 999999 999999 999999 999999 999999 999999 999999 999999 0 999999 999999 999999 999999 999999 999999 999999 999999 999999 999999 999999 999999 999999 999999 999999 999999 999999 999999 999999 999999 999999 999999 999999 999999 999999 999999 999999 999999 999999 999999 999999 999999 999999 999999 10847 11450 18785 19671 18337 13055 12244 16946 17858 12010 12647 10161 15753 16576 10822 16632 12155 19079 19709 17075 19918 12921 18838 16877 14766 10407 19112 18968 12353 10630 19220 11167 16407 17973 15978 15534 15602 17878 10253 13788 15935 13336 12247 14065 13568 16550 17496 11766 12461 10533 15476 19511 15199 15069 11491 10562 15394 17916 16223 11009 999999
999999 999999 999999 999999 999999 999999 999999 999999 999999 999999 999999 999999 999999 999999 999999 999999 999999 999999 999999 999999 999999 999999 999999 999999 999999 999999 999999 0 999999 999999 999999 999999 999999 999999 999999 999999 999999 999999 999999 999999 999999 999999 999999 999999 999999 999999 999999 999999 999999 999999 999999 999999 999999 999999 999999 999999 999999 999999 999999 999999 999999 19547 19224 15455 13236 17670 11378 19940 11150 16720 11390 11265 18177 17651 19532 12303 17759 14360 10325 14939 15917 16882 13117 17474 12964 19157 10137 11905 15079 16265 13313 11706 15715 17784 16952 15575 14050 10943 11191 19011 18693 16978 12393 10316 10875 15271 16424 18247 11566 13571 14201 11780 15507 19790 18053 13510 16204 10260 15587 14306 16262 999999
999999 999999 999999 999999 999999 999999 999999 999999 999999 999999 999999 999999 999999 999999 999999 999999 999999 999999 999999 999999 999999 999999 999999 999999 999999 999999 999999 999999 0 999999 999999 999999 999999 999999 999999 999999 999999 999999 999999 999999 999999 999999 999999 999999 999999 999999 999999 999999 999999 999999 999999 999999 999999 999999 999999 999999 999999 999999 999999 999999 999999 11750 10001 17388 16653 13152 19823 16627 11727 11427 15291 17547 16821 12921 17860 19452 14955 18818 11706 14979 16072 11625 19407 14598 18257 15575 12222 11749 14140 19336 11541 16613 19444 15995 11605 11789 11238 12196 12886 14060 16351 12594 14349 13831 11318 13087 13321 13735 12361 16170 10318 10428 12159 10135 19638 16195 17341 16703 16514 19225 18618 999999
999999 999999 999999 999999 999999 999999 999999 999999 999999 999999 999999 999999 999999 999999 999999 999999 999999 999999 999999 999999 999999 999999 999999 999999 999999 999999 999999 999999 999999 0 999999 999999 999999 999999 999999 999999 999999 999999 999999 999999 999999 999999 999999 999999 999999 999999 999999 999999 999999 999999 999999 999999 999999 999999 999999 999999 999999 999999 999999 999999 999999 18053 16884 12854 10061 16356 14487 14964 11792 14193 17307 13363 17218 10533 19175 18728 19811 14469 19509 11796 16133 10011 15675 16436 19508 19003 11688 16099 19485 11823 19410 16048 10748 13395 13324 16744 13116 15580 18234 15297 18432 18805 16448 10183 13223 18103 16437 16237 17051 14488 19267 12287 19994 18839 19120 17789 13091 18271 13927 14938 16013 999999
999999 999999 999999 999999 999999 999999 999999 999999 999999 999999 999999 999999 999999 999999 999999 999999 999999 999999 999999 999999 999999 999999 999999 999999 999999 999999 999999 999999 999999 999999 0 999999 999999 999999 999999 999999 999999 999999 999999 999999 999999 999999 999999 999999 999999 999999 999999 999999 999999 999999 999999 999999 999999 999999 999999 999999 999999 999999 999999 999999 999999 13337 10161 14035 18463 12273 11391 18927 11031 15953 18227 17856 19514 15750 16199 18375 13453 17367 19715 12459 10486 15333 16228 18269 19180 17179 13206 11837 11779 15092 15452 19509 15919 18648 16649 13158 19361 12110 11391 14219 19058 15010 12135 17175 18711 14954 15622 11102 10559 19219 12204 16732 14637 11360 14022 15205 16580 16709 16580 18790 18306 999999
999999 999999 999999 999999 999999 999999 999999 999999 999999 999999 999999 999999 999999 999999 999999 999999 999999 999999 999999 999999 999999 999999 999999 999999 999999 999999 999999 999999 999999 999999 999999 0 999999 999999 999999 999999 999999 999999 999999 999999 999999 999999 999999 999999 999999 999999 999999 999999 999999 999999 999999 999999 999999 999999 999999 999999 999999 999999 999999 999999 999999 19110 12614 11228 18158 12647 10158 11769 19376 19133 13772 12878 14817 14230 11654 10604 19002 16875 10092 12522 15064 19024 16869 14859 15803 15962 16280 19198 19057 11115 12815 12250 18846 10384 19718 14927 13282 17704 10452 19164 17413 14187 19813 13770 17881 18035 19919 14716 10560 17443 19226 15690 13551 16069 16134 14933 16177 16003 13986 15703 13731 999999
999999 999999 999999 999999 999999 999999 999999 999999 999999 999999 999999 999999 999999 999999 999999 999999 999999 999999 999999 999999 999999 999999 999999 999999 999999 999999 999999 999999 999999 999999 999999 999999 0 999999 999999 999999 999999 999999 999999 999999 999999 999999 999999 999999 999999 999999 999999 999999 999999 999999 999999 999999 999999 999999 999999 999999 999999 999999 999999 999999 999999 13032 13231 17841 15342 17903 12534 17685 18543 12156 19330 12074 16371 15994 19818 15737 17196 12355 13075 12355 12512 19158 19721 12519 15976 18628 13963 18068 10914 16374 16316 12699 10557 12204 16218 13086 12390 12068 13185 13544 12864 10704 11176 10829 10882 17623 15454 11195 18653 12317 10196 12171 15883 10402 16726 14018 11639 16935 16873 14754 15389 999999
999999 999999 999999 999999 999999 999999 999999 999999 999999 999999 999999 999999 999999 999999 999999 999999 999999 999999 999999 999999 999999 999999 999999 999999 999999 999999 999999 999999 999999 999999 999999 999999 999999 0 999999 999999 999999 999999 999999 999999 999999 999999 999999 999999 999999 999999 999999 999999 999999 999999 999999 999999 999999 999999 999999 999999 999999 999999 999999 999999 999999 13224 17940 10119 19287 10690 11276 18193 19790 13197 13396 17197 17039 10804 14727 17818 19665 14892 11565 15059 12696 15139 12047 16000 19506 18275 12698 19743 19217 10995 16390 18624 12826 18283 11747 11350 12495 10979 19866 14387 16867 11147 17054 11428 18254 12704 10299 18038 17147 12225 12803 11017 14481 13273 10229 15697 10557 18660 18063 10417 12043 999999
999999 999999 999999 999999 999999 999999 999999 999999 999999 999999 999999 999999 999999 999999 999999 999999 999999 999999 999999 999999 999999 999999 999999 999999 999999 999999 999999 999999 999999 999999 999999 999999 999999 999999 0 999999 999999 999999 999999 999999 999999 999999 999999 999999 999999 999999 999999 999999 999999 999999 999999 999999 999999 999999 999999 999999 999999 999999 999999 999999 999999 17791 19168 19643 12064 12290 16097 15486 14644 15631 15052 18170 10683 18138 10967 13546 19637 13315 10398 12109 17072 15069 18869 19248 19100 15819 11486 17556 11799 12559 10057 12427 19591 14668 17618 19606 10536 16060 13719 17533 18520 17711 18474 16367 14146 19291 18140 10774 10173 13844 16488 19915 13094 18159 17781 17231 17094 11343 12516 10973 17452 999999
999999 999999 999999 999999 999999 999999 999999 999999 999999 999999 999999 999999 999999 999999 999999 999999 999999 999999 999999 999999 999999 999999 999999 999999 999999 999999 999999 999999 999999 999999 999999 999999 999999 999999 999999 0 999999 999999 999999 999999 999999 999999 999999 999999 999999 999999 999999 999999 999999 999999 999999 999999 999999 999999 999999 999999 999999 999999 999999 999999 999999 17064 12405 11281 16228 13257 18879 17618 17475 10937 17324 17575 12686 17089 12460 11671 16526 11349 17554 18229 19267 11297 13538 11588 11921 19613 17215 11682 18536 18152 12251 13102 14060 11656 13323 12575 13175 19880 11646 11261 10590 15150 10476 15203 10957 15652 19769 17004 15918 10709 16716 19407 15467 19884 13698 17149 10156 11240 18021 11921 19246 999999
999999 999999 999999 999999 999999 999999 999999 999999 999999 999999 999999 999999 999999 999999 999999 999999 999999 999999 999999 999999 999999 999999 999999 999999 999999 999999 999999 999999 999999 999999 999999 999999 999999 999999 999999 999999 0 999999 999999 999999 999999 999999 999999 999999 999999 999999 999999 999999 999999 999999 999999 999999 999999 999999 999999 999999 999999 999999 999999 999999 999999 10346 17277 18460 14060 13270 17774 11979 14332 17690 11511 11000 10342 11432 17166 15067 18745 12043 18405 12207 13783 18303 19384 10312 14177 18965 17483 11488 16469 14271 17470 11922 13741 10530 18157 13809 19649 15279 17984 12257 19132 10344 15780 19746 12513 14942 18894 16815 11718 12605 10672 13977 10318 15884 19644 19689 19655 13566 10237 10639 10263 999999
999999 999999 999999 999999 999999 999999 999999 999999 999999 999999 999999 999999 999999 999999 999999 999999 999999 999999 999999 999999 999999 999999 999999 999999 999999 999999 999999 999999 999999 999999 999999 999999 999999 999999 999999 999999 999999 0 999999 999999 999999 999999 999999 999999 999999 999999 999999 999999 999999 999999 999999 999999 999999 999999 999999 999999 999999 999999 999999 999999 999999 12956 16724 10294 16774 12463 11830 19596 18801 18704 15671 10385 16310 12512 15549 14757 16667 17313 13249 14227 19713 17518 14669 10384 15695 17833 16831 15322 13809 18104 12417 10749 16810 13050 11943 15053 11171 14790 12912 17210 19096 11432 19614 11691 16016 15400 17591 17098 10318 19204 16215 18765 16608 18648 12257 12629 17941 16037 10609 11989 13163 999999
999999 999999 999999 999999 999999 999999 999999 999999 999999 999999 999999 999999 999999 999999 999999 999999 999999 999999 999999 999999 999999 999999 999999 999999 999999 999999 999999 999999 999999 999999 999999 999999 999999 999999 999999 999999 999999 999999 0 999999 999999 999999 999999 999999 999999 999999 999999 999999 999999 999999 999999 999999 999999 999999 999999 999999 999999 999999 999999 999999 999999 18026 15995 12531 11422 11631 14894 10597 14848 16730 15939 12098 14516 18984 12989 13774 17229 13465 11070 19642 13490 11658 10333 12203 14524 16026 18523 18397 18152 11880 16430 10209 11838 14114 12025 18098 17327 12056 13513 10333 16896 11350 16009 19583 19042 13729 14794 12410 13609 15186 16559 15236 17639 13647 19038 16616 10619 13046 10273 11663 18185 999999
999999 999999 999999 999999 999999 999999 999999 999999 999999 999999 999999 999999 999999 999999 999999 999999 999999 999999 999999 999999 999999 999999 999999 999999 999999 999999 999999 999999 999999 999999 999999 999999 999999 999999 999999 999999 999999 999999 999999 0 999999 999999 999999 999999 999999 999999 999999 999999 999999 999999 999999 999999 999999 999999 999999 999999 999999 999999 999999 999999 999999 13835 11728 17564 16532 17060 13444 16785 16105 14641 12186 19843 13534 18045 14383 18465 12614 12043 14332 18816 13036 15152 13318 12222 17043 11362 16418 12695 18724 11148 12358 17438 15386 16604 17848 17922 13095 12459 14650 18403 19843 19683 15163 12269 14731 14155 14566 19838 15808 17516 17764 19792 16480 13041 10007 12905 12350 15798 16240 19662 11363 999999
999999 999999 999999 999999 999999 999999 999999 999999 999999 999999 999999 999999 999999 999999 999999 999999 999999 999999 999999 999999 999999 999999 999999 999999 999999 999999 999999 999999 999999 999999 999999 999999 999999 999999 999999 999999 999999 999999 999999 999999 0 999999 999999 999999 999999 999999 999999 999999 999999 999999 999999 999999 999999 999999 999999 999999 999999 999999 999999 999999 999999 13833 14358 17514 10463 15995 16545 13232 11666 19614 17305 17130 17873 16356 13347 14252 10600 17464 16136 17566 15381 10410 16779 14122 13342 13060 15111 17608 17862 12422 13545 15231 11411 10464 19367 17508 19637 19132 18415 16712 10769 17397 16615 10704 12443 13751 12083 12337 15203 15252 19302 14606 19397 13911 12805 12493 14415 17654 11164 14739 13900 999999
999999 999999 999999 999999 999999 999999 999999 999999 999999 999999 999999 999999 999999 999999 999999 999999 999999 999999 999999 999999 999999 999999 999999 999999 999999 999999 999999 999999 999999 999999 999999 999999 999999 999999 999999 999999 999999 999999 999999 999999 999999 0 999999 999999 999999 999999 999999 999999 999999 999999 999999 999999 999999 999999 999999 999999 999999 999999 999999 999999 999999 19006 17490 11428 17009 18694 13102 16418 13935 17790 12673 16890 17262 12926 15792 13139 13672 10530 11683 17118 19270 19118 12015 13517 18225 13645 15920 18953 18858 10522 12152 14079 10005 17098 11302 13090 18933 10140 18466 18244 10161 16799 13860 10886 16867 12194 11688 18049 12109 13183 16017 16244 11293 19813 16986 16583 18114 10211 10281 14117 19592 999999
999999 999999 999999 999999 999999 999999 999999 999999 999999 999999 999999 999999 999999 999999 999999 999999 999999 999999 999999 999999 999999 999999 999999 999999 999999 999999 999999 999999 999999 999999 999999 999999 999999 999999 999999 999999 999999 999999 999999 999999 999999 999999 0 999999 999999 999999 999999 999999 999999 999999 999999 999999 999999 999999 999999 999999 999999 999999 999999 999999 999999 14863 12690 12068 14418 14697 10460 13228 16214 19062 17064 17469 14519 16208 15148 19097 11940 10366 13464 17610 10541 16769 14456 11174 11734 18799 12144 12645 10255 11131 18760 13060 19073 16904 17458 12927 12950 18871 11867 10008 17189 15365 15433 16034 19669 16746 12965 15407 13084 17099 14853 11858 15595 19725 17246 19432 12445 17798 18442 14785 12047 999999
999999 999999 999999 999999 999999 999999 999999 999999 999999 999999 999999 999999 999999 999999 999999 999999 999999 999999 999999 999999 999999 999999 999999 999999 999999 999999 999999 999999 999999 999999 999999 999999 999999 999999 999999 999999 999999 999999 999999 999999 999999 999999 999999 0 999999 999999 999999 999999 999999 999999 999999 999999 999999 999999 999999 999999 999999 999999 999999 999999 999999 13867 10343 11073 13201 19674 16135 11497 17280 11998 17953 14607 14640 17231 16179 11202 16363 16022 12660 14409 15306 11073 19182 13442 14876 10765 14163 19517 13838 16478 12912 15687 14942 19447 12847 18372 19096 10502 18557 14842 10170 17705 19253 10171 16506 11583 17836 19860 15972 15949 11494 14442 16339 19204 17114 15214 13810 14661 12514 17520 11767 999999
999999 999999 999999 999999 999999 999999 999999 999999 999999 999999 999999 999999 999999 999999 999999 999999 999999 999999 999999 999999 999999 999999 999999 999999 999999 999999 999999 999999 999999 999999 999999 999999 999999 999999 999999 999999 999999 999999 999999 999999 999999 999999 999999 999999 0 999999 999999 999999 999999 999999 999999 999999 999999 999999 999999 999999 999999 999999 999999 999999 999999 15993 18731 10899 14286 11430 11820 12946 19681 15357 13475 19963 13383 13205 16508 19570 19928 16653 13162 11239 11487 15539 16150 19101 14674 13186 10462 17290 11400 13163 12964 10258 17090 13034 19786 13016 10451 17880 19913 13806 18972 11829 12172 16964 17849 12291 15157 19650 10043 13408 19168 16845 19660 18205 16706 12621 18678 12296 10304 12724 10006 999999
999999 999999 999999 999999 999999 999999 999999 999999 999999 999999 999999 999999 999999 999999 999999 999999 999999 999999 999999 999999 999999 999999 999999 999999 999999 999999 999999 999999 999999 999999 999999 999999 999999 999999 999999 999999 999999 999999 999999 999999 999999 999999 999999 999999 999999 0 999999 999999 999999 999999 999999 999999 999999 999999 999999 999999 999999 999999 999999 999999 999999 10651 13346 18281 12441 18563 12093 16912 12534 17564 10182 14879 14569 12219 12497 17630 11792 14479 14532 17234 18975 10041 13471 17417 15193 15846 11063 15246 13962 16702 15434 12180 14453 18848 18413 18367 17138 17016 14741 15636 14867 12036 15344 18319 12413 17022 15968 12451 15180 17292 12638 11065 12024 19956 19339 17420 12825 13389 10502 10050 11488 999999
999999 999999 999999 999999 999999 999999 999999 999999 999999 999999 999999 999999 999999 999999 999999 999999 999999 999999 999999 999999 999999 999999 999999 999999 999999 999999 999999 999999 999999 999999 999999 999999 999999 999999 999999 999999 999999 999999 999999 999999 999999 999999 999999 999999 999999 999999 0 999999 999999 999999 999999 999999 999999 999999 999999 999999 999999 999999 999999 999999 999999 13618 16141 13799 14308 17785 16226 18695 16911 12316 11453 10422 14888 15379 18167 11264 12684 18842 10935 17226 12233 18258 16253 16508 10238 11379 19497 13473 19955 12476 17569 18694 12246 16138 10516 10484 12563 13933 11657 17398 11167 15923 17995 15986 18473 17580 17001 11703 16614 12489 12383 12247 18281 14004 12077 18767 18774 11312 12679 11511 18542 999999
999999 999999 999999 999999 999999 999999 999999 999999 999999 999999 999999 999999 999999 999999 999999 999999 999999 999999 999999 999999 999999 999999 999999 999999 999999 999999 999999 999999 999999 999999 999999 999999 999999 999999 999999 999999 999999 999999 999999 999999 999999 999999 999999 999999 999999 999999 999999 0 999999 999999 999999 999999 999999 999999 999999 999999 999999 999999 999999 999999 999999 17848 14329 14163 19487 13437 13783 19076 14775 12348 10601 13396 19704 12780 11307 13363 11323 18268 15292 19336 11547 19006 19471 19921 18351 13244 15773 12626 13862 13945 17280 14745 17912 18737 18681 13821 16121 18080 18036 16420 15029 16728 16296 10877 15145 16626 16592 10892 10566 19163 17149 13269 17180 10128 11953 14507 14117 19961 16528 12246 10017 999999
999999 999999 999999 999999 999999 999999 999999 999999 999999 999999 999999 999999 999999 999999 999999 999999 999999 999999 999999 999999 999999 999999 999999 999999 999999 999999 999999 999999 999999 999999 999999 999999 999999 999999 999999 999999 999999 999999 999999 999999 999999 999999 999999 999999 999999 999999 999999 999999 0 999999 999999 999999 999999 999999 999999 999999 999999 999999 999999 999999 999999 14892 18007 16782 11675 13868 18427 11850 12392 17759 17140 14697 13728 14186 18796 11493 16713 19237 16979 12562 11727 15303 19749 12440 13994 14576 16997 15951 19707 18971 10751 18180 18950 12329 18780 13646 17041 16502 19261 10116 11566 16184 14016 17208 12496 15525 11779 17670 15106 16882 13971 15330 17529 18921 11400 15881 17055 11463 10741 12431 18047 999999
999999 999999 999999 999999 999999 999999 999999 999999 999999 999999 999999 999999 999999 999999 999999 999999 999999 999999 999999 999999 999999 999999 999999 999999 999999 999999 999999 999999 999999 999999 999999 999999 999999 999999 999999 999999 999999 999999 999999 999999 999999 999999 999999 999999 999999 999999 999999 999999 999999 0 999999 999999 999999 999999 999999 999999 999999 999999 999999 999999 999999 14132 17383 14952 15921 15195 15747 19200 16895 10803 18150 13823 17720 13137 13885 17330 19878 14896 18472 14683 17212 10110 14538 16866 14337 19968 12208 19702 10529 15034 12867 10517 10638 10488 18330 10297 13389 13302 17506 19966 19902 18012 15165 19546 15488 14781 18205 15292 15607 16309 13409 13478 17513 16081 16482 16832 14525 19492 15776 11744 14753 999999
999999 999999 999999 999999 999999 999999 999999 999999 999999 999999 999999 999999 999999 999999 999999 999999 999999 999999 999999 999999 999999 999999 999999 999999 999999 999999 999999 999999 999999 999999 999999 999999 999999 999999 999999 999999 999999 999999 999999 999999 999999 999999 999999 999999 999999 999999 999999 999999 999999 999999 0 999999 999999 999999 999999 999999 999999 999999 999999 999999 999999 13930 17648 16436 14597 18762 18213 12516 19784 13280 10426 12491 16353 16382 18636 13158 17001 10060 16963 15556 13855 10494 17701 19830 12522 11168 15389 19343 16564 14590 13296 12675 16157 10873 18531 18776 11822 18363 16735 20000 10570 19427 19872 10497 19467 12587 18729 12014 15180 17128 14407 13812 15903 17709 19460 10688 12007 16844 13892 14098 10764 999999
999999 999999 999999 999999 999999 999999 999999 999999 999999 999999 999999 999999 999999 999999 999999 999999 999999 999999 999999 999999 999999 999999 999999 999999 999999 999999 999999 999999 999999 999999 999999 999999 999999 999999 999999 999999 999999 999999 999999 999999 999999 999999 999999 999999 999999 999999 999999 999999 999999 999999 999999 0 999999 999999 999999 999999 999999 999999 999999 999999 999999 19509 13763 19961 17347 13857 19365 12440 15434 12698 19309 11684 19480 13857 16610 14860 16091 13629 15281 10913 17575 11197 14941 12587 10901 16576 11533 15571 18150 12093 18347 18938 17704 14719 12455 15330 18898 15850 15565 18792 19070 17119 19849 12968 15565 10608 14341 16611 15463 15772 18402 13972 16416 16224 17496 19223 14000 13348 10580 19948 17731 999999
999999 999999 999999 999999 999999 999999 999999 999999 999999 999999 999999 999999 999999 999999 999999 999999 999999 999999 999999 999999 999999 999999 999999 999999 999999 999999 999999 999999 999999 999999 999999 999999 999999 999999 999999 999999 999999 999999 999999 999999 999999 999999 999999 999999 999999 999999 999999 999999 999999 999999 999999 999999 0 999999 999999 999999 999999 999999 999999 999999 999999 15988 11923 11702 19399 11209 13873 18125 14828 12334 18361 16273 16893 18849 19296 14219 14015 15614 19761 14648 12046 11340 14422 16230 19384 11483 16247 11051 19645 18366 11364 16221 13424 13934 12009 18087 10972 15633 15417 13951 14910 16113 11668 19062 18975 15811 12686 14735 19918 14286 16115 12924 12774 14314 14777 18561 10938 11096 10850 19772 16277 999999
999999 999999 999999 999999 999999 999999 999999 999999 999999 999999 999999 999999 999999 999999 999999 999999 999999 999999 999999 999999 999999 999999 999999 999999 999999 999999 999999 999999 999999 999999 999999 999999 999999 999999 999999 999999 999999 999999 999999 999999 999999 999999 999999 999999 999999 999999 999999 999999 999999 999999 999999 999999 999999 0 999999 999999 999999 999999 999999 999999 999999 15794 13241 11894 15119 19665 10260 19484 18466 13295 10076 10754 13808 19896 14749 12676 14489 11614 17021 19503 13988 19738 16775 15881 14039 18410 16487 17442 12144 13590 18866 19681 19264 19667 16336 15920 13033 19593 12211 10674 16379 17584 11732 18778 19478 14726 19835 14908 17112 14417 19914 14668 10893 19005 11739 15024 11307 15900 17392 19468 16534 999999
999999 999999 999999 999999 999999 999999 999999 999999 999999 999999 999999 999999 999999 999999 999999 999999 999999 999999 999999 999999 999999 999999 999999 999999 999999 999999 999999 999999 999999 999999 999999 999999 999999 999999 999999 999999 999999 999999 999999 999999 999999 999999 999999 999999 999999 999999 999999 999999 999999 999999 999999 999999 999999 999999 0 999999 999999 999999 999999 999999 999999 15184 10605 12940 13462 12386 10799 12696 15239 15677 11967 13671 13674 17604 10291 13144 14919 12276 17810 13042 18205 10124 15403 13135 17845 19188 14188 18390 10760 18461 10052 10627 19334 11706 13743 13740 17512 19939 12940 19102 11451 15163 12970 19688 15408 14813 17512 11088 19678 11806 12576 15656 14837 19463 18265 16381 14263 15809 11329 13278 15329 999999
999999 999999 999999 999999 999999 999999 999999 999999 999999 999999 999999 999999 999999 999999 999999 999999 999999 999999 999999 999999 999999 999999 999999 999999 999999 999999 999999 999999 999999 999999 999999 999999 999999 999999 999999 999999 999999 999999 999999 999999 999999 999999 999999 999999 999999 999999 999999 999999 999999 999999 999999 999999 999999 999999 999999 0 999999 999999 999999 999999 999999 16952 18071 10370 18951 15840 17165 13102 11342 14610 10383 19806 17678 12277 10665 13793 16992 12930 17168 10441 13312 17137 18607 11995 18333 10530 17673 19608 13583 14790 18497 12752 19302 14321 17528 17767 14959 15716 13647 17712 12164 17943 19569 13490 18933 15293 11666 11578 11262 18314 19044 18700 16717 10952 17565 17651 18878 13535 11176 17538 10561 999999
999999 999999 999999 999999 999999 999999 999999 999999 999999 999999 999999 999999 999999 999999 999999 999999 999999 999999 999999 999999 999999 999999 999999 999999 999999 999999 999999 999999 999999 999999 999999 999999 999999 999999 999999 999999 999999 999999 999999 999999 999999 999999 999999 999999 999999 999999 999999 999999 999999 999999 999999 999999 999999 999999 999999 999999 0 999999 999999 999999 999999 17038 14723 14503 12385 11846 19198 19707 17195 16426 12646 13856 12688 17887 17027 10248 15869 17418 10603 14100 14825 17819 14006 14924 14734 15816 15739 14962 15792 17717 13893 18266 14599 16948 17028 17215 19131 16643 17851 19246 18034 18040 18871 17672 13295 14386 19746 13476 11665 15807 11079 14506 15986 18130 18115 14295 10292 18738 12235 15638 17119 999999
999999 999999 999999 999999 999999 999999 999999 999999 999999 999999 999999 999999 999999 999999 999999 999999 999999 999999 999999 999999 999999 999999 999999 999999 999999 999999 999999 999999 999999 999999 999999 999999 999999 999999 999999 999999 999999 999999 999999 999999 999999 999999 999999 999999 999999 999999 999999 999999 999999 999999 999999 999999 999999 999999 999999 999999 999999 0 999999 999999 999999 13059 13233 16295 17165 17012 12383 13734 17480 17035 19403 10241 15562 12940 10383 17497 17556 16773 15544 11582 18886 11872 13810 18567 11440 16029 12420 17808 10881 14323 10156 19779 16030 12545 10455 16328 11018 16193 19090 15377 12729 19229 11098 10865 15144 10333 10841 12301 10621 12489 18167 14157 13704 12012 12779 13652 18086 13495 10289 10251 16083 999999
999999 999999 999999 999999 999999 999999 999999 999999 999999 999999 999999 999999 999999 999999 999999 999999 999999 999999 999999 999999 999999 999999 999999 999999 999999 999999 999999 999999 999999 999999 999999 999999 999999 999999 999999 999999 999999 999999 999999 999999 999999 999999 999999 999999 999999 999999 999999 999999 999999 999999 999999 999999 999999 999999 999999 999999 999999 999999 0 999999 999999 11237 10345 13224 18606 18510 13275 19989 11549 18696 18141 15969 11620 18007 15025 13564 15000 16421 13270 12354 19178 17231 18750 10410 11913 17408 12034 16863 14141 10075 18546 17043 11638 15664 14182 16586 17836 18872 15139 13826 11995 19082 16477 10913 14463 13461 13293 19247 12427 16713 12590 15000 13525 16364 12192 17267 19178 10592 16659 12730 14326 999999
999999 999999 999999 999999 999999 999999 999999 999999 999999 999999 999999 999999 999999 999999 999999 999999 999999 999999 999999 999999 999999 999999 999999 999999 999999 999999 999999 999999 999999 999999 999999 999999 999999 999999 999999 999999 999999 999999 999999 999999 999999 999999 999999 999999 999999 999999 999999 999999 999999 999999 999999 999999 999999 999999 999999 999999 999999 999999 999999 0 999999 15676 12531 14023 13250 19168 12573 14811 15942 12479 13354 10740 19322 19621 10555 13688 16954 13082 19642 12244 10962 13678 13836 11919 10535 18543 15011 17797 13608 15285 16060 10323 14729 14330 15562 17901 14479 18973 14460 10903 14029 11077 12028 19496 12919 18540 19946 13687 19298 16731 19122 17907 10708 10239 10675 17758 12312 11563 17542 18014 14533 999999
999999 999999 999999 999999 999999 999999 999999 999999 999999 999999 999999 999999 999999 999999 999999 999999 999999 999999 999999 999999 999999 999999 999999 999999 999999 999999 999999 999999 999999 999999 999999 999999 999999 999999 999999 999999 999999 999999 999999 999999 999999 999999 999999 999999 999999 999999 999999 999999 999999 999999 999999 999999 999999 999999 999999 999999 999999 999999 999999 999999 0 17132 17235 17687 13723 13254 12288 10216 18760 10098 10864 12525 15436 11168 16947 19440 18621 18308 13915 12993 18470 10423 15354 12004 19127 10220 10980 11037 14295 18523 13005 14035 12396 13336 17658 15463 15426 10052 18935 17657 17624 13911 13029 16846 19542 15881 17688 13405 17221 10339 15721 15614 12243 13444 13587 13311 15166 10267 15898 14070 12531 999999
999999 16977 12358 13247 17602 19265 14503 19895 15627 11899 14986 12137 11478 14587 12387 16582 13597 19155 16989 16898 12248 12385 18997 12173 14419 19454 10847 19547 11750 18053 13337 19110 13032 13224 17791 17064 10346 12956 18026 13835 13833 19006 14863 13867 15993 10651 13618 17848 14892 14132 13930 19509 15988 15794 15184 16952 17038 13059 11237 15676 17132 0 999999 999999 999999 999999 999999 999999 999999 999999 999999 999999 999999 999999 999999 999999 999999 999999 999999 999999 999999 999999 999999 999999 999999 999999 999999 999999 999999 999999 999999 999999 999999 999999 999999 999999 999999 999999 999999 999999 999999 999999 999999 999999 999999 999999 999999 999999 999999 999999 999999 999999 999999 999999 999999 999999 999999 999999 999999 999999 999999 9864
999999 19577 18716 16789 15673 12507 13688 13071 11245 13813 11333 15660 16649 19557 11567 18427 18646 14589 14311 10157 15355 11252 14751 16532 13545 14467 11450 19224 10001 16884 10161 12614 13231 17940 19168 12405 17277 16724 15995 11728 14358 17490 12690 10343 18731 13346 16141 14329 18007 17383 17648 13763 11923 13241 10605 18071 14723 13233 10345 12531 17235 999999 0 999999 999999 999999 999999 999999 999999 999999 999999 999999 999999 999999 999999 999999 999999 999999 999999 999999 999999 999999 999999 999999 999999 999999 999999 999999 999999 999999 999999 999999 999999 999999 999999 999999 999999 999999 999999 999999 999999 999999 999999 999999 999999 999999 999999 999999 999999 999999 999999 999999 999999 999999 999999 999999 999999 999999 999999 999999 999999 8230
999999 18270 12334 13668 16687 10630 18499 16206 19997 11108 12152 13739 13220 11621 13842 14147 13511 12005 11916 13549 19011 12835 18499 18180 13055 17437 18785 15455 17388 12854 14035 11228 17841 10119 19643 11281 18460 10294 12531 17564 17514 11428 12068 11073 10899 18281 13799 14163 16782 14952 16436 19961 11702 11894 12940 10370 14503 16295 13224 14023 17687 999999 999999 0 999999 999999 999999 999999 999999 999999 999999 999999 999999 999999 999999 999999 999999 999999 999999 999999 999999 999999 999999 999999 999999 999999 999999 999999 999999 999999 999999 999999 999999 999999 999999 999999 999999 999999 999999 999999 999999 999999 999999 999999 999999 999999 999999 999999 999999 999999 999999 999999 999999 999999 999999 999999 999999 999999 999999 999999 999999 11313
999999 11590 13648 11981 17741 13257 15584 14583 12114 14299 12936 14631 12618 15009 10401 15780 17928 16591 16374 11974 13431 19562 15118 12730 10757 14991 19671 13236 16653 10061 18463 18158 15342 19287 12064 16228 14060 16774 11422 16532 10463 17009 14418 13201 14286 12441 14308 19487 11675 15921 14597 17347 19399 15119 13462 18951 12385 17165 18606 13250 13723 999999 999999 999999 0 999999 999999 999999 999999 999999 999999 999999 999999 999999 999999 999999 999999 999999 999999 999999 999999 999999 999999 999999 999999 999999 999999 999999 999999 999999 999999 999999 999999 999999 999999 999999 999999 999999 999999 999999 999999 999999 999999 999999 999999 999999 999999 999999 999999 999999 999999 999999 999999 999999 999999 999999 999999 999999 999999 999999 999999 11960
999999 13843 10419 13690 19310 18067 11369 17605 15799 18704 17502 10973 18263 16541 10596 18150 13109 19459 18663 18847 19004 15658 19835 11758 18110 15791 18337 17670 13152 16356 12273 12647 17903 10690 12290 13257 13270 12463 11631 17060 15995 18694 14697 19674 11430 18563 17785 13437 13868 15195 18762 13857 11209 19665 12386 15840 11846 17012 18510 19168 13254 999999 999999 999999 999999 0 999999 999999 999999 999999 999999 999999 999999 999999 999999 999999 999999 999999 999999 999999 999999 999999 999999 999999 999999 999999 999999 999999 999999 999999 999999 999999 999999 999999 999999 999999 999999 999999 999999 999999 999999 999999 999999 999999 999999 999999 999999 999999 999999 999999 999999 999999 999999 999999 999999 999999 999999 999999 999999 999999 999999 5878
999999 12730 18774 11219 13015 15103 15303 12079 12506 15479 17512 11303 15836 18463 12100 16073 15514 18691 17460 11356 11149 19138 17936 10511 11889 11917 13055 11378 19823 14487 11391 10158 12534 11276 16097 18879 17774 11830 14894 13444 16545 13102 10460 16135 11820 12093 16226 13783 18427 15747 18213 19365 13873 10260 10799 17165 19198 12383 13275 12573 12288 999999 999999 999999 999999 999999 0 999999 999999 999999 999999 999999 999999 999999 999999 999999 999999 999999 999999 999999 999999 999999 999999 999999 999999 999999 999999 999999 999999 999999 999999 999999 999999 999999 999999 999999 999999 999999 999999 999999 999999 999999 999999 999999 999999 999999 999999 999999 999999 999999 999999 999999 999999 999999 999999 999999 999999 999999 999999 999999 999999 6979
999999 13771 15347 10958 10368 18949 11166 14988 14626 13815 16593 12274 16952 16951 13977 19945 10500 11359 16125 12624 19411 11900 18043 17691 16354 14483 12244 19940 16627 14964 18927 11769 17685 18193 15486 17618 11979 19596 10597 16785 13232 16418 13228 11497 12946 16912 18695 19076 11850 19200 12516 12440 18125 19484 12696 13102 19707 13734 19989 14811 10216 999999 999999 999999 999999 999999 999999 0 999999 999999 999999 999999 999999 999999 999999 999999 999999 999999 999999 999999 999999 999999 999999 999999 999999 999999 999999 999999 999999 999999 999999 999999 999999 999999 999999 999999 999999 999999 999999 999999 999999 999999 999999 999999 999999 999999 999999 999999 999999 999999 999999 999999 999999 999999 999999 999999 999999 999999 999999 999999 999999 5603
999999 10480 14421 10796 11840 18595 18185 10748 12775 10805 11744 12983 15740 16772 11694 16078 18360 18802 16334 10822 18699 17591 14100 11252 18844 12394 16946 11150 11727 11792 11031 19376 18543 19790 14644 17475 14332 18801 14848 16105 11666 13935 16214 17280 19681 12534 16911 14775 12392 16895 19784 15434 14828 18466 15239 11342 17195 17480 11549 15942 18760 999999 999999 999999 999999 999999 999999 999999 0 999999 999999 999999 999999 999999 999999 999999 999999 999999 999999 999999 999999 999999 999999 999999 999999 999999 999999 999999 999999 999999 999999 999999 999999 999999 999999 999999 999999 999999 999999 999999 999999 999999 999999 999999 999999 999999 999999 999999 999999 999999 999999 999999 999999 999999 999999 999999 999999 999999 999999 999999 999999 9260
999999 12230 17954 19707 13328 15112 15280 12986 12696 18252 16274 17295 16999 17402 17086 18457 11638 15848 15262 10374 17939 18906 11322 13238 19570 14248 17858 16720 11427 14193 15953 19133 12156 13197 15631 10937 17690 18704 16730 14641 19614 17790 19062 11998 15357 17564 12316 12348 17759 10803 13280 12698 12334 13295 15677 14610 16426 17035 18696 12479 10098 999999 999999 999999 999999 999999 999999 999999 999999 0 999999 999999 999999 999999 999999 999999 999999 999999 999999 999999 999999 999999 999999 999999 999999 999999 999999 999999 999999 999999 999999 999999 999999 999999 999999 999999 999999 999999 999999 999999 999999 999999 999999 999999 999999 999999 999999 999999 999999 999999 999999 999999 999999 999999 999999 999999 999999 999999 999999 999999 999999 8018
999999 12899 11564 11847 17991 16653 18799 16483 16904 12297 15638 10743 14468 19367 13842 19628 16005 13756 16072 18811 10008 14136 17782 14044 17889 14658 12010 11390 15291 17307 18227 13772 19330 13396 15052 17324 11511 15671 15939 12186 17305 12673 17064 17953 13475 10182 11453 10601 17140 18150 10426 19309 18361 10076 11967 10383 12646 19403 18141 13354 10864 999999 999999 999999 999999 999999 999999 999999 999999 999999 0 999999 999999 999999 999999 999999 999999 999999 999999 999999 999999 999999 999999 999999 999999 999999 999999 999999 999999 999999 999999 999999 999999 999999 999999 999999 999999 999999 999999 999999 999999 999999 999999 999999 999999 999999 999999 999999 999999 999999 999999 999999 999999 999999 999999 999999 999999 999999 999999 999999 999999 13472
999999 17291 13931 11268 16123 11302 16167 14055 12502 17789 18866 17818 14499 16306 12424 14642 19240 16601 14524 12484 10189 15441 17842 11563 17911 18316 12647 11265 17547 13363 17856 12878 12074 17197 18170 17575 11000 10385 12098 19843 17130 16890 17469 14607 19963 14879 10422 13396 14697 13823 12491 11684 16273 10754 13671 19806 13856 10241 15969 10740 12525 999999 999999 999999 999999 999999 999999 999999 999999 999999 999999 0 999999 999999 999999 999999 999999 999999 999999 999999 999999 999999 999999 999999 999999 999999 999999 999999 999999 999999 999999 999999 999999 999999 999999 999999 999999 999999 999999 999999 999999 999999 999999 999999 999999 999999 999999 999999 999999 999999 999999 999999 999999 999999 999999 999999 999999 999999 999999 999999 999999 9937
999999 15677 15721 10723 14564 14411 16087 17554 13970 11213 12429 11400 19279 11474 15715 13322 10695 13157 14940 12478 11850 19390 12312 16165 12708 11025 10161 18177 16821 17218 19514 14817 16371 17039 10683 12686 10342 16310 14516 13534 17873 17262 14519 14640 13383 14569 14888 19704 13728 17720 16353 19480 16893 13808 13674 17678 12688 15562 11620 19322 15436 999999 999999 999999 999999 999999 999999 999999 999999 999999 999999 999999 0 999999 999999 999999 999999 999999 999999 999999 999999 999999 999999 999999 999999 999999 999999 999999 999999 999999 999999 999999 999999 999999 999999 999999 999999 999999 999999 999999 999999 999999 999999 999999 999999 999999 999999 999999 999999 999999 999999 999999 999999 999999 999999 999999 999999 999999 999999 999999 999999 10235
999999 11177 15811 14741 15813 11157 12715 18855 15772 17701 17817 18987 18036 10765 12711 18526 11810 18053 15477 11660 15716 14401 12191 10648 17838 13712 15753 17651 12921 10533 15750 14230 15994 10804 18138 17089 11432 12512 18984 18045 16356 12926 16208 17231 13205 12219 15379 12780 14186 13137 16382 13857 18849 19896 17604 12277 17887 12940 18007 19621 11168 999999 999999 999999 999999 999999 999999 999999 999999 999999 999999 999999 999999 0 999999 999999 999999 999999 999999 999999 999999 999999 999999 999999 999999 999999 999999 999999 999999 999999 999999 999999 999999 999999 999999 999999 999999 999999 999999 999999 999999 999999 999999 999999 999999 999999 999999 999999 999999 999999 999999 999999 999999 999999 999999 999999 999999 999999 999999 999999 999999 8770
999999 18888 11013 15998 14577 16020 18356 10085 14123 16159 13877 14725 15604 18037 11581 18827 10333 15353 19677 11602 10419 19575 18993 14534 12810 14457 16576 19532 17860 19175 16199 11654 19818 14727 10967 12460 17166 15549 12989 14383 13347 15792 15148 16179 16508 12497 18167 11307 18796 13885 18636 16610 19296 14749 10291 10665 17027 10383 15025 10555 16947 999999 999999 999999 999999 999999 999999 999999 999999 999999 999999 999999 999999 999999 0 999999 999999 999999 999999 999999 999999 999999 999999 999999 999999 999999 999999 999999 999999 999999 999999 999999 999999 999999 999999 999999 999999 999999 999999 999999 999999 999999 999999 999999 999999 999999 999999 999999 999999 999999 999999 999999 999999 999999 999999 999999 999999 999999 999999 999999 999999 13896
999999 14749 17099 17805 18476 14252 16382 18967 19489 11789 12768 15790 16133 18433 11156 14264 19941 12204 15860 10616 16842 11495 16069 10526 12990 18644 10822 12303 19452 18728 18375 10604 15737 17818 13546 11671 15067 14757 13774 18465 14252 13139 19097 11202 19570 17630 11264 13363 11493 17330 13158 14860 14219 12676 13144 13793 10248 17497 13564 13688 19440 999999 999999 999999 999999 999999 999999 999999 999999 999999 999999 999999 999999 999999 999999 0 999999 999999 999999 999999 999999 999999 999999 999999 999999 999999 999999 999999 999999 999999 999999 999999 999999 999999 999999 999999 999999 999999 999999 999999 999999 999999 999999 999999 999999 999999 999999 999999 999999 999999 999999 999999 999999 999999 999999 999999 999999 999999 999999 999999 999999 13489
999999 16254 14396 18977 11592 19720 10962 18913 15477 10302 11269 11879 10070 10277 12969 10603 10515 19528 11465 11226 17171 17661 18645 18251 12919 15568 16632 17759 14955 19811 13453 19002 17196 19665 19637 16526 18745 16667 17229 12614 10600 13672 11940 16363 19928 11792 12684 11323 16713 19878 17001 16091 14015 14489 14919 16992 15869 17556 15000 16954 18621 999999 999999 999999 999999 999999 999999 999999 999999 999999 999999 999999 999999 999999 999999 999999 0 999999 999999 999999 999999 999999 999999 999999 999999 999999 999999 999999 999999 999999 999999 999999 999999 999999 999999 999999 999999 999999 999999 999999 999999 999999 999999 999999 999999 999999 999999 999999 999999 999999 999999 999999 999999 999999 999999 999999 999999 999999 999999 999999 999999 11344
999999 11932 19100 11769 18439 14706 14905 13829 17592 12104 15785 18276 12208 15346 12975 15230 18256 14469 13340 10613 10463 12743 15094 10425 11722 19205 12155 14360 18818 14469 17367 16875 12355 14892 13315 11349 12043 17313 13465 12043 17464 10530 10366 16022 16653 14479 18842 18268 19237 14896 10060 13629 15614 11614 12276 12930 17418 16773 16421 13082 18308 999999 999999 999999 999999 999999 999999 999999 999999 999999 999999 999999 999999 999999 999999 999999 999999 0 999999 999999 999999 999999 999999 999999 999999 999999 999999 999999 999999 999999 999999 999999 999999 999999 999999 999999 999999 999999 999999 999999 999999 999999 999999 999999 999999 999999 999999 999999 999999 999999 999999 999999 999999 999999 999999 999999 999999 999999 999999 999999 999999 10602
999999 11217 15745 15379 13236 15720 17764 12370 13113 18864 14330 12817 12472 10849 16356 18167 13610 10027 19186 14681 16721 17686 12550 10710 17356 10922 19079 10325 11706 19509 19715 10092 13075 11565 10398 17554 18405 13249 11070 14332 16136 11683 13464 12660 13162 14532 10935 15292 16979 18472 16963 15281 19761 17021 17810 17168 10603 15544 13270 19642 13915 999999 999999 999999 999999 999999 999999 999999 999999 999999 999999 999999 999999 999999 999999 999999 999999 999999 0 999999 999999 999999 999999 999999 999999 999999 999999 999999 999999 999999 999999 999999 999999 999999 999999 999999 999999 999999 999999 999999 999999 999999 999999 999999 999999 999999 999999 999999 999999 999999 999999 999999 999999 999999 999999 999999 999999 999999 999999 999999 999999 10380
999999 16243 15414 10836 11481 11597 19998 18167 10858 16441 14004 12415 15470 12240 16236 17084 10309 12090 15719 15752 10130 18195 17964 19659 10723 13558 19709 14939 14979 11796 12459 12522 12355 15059 12109 18229 12207 14227 19642 18816 17566 17118 17610 14409 11239 17234 17226 19336 12562 14683 15556 10913 14648 19503 13042 10441 14100 11582 12354 12244 12993 999999 999999 999999 999999 999999 999999 999999 999999 999999 999999 999999 999999 999999 999999 999999 999999 999999 999999 0 999999 999999 999999 999999 999999 999999 999999 999999 999999 999999 999999 999999 999999 999999 999999 999999 999999 999999 999999 999999 999999 999999 999999 999999 999999 999999 999999 999999 999999 999999 999999 999999 999999 999999 999999 999999 999999 999999 999999 999999 999999 11936
999999 17720 10403 15448 14678 12577 11987 17135 19226 19453 15732 15041 15976 16524 16899 13670 10675 12005 10764 11261 19155 16752 10814 11011 15512 14691 17075 15917 16072 16133 10486 15064 12512 12696 17072 19267 13783 19713 13490 13036 15381 19270 10541 15306 11487 18975 12233 11547 11727 17212 13855 17575 12046 13988 18205 13312 14825 18886 19178 10962 18470 999999 999999 999999 999999 999999 999999 999999 999999 999999 999999 999999 999999 999999 999999 999999 999999 999999 999999 999999 0 999999 999999 999999 999999 999999 999999 999999 999999 999999 999999 999999 999999 999999 999999 999999 999999 999999 999999 999999 999999 999999 999999 999999 999999 999999 999999 999999 999999 999999 999999 999999 999999 999999 999999 999999 999999 999999 999999 999999 999999 11053
999999 12278 10044 13322 15346 11051 17827 16025 17403 15627 15586 10515 10463 12553 17072 18744 14424 13208 15471 16896 13249 17035 13891 10076 13369 12567 19918 16882 11625 10011 15333 19024 19158 15139 15069 11297 18303 17518 11658 15152 10410 19118 16769 11073 15539 10041 18258 19006 15303 10110 10494 11197 11340 19738 10124 17137 17819 11872 17231 13678 10423 999999 999999 999999 999999 999999 999999 999999 999999 999999 999999 999999 999999 999999 999999 999999 999999 999999 999999 999999 999999 0 999999 999999 999999 999999 999999 999999 999999 999999 999999 999999 999999 999999 999999 999999 999999 999999 999999 999999 999999 999999 999999 999999 999999 999999 999999 999999 999999 999999 999999 999999 999999 999999 999999 999999 999999 999999 999999 999999 999999 5332
999999 13511 19225 10596 12900 10798 11586 10660 14342 17315 13278 10284 17790 17747 17093 15117 10948 16063 13984 10197 13280 18593 13881 19883 12972 13805 12921 13117 19407 15675 16228 16869 19721 12047 18869 13538 19384 14669 10333 13318 16779 12015 14456 19182 16150 13471 16253 19471 19749 14538 17701 14941 14422 16775 15403 18607 14006 13810 18750 13836 15354 999999 999999 999999 999999 999999 999999 999999 999999 999999 999999 999999 999999 999999 999999 999999 999999 999999 999999 999999 999999 999999 0 999999 999999 999999 999999 999999 999999 999999 999999 999999 999999 999999 999999 999999 999999 999999 999999 999999 999999 999999 999999 999999 999999 999999 999999 999999 999999 999999 999999 999999 999999 999999 999999 999999 999999 999999 999999 999999 999999 7759
999999 10606 12568 13394 19041 10630 10199 17126 18837 19120 13458 10043 17345 16832 15087 16277 14774 16478 19805 12155 11697 13252 12072 17732 12623 13376 18838 17474 14598 16436 18269 14859 12519 16000 19248 11588 10312 10384 12203 12222 14122 13517 11174 13442 19101 17417 16508 19921 12440 16866 19830 12587 16230 15881 13135 11995 14924 18567 10410 11919 12004 999999 999999 999999 999999 999999 999999 999999 999999 999999 999999 999999 999999 999999 999999 999999 999999 999999 999999 999999 999999 999999 999999 0 999999 999999 999999 999999 999999 999999 999999 999999 999999 999999 999999 999999 999999 999999 999999 999999 999999 999999 999999 999999 999999 999999 999999 999999 999999 999999 999999 999999 999999 999999 999999 999999 999999 999999 999999 999999 999999 7018
999999 13235 19689 14647 16204 11134 12826 11495 13654 11333 19411 16162 13252 17292 13493 18343 19451 15424 10310 10928 11529 12443 12383 12901 10893 14316 16877 12964 18257 19508 19180 15803 15976 19506 19100 11921 14177 15695 14524 17043 13342 18225 11734 14876 14674 15193 10238 18351 13994 14337 12522 10901 19384 14039 17845 18333 14734 11440 11913 10535 19127 999999 999999 999999 999999 999999 999999 999999 999999 999999 999999 999999 999999 999999 999999 999999 999999 999999 999999 999999 999999 999999 999999 999999 0 999999 999999 999999 999999 999999 999999 999999 999999 999999 999999 999999 999999 999999 999999 999999 999999 999999 999999 999999 999999 999999 999999 999999 999999 999999 999999 999999 999999 999999 999999 999999 999999 999999 999999 999999 999999 7234
999999 18067 16071 12020 19120 16899 10395 16572 15067 12148 11855 16831 16927 18548 18261 11537 16235 19462 11909 11791 14471 17255 12234 14421 11531 14814 14766 19157 15575 19003 17179 15962 18628 18275 15819 19613 18965 17833 16026 11362 13060 13645 18799 10765 13186 15846 11379 13244 14576 19968 11168 16576 11483 18410 19188 10530 15816 16029 17408 18543 10220 999999 999999 999999 999999 999999 999999 999999 999999 999999 999999 999999 999999 999999 999999 999999 999999 999999 999999 999999 999999 999999 999999 999999 999999 0 999999 999999 999999 999999 999999 999999 999999 999999 999999 999999 999999 999999 999999 999999 999999 999999 999999 999999 999999 999999 999999 999999 999999 999999 999999 999999 999999 999999 999999 999999 999999 999999 999999 999999 999999 14531
999999 16996 14193 14919 15271 18407 14693 18167 13296 10670 15967 18653 12898 17403 19539 11729 16194 15157 17408 18999 12401 17260 18175 17017 11614 14781 10407 10137 12222 11688 13206 16280 13963 12698 11486 17215 17483 16831 18523 16418 15111 15920 12144 14163 10462 11063 19497 15773 16997 12208 15389 11533 16247 16487 14188 17673 15739 12420 12034 15011 10980 999999 999999 999999 999999 999999 999999 999999 999999 999999 999999 999999 999999 999999 999999 999999 999999 999999 999999 999999 999999 999999 999999 999999 999999 999999 0 999999 999999 999999 999999 999999 999999 999999 999999 999999 999999 999999 999999 999999 999999 999999 999999 999999 999999 999999 999999 999999 999999 999999 999999 999999 999999 999999 999999 999999 999999 999999 999999 999999 999999 5624
999999 19883 10670 10872 14280 12789 13156 11845 10676 12703 18023 14197 11068 16265 12987 15088 17978 17650 17650 16312 15946 11791 18820 18748 10233 11451 19112 11905 11749 16099 11837 19198 18068 19743 17556 11682 11488 15322 18397 12695 17608 18953 12645 19517 17290 15246 13473 12626 15951 19702 19343 15571 11051 17442 18390 19608 14962 17808 16863 17797 11037 999999 999999 999999 999999 999999 999999 999999 999999 999999 999999 999999 999999 999999 999999 999999 999999 999999 999999 999999 999999 999999 999999 999999 999999 999999 999999 0 999999 999999 999999 999999 999999 999999 999999 999999 999999 999999 999999 999999 999999 999999 999999 999999 999999 999999 999999 999999 999999 999999 999999 999999 999999 999999 999999 999999 999999 999999 999999 999999 999999 7452
999999 11020 17383 14398 17392 18856 10933 11873 12506 10661 18410 15237 14869 14923 19224 14195 10678 14787 17569 14562 18472 18478 13363 12288 16650 18891 18968 15079 14140 19485 11779 19057 10914 19217 11799 18536 16469 13809 18152 18724 17862 18858 10255 13838 11400 13962 19955 13862 19707 10529 16564 18150 19645 12144 10760 13583 15792 10881 14141 13608 14295 999999 999999 999999 999999 999999 999999 999999 999999 999999 999999 999999 999999 999999 999999 999999 999999 999999 999999 999999 999999 999999 999999 999999 999999 999999 999999 999999 0 999999 999999 999999 999999 999999 999999 999999 999999 999999 999999 999999 999999 999999 999999 999999 999999 999999 999999 999999 999999 999999 999999 999999 999999 999999 999999 999999 999999 999999 999999 999999 999999 6478
999999 14107 18362 17877 18703 11180 11237 19007 12042 11719 11796 16844 10382 12296 19563 12410 14701 15697 18134 19672 12728 10211 14643 16479 16711 12635 12353 16265 19336 11823 15092 11115 16374 10995 12559 18152 14271 18104 11880 11148 12422 10522 11131 16478 13163 16702 12476 13945 18971 15034 14590 12093 18366 13590 18461 14790 17717 14323 10075 15285 18523 999999 999999 999999 999999 999999 999999 999999 999999 999999 999999 999999 999999 999999 999999 999999 999999 999999 999999 999999 999999 999999 999999 999999 999999 999999 999999 999999 999999 0 999999 999999 999999 999999 999999 999999 999999 999999 999999 999999 999999 999999 999999 999999 999999 999999 999999 999999 999999 999999 999999 999999 999999 999999 999999 999999 999999 999999 999999 999999 999999 10801
999999 19322 11132 15409 16000 10098 18861 14901 16069 18085 18402 11013 15138 13672 11311 14360 14652 19465 13554 17912 12113 14343 11558 16770 12676 10611 10630 13313 11541 19410 15452 12815 16316 16390 10057 12251 17470 12417 16430 12358 13545 12152 18760 12912 12964 15434 17569 17280 10751 12867 13296 18347 11364 18866 10052 18497 13893 10156 18546 16060 13005 999999 999999 999999 999999 999999 999999 999999 999999 999999 999999 999999 999999 999999 999999 999999 999999 999999 999999 999999 999999 999999 999999 999999 999999 999999 999999 999999 999999 999999 0 999999 999999 999999 999999 999999 999999 999999 999999 999999 999999 999999 999999 999999 999999 999999 999999 999999 999999 999999 999999 999999 999999 999999 999999 999999 999999 999999 999999 999999 999999 6568
999999 17084 17573 14361 16848 11440 16324 14698 13547 16937 16499 18123 18080 12052 16112 14336 10069 14592 15736 12563 18013 17806 10495 12519 11007 15904 19220 11706 16613 16048 19509 12250 12699 18624 12427 13102 11922 10749 10209 17438 15231 14079 13060 15687 10258 12180 18694 14745 18180 10517 12675 18938 16221 19681 10627 12752 18266 19779 17043 10323 14035 999999 999999 999999 999999 999999 999999 999999 999999 999999 999999 999999 999999 999999 999999 999999 999999 999999 999999 999999 999999 999999 999999 999999 999999 999999 999999 999999 999999 999999 999999 0 999999 999999 999999 999999 999999 999999 999999 999999 999999 999999 999999 999999 999999 999999 999999 999999 999999 999999 999999 999999 999999 999999 999999 999999 999999 999999 999999 999999 999999 11556
999999 10723 15729 10139 12548 12573 11917 13928 16789 14414 18463 10051 18629 19003 16235 14397 18786 15540 11516 16858 13209 17556 11978 13733 12195 13989 11167 15715 19444 10748 15919 18846 10557 12826 19591 14060 13741 16810 11838 15386 11411 10005 19073 14942 17090 14453 12246 17912 18950 10638 16157 17704 13424 19264 19334 19302 14599 16030 11638 14729 12396 999999 999999 999999 999999 999999 999999 999999 999999 999999 999999 999999 999999 999999 999999 999999 999999 999999 999999 999999 999999 999999 999999 999999 999999 999999 999999 999999 999999 999999 999999 999999 0 999999 999999 999999 999999 999999 999999 999999 999999 999999 999999 999999 999999 999999 999999 999999 999999 999999 999999 999999 999999 999999 999999 999999 999999 999999 999999 999999 999999 14376
999999 19064 11010 15151 11413 17388 15407 16029 13275 16462 12744 13777 15249 12207 11728 16533 14128 17023 17021 14291 19383 13540 18614 11843 13292 14256 16407 17784 15995 13395 18648 10384 12204 18283 14668 11656 10530 13050 14114 16604 10464 17098 16904 19447 13034 18848 16138 18737 12329 10488 10873 14719 13934 19667 11706 14321 16948 12545 15664 14330 13336 999999 999999 999999 999999 999999 999999 999999 999999 999999 999999 999999 999999 999999 999999 999999 999999 999999 999999 999999 999999 999999 999999 999999 999999 999999 999999 999999 999999 999999 999999 999999 999999 0 999999 999999 999999 999999 999999 999999 999999 999999 999999 999999 999999 999999 999999 999999 999999 999999 999999 999999 999999 999999 999999 999999 999999 999999 999999 999999 999999 11748
999999 16579 12048 13616 10677 12146 19950 19456 19725 15378 18603 11475 17089 17056 19933 15598 13040 12609 16342 11695 15912 10416 17139 18030 11832 14917 17973 16952 11605 13324 16649 19718 16218 11747 17618 13323 18157 11943 12025 17848 19367 11302 17458 12847 19786 18413 10516 18681 18780 18330 18531 12455 12009 16336 13743 17528 17028 10455 14182 15562 17658 999999 999999 999999 999999 999999 999999 999999 999999 999999 999999 999999 999999 999999 999999 999999 999999 999999 999999 999999 999999 999999 999999 999999 999999 999999 999999 999999 999999 999999 999999 999999 999999 999999 0 999999 999999 999999 999999 999999 999999 999999 999999 999999 999999 999999 999999 999999 999999 999999 999999 999999 999999 999999 999999 999999 999999 999999 999999 999999 999999 6084
999999 19965 14296 19068 13644 13609 15764 15960 19677 17704 13183 17873 13413 17289 17135 19861 12841 17476 13882 14186 10199 13180 18384 12966 11093 18006 15978 15575 11789 16744 13158 14927 13086 11350 19606 12575 13809 15053 18098 17922 17508 13090 12927 18372 13016 18367 10484 13821 13646 10297 18776 15330 18087 15920 13740 17767 17215 16328 16586 17901 15463 999999 999999 999999 999999 999999 999999 999999 999999 999999 999999 999999 999999 999999 999999 999999 999999 999999 999999 999999 999999 999999 999999 999999 999999 999999 999999 999999 999999 999999 999999 999999 999999 999999 999999 0 999999 999999 999999 999999 999999 999999 999999 999999 999999 999999 999999 999999 999999 999999 999999 999999 999999 999999 999999 999999 999999 999999 999999 999999 999999 12009
999999 18332 10236 19755 14380 19625 13644 11589 17128 17361 18253 11070 11794 12922 19863 16711 10448 13138 17412 15320 18827 17320 10579 19250 18514 13896 15534 14050 11238 13116 19361 13282 12390 12495 10536 13175 19649 11171 17327 13095 19637 18933 12950 19096 10451 17138 12563 16121 17041 13389 11822 18898 10972 13033 17512 14959 19131 11018 17836 14479 15426 999999 999999 999999 999999 999999 999999 999999 999999 999999 999999 999999 999999 999999 999999 999999 999999 999999 999999 999999 999999 999999 999999 999999 999999 999999 999999 999999 999999 999999 999999 999999 999999 999999 999999 999999 0 999999 999999 999999 999999 999999 999999 999999 999999 999999 999999 999999 999999 999999 999999 999999 999999 999999 999999 999999 999999 999999 999999 999999 999999 8539
999999 13614 11276 12455 14640 13033 11488 13907 10403 12083 19248 10215 19208 15432 10593 13201 11014 12200 16665 10974 15030 11237 13223 18339 18775 18472 15602 10943 12196 15580 12110 17704 12068 10979 16060 19880 15279 14790 12056 12459 19132 10140 18871 10502 17880 17016 13933 18080 16502 13302 18363 15850 15633 19593 19939 15716 16643 16193 18872 18973 10052 999999 999999 999999 999999 999999 999999 999999 999999 999999 999999 999999 999999 999999 999999 999999 999999 999999 999999 999999 999999 999999 999999 999999 999999 999999 999999 999999 999999 999999 999999 999999 999999 999999 999999 999999 999999 0 999999 999999 999999 999999 999999 999999 999999 999999 999999 999999 999999 999999 999999 999999 999999 999999 999999 999999 999999 999999 999999 999999 999999 12802
999999 13516 11797 13397 11306 11186 12984 19003 17262 13824 17736 12880 11937 11036 11317 18277 17263 16264 13013 16784 11830 12250 15601 13810 15761 16146 17878 11191 12886 18234 11391 10452 13185 19866 13719 11646 17984 12912 13513 14650 18415 18466 11867 18557 19913 14741 11657 18036 19261 17506 16735 15565 15417 12211 12940 13647 17851 19090 15139 14460 18935 999999 999999 999999 999999 999999 999999 999999 999999 999999 999999 999999 999999 999999 999999 999999 999999 999999 999999 999999 999999 999999 999999 999999 999999 999999 999999 999999 999999 999999 999999 999999 999999 999999 999999 999999 999999 999999 0 999999 999999 999999 999999 999999 999999 999999 999999 999999 999999 999999 999999 999999 999999 999999 999999 999999 999999 999999 999999 999999 999999 10705
999999 19051 19999 10870 15068 16838 11475 14937 11470 10213 19132 14557 11643 11839 14596 14755 11402 13980 11871 18735 11781 11877 17973 18877 19617 19469 10253 19011 14060 15297 14219 19164 13544 14387 17533 11261 12257 17210 10333 18403 16712 18244 10008 14842 13806 15636 17398 16420 10116 19966 20000 18792 13951 10674 19102 17712 19246 15377 13826 10903 17657 999999 999999 999999 999999 999999 999999 999999 999999 999999 999999 999999 999999 999999 999999 999999 999999 999999 999999 999999 999999 999999 999999 999999 999999 999999 999999 999999 999999 999999 999999 999999 999999 999999 999999 999999 999999 999999 999999 0 999999 999999 999999 999999 999999 999999 999999 999999 999999 999999 999999 999999 999999 999999 999999 999999 999999 999999 999999 999999 999999 12291
999999 19380 10379 16341 14916 18917 14576 14716 10944 14727 12140 11002 10950 16228 11149 18787 19872 10293 16307 15712 18123 14493 11279 10426 12922 14987 13788 18693 16351 18432 19058 17413 12864 16867 18520 10590 19132 19096 16896 19843 10769 10161 17189 10170 18972 14867 11167 15029 11566 19902 10570 19070 14910 16379 11451 12164 18034 12729 11995 14029 17624 999999 999999 999999 999999 999999 999999 999999 999999 999999 999999 999999 999999 999999 999999 999999 999999 999999 999999 999999 999999 999999 999999 999999 999999 999999 999999 999999 999999 999999 999999 999999 999999 999999 999999 999999 999999 999999 999999 999999 0 999999 999999 999999 999999 999999 999999 999999 999999 999999 999999 999999 999999 999999 999999 999999 999999 999999 999999 999999 999999 8423
999999 10961 16644 14666 19408 13591 16731 15588 17631 17809 13753 17922 12280 12143 16733 13268 14141 19578 11583 14663 10165 16546 11921 10374 15379 10137 15935 16978 12594 18805 15010 14187 10704 11147 17711 15150 10344 11432 11350 19683 17397 16799 15365 17705 11829 12036 15923 16728 16184 18012 19427 17119 16113 17584 15163 17943 18040 19229 19082 11077 13911 999999 999999 999999 999999 999999 999999 999999 999999 999999 999999 999999 999999 999999 999999 999999 999999 999999 999999 999999 999999 999999 999999 999999 999999 999999 999999 999999 999999 999999 999999 999999 999999 999999 999999 999999 999999 999999 999999 999999 999999 0 999999 999999 999999 999999 999999 999999 999999 999999 999999 999999 999999 999999 999999 999999 999999 999999 999999 999999 999999 6255
999999 11271 12251 18410 18863 18019 13908 17747 17722 12287 14038 15069 14651 15761 19571 13350 18305 10296 17479 19267 11064 17131 19609 13336 11265 16642 13336 12393 14349 16448 12135 19813 11176 17054 18474 10476 15780 19614 16009 15163 16615 13860 15433 19253 12172 15344 17995 16296 14016 15165 19872 19849 11668 11732 12970 19569 18871 11098 16477 12028 13029 999999 999999 999999 999999 999999 999999 999999 999999 999999 999999 999999 999999 999999 999999 999999 999999 999999 999999 999999 999999 999999 999999 999999 999999 999999 999999 999999 999999 999999 999999 999999 999999 999999 999999 999999 999999 999999 999999 999999 999999 999999 0 999999 999999 999999 999999 999999 999999 999999 999999 999999 999999 999999 999999 999999 999999 999999 999999 999999 999999 7768
999999 14437 13982 18730 11627 13821 14533 10757 15179 10118 14392 10076 18717 19804 14187 13770 17349 16394 16998 13139 17785 15132 19423 10549 17430 16148 12247 10316 13831 10183 17175 13770 10829 11428 16367 15203 19746 11691 19583 12269 10704 10886 16034 10171 16964 18319 15986 10877 17208 19546 10497 12968 19062 18778 19688 13490 17672 10865 10913 19496 16846 999999 999999 999999 999999 999999 999999 999999 999999 999999 999999 999999 999999 999999 999999 999999 999999 999999 999999 999999 999999 999999 999999 999999 999999 999999 999999 999999 999999 999999 999999 999999 999999 999999 999999 999999 999999 999999 999999 999999 999999 999999 999999 0 999999 999999 999999 999999 999999 999999 999999 999999 999999 999999 999999 999999 999999 999999 999999 999999 999999 10025
999999 10383 12615 10543 15671 11581 13421 15654 19897 11656 14761 10877 19669 10800 12143 12507 17464 14649 15837 13249 11877 18626 16523 16070 15301 13168 14065 10875 11318 13223 18711 17881 10882 18254 14146 10957 12513 16016 19042 14731 12443 16867 19669 16506 17849 12413 18473 15145 12496 15488 19467 15565 18975 19478 15408 18933 13295 15144 14463 12919 19542 999999 999999 999999 999999 999999 999999 999999 999999 999999 999999 999999 999999 999999 999999 999999 999999 999999 999999 999999 999999 999999 999999 999999 999999 999999 999999 999999 999999 999999 999999 999999 999999 999999 999999 999999 999999 999999 999999 999999 999999 999999 999999 999999 0 999999 999999 999999 999999 999999 999999 999999 999999 999999 999999 999999 999999 999999 999999 999999 999999 5415
999999 19715 16290 12916 17404 12171 14811 11150 15861 14219 11715 12479 16258 19305 19399 13554 13199 19157 15725 16755 17291 14871 19782 14113 17002 19860 13568 15271 13087 18103 14954 18035 17623 12704 19291 15652 14942 15400 13729 14155 13751 12194 16746 11583 12291 17022 17580 16626 15525 14781 12587 10608 15811 14726 14813 15293 14386 10333 13461 18540 15881 999999 999999 999999 999999 999999 999999 999999 999999 999999 999999 999999 999999 999999 999999 999999 999999 999999 999999 999999 999999 999999 999999 999999 999999 999999 999999 999999 999999 999999 999999 999999 999999 999999 999999 999999 999999 999999 999999 999999 999999 999999 999999 999999 999999 0 999999 999999 999999 999999 999999 999999 999999 999999 999999 999999 999999 999999 999999 999999 999999 8022
999999 14982 14955 14594 11164 18289 17069 10675 12395 14299 16253 19762 14319 18338 19879 18145 11758 12599 15093 14038 13468 10084 15289 12380 11913 13013 16550 16424 13321 16437 15622 19919 15454 10299 18140 19769 18894 17591 14794 14566 12083 11688 12965 17836 15157 15968 17001 16592 11779 18205 18729 14341 12686 19835 17512 11666 19746 10841 13293 19946 17688 999999 999999 999999 999999 999999 999999 999999 999999 999999 999999 999999 999999 999999 999999 999999 999999 999999 999999 999999 999999 999999 999999 999999 999999 999999 999999 999999 999999 999999 999999 999999 999999 999999 999999 999999 999999 999999 999999 999999 999999 999999 999999 999999 999999 999999 0 999999 999999 999999 999999 999999 999999 999999 999999 999999 999999 999999 999999 999999 999999 11202
999999 11042 13246 14980 15256 12850 18240 11478 11120 12990 14005 11051 17296 17053 18022 18394 11783 19981 15938 10538 12636 17117 18073 15190 14881 18340 17496 18247 13735 16237 11102 14716 11195 18038 10774 17004 16815 17098 12410 19838 12337 18049 15407 19860 19650 12451 11703 10892 17670 15292 12014 16611 14735 14908 11088 11578 13476 12301 19247 13687 13405 999999 999999 999999 999999 999999 999999 999999 999999 999999 999999 999999 999999 999999 999999 999999 999999 999999 999999 999999 999999 999999 999999 999999 999999 999999 999999 999999 999999 999999 999999 999999 999999 999999 999999 999999 999999 999999 999999 999999 999999 999999 999999 999999 999999 999999 999999 0 999999 999999 999999 999999 999999 999999 999999 999999 999999 999999 999999 999999 999999 8913
999999 14654 14778 10785 15460 17215 18541 18753 14476 14211 13664 13967 14012 10848 10934 11300 12508 15534 12123 10696 12766 12786 19355 15495 16345 17369 11766 11566 12361 17051 10559 10560 18653 17147 10173 15918 11718 10318 13609 15808 15203 12109 13084 15972 10043 15180 16614 10566 15106 15607 15180 15463 19918 17112 19678 11262 11665 10621 12427 19298 17221 999999 999999 999999 999999 999999 999999 999999 999999 999999 999999 999999 999999 999999 999999 999999 999999 999999 999999 999999 999999 999999 999999 999999 999999 999999 999999 999999 999999 999999 999999 999999 999999 999999 999999 999999 999999 999999 999999 999999 999999 999999 999999 999999 999999 999999 999999 999999 0 999999 999999 999999 999999 999999 999999 999999 999999 999999 999999 999999 999999 7366
999999 10597 14012 17416 16077 15398 15458 17629 18397 17250 17950 13524 15308 15747 19465 19579 14790 11637 15664 18848 10487 15957 13155 14508 10242 15586 12461 13571 16170 14488 19219 17443 12317 12225 13844 10709 12605 19204 15186 17516 15252 13183 17099 15949 13408 17292 12489 19163 16882 16309 17128 15772 14286 14417 11806 18314 15807 12489 16713 16731 10339 999999 999999 999999 999999 999999 999999 999999 999999 999999 999999 999999 999999 999999 999999 999999 999999 999999 999999 999999 999999 999999 999999 999999 999999 999999 999999 999999 999999 999999 999999 999999 999999 999999 999999 999999 999999 999999 999999 999999 999999 999999 999999 999999 999999 999999 999999 999999 999999 0 999999 999999 999999 999999 999999 999999 999999 999999 999999 999999 999999 6550
999999 19752 11905 14005 17206 15869 10861 14481 17293 13421 16078 10410 14830 12589 10162 13230 10024 18682 17449 15754 12899 18607 18847 18634 13903 12237 10533 14201 10318 19267 12204 19226 10196 12803 16488 16716 10672 16215 16559 17764 19302 16017 14853 11494 19168 12638 12383 17149 13971 13409 14407 18402 16115 19914 12576 19044 11079 18167 12590 19122 15721 999999 999999 999999 999999 999999 999999 999999 999999 999999 999999 999999 999999 999999 999999 999999 999999 999999 999999 999999 999999 999999 999999 999999 999999 999999 999999 999999 999999 999999 999999 999999 999999 999999 999999 999999 999999 999999 999999 999999 999999 999999 999999 999999 999999 999999 999999 999999 999999 999999 0 999999 999999 999999 999999 999999 999999 999999 999999 999999 999999 12921
999999 18074 10473 10949 15859 10045 11564 10898 15718 17209 10797 17290 16692 18321 14833 10035 10546 12682 16022 12295 18490 17511 16527 16571 17485 17979 15476 11780 10428 12287 16732 15690 12171 11017 19915 19407 13977 18765 15236 19792 14606 16244 11858 14442 16845 11065 12247 13269 15330 13478 13812 13972 12924 14668 15656 18700 14506 14157 15000 17907 15614 999999 999999 999999 999999 999999 999999 999999 999999 999999 999999 999999 999999 999999 999999 999999 999999 999999 999999 999999 999999 999999 999999 999999 999999 999999 999999 999999 999999 999999 999999 999999 999999 999999 999999 999999 999999 999999 999999 999999 999999 999999 999999 999999 999999 999999 999999 999999 999999 999999 999999 0 999999 999999 999999 999999 999999 999999 999999 999999 999999 7396
999999 19478 19667 13204 16577 18806 14676 18746 18846 15706 11522 13347 18070 12320 16451 19651 16546 18137 15584 11263 10153 11456 18036 12259 18928 14056 19511 15507 12159 19994 14637 13551 15883 14481 13094 15467 10318 16608 17639 16480 19397 11293 15595 16339 19660 12024 18281 17180 17529 17513 15903 16416 12774 10893 14837 16717 15986 13704 13525 10708 12243 999999 999999 999999 999999 999999 999999 999999 999999 999999 999999 999999 999999 999999 999999 999999 999999 999999 999999 999999 999999 999999 999999 999999 999999 999999 999999 999999 999999 999999 999999 999999 999999 999999 999999 999999 999999 999999 999999 999999 999999 999999 999999 999999 999999 999999 999999 999999 999999 999999 999999 999999 0 999999 999999 999999 999999 999999 999999 999999 999999 12180
999999 13139 11906 17060 10292 12582 12776 17296 18424 10279 11142 16025 18483 19350 19406 19462 18901 16645 11250 16753 15937 13300 10873 17167 14083 13384 15199 19790 10135 18839 11360 16069 10402 13273 18159 19884 15884 18648 13647 13041 13911 19813 19725 19204 18205 19956 14004 10128 18921 16081 17709 16224 14314 19005 19463 10952 18130 12012 16364 10239 13444 999999 999999 999999 999999 999999 999999 999999 999999 999999 999999 999999 999999 999999 999999 999999 999999 999999 999999 999999 999999 999999 999999 999999 999999 999999 999999 999999 999999 999999 999999 999999 999999 999999 999999 999999 999999 999999 999999 999999 999999 999999 999999 999999 999999 999999 999999 999999 999999 999999 999999 999999 999999 0 999999 999999 999999 999999 999999 999999 999999 5175
999999 13572 10961 14068 12865 15539 10790 11908 16516 15097 12194 19821 10021 12636 13684 10115 18638 10580 15438 19992 18059 14862 10391 15857 11596 13868 15069 18053 19638 19120 14022 16134 16726 10229 17781 13698 19644 12257 19038 10007 12805 16986 17246 17114 16706 19339 12077 11953 11400 16482 19460 17496 14777 11739 18265 17565 18115 12779 12192 10675 13587 999999 999999 999999 999999 999999 999999 999999 999999 999999 999999 999999 999999 999999 999999 999999 999999 999999 999999 999999 999999 999999 999999 999999 999999 999999 999999 999999 999999 999999 999999 999999 999999 999999 999999 999999 999999 999999 999999 999999 999999 999999 999999 999999 999999 999999 999999 999999 999999 999999 999999 999999 999999 999999 0 999999 999999 999999 999999 999999 999999 7460
999999 19004 17412 10119 17506 11114 15396 18588 10082 16364 12479 13255 12688 17498 12960 11540 16529 17560 15974 19152 19370 12380 15263 17835 13093 13585 11491 13510 16195 17789 15205 14933 14018 15697 17231 17149 19689 12629 16616 12905 12493 16583 19432 15214 12621 17420 18767 14507 15881 16832 10688 19223 18561 15024 16381 17651 14295 13652 17267 17758 13311 999999 999999 999999 999999 999999 999999 999999 999999 999999 999999 999999 999999 999999 999999 999999 999999 999999 999999 999999 999999 999999 999999 999999 999999 999999 999999 999999 999999 999999 999999 999999 999999 999999 999999 999999 999999 999999 999999 999999 999999 999999 999999 999999 999999 999999 999999 999999 999999 999999 999999 999999 999999 999999 999999 0 999999 999999 999999 999999 999999 14270
999999 11526 17995 19633 16877 17896 17981 11988 15080 10942 15698 17452 17287 17050 11337 13480 19424 10680 14882 12295 16523 11466 19133 17812 11069 15817 10562 16204 17341 13091 16580 16177 11639 10557 17094 10156 19655 17941 10619 12350 14415 18114 12445 13810 18678 12825 18774 14117 17055 14525 12007 14000 10938 11307 14263 18878 10292 18086 19178 12312 15166 999999 999999 999999 999999 999999 999999 999999 999999 999999 999999 999999 999999 999999 999999 999999 999999 999999 999999 999999 999999 999999 999999 999999 999999 999999 999999 999999 999999 999999 999999 999999 999999 999999 999999 999999 999999 999999 999999 999999 999999 999999 999999 999999 999999 999999 999999 999999 999999 999999 999999 999999 999999 999999 999999 999999 0 999999 999999 999999 999999 5063
999999 14120 18018 19769 12367 16536 14588 12845 13312 12055 19852 16860 19197 15434 11138 13155 18534 19119 14474 19638 17977 14830 18530 12721 11189 12798 15394 10260 16703 18271 16709 16003 16935 18660 11343 11240 13566 16037 13046 15798 17654 10211 17798 14661 12296 13389 11312 19961 11463 19492 16844 13348 11096 15900 15809 13535 18738 13495 10592 11563 10267 999999 999999 999999 999999 999999 999999 999999 999999 999999 999999 999999 999999 999999 999999 999999 999999 999999 999999 999999 999999 999999 999999 999999 999999 999999 999999 999999 999999 999999 999999 999999 999999 999999 999999 999999 999999 999999 999999 999999 999999 999999 999999 999999 999999 999999 999999 999999 999999 999999 999999 999999 999999 999999 999999 999999 999999 0 999999 999999 999999 9333
999999 19273 16091 15241 18780 15652 18393 16444 17440 17589 19975 15100 18103 18563 18985 14288 11476 16654 19107 13096 19578 13384 12524 16929 14595 17555 17916 15587 16514 13927 16580 13986 16873 18063 12516 18021 10237 10609 10273 16240 11164 10281 18442 12514 10304 10502 12679 16528 10741 15776 13892 10580 10850 17392 11329 11176 12235 10289 16659 17542 15898 999999 999999 999999 999999 999999 999999 999999 999999 999999 999999 999999 999999 999999 999999 999999 999999 999999 999999 999999 999999 999999 999999 999999 999999 999999 999999 999999 999999 999999 999999 999999 999999 999999 999999 999999 999999 999999 999999 999999 999999 999999 999999 999999 999999 999999 999999 999999 999999 999999 999999 999999 999999 999999 999999 999999 999999 999999 0 999999 999999 7169
999999 13980 18614 18046 19330 16088 14093 17066 16260 14867 19631 11906 10978 10623 12955 11457 14417 15362 10016 11397 18566 13584 17624 12816 18021 18684 16223 14306 19225 14938 18790 15703 14754 10417 10973 11921 10639 11989 11663 19662 14739 14117 14785 17520 12724 10050 11511 12246 12431 11744 14098 19948 19772 19468 13278 17538 15638 10251 12730 18014 14070 999999 999999 999999 999999 999999 999999 999999 999999 999999 999999 999999 999999 999999 999999 999999 999999 999999 999999 999999 999999 999999 999999 999999 999999 999999 999999 999999 999999 999999 999999 999999 999999 999999 999999 999999 999999 999999 999999 999999 999999 999999 999999 999999 999999 999999 999999 999999 999999 999999 999999 999999 999999 999999 999999 999999 999999 999999 999999 0 999999 7763
999999 10723 17772 10595 15056 16297 16615 12274 18104 11488 12548 19900 19270 10851 12804 15382 19739 16375 10983 10809 16050 15845 12314 19277 14391 19823 11009 16262 18618 16013 18306 13731 15389 12043 17452 19246 10263 13163 18185 11363 13900 19592 12047 11767 10006 11488 18542 10017 18047 14753 10764 17731 16277 16534 15329 10561 17119 16083 14326 14533 12531 999999 999999 999999 999999 999999 999999 999999 999999 999999 999999 999999 999999 999999 999999 999999 999999 999999 999999 999999 999999 999999 999999 999999 999999 999999 999999 999999 999999 999999 999999 999999 999999 999999 999999 999999 999999 999999 999999 999999 999999 999999 999999 999999 999999 999999 999999 999999 999999 999999 999999 999999 999999 999999 999999 999999 999999 999999 999999 999999 0 6165
1 999999 999999 999999 999999 999999 999999 999999 999999 999999 999999 999999 999999 999999 999999 999999 999999 999999 999999 999999 999999 999999 999999 999999 999999 999999 999999 999999 999999 999999 999999 999999 999999 999999 999999 999999 999999 999999 999999 999999 999999 999999 999999 999999 999999 999999 999999 999999 999999 999999 999999 999999 999999 999999 999999 999999 999999 999999 999999 999999 999999 999999 999999 999999 999999 999999 999999 999999 999999 999999 999999 999999 999999 999999 999999 999999 999999 999999 999999 999999 999999 999999 999999 999999 999999 999999 999999 999999 999999 999999 999999 999999 999999 999999 999999 999999 999999 999999 999999 999999 999999 999999 999999 999999 999999 999999 999999 999999 999999 999999 999999 999999 999999 999999 999999 999999 999999 999999 999999 999999 999999 0
EOF