NAME: GR_1x5x14_KH_5x14_Run_10
TYPE: TSP
COMMENT: BTSP instance |A|=70 GR nodes |B|=70 KH nodes depot=0.0 end=0.0.0
DIMENSION: 142
EDGE_WEIGHT_TYPE: EXPLICIT
EDGE_WEIGHT_FORMAT: FULL_MATRIX
NODE_COORD_TYPE: NO_COORDS
EDGE_WEIGHT_SECTION
0 5193 8359 10259 9957 11724 8962 12253 12733 11857 11431 6052 5571 8088 6146 13119 13787 8379 13415 6991 14792 13537 9330 14755 6153 11416 11990 8122 13647 10269 5999 12750 11714 12019 13942 12101 5838 12956 7070 12736 12765 13717 12432 11298 12969 10598 7820 5546 12042 9290 14972 13944 12831 12136 14552 13696 6437 13270 5252 7274 7248 7598 7338 12654 5322 7120 11833 5210 10633 6087 10452 999999 999999 999999 999999 999999 999999 999999 999999 999999 999999 999999 999999 999999 999999 999999 999999 999999 999999 999999 999999 999999 999999 999999 999999 999999 999999 999999 999999 999999 999999 999999 999999 999999 999999 999999 999999 999999 999999 999999 999999 999999 999999 999999 999999 999999 999999 999999 999999 999999 999999 999999 999999 999999 999999 999999 999999 999999 999999 999999 999999 999999 999999 999999 999999 999999 999999 999999 999999 999999 999999 999999
999999 0 999999 999999 999999 999999 999999 999999 999999 999999 999999 999999 999999 999999 999999 999999 999999 999999 999999 999999 999999 999999 999999 999999 999999 999999 999999 999999 999999 999999 999999 999999 999999 999999 999999 999999 999999 999999 999999 999999 999999 999999 999999 999999 999999 999999 999999 999999 999999 999999 999999 999999 999999 999999 999999 999999 999999 999999 999999 999999 999999 999999 999999 999999 999999 999999 999999 999999 999999 999999 999999 17916 999999 999999 999999 999999 999999 999999 17999 999999 999999 999999 999999 999999 999999 999999 999999 999999 15925 16585 19737 999999 999999 999999 12175 14426 999999 999999 12128 999999 999999 999999 999999 19426 999999 11139 999999 999999 11288 999999 999999 999999 999999 999999 999999 999999 999999 999999 999999 999999 999999 999999 999999 17907 999999 999999 18128 999999 999999 999999 999999 999999 17178 999999 999999 999999 999999 999999 999999 999999 999999 999999
999999 999999 0 999999 999999 999999 999999 999999 999999 999999 999999 999999 999999 999999 999999 999999 999999 999999 999999 999999 999999 999999 999999 999999 999999 999999 999999 999999 999999 999999 999999 999999 999999 999999 999999 999999 999999 999999 999999 999999 999999 999999 999999 999999 999999 999999 999999 999999 999999 999999 999999 999999 999999 999999 999999 999999 999999 999999 999999 999999 999999 999999 999999 999999 999999 999999 999999 999999 999999 999999 999999 12039 999999 999999 999999 999999 999999 999999 19787 999999 999999 999999 999999 999999 999999 999999 999999 999999 16780 14628 17170 999999 999999 999999 16430 14978 999999 999999 10602 999999 999999 999999 999999 13408 999999 12112 999999 999999 17604 999999 999999 999999 999999 999999 999999 999999 999999 999999 999999 999999 999999 999999 999999 10967 999999 999999 19596 999999 999999 999999 999999 999999 10468 999999 999999 999999 999999 999999 999999 999999 999999 999999
999999 999999 999999 0 999999 999999 999999 999999 999999 999999 999999 999999 999999 999999 999999 999999 999999 999999 999999 999999 999999 999999 999999 999999 999999 999999 999999 999999 999999 999999 999999 999999 999999 999999 999999 999999 999999 999999 999999 999999 999999 999999 999999 999999 999999 999999 999999 999999 999999 999999 999999 999999 999999 999999 999999 999999 999999 999999 999999 999999 999999 999999 999999 999999 999999 999999 999999 999999 999999 999999 999999 11581 999999 999999 999999 999999 999999 999999 18938 999999 999999 999999 999999 999999 999999 999999 999999 999999 19283 14927 14873 999999 999999 999999 15191 14370 999999 999999 10478 999999 999999 999999 999999 10182 999999 10265 999999 999999 15235 999999 999999 999999 999999 999999 999999 999999 999999 999999 999999 999999 999999 999999 999999 17038 999999 999999 15301 999999 999999 999999 999999 999999 19036 999999 999999 999999 999999 999999 999999 999999 999999 999999
999999 999999 999999 999999 0 999999 999999 999999 999999 999999 999999 999999 999999 999999 999999 999999 999999 999999 999999 999999 999999 999999 999999 999999 999999 999999 999999 999999 999999 999999 999999 999999 999999 999999 999999 999999 999999 999999 999999 999999 999999 999999 999999 999999 999999 999999 999999 999999 999999 999999 999999 999999 999999 999999 999999 999999 999999 999999 999999 999999 999999 999999 999999 999999 999999 999999 999999 999999 999999 999999 999999 17171 999999 999999 999999 999999 999999 999999 13726 999999 999999 999999 999999 999999 999999 999999 999999 999999 13470 10488 18754 999999 999999 999999 11660 13427 999999 999999 12402 999999 999999 999999 999999 13855 999999 18759 999999 999999 18437 999999 999999 999999 999999 999999 999999 999999 999999 999999 999999 999999 999999 999999 999999 11057 999999 999999 12069 999999 999999 999999 999999 999999 16487 999999 999999 999999 999999 999999 999999 999999 999999 999999
999999 999999 999999 999999 999999 0 999999 999999 999999 999999 999999 999999 999999 999999 999999 999999 999999 999999 999999 999999 999999 999999 999999 999999 999999 999999 999999 999999 999999 999999 999999 999999 999999 999999 999999 999999 999999 999999 999999 999999 999999 999999 999999 999999 999999 999999 999999 999999 999999 999999 999999 999999 999999 999999 999999 999999 999999 999999 999999 999999 999999 999999 999999 999999 999999 999999 999999 999999 999999 999999 999999 15690 999999 999999 999999 999999 999999 999999 11737 999999 999999 999999 999999 999999 999999 999999 999999 999999 19905 15839 10781 999999 999999 999999 12686 10545 999999 999999 15342 999999 999999 999999 999999 16496 999999 10697 999999 999999 17842 999999 999999 999999 999999 999999 999999 999999 999999 999999 999999 999999 999999 999999 999999 18355 999999 999999 16585 999999 999999 999999 999999 999999 11210 999999 999999 999999 999999 999999 999999 999999 999999 999999
999999 999999 999999 999999 999999 999999 0 999999 999999 999999 999999 999999 999999 999999 999999 999999 999999 999999 999999 999999 999999 999999 999999 999999 999999 999999 999999 999999 999999 999999 999999 999999 999999 999999 999999 999999 999999 999999 999999 999999 999999 999999 999999 999999 999999 999999 999999 999999 999999 999999 999999 999999 999999 999999 999999 999999 999999 999999 999999 999999 999999 999999 999999 999999 999999 999999 999999 999999 999999 999999 999999 18646 999999 999999 999999 999999 999999 999999 10862 999999 999999 999999 999999 999999 999999 999999 999999 999999 10044 11011 17136 999999 999999 999999 11248 17935 999999 999999 16580 999999 999999 999999 999999 15716 999999 17499 999999 999999 14614 999999 999999 999999 999999 999999 999999 999999 999999 999999 999999 999999 999999 999999 999999 10546 999999 999999 10803 999999 999999 999999 999999 999999 13905 999999 999999 999999 999999 999999 999999 999999 999999 999999
999999 999999 999999 999999 999999 999999 999999 0 999999 999999 999999 999999 999999 999999 999999 999999 999999 999999 999999 999999 999999 999999 999999 999999 999999 999999 999999 999999 999999 999999 999999 999999 999999 999999 999999 999999 999999 999999 999999 999999 999999 999999 999999 999999 999999 999999 999999 999999 999999 999999 999999 999999 999999 999999 999999 999999 999999 999999 999999 999999 999999 999999 999999 999999 999999 999999 999999 999999 999999 999999 999999 15263 999999 999999 999999 999999 999999 999999 18246 999999 999999 999999 999999 999999 999999 999999 999999 999999 18115 11786 19620 999999 999999 999999 13900 10875 999999 999999 10991 999999 999999 999999 999999 13378 999999 18643 999999 999999 17839 999999 999999 999999 999999 999999 999999 999999 999999 999999 999999 999999 999999 999999 999999 17684 999999 999999 14823 999999 999999 999999 999999 999999 18868 999999 999999 999999 999999 999999 999999 999999 999999 999999
999999 999999 999999 999999 999999 999999 999999 999999 0 999999 999999 999999 999999 999999 999999 999999 999999 999999 999999 999999 999999 999999 999999 999999 999999 999999 999999 999999 999999 999999 999999 999999 999999 999999 999999 999999 999999 999999 999999 999999 999999 999999 999999 999999 999999 999999 999999 999999 999999 999999 999999 999999 999999 999999 999999 999999 999999 999999 999999 999999 999999 999999 999999 999999 999999 999999 999999 999999 999999 999999 999999 14024 999999 999999 999999 999999 999999 999999 19350 999999 999999 999999 999999 999999 999999 999999 999999 999999 19402 11804 12339 999999 999999 999999 15408 12499 999999 999999 14501 999999 999999 999999 999999 12495 999999 17719 999999 999999 17239 999999 999999 999999 999999 999999 999999 999999 999999 999999 999999 999999 999999 999999 999999 11948 999999 999999 14162 999999 999999 999999 999999 999999 18358 999999 999999 999999 999999 999999 999999 999999 999999 999999
999999 999999 999999 999999 999999 999999 999999 999999 999999 0 999999 999999 999999 999999 999999 999999 999999 999999 999999 999999 999999 999999 999999 999999 999999 999999 999999 999999 999999 999999 999999 999999 999999 999999 999999 999999 999999 999999 999999 999999 999999 999999 999999 999999 999999 999999 999999 999999 999999 999999 999999 999999 999999 999999 999999 999999 999999 999999 999999 999999 999999 999999 999999 999999 999999 999999 999999 999999 999999 999999 999999 16793 999999 999999 999999 999999 999999 999999 19004 999999 999999 999999 999999 999999 999999 999999 999999 999999 15409 12361 17827 999999 999999 999999 14301 15233 999999 999999 11085 999999 999999 999999 999999 12299 999999 17861 999999 999999 16974 999999 999999 999999 999999 999999 999999 999999 999999 999999 999999 999999 999999 999999 999999 11044 999999 999999 15639 999999 999999 999999 999999 999999 11888 999999 999999 999999 999999 999999 999999 999999 999999 999999
999999 999999 999999 999999 999999 999999 999999 999999 999999 999999 0 999999 999999 999999 999999 999999 999999 999999 999999 999999 999999 999999 999999 999999 999999 999999 999999 999999 999999 999999 999999 999999 999999 999999 999999 999999 999999 999999 999999 999999 999999 999999 999999 999999 999999 999999 999999 999999 999999 999999 999999 999999 999999 999999 999999 999999 999999 999999 999999 999999 999999 999999 999999 999999 999999 999999 999999 999999 999999 999999 999999 15920 999999 999999 999999 999999 999999 999999 17489 999999 999999 999999 999999 999999 999999 999999 999999 999999 14856 18001 13162 999999 999999 999999 11321 18599 999999 999999 19359 999999 999999 999999 999999 15654 999999 13386 999999 999999 11639 999999 999999 999999 999999 999999 999999 999999 999999 999999 999999 999999 999999 999999 999999 13751 999999 999999 18357 999999 999999 999999 999999 999999 12179 999999 999999 999999 999999 999999 999999 999999 999999 999999
999999 999999 999999 999999 999999 999999 999999 999999 999999 999999 999999 0 999999 999999 999999 999999 999999 999999 999999 999999 999999 999999 999999 999999 999999 999999 999999 999999 999999 999999 999999 999999 999999 999999 999999 999999 999999 999999 999999 999999 999999 999999 999999 999999 999999 999999 999999 999999 999999 999999 999999 999999 999999 999999 999999 999999 999999 999999 999999 999999 999999 999999 999999 999999 999999 999999 999999 999999 999999 999999 999999 10001 999999 999999 999999 999999 999999 999999 13829 999999 999999 999999 999999 999999 999999 999999 999999 999999 16380 19052 15761 999999 999999 999999 19632 11372 999999 999999 19010 999999 999999 999999 999999 10801 999999 18186 999999 999999 12345 999999 999999 999999 999999 999999 999999 999999 999999 999999 999999 999999 999999 999999 999999 19401 999999 999999 15044 999999 999999 999999 999999 999999 18958 999999 999999 999999 999999 999999 999999 999999 999999 999999
999999 999999 999999 999999 999999 999999 999999 999999 999999 999999 999999 999999 0 999999 999999 999999 999999 999999 999999 999999 999999 999999 999999 999999 999999 999999 999999 999999 999999 999999 999999 999999 999999 999999 999999 999999 999999 999999 999999 999999 999999 999999 999999 999999 999999 999999 999999 999999 999999 999999 999999 999999 999999 999999 999999 999999 999999 999999 999999 999999 999999 999999 999999 999999 999999 999999 999999 999999 999999 999999 999999 16232 999999 999999 999999 999999 999999 999999 18340 999999 999999 999999 999999 999999 999999 999999 999999 999999 11167 13025 14046 999999 999999 999999 16947 13234 999999 999999 12123 999999 999999 999999 999999 14768 999999 17990 999999 999999 19385 999999 999999 999999 999999 999999 999999 999999 999999 999999 999999 999999 999999 999999 999999 16488 999999 999999 16875 999999 999999 999999 999999 999999 16536 999999 999999 999999 999999 999999 999999 999999 999999 999999
999999 999999 999999 999999 999999 999999 999999 999999 999999 999999 999999 999999 999999 0 999999 999999 999999 999999 999999 999999 999999 999999 999999 999999 999999 999999 999999 999999 999999 999999 999999 999999 999999 999999 999999 999999 999999 999999 999999 999999 999999 999999 999999 999999 999999 999999 999999 999999 999999 999999 999999 999999 999999 999999 999999 999999 999999 999999 999999 999999 999999 999999 999999 999999 999999 999999 999999 999999 999999 999999 999999 18475 999999 999999 999999 999999 999999 999999 18547 999999 999999 999999 999999 999999 999999 999999 999999 999999 18058 16506 16644 999999 999999 999999 17181 13899 999999 999999 13809 999999 999999 999999 999999 14120 999999 14898 999999 999999 12557 999999 999999 999999 999999 999999 999999 999999 999999 999999 999999 999999 999999 999999 999999 13295 999999 999999 15312 999999 999999 999999 999999 999999 17780 999999 999999 999999 999999 999999 999999 999999 999999 999999
999999 999999 999999 999999 999999 999999 999999 999999 999999 999999 999999 999999 999999 999999 0 999999 999999 999999 999999 999999 999999 999999 999999 999999 999999 999999 999999 999999 999999 999999 999999 999999 999999 999999 999999 999999 999999 999999 999999 999999 999999 999999 999999 999999 999999 999999 999999 999999 999999 999999 999999 999999 999999 999999 999999 999999 999999 999999 999999 999999 999999 999999 999999 999999 999999 999999 999999 999999 999999 999999 999999 15733 999999 999999 999999 999999 999999 999999 11801 999999 999999 999999 999999 999999 999999 999999 999999 999999 13754 12490 13433 999999 999999 999999 16417 12816 999999 999999 10199 999999 999999 999999 999999 18005 999999 16593 999999 999999 11741 999999 999999 999999 999999 999999 999999 999999 999999 999999 999999 999999 999999 999999 999999 12307 999999 999999 10325 999999 999999 999999 999999 999999 16620 999999 999999 999999 999999 999999 999999 999999 999999 999999
999999 999999 999999 999999 999999 999999 999999 999999 999999 999999 999999 999999 999999 999999 999999 0 999999 999999 999999 999999 999999 999999 999999 999999 999999 999999 999999 999999 999999 999999 999999 999999 999999 999999 999999 999999 999999 999999 999999 999999 999999 999999 999999 999999 999999 999999 999999 999999 999999 999999 999999 999999 999999 999999 999999 999999 999999 999999 999999 999999 999999 999999 999999 999999 999999 999999 999999 999999 999999 999999 999999 999999 999999 999999 999999 999999 999999 999999 999999 999999 18484 999999 999999 999999 999999 14175 999999 17000 999999 999999 999999 999999 999999 17043 999999 999999 999999 999999 999999 999999 999999 999999 999999 999999 17134 999999 999999 999999 999999 999999 999999 999999 999999 12674 999999 999999 999999 999999 999999 999999 999999 999999 999999 999999 999999 19214 999999 10269 999999 999999 999999 16977 999999 999999 14931 15875 14196 999999 11683 14884 999999 999999
999999 999999 999999 999999 999999 999999 999999 999999 999999 999999 999999 999999 999999 999999 999999 999999 0 999999 999999 999999 999999 999999 999999 999999 999999 999999 999999 999999 999999 999999 999999 999999 999999 999999 999999 999999 999999 999999 999999 999999 999999 999999 999999 999999 999999 999999 999999 999999 999999 999999 999999 999999 999999 999999 999999 999999 999999 999999 999999 999999 999999 999999 999999 999999 999999 999999 999999 999999 999999 999999 999999 999999 999999 999999 999999 999999 999999 999999 999999 999999 10634 999999 999999 999999 999999 14584 999999 17291 999999 999999 999999 999999 999999 17384 999999 999999 999999 999999 999999 999999 999999 999999 999999 999999 10868 999999 999999 999999 999999 999999 999999 999999 999999 12934 999999 999999 999999 999999 999999 999999 999999 999999 999999 999999 999999 10193 999999 12416 999999 999999 999999 17738 999999 999999 14059 18143 15885 999999 17962 18850 999999 999999
999999 999999 999999 999999 999999 999999 999999 999999 999999 999999 999999 999999 999999 999999 999999 999999 999999 0 999999 999999 999999 999999 999999 999999 999999 999999 999999 999999 999999 999999 999999 999999 999999 999999 999999 999999 999999 999999 999999 999999 999999 999999 999999 999999 999999 999999 999999 999999 999999 999999 999999 999999 999999 999999 999999 999999 999999 999999 999999 999999 999999 999999 999999 999999 999999 999999 999999 999999 999999 999999 999999 999999 999999 999999 999999 999999 999999 999999 999999 999999 10062 999999 999999 999999 999999 14752 999999 15307 999999 999999 999999 999999 999999 11400 999999 999999 999999 999999 999999 999999 999999 999999 999999 999999 10266 999999 999999 999999 999999 999999 999999 999999 999999 15106 999999 999999 999999 999999 999999 999999 999999 999999 999999 999999 999999 12568 999999 16961 999999 999999 999999 19271 999999 999999 15985 14416 11695 999999 13787 19527 999999 999999
999999 999999 999999 999999 999999 999999 999999 999999 999999 999999 999999 999999 999999 999999 999999 999999 999999 999999 0 999999 999999 999999 999999 999999 999999 999999 999999 999999 999999 999999 999999 999999 999999 999999 999999 999999 999999 999999 999999 999999 999999 999999 999999 999999 999999 999999 999999 999999 999999 999999 999999 999999 999999 999999 999999 999999 999999 999999 999999 999999 999999 999999 999999 999999 999999 999999 999999 999999 999999 999999 999999 999999 999999 999999 999999 999999 999999 999999 999999 999999 19429 999999 999999 999999 999999 17792 999999 14917 999999 999999 999999 999999 999999 14428 999999 999999 999999 999999 999999 999999 999999 999999 999999 999999 11078 999999 999999 999999 999999 999999 999999 999999 999999 19207 999999 999999 999999 999999 999999 999999 999999 999999 999999 999999 999999 17671 999999 14655 999999 999999 999999 13605 999999 999999 12619 15866 17133 999999 11970 10742 999999 999999
999999 999999 999999 999999 999999 999999 999999 999999 999999 999999 999999 999999 999999 999999 999999 999999 999999 999999 999999 0 999999 999999 999999 999999 999999 999999 999999 999999 999999 999999 999999 999999 999999 999999 999999 999999 999999 999999 999999 999999 999999 999999 999999 999999 999999 999999 999999 999999 999999 999999 999999 999999 999999 999999 999999 999999 999999 999999 999999 999999 999999 999999 999999 999999 999999 999999 999999 999999 999999 999999 999999 999999 999999 999999 999999 999999 999999 999999 999999 999999 15630 999999 999999 999999 999999 18808 999999 10452 999999 999999 999999 999999 999999 14482 999999 999999 999999 999999 999999 999999 999999 999999 999999 999999 14835 999999 999999 999999 999999 999999 999999 999999 999999 12074 999999 999999 999999 999999 999999 999999 999999 999999 999999 999999 999999 15431 999999 11585 999999 999999 999999 19005 999999 999999 17506 17883 11597 999999 16200 10598 999999 999999
999999 999999 999999 999999 999999 999999 999999 999999 999999 999999 999999 999999 999999 999999 999999 999999 999999 999999 999999 999999 0 999999 999999 999999 999999 999999 999999 999999 999999 999999 999999 999999 999999 999999 999999 999999 999999 999999 999999 999999 999999 999999 999999 999999 999999 999999 999999 999999 999999 999999 999999 999999 999999 999999 999999 999999 999999 999999 999999 999999 999999 999999 999999 999999 999999 999999 999999 999999 999999 999999 999999 999999 999999 999999 999999 999999 999999 999999 999999 999999 16590 999999 999999 999999 999999 14728 999999 18892 999999 999999 999999 999999 999999 12675 999999 999999 999999 999999 999999 999999 999999 999999 999999 999999 18949 999999 999999 999999 999999 999999 999999 999999 999999 16730 999999 999999 999999 999999 999999 999999 999999 999999 999999 999999 999999 11813 999999 18881 999999 999999 999999 13890 999999 999999 19562 12064 14012 999999 14052 13966 999999 999999
999999 999999 999999 999999 999999 999999 999999 999999 999999 999999 999999 999999 999999 999999 999999 999999 999999 999999 999999 999999 999999 0 999999 999999 999999 999999 999999 999999 999999 999999 999999 999999 999999 999999 999999 999999 999999 999999 999999 999999 999999 999999 999999 999999 999999 999999 999999 999999 999999 999999 999999 999999 999999 999999 999999 999999 999999 999999 999999 999999 999999 999999 999999 999999 999999 999999 999999 999999 999999 999999 999999 999999 999999 999999 999999 999999 999999 999999 999999 999999 14849 999999 999999 999999 999999 17348 999999 16504 999999 999999 999999 999999 999999 19339 999999 999999 999999 999999 999999 999999 999999 999999 999999 999999 18766 999999 999999 999999 999999 999999 999999 999999 999999 15362 999999 999999 999999 999999 999999 999999 999999 999999 999999 999999 999999 18544 999999 18914 999999 999999 999999 19290 999999 999999 11912 14023 11621 999999 14805 10079 999999 999999
999999 999999 999999 999999 999999 999999 999999 999999 999999 999999 999999 999999 999999 999999 999999 999999 999999 999999 999999 999999 999999 999999 0 999999 999999 999999 999999 999999 999999 999999 999999 999999 999999 999999 999999 999999 999999 999999 999999 999999 999999 999999 999999 999999 999999 999999 999999 999999 999999 999999 999999 999999 999999 999999 999999 999999 999999 999999 999999 999999 999999 999999 999999 999999 999999 999999 999999 999999 999999 999999 999999 999999 999999 999999 999999 999999 999999 999999 999999 999999 17047 999999 999999 999999 999999 17324 999999 18622 999999 999999 999999 999999 999999 11729 999999 999999 999999 999999 999999 999999 999999 999999 999999 999999 10782 999999 999999 999999 999999 999999 999999 999999 999999 15073 999999 999999 999999 999999 999999 999999 999999 999999 999999 999999 999999 18886 999999 16045 999999 999999 999999 18873 999999 999999 11029 19578 16421 999999 14012 15078 999999 999999
999999 999999 999999 999999 999999 999999 999999 999999 999999 999999 999999 999999 999999 999999 999999 999999 999999 999999 999999 999999 999999 999999 999999 0 999999 999999 999999 999999 999999 999999 999999 999999 999999 999999 999999 999999 999999 999999 999999 999999 999999 999999 999999 999999 999999 999999 999999 999999 999999 999999 999999 999999 999999 999999 999999 999999 999999 999999 999999 999999 999999 999999 999999 999999 999999 999999 999999 999999 999999 999999 999999 999999 999999 999999 999999 999999 999999 999999 999999 999999 10702 999999 999999 999999 999999 11818 999999 10291 999999 999999 999999 999999 999999 19918 999999 999999 999999 999999 999999 999999 999999 999999 999999 999999 11863 999999 999999 999999 999999 999999 999999 999999 999999 16142 999999 999999 999999 999999 999999 999999 999999 999999 999999 999999 999999 13950 999999 13744 999999 999999 999999 18026 999999 999999 16503 10089 15365 999999 10581 11085 999999 999999
999999 999999 999999 999999 999999 999999 999999 999999 999999 999999 999999 999999 999999 999999 999999 999999 999999 999999 999999 999999 999999 999999 999999 999999 0 999999 999999 999999 999999 999999 999999 999999 999999 999999 999999 999999 999999 999999 999999 999999 999999 999999 999999 999999 999999 999999 999999 999999 999999 999999 999999 999999 999999 999999 999999 999999 999999 999999 999999 999999 999999 999999 999999 999999 999999 999999 999999 999999 999999 999999 999999 999999 999999 999999 999999 999999 999999 999999 999999 999999 17191 999999 999999 999999 999999 17783 999999 18873 999999 999999 999999 999999 999999 16222 999999 999999 999999 999999 999999 999999 999999 999999 999999 999999 18159 999999 999999 999999 999999 999999 999999 999999 999999 11546 999999 999999 999999 999999 999999 999999 999999 999999 999999 999999 999999 16639 999999 11615 999999 999999 999999 14860 999999 999999 10148 11988 15943 999999 19564 17920 999999 999999
999999 999999 999999 999999 999999 999999 999999 999999 999999 999999 999999 999999 999999 999999 999999 999999 999999 999999 999999 999999 999999 999999 999999 999999 999999 0 999999 999999 999999 999999 999999 999999 999999 999999 999999 999999 999999 999999 999999 999999 999999 999999 999999 999999 999999 999999 999999 999999 999999 999999 999999 999999 999999 999999 999999 999999 999999 999999 999999 999999 999999 999999 999999 999999 999999 999999 999999 999999 999999 999999 999999 999999 999999 999999 999999 999999 999999 999999 999999 999999 19826 999999 999999 999999 999999 12424 999999 16655 999999 999999 999999 999999 999999 19613 999999 999999 999999 999999 999999 999999 999999 999999 999999 999999 16374 999999 999999 999999 999999 999999 999999 999999 999999 16608 999999 999999 999999 999999 999999 999999 999999 999999 999999 999999 999999 15093 999999 13511 999999 999999 999999 16971 999999 999999 16118 19659 13915 999999 13007 10190 999999 999999
999999 999999 999999 999999 999999 999999 999999 999999 999999 999999 999999 999999 999999 999999 999999 999999 999999 999999 999999 999999 999999 999999 999999 999999 999999 999999 0 999999 999999 999999 999999 999999 999999 999999 999999 999999 999999 999999 999999 999999 999999 999999 999999 999999 999999 999999 999999 999999 999999 999999 999999 999999 999999 999999 999999 999999 999999 999999 999999 999999 999999 999999 999999 999999 999999 999999 999999 999999 999999 999999 999999 999999 999999 999999 999999 999999 999999 999999 999999 999999 11256 999999 999999 999999 999999 16760 999999 16752 999999 999999 999999 999999 999999 15463 999999 999999 999999 999999 999999 999999 999999 999999 999999 999999 15690 999999 999999 999999 999999 999999 999999 999999 999999 14702 999999 999999 999999 999999 999999 999999 999999 999999 999999 999999 999999 17889 999999 10020 999999 999999 999999 17402 999999 999999 19888 15195 13970 999999 15519 16135 999999 999999
999999 999999 999999 999999 999999 999999 999999 999999 999999 999999 999999 999999 999999 999999 999999 999999 999999 999999 999999 999999 999999 999999 999999 999999 999999 999999 999999 0 999999 999999 999999 999999 999999 999999 999999 999999 999999 999999 999999 999999 999999 999999 999999 999999 999999 999999 999999 999999 999999 999999 999999 999999 999999 999999 999999 999999 999999 999999 999999 999999 999999 999999 999999 999999 999999 999999 999999 999999 999999 999999 999999 999999 999999 999999 999999 999999 999999 999999 999999 999999 16552 999999 999999 999999 999999 17208 999999 11559 999999 999999 999999 999999 999999 19060 999999 999999 999999 999999 999999 999999 999999 999999 999999 999999 14142 999999 999999 999999 999999 999999 999999 999999 999999 10980 999999 999999 999999 999999 999999 999999 999999 999999 999999 999999 999999 17431 999999 12697 999999 999999 999999 13107 999999 999999 13644 17535 16112 999999 16400 12745 999999 999999
999999 999999 999999 999999 999999 999999 999999 999999 999999 999999 999999 999999 999999 999999 999999 999999 999999 999999 999999 999999 999999 999999 999999 999999 999999 999999 999999 999999 0 999999 999999 999999 999999 999999 999999 999999 999999 999999 999999 999999 999999 999999 999999 999999 999999 999999 999999 999999 999999 999999 999999 999999 999999 999999 999999 999999 999999 999999 999999 999999 999999 999999 999999 999999 999999 999999 999999 999999 999999 999999 999999 999999 999999 999999 999999 999999 999999 999999 999999 999999 15437 999999 999999 999999 999999 17514 999999 14180 999999 999999 999999 999999 999999 11639 999999 999999 999999 999999 999999 999999 999999 999999 999999 999999 11722 999999 999999 999999 999999 999999 999999 999999 999999 17653 999999 999999 999999 999999 999999 999999 999999 999999 999999 999999 999999 15165 999999 19016 999999 999999 999999 13286 999999 999999 16435 10035 14158 999999 18972 11131 999999 999999
999999 999999 999999 999999 999999 999999 999999 999999 999999 999999 999999 999999 999999 999999 999999 999999 999999 999999 999999 999999 999999 999999 999999 999999 999999 999999 999999 999999 999999 0 999999 999999 999999 999999 999999 999999 999999 999999 999999 999999 999999 999999 999999 999999 999999 999999 999999 999999 999999 999999 999999 999999 999999 999999 999999 999999 999999 999999 999999 999999 999999 999999 999999 999999 999999 999999 999999 999999 999999 999999 999999 999999 11468 999999 999999 15850 15851 11070 999999 999999 999999 999999 13894 999999 16272 999999 999999 999999 999999 999999 999999 999999 999999 999999 999999 999999 12586 17734 999999 999999 999999 999999 999999 999999 999999 999999 999999 18008 999999 999999 999999 12541 999999 999999 999999 13087 999999 16586 999999 15469 999999 999999 999999 999999 999999 999999 999999 999999 999999 999999 999999 999999 999999 999999 999999 999999 999999 999999 999999 999999 10058 999999
999999 999999 999999 999999 999999 999999 999999 999999 999999 999999 999999 999999 999999 999999 999999 999999 999999 999999 999999 999999 999999 999999 999999 999999 999999 999999 999999 999999 999999 999999 0 999999 999999 999999 999999 999999 999999 999999 999999 999999 999999 999999 999999 999999 999999 999999 999999 999999 999999 999999 999999 999999 999999 999999 999999 999999 999999 999999 999999 999999 999999 999999 999999 999999 999999 999999 999999 999999 999999 999999 999999 999999 14878 999999 999999 12644 14059 12413 999999 999999 999999 999999 14139 999999 16589 999999 999999 999999 999999 999999 999999 999999 999999 999999 999999 999999 15573 11703 999999 999999 999999 999999 999999 999999 999999 999999 999999 15854 999999 999999 999999 18592 999999 999999 999999 13613 999999 19935 999999 14542 999999 999999 999999 999999 999999 999999 999999 999999 999999 999999 999999 999999 999999 999999 999999 999999 999999 999999 999999 999999 19479 999999
999999 999999 999999 999999 999999 999999 999999 999999 999999 999999 999999 999999 999999 999999 999999 999999 999999 999999 999999 999999 999999 999999 999999 999999 999999 999999 999999 999999 999999 999999 999999 0 999999 999999 999999 999999 999999 999999 999999 999999 999999 999999 999999 999999 999999 999999 999999 999999 999999 999999 999999 999999 999999 999999 999999 999999 999999 999999 999999 999999 999999 999999 999999 999999 999999 999999 999999 999999 999999 999999 999999 999999 16432 999999 999999 16912 15175 15625 999999 999999 999999 999999 18036 999999 16255 999999 999999 999999 999999 999999 999999 999999 999999 999999 999999 999999 14950 18080 999999 999999 999999 999999 999999 999999 999999 999999 999999 10698 999999 999999 999999 19167 999999 999999 999999 12538 999999 11260 999999 14555 999999 999999 999999 999999 999999 999999 999999 999999 999999 999999 999999 999999 999999 999999 999999 999999 999999 999999 999999 999999 18630 999999
999999 999999 999999 999999 999999 999999 999999 999999 999999 999999 999999 999999 999999 999999 999999 999999 999999 999999 999999 999999 999999 999999 999999 999999 999999 999999 999999 999999 999999 999999 999999 999999 0 999999 999999 999999 999999 999999 999999 999999 999999 999999 999999 999999 999999 999999 999999 999999 999999 999999 999999 999999 999999 999999 999999 999999 999999 999999 999999 999999 999999 999999 999999 999999 999999 999999 999999 999999 999999 999999 999999 999999 14774 999999 999999 11458 19736 14044 999999 999999 999999 999999 19494 999999 16472 999999 999999 999999 999999 999999 999999 999999 999999 999999 999999 999999 17910 10234 999999 999999 999999 999999 999999 999999 999999 999999 999999 13215 999999 999999 999999 18552 999999 999999 999999 16299 999999 18786 999999 16756 999999 999999 999999 999999 999999 999999 999999 999999 999999 999999 999999 999999 999999 999999 999999 999999 999999 999999 999999 999999 11313 999999
999999 999999 999999 999999 999999 999999 999999 999999 999999 999999 999999 999999 999999 999999 999999 999999 999999 999999 999999 999999 999999 999999 999999 999999 999999 999999 999999 999999 999999 999999 999999 999999 999999 0 999999 999999 999999 999999 999999 999999 999999 999999 999999 999999 999999 999999 999999 999999 999999 999999 999999 999999 999999 999999 999999 999999 999999 999999 999999 999999 999999 999999 999999 999999 999999 999999 999999 999999 999999 999999 999999 999999 16795 999999 999999 17946 12689 12978 999999 999999 999999 999999 17294 999999 10058 999999 999999 999999 999999 999999 999999 999999 999999 999999 999999 999999 11111 18136 999999 999999 999999 999999 999999 999999 999999 999999 999999 14874 999999 999999 999999 12309 999999 999999 999999 12076 999999 13321 999999 10285 999999 999999 999999 999999 999999 999999 999999 999999 999999 999999 999999 999999 999999 999999 999999 999999 999999 999999 999999 999999 10224 999999
999999 999999 999999 999999 999999 999999 999999 999999 999999 999999 999999 999999 999999 999999 999999 999999 999999 999999 999999 999999 999999 999999 999999 999999 999999 999999 999999 999999 999999 999999 999999 999999 999999 999999 0 999999 999999 999999 999999 999999 999999 999999 999999 999999 999999 999999 999999 999999 999999 999999 999999 999999 999999 999999 999999 999999 999999 999999 999999 999999 999999 999999 999999 999999 999999 999999 999999 999999 999999 999999 999999 999999 12055 999999 999999 14135 14257 15026 999999 999999 999999 999999 10579 999999 13954 999999 999999 999999 999999 999999 999999 999999 999999 999999 999999 999999 10131 19222 999999 999999 999999 999999 999999 999999 999999 999999 999999 13007 999999 999999 999999 19258 999999 999999 999999 13190 999999 16193 999999 12447 999999 999999 999999 999999 999999 999999 999999 999999 999999 999999 999999 999999 999999 999999 999999 999999 999999 999999 999999 999999 11365 999999
999999 999999 999999 999999 999999 999999 999999 999999 999999 999999 999999 999999 999999 999999 999999 999999 999999 999999 999999 999999 999999 999999 999999 999999 999999 999999 999999 999999 999999 999999 999999 999999 999999 999999 999999 0 999999 999999 999999 999999 999999 999999 999999 999999 999999 999999 999999 999999 999999 999999 999999 999999 999999 999999 999999 999999 999999 999999 999999 999999 999999 999999 999999 999999 999999 999999 999999 999999 999999 999999 999999 999999 19104 999999 999999 17387 19822 10765 999999 999999 999999 999999 12986 999999 14707 999999 999999 999999 999999 999999 999999 999999 999999 999999 999999 999999 17035 18882 999999 999999 999999 999999 999999 999999 999999 999999 999999 19972 999999 999999 999999 18078 999999 999999 999999 15288 999999 10463 999999 17369 999999 999999 999999 999999 999999 999999 999999 999999 999999 999999 999999 999999 999999 999999 999999 999999 999999 999999 999999 999999 10961 999999
999999 999999 999999 999999 999999 999999 999999 999999 999999 999999 999999 999999 999999 999999 999999 999999 999999 999999 999999 999999 999999 999999 999999 999999 999999 999999 999999 999999 999999 999999 999999 999999 999999 999999 999999 999999 0 999999 999999 999999 999999 999999 999999 999999 999999 999999 999999 999999 999999 999999 999999 999999 999999 999999 999999 999999 999999 999999 999999 999999 999999 999999 999999 999999 999999 999999 999999 999999 999999 999999 999999 999999 10578 999999 999999 15086 10101 13634 999999 999999 999999 999999 10053 999999 16369 999999 999999 999999 999999 999999 999999 999999 999999 999999 999999 999999 14943 14484 999999 999999 999999 999999 999999 999999 999999 999999 999999 19901 999999 999999 999999 12162 999999 999999 999999 16499 999999 16357 999999 11219 999999 999999 999999 999999 999999 999999 999999 999999 999999 999999 999999 999999 999999 999999 999999 999999 999999 999999 999999 999999 16780 999999
999999 999999 999999 999999 999999 999999 999999 999999 999999 999999 999999 999999 999999 999999 999999 999999 999999 999999 999999 999999 999999 999999 999999 999999 999999 999999 999999 999999 999999 999999 999999 999999 999999 999999 999999 999999 999999 0 999999 999999 999999 999999 999999 999999 999999 999999 999999 999999 999999 999999 999999 999999 999999 999999 999999 999999 999999 999999 999999 999999 999999 999999 999999 999999 999999 999999 999999 999999 999999 999999 999999 999999 14030 999999 999999 10448 15096 12768 999999 999999 999999 999999 13368 999999 12738 999999 999999 999999 999999 999999 999999 999999 999999 999999 999999 999999 16265 19191 999999 999999 999999 999999 999999 999999 999999 999999 999999 18458 999999 999999 999999 11906 999999 999999 999999 13212 999999 13595 999999 13081 999999 999999 999999 999999 999999 999999 999999 999999 999999 999999 999999 999999 999999 999999 999999 999999 999999 999999 999999 999999 15937 999999
999999 999999 999999 999999 999999 999999 999999 999999 999999 999999 999999 999999 999999 999999 999999 999999 999999 999999 999999 999999 999999 999999 999999 999999 999999 999999 999999 999999 999999 999999 999999 999999 999999 999999 999999 999999 999999 999999 0 999999 999999 999999 999999 999999 999999 999999 999999 999999 999999 999999 999999 999999 999999 999999 999999 999999 999999 999999 999999 999999 999999 999999 999999 999999 999999 999999 999999 999999 999999 999999 999999 999999 12032 999999 999999 11541 16819 12171 999999 999999 999999 999999 17919 999999 12051 999999 999999 999999 999999 999999 999999 999999 999999 999999 999999 999999 13252 15678 999999 999999 999999 999999 999999 999999 999999 999999 999999 15334 999999 999999 999999 14533 999999 999999 999999 16734 999999 15221 999999 13763 999999 999999 999999 999999 999999 999999 999999 999999 999999 999999 999999 999999 999999 999999 999999 999999 999999 999999 999999 999999 19856 999999
999999 999999 999999 999999 999999 999999 999999 999999 999999 999999 999999 999999 999999 999999 999999 999999 999999 999999 999999 999999 999999 999999 999999 999999 999999 999999 999999 999999 999999 999999 999999 999999 999999 999999 999999 999999 999999 999999 999999 0 999999 999999 999999 999999 999999 999999 999999 999999 999999 999999 999999 999999 999999 999999 999999 999999 999999 999999 999999 999999 999999 999999 999999 999999 999999 999999 999999 999999 999999 999999 999999 999999 19876 999999 999999 19066 10590 11950 999999 999999 999999 999999 10459 999999 14615 999999 999999 999999 999999 999999 999999 999999 999999 999999 999999 999999 12816 11121 999999 999999 999999 999999 999999 999999 999999 999999 999999 16796 999999 999999 999999 14097 999999 999999 999999 19791 999999 17470 999999 12761 999999 999999 999999 999999 999999 999999 999999 999999 999999 999999 999999 999999 999999 999999 999999 999999 999999 999999 999999 999999 16591 999999
999999 999999 999999 999999 999999 999999 999999 999999 999999 999999 999999 999999 999999 999999 999999 999999 999999 999999 999999 999999 999999 999999 999999 999999 999999 999999 999999 999999 999999 999999 999999 999999 999999 999999 999999 999999 999999 999999 999999 999999 0 999999 999999 999999 999999 999999 999999 999999 999999 999999 999999 999999 999999 999999 999999 999999 999999 999999 999999 999999 999999 999999 999999 999999 999999 999999 999999 999999 999999 999999 999999 999999 11167 999999 999999 10071 15923 15872 999999 999999 999999 999999 11558 999999 11691 999999 999999 999999 999999 999999 999999 999999 999999 999999 999999 999999 19739 15690 999999 999999 999999 999999 999999 999999 999999 999999 999999 11553 999999 999999 999999 10976 999999 999999 999999 19506 999999 13894 999999 18138 999999 999999 999999 999999 999999 999999 999999 999999 999999 999999 999999 999999 999999 999999 999999 999999 999999 999999 999999 999999 15532 999999
999999 999999 999999 999999 999999 999999 999999 999999 999999 999999 999999 999999 999999 999999 999999 999999 999999 999999 999999 999999 999999 999999 999999 999999 999999 999999 999999 999999 999999 999999 999999 999999 999999 999999 999999 999999 999999 999999 999999 999999 999999 0 999999 999999 999999 999999 999999 999999 999999 999999 999999 999999 999999 999999 999999 999999 999999 999999 999999 999999 999999 999999 999999 999999 999999 999999 999999 999999 999999 999999 999999 999999 15919 999999 999999 16328 16330 13277 999999 999999 999999 999999 14750 999999 13204 999999 999999 999999 999999 999999 999999 999999 999999 999999 999999 999999 19893 17812 999999 999999 999999 999999 999999 999999 999999 999999 999999 13953 999999 999999 999999 13393 999999 999999 999999 15727 999999 19960 999999 19238 999999 999999 999999 999999 999999 999999 999999 999999 999999 999999 999999 999999 999999 999999 999999 999999 999999 999999 999999 999999 11567 999999
999999 999999 999999 999999 999999 999999 999999 999999 999999 999999 999999 999999 999999 999999 999999 999999 999999 999999 999999 999999 999999 999999 999999 999999 999999 999999 999999 999999 999999 999999 999999 999999 999999 999999 999999 999999 999999 999999 999999 999999 999999 999999 0 999999 999999 999999 999999 999999 999999 999999 999999 999999 999999 999999 999999 999999 999999 999999 999999 999999 999999 999999 999999 999999 999999 999999 999999 999999 999999 999999 999999 999999 19730 999999 999999 13249 18879 11618 999999 999999 999999 999999 18223 999999 19537 999999 999999 999999 999999 999999 999999 999999 999999 999999 999999 999999 18754 16986 999999 999999 999999 999999 999999 999999 999999 999999 999999 10786 999999 999999 999999 18433 999999 999999 999999 13487 999999 10656 999999 18340 999999 999999 999999 999999 999999 999999 999999 999999 999999 999999 999999 999999 999999 999999 999999 999999 999999 999999 999999 999999 14442 999999
999999 999999 999999 999999 999999 999999 999999 999999 999999 999999 999999 999999 999999 999999 999999 999999 999999 999999 999999 999999 999999 999999 999999 999999 999999 999999 999999 999999 999999 999999 999999 999999 999999 999999 999999 999999 999999 999999 999999 999999 999999 999999 999999 0 999999 999999 999999 999999 999999 999999 999999 999999 999999 999999 999999 999999 999999 999999 999999 999999 999999 999999 999999 999999 999999 999999 999999 999999 999999 999999 999999 999999 999999 999999 12787 999999 999999 999999 999999 999999 999999 999999 999999 18737 999999 999999 13475 999999 999999 999999 999999 999999 999999 999999 999999 999999 999999 999999 999999 999999 999999 999999 15226 999999 999999 999999 13311 999999 999999 17297 16874 999999 14716 999999 999999 999999 18321 999999 10977 999999 999999 999999 17896 999999 18593 999999 999999 999999 10889 999999 999999 999999 999999 999999 999999 999999 999999 14129 999999 999999 999999 999999
999999 999999 999999 999999 999999 999999 999999 999999 999999 999999 999999 999999 999999 999999 999999 999999 999999 999999 999999 999999 999999 999999 999999 999999 999999 999999 999999 999999 999999 999999 999999 999999 999999 999999 999999 999999 999999 999999 999999 999999 999999 999999 999999 999999 0 999999 999999 999999 999999 999999 999999 999999 999999 999999 999999 999999 999999 999999 999999 999999 999999 999999 999999 999999 999999 999999 999999 999999 999999 999999 999999 999999 999999 999999 10475 999999 999999 999999 999999 999999 999999 999999 999999 17352 999999 999999 14360 999999 999999 999999 999999 999999 999999 999999 999999 999999 999999 999999 999999 999999 999999 999999 16587 999999 999999 999999 12047 999999 999999 19660 11374 999999 12067 999999 999999 999999 18913 999999 13642 999999 999999 999999 12904 999999 13212 999999 999999 999999 18893 999999 999999 999999 999999 999999 999999 999999 999999 11087 999999 999999 999999 999999
999999 999999 999999 999999 999999 999999 999999 999999 999999 999999 999999 999999 999999 999999 999999 999999 999999 999999 999999 999999 999999 999999 999999 999999 999999 999999 999999 999999 999999 999999 999999 999999 999999 999999 999999 999999 999999 999999 999999 999999 999999 999999 999999 999999 999999 0 999999 999999 999999 999999 999999 999999 999999 999999 999999 999999 999999 999999 999999 999999 999999 999999 999999 999999 999999 999999 999999 999999 999999 999999 999999 999999 999999 999999 19937 999999 999999 999999 999999 999999 999999 999999 999999 11302 999999 999999 16120 999999 999999 999999 999999 999999 999999 999999 999999 999999 999999 999999 999999 999999 999999 999999 11966 999999 999999 999999 17048 999999 999999 15564 14937 999999 19786 999999 999999 999999 13191 999999 17207 999999 999999 999999 15598 999999 13551 999999 999999 999999 18114 999999 999999 999999 999999 999999 999999 999999 999999 13599 999999 999999 999999 999999
999999 999999 999999 999999 999999 999999 999999 999999 999999 999999 999999 999999 999999 999999 999999 999999 999999 999999 999999 999999 999999 999999 999999 999999 999999 999999 999999 999999 999999 999999 999999 999999 999999 999999 999999 999999 999999 999999 999999 999999 999999 999999 999999 999999 999999 999999 0 999999 999999 999999 999999 999999 999999 999999 999999 999999 999999 999999 999999 999999 999999 999999 999999 999999 999999 999999 999999 999999 999999 999999 999999 999999 999999 999999 14690 999999 999999 999999 999999 999999 999999 999999 999999 14863 999999 999999 18786 999999 999999 999999 999999 999999 999999 999999 999999 999999 999999 999999 999999 999999 999999 999999 12320 999999 999999 999999 19560 999999 999999 19057 11941 999999 13994 999999 999999 999999 18013 999999 11581 999999 999999 999999 11981 999999 17459 999999 999999 999999 19218 999999 999999 999999 999999 999999 999999 999999 999999 12796 999999 999999 999999 999999
999999 999999 999999 999999 999999 999999 999999 999999 999999 999999 999999 999999 999999 999999 999999 999999 999999 999999 999999 999999 999999 999999 999999 999999 999999 999999 999999 999999 999999 999999 999999 999999 999999 999999 999999 999999 999999 999999 999999 999999 999999 999999 999999 999999 999999 999999 999999 0 999999 999999 999999 999999 999999 999999 999999 999999 999999 999999 999999 999999 999999 999999 999999 999999 999999 999999 999999 999999 999999 999999 999999 999999 999999 999999 16884 999999 999999 999999 999999 999999 999999 999999 999999 18506 999999 999999 13732 999999 999999 999999 999999 999999 999999 999999 999999 999999 999999 999999 999999 999999 999999 999999 17565 999999 999999 999999 14842 999999 999999 15891 10103 999999 19974 999999 999999 999999 19877 999999 14877 999999 999999 999999 12471 999999 12047 999999 999999 999999 17110 999999 999999 999999 999999 999999 999999 999999 999999 17071 999999 999999 999999 999999
999999 999999 999999 999999 999999 999999 999999 999999 999999 999999 999999 999999 999999 999999 999999 999999 999999 999999 999999 999999 999999 999999 999999 999999 999999 999999 999999 999999 999999 999999 999999 999999 999999 999999 999999 999999 999999 999999 999999 999999 999999 999999 999999 999999 999999 999999 999999 999999 0 999999 999999 999999 999999 999999 999999 999999 999999 999999 999999 999999 999999 999999 999999 999999 999999 999999 999999 999999 999999 999999 999999 999999 999999 999999 10237 999999 999999 999999 999999 999999 999999 999999 999999 10462 999999 999999 10121 999999 999999 999999 999999 999999 999999 999999 999999 999999 999999 999999 999999 999999 999999 999999 13451 999999 999999 999999 14846 999999 999999 16753 19744 999999 15771 999999 999999 999999 10814 999999 14094 999999 999999 999999 10904 999999 19943 999999 999999 999999 16162 999999 999999 999999 999999 999999 999999 999999 999999 19783 999999 999999 999999 999999
999999 999999 999999 999999 999999 999999 999999 999999 999999 999999 999999 999999 999999 999999 999999 999999 999999 999999 999999 999999 999999 999999 999999 999999 999999 999999 999999 999999 999999 999999 999999 999999 999999 999999 999999 999999 999999 999999 999999 999999 999999 999999 999999 999999 999999 999999 999999 999999 999999 0 999999 999999 999999 999999 999999 999999 999999 999999 999999 999999 999999 999999 999999 999999 999999 999999 999999 999999 999999 999999 999999 999999 999999 999999 11366 999999 999999 999999 999999 999999 999999 999999 999999 11015 999999 999999 10320 999999 999999 999999 999999 999999 999999 999999 999999 999999 999999 999999 999999 999999 999999 999999 17832 999999 999999 999999 17808 999999 999999 18635 18446 999999 17043 999999 999999 999999 17570 999999 16886 999999 999999 999999 13273 999999 12446 999999 999999 999999 11501 999999 999999 999999 999999 999999 999999 999999 999999 18570 999999 999999 999999 999999
999999 999999 999999 999999 999999 999999 999999 999999 999999 999999 999999 999999 999999 999999 999999 999999 999999 999999 999999 999999 999999 999999 999999 999999 999999 999999 999999 999999 999999 999999 999999 999999 999999 999999 999999 999999 999999 999999 999999 999999 999999 999999 999999 999999 999999 999999 999999 999999 999999 999999 0 999999 999999 999999 999999 999999 999999 999999 999999 999999 999999 999999 999999 999999 999999 999999 999999 999999 999999 999999 999999 999999 999999 999999 17398 999999 999999 999999 999999 999999 999999 999999 999999 11036 999999 999999 19313 999999 999999 999999 999999 999999 999999 999999 999999 999999 999999 999999 999999 999999 999999 999999 19072 999999 999999 999999 19701 999999 999999 14590 11404 999999 11032 999999 999999 999999 17178 999999 15989 999999 999999 999999 19842 999999 10518 999999 999999 999999 15388 999999 999999 999999 999999 999999 999999 999999 999999 15361 999999 999999 999999 999999
999999 999999 999999 999999 999999 999999 999999 999999 999999 999999 999999 999999 999999 999999 999999 999999 999999 999999 999999 999999 999999 999999 999999 999999 999999 999999 999999 999999 999999 999999 999999 999999 999999 999999 999999 999999 999999 999999 999999 999999 999999 999999 999999 999999 999999 999999 999999 999999 999999 999999 999999 0 999999 999999 999999 999999 999999 999999 999999 999999 999999 999999 999999 999999 999999 999999 999999 999999 999999 999999 999999 999999 999999 999999 13287 999999 999999 999999 999999 999999 999999 999999 999999 14139 999999 999999 17213 999999 999999 999999 999999 999999 999999 999999 999999 999999 999999 999999 999999 999999 999999 999999 19511 999999 999999 999999 13767 999999 999999 17080 12581 999999 19763 999999 999999 999999 17036 999999 15611 999999 999999 999999 15095 999999 19354 999999 999999 999999 13114 999999 999999 999999 999999 999999 999999 999999 999999 13127 999999 999999 999999 999999
999999 999999 999999 999999 999999 999999 999999 999999 999999 999999 999999 999999 999999 999999 999999 999999 999999 999999 999999 999999 999999 999999 999999 999999 999999 999999 999999 999999 999999 999999 999999 999999 999999 999999 999999 999999 999999 999999 999999 999999 999999 999999 999999 999999 999999 999999 999999 999999 999999 999999 999999 999999 0 999999 999999 999999 999999 999999 999999 999999 999999 999999 999999 999999 999999 999999 999999 999999 999999 999999 999999 999999 999999 999999 11513 999999 999999 999999 999999 999999 999999 999999 999999 13564 999999 999999 16951 999999 999999 999999 999999 999999 999999 999999 999999 999999 999999 999999 999999 999999 999999 999999 16654 999999 999999 999999 12837 999999 999999 15048 14673 999999 15428 999999 999999 999999 11270 999999 14617 999999 999999 999999 16758 999999 16139 999999 999999 999999 15010 999999 999999 999999 999999 999999 999999 999999 999999 10643 999999 999999 999999 999999
999999 999999 999999 999999 999999 999999 999999 999999 999999 999999 999999 999999 999999 999999 999999 999999 999999 999999 999999 999999 999999 999999 999999 999999 999999 999999 999999 999999 999999 999999 999999 999999 999999 999999 999999 999999 999999 999999 999999 999999 999999 999999 999999 999999 999999 999999 999999 999999 999999 999999 999999 999999 999999 0 999999 999999 999999 999999 999999 999999 999999 999999 999999 999999 999999 999999 999999 999999 999999 999999 999999 999999 999999 999999 17181 999999 999999 999999 999999 999999 999999 999999 999999 15954 999999 999999 12550 999999 999999 999999 999999 999999 999999 999999 999999 999999 999999 999999 999999 999999 999999 999999 18842 999999 999999 999999 13496 999999 999999 14930 12729 999999 17916 999999 999999 999999 11920 999999 11807 999999 999999 999999 18901 999999 10217 999999 999999 999999 16750 999999 999999 999999 999999 999999 999999 999999 999999 17070 999999 999999 999999 999999
999999 999999 999999 999999 999999 999999 999999 999999 999999 999999 999999 999999 999999 999999 999999 999999 999999 999999 999999 999999 999999 999999 999999 999999 999999 999999 999999 999999 999999 999999 999999 999999 999999 999999 999999 999999 999999 999999 999999 999999 999999 999999 999999 999999 999999 999999 999999 999999 999999 999999 999999 999999 999999 999999 0 999999 999999 999999 999999 999999 999999 999999 999999 999999 999999 999999 999999 999999 999999 999999 999999 999999 999999 999999 19836 999999 999999 999999 999999 999999 999999 999999 999999 18888 999999 999999 15442 999999 999999 999999 999999 999999 999999 999999 999999 999999 999999 999999 999999 999999 999999 999999 17736 999999 999999 999999 11909 999999 999999 18735 18447 999999 15792 999999 999999 999999 16077 999999 15488 999999 999999 999999 18162 999999 15009 999999 999999 999999 19536 999999 999999 999999 999999 999999 999999 999999 999999 15428 999999 999999 999999 999999
999999 999999 999999 999999 999999 999999 999999 999999 999999 999999 999999 999999 999999 999999 999999 999999 999999 999999 999999 999999 999999 999999 999999 999999 999999 999999 999999 999999 999999 999999 999999 999999 999999 999999 999999 999999 999999 999999 999999 999999 999999 999999 999999 999999 999999 999999 999999 999999 999999 999999 999999 999999 999999 999999 999999 0 999999 999999 999999 999999 999999 999999 999999 999999 999999 999999 999999 999999 999999 999999 999999 999999 999999 999999 19839 999999 999999 999999 999999 999999 999999 999999 999999 12996 999999 999999 13950 999999 999999 999999 999999 999999 999999 999999 999999 999999 999999 999999 999999 999999 999999 999999 12657 999999 999999 999999 15580 999999 999999 11643 14176 999999 11444 999999 999999 999999 14858 999999 11373 999999 999999 999999 12770 999999 14925 999999 999999 999999 11660 999999 999999 999999 999999 999999 999999 999999 999999 19870 999999 999999 999999 999999
999999 999999 999999 999999 999999 999999 999999 999999 999999 999999 999999 999999 999999 999999 999999 999999 999999 999999 999999 999999 999999 999999 999999 999999 999999 999999 999999 999999 999999 999999 999999 999999 999999 999999 999999 999999 999999 999999 999999 999999 999999 999999 999999 999999 999999 999999 999999 999999 999999 999999 999999 999999 999999 999999 999999 999999 0 999999 999999 999999 999999 999999 999999 999999 999999 999999 999999 999999 999999 999999 999999 999999 999999 999999 17573 999999 999999 999999 999999 999999 999999 999999 999999 16002 999999 999999 14386 999999 999999 999999 999999 999999 999999 999999 999999 999999 999999 999999 999999 999999 999999 999999 19427 999999 999999 999999 19953 999999 999999 10298 16885 999999 14090 999999 999999 999999 12563 999999 14394 999999 999999 999999 17275 999999 12049 999999 999999 999999 17330 999999 999999 999999 999999 999999 999999 999999 999999 11072 999999 999999 999999 999999
999999 999999 999999 999999 999999 999999 999999 999999 999999 999999 999999 999999 999999 999999 999999 999999 999999 999999 999999 999999 999999 999999 999999 999999 999999 999999 999999 999999 999999 999999 999999 999999 999999 999999 999999 999999 999999 999999 999999 999999 999999 999999 999999 999999 999999 999999 999999 999999 999999 999999 999999 999999 999999 999999 999999 999999 999999 0 999999 999999 999999 999999 999999 999999 999999 999999 999999 999999 999999 999999 999999 999999 999999 13419 999999 999999 999999 999999 999999 18931 999999 11041 999999 999999 999999 999999 999999 999999 999999 999999 999999 13039 12212 999999 999999 999999 999999 999999 999999 11382 14382 13700 999999 999999 999999 999999 999999 999999 999999 999999 999999 999999 999999 999999 13929 999999 999999 999999 999999 999999 19501 13831 999999 999999 999999 999999 999999 999999 999999 13766 16527 999999 999999 17217 999999 999999 999999 999999 999999 999999 999999 999999
999999 999999 999999 999999 999999 999999 999999 999999 999999 999999 999999 999999 999999 999999 999999 999999 999999 999999 999999 999999 999999 999999 999999 999999 999999 999999 999999 999999 999999 999999 999999 999999 999999 999999 999999 999999 999999 999999 999999 999999 999999 999999 999999 999999 999999 999999 999999 999999 999999 999999 999999 999999 999999 999999 999999 999999 999999 999999 0 999999 999999 999999 999999 999999 999999 999999 999999 999999 999999 999999 999999 999999 999999 17403 999999 999999 999999 999999 999999 19854 999999 13450 999999 999999 999999 999999 999999 999999 999999 999999 999999 19987 18264 999999 999999 999999 999999 999999 999999 10872 17024 17271 999999 999999 999999 999999 999999 999999 999999 999999 999999 999999 999999 999999 15793 999999 999999 999999 999999 999999 11574 13544 999999 999999 999999 999999 999999 999999 999999 16490 12639 999999 999999 15157 999999 999999 999999 999999 999999 999999 999999 999999
999999 999999 999999 999999 999999 999999 999999 999999 999999 999999 999999 999999 999999 999999 999999 999999 999999 999999 999999 999999 999999 999999 999999 999999 999999 999999 999999 999999 999999 999999 999999 999999 999999 999999 999999 999999 999999 999999 999999 999999 999999 999999 999999 999999 999999 999999 999999 999999 999999 999999 999999 999999 999999 999999 999999 999999 999999 999999 999999 0 999999 999999 999999 999999 999999 999999 999999 999999 999999 999999 999999 999999 999999 17085 999999 999999 999999 999999 999999 17099 999999 18892 999999 999999 999999 999999 999999 999999 999999 999999 999999 13966 10150 999999 999999 999999 999999 999999 999999 14853 17092 14692 999999 999999 999999 999999 999999 999999 999999 999999 999999 999999 999999 999999 14216 999999 999999 999999 999999 999999 19031 16391 999999 999999 999999 999999 999999 999999 999999 10397 18078 999999 999999 17653 999999 999999 999999 999999 999999 999999 999999 999999
999999 999999 999999 999999 999999 999999 999999 999999 999999 999999 999999 999999 999999 999999 999999 999999 999999 999999 999999 999999 999999 999999 999999 999999 999999 999999 999999 999999 999999 999999 999999 999999 999999 999999 999999 999999 999999 999999 999999 999999 999999 999999 999999 999999 999999 999999 999999 999999 999999 999999 999999 999999 999999 999999 999999 999999 999999 999999 999999 999999 0 999999 999999 999999 999999 999999 999999 999999 999999 999999 999999 999999 999999 16348 999999 999999 999999 999999 999999 19358 999999 13990 999999 999999 999999 999999 999999 999999 999999 999999 999999 12876 17687 999999 999999 999999 999999 999999 999999 15435 14481 14454 999999 999999 999999 999999 999999 999999 999999 999999 999999 999999 999999 999999 16714 999999 999999 999999 999999 999999 17534 14476 999999 999999 999999 999999 999999 999999 999999 19679 11105 999999 999999 12794 999999 999999 999999 999999 999999 999999 999999 999999
999999 999999 999999 999999 999999 999999 999999 999999 999999 999999 999999 999999 999999 999999 999999 999999 999999 999999 999999 999999 999999 999999 999999 999999 999999 999999 999999 999999 999999 999999 999999 999999 999999 999999 999999 999999 999999 999999 999999 999999 999999 999999 999999 999999 999999 999999 999999 999999 999999 999999 999999 999999 999999 999999 999999 999999 999999 999999 999999 999999 999999 0 999999 999999 999999 999999 999999 999999 999999 999999 999999 999999 999999 13870 999999 999999 999999 999999 999999 15592 999999 12827 999999 999999 999999 999999 999999 999999 999999 999999 999999 19998 11632 999999 999999 999999 999999 999999 999999 11021 10901 18936 999999 999999 999999 999999 999999 999999 999999 999999 999999 999999 999999 999999 16674 999999 999999 999999 999999 999999 16437 17098 999999 999999 999999 999999 999999 999999 999999 14220 14455 999999 999999 10420 999999 999999 999999 999999 999999 999999 999999 999999
999999 999999 999999 999999 999999 999999 999999 999999 999999 999999 999999 999999 999999 999999 999999 999999 999999 999999 999999 999999 999999 999999 999999 999999 999999 999999 999999 999999 999999 999999 999999 999999 999999 999999 999999 999999 999999 999999 999999 999999 999999 999999 999999 999999 999999 999999 999999 999999 999999 999999 999999 999999 999999 999999 999999 999999 999999 999999 999999 999999 999999 999999 0 999999 999999 999999 999999 999999 999999 999999 999999 999999 999999 17630 999999 999999 999999 999999 999999 12882 999999 16322 999999 999999 999999 999999 999999 999999 999999 999999 999999 19668 12625 999999 999999 999999 999999 999999 999999 17706 12271 13883 999999 999999 999999 999999 999999 999999 999999 999999 999999 999999 999999 999999 11860 999999 999999 999999 999999 999999 12760 18137 999999 999999 999999 999999 999999 999999 999999 18206 13381 999999 999999 19409 999999 999999 999999 999999 999999 999999 999999 999999
999999 999999 999999 999999 999999 999999 999999 999999 999999 999999 999999 999999 999999 999999 999999 999999 999999 999999 999999 999999 999999 999999 999999 999999 999999 999999 999999 999999 999999 999999 999999 999999 999999 999999 999999 999999 999999 999999 999999 999999 999999 999999 999999 999999 999999 999999 999999 999999 999999 999999 999999 999999 999999 999999 999999 999999 999999 999999 999999 999999 999999 999999 999999 0 999999 999999 999999 999999 999999 999999 999999 999999 999999 13800 999999 999999 999999 999999 999999 17877 999999 11643 999999 999999 999999 999999 999999 999999 999999 999999 999999 17154 11341 999999 999999 999999 999999 999999 999999 18437 18949 13901 999999 999999 999999 999999 999999 999999 999999 999999 999999 999999 999999 999999 14160 999999 999999 999999 999999 999999 14272 18672 999999 999999 999999 999999 999999 999999 999999 10814 16480 999999 999999 19392 999999 999999 999999 999999 999999 999999 999999 999999
999999 999999 999999 999999 999999 999999 999999 999999 999999 999999 999999 999999 999999 999999 999999 999999 999999 999999 999999 999999 999999 999999 999999 999999 999999 999999 999999 999999 999999 999999 999999 999999 999999 999999 999999 999999 999999 999999 999999 999999 999999 999999 999999 999999 999999 999999 999999 999999 999999 999999 999999 999999 999999 999999 999999 999999 999999 999999 999999 999999 999999 999999 999999 999999 0 999999 999999 999999 999999 999999 999999 999999 999999 16282 999999 999999 999999 999999 999999 13109 999999 12754 999999 999999 999999 999999 999999 999999 999999 999999 999999 14634 12737 999999 999999 999999 999999 999999 999999 16782 16778 14375 999999 999999 999999 999999 999999 999999 999999 999999 999999 999999 999999 999999 16275 999999 999999 999999 999999 999999 15964 15574 999999 999999 999999 999999 999999 999999 999999 19852 18729 999999 999999 18491 999999 999999 999999 999999 999999 999999 999999 999999
999999 999999 999999 999999 999999 999999 999999 999999 999999 999999 999999 999999 999999 999999 999999 999999 999999 999999 999999 999999 999999 999999 999999 999999 999999 999999 999999 999999 999999 999999 999999 999999 999999 999999 999999 999999 999999 999999 999999 999999 999999 999999 999999 999999 999999 999999 999999 999999 999999 999999 999999 999999 999999 999999 999999 999999 999999 999999 999999 999999 999999 999999 999999 999999 999999 0 999999 999999 999999 999999 999999 999999 999999 11618 999999 999999 999999 999999 999999 10572 999999 16454 999999 999999 999999 999999 999999 999999 999999 999999 999999 17031 17540 999999 999999 999999 999999 999999 999999 19038 13182 13980 999999 999999 999999 999999 999999 999999 999999 999999 999999 999999 999999 999999 14242 999999 999999 999999 999999 999999 11866 17690 999999 999999 999999 999999 999999 999999 999999 19421 18019 999999 999999 18720 999999 999999 999999 999999 999999 999999 999999 999999
999999 999999 999999 999999 999999 999999 999999 999999 999999 999999 999999 999999 999999 999999 999999 999999 999999 999999 999999 999999 999999 999999 999999 999999 999999 999999 999999 999999 999999 999999 999999 999999 999999 999999 999999 999999 999999 999999 999999 999999 999999 999999 999999 999999 999999 999999 999999 999999 999999 999999 999999 999999 999999 999999 999999 999999 999999 999999 999999 999999 999999 999999 999999 999999 999999 999999 0 999999 999999 999999 999999 999999 999999 14321 999999 999999 999999 999999 999999 19943 999999 14190 999999 999999 999999 999999 999999 999999 999999 999999 999999 10182 18029 999999 999999 999999 999999 999999 999999 15113 19816 10715 999999 999999 999999 999999 999999 999999 999999 999999 999999 999999 999999 999999 13521 999999 999999 999999 999999 999999 15484 19120 999999 999999 999999 999999 999999 999999 999999 16364 17715 999999 999999 11863 999999 999999 999999 999999 999999 999999 999999 999999
999999 999999 999999 999999 999999 999999 999999 999999 999999 999999 999999 999999 999999 999999 999999 999999 999999 999999 999999 999999 999999 999999 999999 999999 999999 999999 999999 999999 999999 999999 999999 999999 999999 999999 999999 999999 999999 999999 999999 999999 999999 999999 999999 999999 999999 999999 999999 999999 999999 999999 999999 999999 999999 999999 999999 999999 999999 999999 999999 999999 999999 999999 999999 999999 999999 999999 999999 0 999999 999999 999999 999999 999999 16282 999999 999999 999999 999999 999999 17372 999999 11720 999999 999999 999999 999999 999999 999999 999999 999999 999999 19125 14480 999999 999999 999999 999999 999999 999999 12252 16528 18742 999999 999999 999999 999999 999999 999999 999999 999999 999999 999999 999999 999999 16337 999999 999999 999999 999999 999999 14068 18278 999999 999999 999999 999999 999999 999999 999999 13550 15975 999999 999999 17321 999999 999999 999999 999999 999999 999999 999999 999999
999999 999999 999999 999999 999999 999999 999999 999999 999999 999999 999999 999999 999999 999999 999999 999999 999999 999999 999999 999999 999999 999999 999999 999999 999999 999999 999999 999999 999999 999999 999999 999999 999999 999999 999999 999999 999999 999999 999999 999999 999999 999999 999999 999999 999999 999999 999999 999999 999999 999999 999999 999999 999999 999999 999999 999999 999999 999999 999999 999999 999999 999999 999999 999999 999999 999999 999999 999999 0 999999 999999 999999 999999 14285 999999 999999 999999 999999 999999 15660 999999 17174 999999 999999 999999 999999 999999 999999 999999 999999 999999 11867 13958 999999 999999 999999 999999 999999 999999 19732 15015 14560 999999 999999 999999 999999 999999 999999 999999 999999 999999 999999 999999 999999 10329 999999 999999 999999 999999 999999 18499 17184 999999 999999 999999 999999 999999 999999 999999 12034 16124 999999 999999 12050 999999 999999 999999 999999 999999 999999 999999 999999
999999 999999 999999 999999 999999 999999 999999 999999 999999 999999 999999 999999 999999 999999 999999 999999 999999 999999 999999 999999 999999 999999 999999 999999 999999 999999 999999 999999 999999 999999 999999 999999 999999 999999 999999 999999 999999 999999 999999 999999 999999 999999 999999 999999 999999 999999 999999 999999 999999 999999 999999 999999 999999 999999 999999 999999 999999 999999 999999 999999 999999 999999 999999 999999 999999 999999 999999 999999 999999 0 999999 999999 999999 15045 999999 999999 999999 999999 999999 17205 999999 19536 999999 999999 999999 999999 999999 999999 999999 999999 999999 14730 14191 999999 999999 999999 999999 999999 999999 10936 12939 14953 999999 999999 999999 999999 999999 999999 999999 999999 999999 999999 999999 999999 15354 999999 999999 999999 999999 999999 19575 14571 999999 999999 999999 999999 999999 999999 999999 12108 18202 999999 999999 16656 999999 999999 999999 999999 999999 999999 999999 999999
999999 999999 999999 999999 999999 999999 999999 999999 999999 999999 999999 999999 999999 999999 999999 999999 999999 999999 999999 999999 999999 999999 999999 999999 999999 999999 999999 999999 999999 999999 999999 999999 999999 999999 999999 999999 999999 999999 999999 999999 999999 999999 999999 999999 999999 999999 999999 999999 999999 999999 999999 999999 999999 999999 999999 999999 999999 999999 999999 999999 999999 999999 999999 999999 999999 999999 999999 999999 999999 999999 0 999999 999999 15297 999999 999999 999999 999999 999999 10468 999999 18364 999999 999999 999999 999999 999999 999999 999999 999999 999999 11749 12844 999999 999999 999999 999999 999999 999999 14314 18462 12799 999999 999999 999999 999999 999999 999999 999999 999999 999999 999999 999999 999999 15600 999999 999999 999999 999999 999999 10873 11514 999999 999999 999999 999999 999999 999999 999999 12276 10552 999999 999999 11202 999999 999999 999999 999999 999999 999999 999999 999999
999999 17916 12039 11581 17171 15690 18646 15263 14024 16793 15920 10001 16232 18475 15733 13216 16996 14662 14289 13233 15340 11679 18866 16084 15858 10375 13354 13401 11969 17488 13841 10321 19726 10351 12604 12415 14846 18355 17274 14324 18955 11895 19857 12761 10322 14080 13186 17115 19167 10958 18543 13810 10051 19709 17905 16504 10193 15490 10064 15864 19440 10164 13197 13135 15256 17378 11102 18328 13376 10058 16301 0 999999 999999 999999 999999 999999 999999 999999 999999 999999 999999 999999 999999 999999 999999 999999 999999 999999 999999 999999 999999 999999 999999 999999 999999 999999 999999 999999 999999 999999 999999 999999 999999 999999 999999 999999 999999 999999 999999 999999 999999 999999 999999 999999 999999 999999 999999 999999 999999 999999 999999 999999 999999 999999 999999 999999 999999 999999 999999 999999 999999 999999 999999 999999 999999 999999 999999 999999 999999 999999 5750
999999 10111 10110 15447 17760 18440 16441 14365 12032 13527 13770 14858 12116 16753 16538 10803 13205 10580 15083 12265 11414 12932 16499 11234 15909 10134 13229 12053 19001 11468 14878 16432 14774 16795 12055 19104 10578 14030 12032 19876 11167 15919 19730 13604 12795 16311 17644 13426 16935 18709 14370 17392 19127 15298 15221 18765 13405 12225 18887 11188 13779 14730 10404 17835 17267 18593 17377 18801 11054 18627 13210 999999 0 999999 999999 999999 999999 999999 999999 999999 999999 999999 999999 999999 999999 999999 999999 999999 999999 999999 999999 999999 999999 999999 999999 999999 999999 999999 999999 999999 999999 999999 999999 999999 999999 999999 999999 999999 999999 999999 999999 999999 999999 999999 999999 999999 999999 999999 999999 999999 999999 999999 999999 999999 999999 999999 999999 999999 999999 999999 999999 999999 999999 999999 999999 999999 999999 999999 999999 999999 999999 8962
999999 12191 15918 13594 13908 14873 12870 18870 10561 18059 17059 15200 16177 14897 11165 18802 16820 12983 19742 16280 15771 11273 18784 13645 17482 18246 18723 17066 12745 15372 11466 14983 10662 11173 15068 19168 19420 18170 16268 10938 16808 16195 16357 18715 12423 14121 11161 17567 15841 15169 18744 15961 14109 11603 15281 19231 19921 13419 17403 17085 16348 13870 17630 13800 16282 11618 14321 16282 14285 15045 15297 999999 999999 0 999999 999999 999999 999999 999999 999999 999999 999999 999999 999999 999999 999999 999999 999999 999999 999999 999999 999999 999999 999999 999999 999999 999999 999999 999999 999999 999999 999999 999999 999999 999999 999999 999999 999999 999999 999999 999999 999999 999999 999999 999999 999999 999999 999999 999999 999999 999999 999999 999999 999999 999999 999999 999999 999999 999999 999999 999999 999999 999999 999999 999999 999999 999999 999999 999999 999999 999999 13849
999999 12836 15220 15490 13816 17088 12426 10774 16442 17046 11264 12359 10418 16984 17828 14301 18563 10715 12921 10902 14281 15916 11856 19642 10109 15192 15176 19331 10159 11992 18176 14205 13864 17494 17793 19399 15833 10258 14892 11635 19703 11481 16751 12787 10475 19937 14690 16884 10237 11366 17398 13287 11513 17181 19836 19839 17573 11815 19391 19007 18445 11731 14839 11807 13676 11204 13898 14478 18210 16244 16233 999999 999999 999999 0 999999 999999 999999 999999 999999 999999 999999 999999 999999 999999 999999 999999 999999 999999 999999 999999 999999 999999 999999 999999 999999 999999 999999 999999 999999 999999 999999 999999 999999 999999 999999 999999 999999 999999 999999 999999 999999 999999 999999 999999 999999 999999 999999 999999 999999 999999 999999 999999 999999 999999 999999 999999 999999 999999 999999 999999 999999 999999 999999 999999 999999 999999 999999 999999 999999 999999 12760
999999 10810 11745 11231 14609 13431 16423 11063 18797 14122 10307 17145 10941 15411 11816 12179 10704 10928 19051 19389 19257 14304 11612 19922 18737 10994 16728 17336 15360 15850 12644 16912 11458 17946 14135 17387 15086 10448 11541 19066 10071 16328 13249 15614 12352 16613 10076 19405 17909 19331 11684 11555 10805 19751 11346 17036 18293 19329 18822 15141 11118 13096 17969 11001 16993 17808 17545 15092 15525 15449 16209 999999 999999 999999 999999 0 999999 999999 999999 999999 999999 999999 999999 999999 999999 999999 999999 999999 999999 999999 999999 999999 999999 999999 999999 999999 999999 999999 999999 999999 999999 999999 999999 999999 999999 999999 999999 999999 999999 999999 999999 999999 999999 999999 999999 999999 999999 999999 999999 999999 999999 999999 999999 999999 999999 999999 999999 999999 999999 999999 999999 999999 999999 999999 999999 999999 999999 999999 999999 999999 999999 10241
999999 10193 12498 16868 14791 12542 11931 14376 11790 14734 18963 13075 18151 18058 14740 15996 16398 18222 12889 13860 19794 19522 13464 12201 15464 19949 11753 13331 14215 15851 14059 15175 19736 12689 14257 19822 10101 15096 16819 10590 15923 16330 18879 14472 16346 10456 13133 18567 13380 10322 13412 12612 13734 18621 13095 18515 16380 19946 18233 13995 18807 15110 13448 19726 15601 11835 14408 19279 10246 18899 12149 999999 999999 999999 999999 999999 0 999999 999999 999999 999999 999999 999999 999999 999999 999999 999999 999999 999999 999999 999999 999999 999999 999999 999999 999999 999999 999999 999999 999999 999999 999999 999999 999999 999999 999999 999999 999999 999999 999999 999999 999999 999999 999999 999999 999999 999999 999999 999999 999999 999999 999999 999999 999999 999999 999999 999999 999999 999999 999999 999999 999999 999999 999999 999999 999999 999999 999999 999999 999999 999999 11112
999999 18753 11203 13216 14830 12782 11260 11350 17000 14584 15040 19040 14321 15351 16830 10406 15004 11178 12265 12705 13126 19037 14391 15536 12809 11531 15271 15369 11342 11070 12413 15625 14044 12978 15026 10765 13634 12768 12171 11950 15872 13277 11618 16027 15691 14313 12747 12105 19299 14782 15114 16668 13057 18971 16743 15463 17342 17869 19563 16728 11664 10973 14665 17127 14832 19517 11975 14491 14912 14190 10671 999999 999999 999999 999999 999999 999999 0 999999 999999 999999 999999 999999 999999 999999 999999 999999 999999 999999 999999 999999 999999 999999 999999 999999 999999 999999 999999 999999 999999 999999 999999 999999 999999 999999 999999 999999 999999 999999 999999 999999 999999 999999 999999 999999 999999 999999 999999 999999 999999 999999 999999 999999 999999 999999 999999 999999 999999 999999 999999 999999 999999 999999 999999 999999 999999 999999 999999 999999 999999 999999 7129
999999 17999 19787 18938 13726 11737 10862 18246 19350 19004 17489 13829 18340 18547 11801 11012 14641 18976 12760 13233 19690 13757 15916 11593 18685 10551 16338 15591 16769 19988 19929 13259 16655 19385 18226 18331 13455 13186 16778 16594 19042 15508 16026 15912 12503 10745 16001 16151 14253 11255 13272 16856 18842 17450 18114 19373 16658 19147 19661 15538 16985 15029 12808 18404 16465 11725 17893 12425 11948 18933 16737 999999 999999 999999 999999 999999 999999 999999 0 999999 999999 999999 999999 999999 999999 999999 999999 999999 999999 999999 999999 999999 999999 999999 999999 999999 999999 999999 999999 999999 999999 999999 999999 999999 999999 999999 999999 999999 999999 999999 999999 999999 999999 999999 999999 999999 999999 999999 999999 999999 999999 999999 999999 999999 999999 999999 999999 999999 999999 999999 999999 999999 999999 999999 999999 999999 999999 999999 999999 999999 999999 9476
999999 12003 16904 13430 11774 17308 14291 18998 15504 19732 16887 11344 12992 18092 15028 12851 19356 10909 18746 11513 13921 14715 10678 17951 13176 14374 18480 13809 18336 17122 11119 16079 13432 12773 14332 10546 17329 10332 19318 18056 17182 18236 15835 17961 17794 10066 12390 14465 12899 16675 15470 11267 16825 12829 15632 18198 11899 18931 19854 17099 19358 15592 12882 17877 13109 10572 19943 17372 15660 17205 10468 999999 999999 999999 999999 999999 999999 999999 999999 0 999999 999999 999999 999999 999999 999999 999999 999999 999999 999999 999999 999999 999999 999999 999999 999999 999999 999999 999999 999999 999999 999999 999999 999999 999999 999999 999999 999999 999999 999999 999999 999999 999999 999999 999999 999999 999999 999999 999999 999999 999999 999999 999999 999999 999999 999999 999999 999999 999999 999999 999999 999999 999999 999999 999999 999999 999999 999999 999999 999999 999999 12343
999999 16667 14057 19019 15987 13833 15421 14578 19612 19607 13398 10485 10212 16658 12946 18484 10634 10062 19429 15630 16590 14849 17047 10702 17191 19826 11256 16552 15437 19511 18464 11411 14616 14049 11414 12941 13802 17393 13516 10236 17930 10145 18261 10798 13396 13516 19969 12843 17251 18562 19127 15145 11701 16110 12287 15500 10833 11103 14783 15980 13244 17139 16401 10092 15838 10820 12959 11749 13540 17445 11429 999999 999999 999999 999999 999999 999999 999999 999999 999999 0 999999 999999 999999 999999 999999 999999 999999 999999 999999 999999 999999 999999 999999 999999 999999 999999 999999 999999 999999 999999 999999 999999 999999 999999 999999 999999 999999 999999 999999 999999 999999 999999 999999 999999 999999 999999 999999 999999 999999 999999 999999 999999 999999 999999 999999 999999 999999 999999 999999 999999 999999 999999 999999 999999 999999 999999 999999 999999 999999 999999 5025
999999 19420 17158 18193 12257 11233 14727 16182 14875 13690 10053 13633 16794 19037 11553 13894 18111 10840 19483 16005 11910 17600 14274 10858 16172 17503 16063 12763 12924 18794 11527 17946 12278 12438 12025 17039 19594 16327 11164 14802 10293 16880 15306 18856 16585 15571 10905 16259 15622 17539 13165 17537 17479 18664 19393 12243 16682 11041 13450 18892 13990 12827 16322 11643 12754 16454 14190 11720 17174 19536 18364 999999 999999 999999 999999 999999 999999 999999 999999 999999 999999 0 999999 999999 999999 999999 999999 999999 999999 999999 999999 999999 999999 999999 999999 999999 999999 999999 999999 999999 999999 999999 999999 999999 999999 999999 999999 999999 999999 999999 999999 999999 999999 999999 999999 999999 999999 999999 999999 999999 999999 999999 999999 999999 999999 999999 999999 999999 999999 999999 999999 999999 999999 999999 999999 999999 999999 999999 999999 999999 999999 9166
999999 10355 14183 13240 18777 13763 11681 12686 16139 15998 12710 12571 19508 14104 14026 11092 13874 13446 18625 15608 14631 10572 16131 14618 15388 17682 18608 13035 14466 13894 14139 18036 19494 17294 10579 12986 10053 13368 17919 10459 11558 14750 18223 11031 17552 15325 10531 10114 12170 15396 13893 13333 19654 19219 18688 14414 16281 11102 13153 14440 10480 12940 19384 17751 14535 12323 15522 19711 18664 14072 12623 999999 999999 999999 999999 999999 999999 999999 999999 999999 999999 999999 0 999999 999999 999999 999999 999999 999999 999999 999999 999999 999999 999999 999999 999999 999999 999999 999999 999999 999999 999999 999999 999999 999999 999999 999999 999999 999999 999999 999999 999999 999999 999999 999999 999999 999999 999999 999999 999999 999999 999999 999999 999999 999999 999999 999999 999999 999999 999999 999999 999999 999999 999999 999999 999999 999999 999999 999999 999999 999999 8900
999999 12414 16359 15240 12132 11031 11438 10945 10526 17396 19638 15530 14931 12484 10987 13418 11677 19237 15528 12746 11099 12531 12471 10616 19079 10348 10522 10781 17122 13225 10902 18283 12695 18478 16038 12376 11162 13804 18828 16866 12789 17138 18081 18737 17352 11302 14863 18506 10462 11015 11036 14139 13564 15954 18888 12996 16002 14297 19079 13223 15000 19801 17576 16996 19427 12093 18433 12016 13491 12321 19854 999999 999999 999999 999999 999999 999999 999999 999999 999999 999999 999999 999999 0 999999 999999 999999 999999 999999 999999 999999 999999 999999 999999 999999 999999 999999 999999 999999 999999 999999 999999 999999 999999 999999 999999 999999 999999 999999 999999 999999 999999 999999 999999 999999 999999 999999 999999 999999 999999 999999 999999 999999 999999 999999 999999 999999 999999 999999 999999 999999 999999 999999 999999 999999 999999 999999 999999 999999 999999 999999 13069
999999 14138 17808 17884 17198 17048 14751 12505 13639 10075 14768 16763 11914 18541 16137 19242 11860 15582 12961 10245 13833 14429 17556 14406 13986 16065 13166 13100 18309 16272 16589 16255 16472 10058 13954 14707 16369 12738 12051 14615 11691 13204 19537 11129 12076 19772 19835 14113 18858 11994 10754 11897 12014 13356 13513 19342 18720 15302 13918 17408 16397 11203 16577 19247 19243 18642 16209 17038 13342 12573 15186 999999 999999 999999 999999 999999 999999 999999 999999 999999 999999 999999 999999 999999 0 999999 999999 999999 999999 999999 999999 999999 999999 999999 999999 999999 999999 999999 999999 999999 999999 999999 999999 999999 999999 999999 999999 999999 999999 999999 999999 999999 999999 999999 999999 999999 999999 999999 999999 999999 999999 999999 999999 999999 999999 999999 999999 999999 999999 999999 999999 999999 999999 999999 999999 999999 999999 999999 999999 999999 999999 12601
999999 12050 19858 15924 14090 13938 15319 19462 13906 15523 15760 19129 13078 17208 11279 14175 14584 14752 17792 18808 14728 17348 17324 11818 17783 12424 16760 17208 17514 10776 16170 17938 18033 10297 10636 17636 13485 15161 19316 18127 13807 14643 18532 10309 13686 15512 17577 12838 17433 13483 17583 12082 11696 11866 17284 18455 19388 10854 19753 17333 17615 15590 15561 11416 12446 11131 12985 11229 15564 11049 15632 999999 999999 999999 999999 999999 999999 999999 999999 999999 999999 999999 999999 999999 999999 0 999999 999999 999999 999999 999999 999999 999999 999999 999999 999999 999999 999999 999999 999999 999999 999999 999999 999999 999999 999999 999999 999999 999999 999999 999999 999999 999999 999999 999999 999999 999999 999999 999999 999999 999999 999999 999999 999999 999999 999999 999999 999999 999999 999999 999999 999999 999999 999999 999999 999999 999999 999999 999999 999999 999999 12254
999999 12257 15546 14862 17515 16522 11508 19663 14554 14525 13707 19514 16252 12515 14262 14037 11141 16876 13609 18649 16306 10740 10135 17982 11911 13657 19422 17015 13750 14661 12499 14615 19949 16472 19741 16650 15425 17968 11655 13034 19165 10931 16867 13475 14360 16120 18786 13732 10121 10320 19313 17213 16951 12550 15442 13950 14386 19716 18861 19054 17322 17397 18430 14838 15808 16919 15318 19993 12976 12858 14956 999999 999999 999999 999999 999999 999999 999999 999999 999999 999999 999999 999999 999999 999999 999999 0 999999 999999 999999 999999 999999 999999 999999 999999 999999 999999 999999 999999 999999 999999 999999 999999 999999 999999 999999 999999 999999 999999 999999 999999 999999 999999 999999 999999 999999 999999 999999 999999 999999 999999 999999 999999 999999 999999 999999 999999 999999 999999 999999 999999 999999 999999 999999 999999 999999 999999 999999 999999 999999 999999 10392
999999 13255 10549 12246 10805 17581 16981 15772 13050 18507 13310 14646 14353 16310 11864 17000 17291 15307 14917 10452 18892 16504 18622 10291 18873 16655 16752 11559 14180 14449 17634 10889 16117 15237 18410 15098 13138 19901 13427 10937 12882 12334 10036 10304 14408 12186 12627 17231 18297 12953 14171 18135 18169 17935 15530 12066 11121 18404 13841 12895 11704 10595 10065 13113 16152 10393 12457 19445 10564 15985 17150 999999 999999 999999 999999 999999 999999 999999 999999 999999 999999 999999 999999 999999 999999 999999 999999 0 999999 999999 999999 999999 999999 999999 999999 999999 999999 999999 999999 999999 999999 999999 999999 999999 999999 999999 999999 999999 999999 999999 999999 999999 999999 999999 999999 999999 999999 999999 999999 999999 999999 999999 999999 999999 999999 999999 999999 999999 999999 999999 999999 999999 999999 999999 999999 999999 999999 999999 999999 999999 999999 9439
999999 15925 16780 19283 13470 19905 10044 18115 19402 15409 14856 16380 11167 18058 13754 14286 17691 10647 15680 17724 17769 14691 10887 12721 18155 17087 16675 15769 10647 18061 13261 14339 17952 12063 13105 12509 17212 12796 15999 13198 19732 17498 15443 14788 19639 14169 18512 15429 18218 18020 12696 16267 19062 12070 18449 17400 14938 12986 16599 14248 19023 13826 13371 12991 15077 16037 10689 17729 18808 15372 19236 999999 999999 999999 999999 999999 999999 999999 999999 999999 999999 999999 999999 999999 999999 999999 999999 999999 0 999999 999999 999999 999999 999999 999999 999999 999999 999999 999999 999999 999999 999999 999999 999999 999999 999999 999999 999999 999999 999999 999999 999999 999999 999999 999999 999999 999999 999999 999999 999999 999999 999999 999999 999999 999999 999999 999999 999999 999999 999999 999999 999999 999999 999999 999999 999999 999999 999999 999999 999999 999999 9257
999999 16585 14628 14927 10488 15839 11011 11786 11804 12361 18001 19052 13025 16506 12490 18465 13151 13544 13858 11037 16392 10416 18720 10028 12009 10365 18326 12858 11646 16698 16835 11015 11320 17616 12726 18154 17488 15705 17773 11750 15743 19698 18363 12290 17181 10223 17244 11128 14799 16862 16204 19739 15165 11004 11737 10775 10308 11609 16491 13362 18374 19796 11799 13372 16236 15356 10932 14592 15225 18868 18016 999999 999999 999999 999999 999999 999999 999999 999999 999999 999999 999999 999999 999999 999999 999999 999999 999999 999999 0 999999 999999 999999 999999 999999 999999 999999 999999 999999 999999 999999 999999 999999 999999 999999 999999 999999 999999 999999 999999 999999 999999 999999 999999 999999 999999 999999 999999 999999 999999 999999 999999 999999 999999 999999 999999 999999 999999 999999 999999 999999 999999 999999 999999 999999 999999 999999 999999 999999 999999 999999 5025
999999 19737 17170 14873 18754 10781 17136 19620 12339 17827 13162 15761 14046 16644 13433 15158 12954 18879 12401 17795 14809 13695 14361 10756 14839 18386 10148 18145 13215 17667 16413 18937 13612 13374 15430 13703 16900 19665 16320 19783 10526 16651 10255 14351 15917 16556 11955 16781 15663 13601 18942 19157 13007 10007 10272 11784 19765 10226 13836 19492 16890 13290 19374 16391 14741 10092 14905 12416 12101 17151 17884 999999 999999 999999 999999 999999 999999 999999 999999 999999 999999 999999 999999 999999 999999 999999 999999 999999 999999 999999 0 999999 999999 999999 999999 999999 999999 999999 999999 999999 999999 999999 999999 999999 999999 999999 999999 999999 999999 999999 999999 999999 999999 999999 999999 999999 999999 999999 999999 999999 999999 999999 999999 999999 999999 999999 999999 999999 999999 999999 999999 999999 999999 999999 999999 999999 999999 999999 999999 999999 999999 7613
999999 19102 13480 15762 17486 11041 14051 15627 11402 14077 17673 13186 16033 12161 13205 18671 17401 15016 19131 19798 10857 12201 13221 17333 14304 16539 13186 15134 13793 18763 12644 13768 19527 17889 11571 19562 11105 15147 17517 12542 15325 10243 12351 16555 15299 12206 19095 12594 16168 18575 19445 13840 11618 18664 14462 10614 12248 13039 19987 13966 12876 19998 19668 17154 14634 17031 10182 19125 11867 14730 11749 999999 999999 999999 999999 999999 999999 999999 999999 999999 999999 999999 999999 999999 999999 999999 999999 999999 999999 999999 999999 0 999999 999999 999999 999999 999999 999999 999999 999999 999999 999999 999999 999999 999999 999999 999999 999999 999999 999999 999999 999999 999999 999999 999999 999999 999999 999999 999999 999999 999999 999999 999999 999999 999999 999999 999999 999999 999999 999999 999999 999999 999999 999999 999999 999999 999999 999999 999999 999999 999999 12727
999999 11346 10465 17759 13116 10388 14202 18509 16159 14819 19046 19005 11284 17430 13728 10318 10445 10661 17081 12372 10005 15814 19005 19030 14655 11242 10018 12773 19335 12006 12564 12165 13807 15147 19659 19980 17415 14044 12822 10530 13212 14306 19028 19471 12067 18289 18587 19969 18999 12775 13369 11195 19536 18280 14599 19078 11677 12212 18264 10150 17687 11632 12625 11341 12737 17540 18029 14480 13958 14191 12844 999999 999999 999999 999999 999999 999999 999999 999999 999999 999999 999999 999999 999999 999999 999999 999999 999999 999999 999999 999999 999999 0 999999 999999 999999 999999 999999 999999 999999 999999 999999 999999 999999 999999 999999 999999 999999 999999 999999 999999 999999 999999 999999 999999 999999 999999 999999 999999 999999 999999 999999 999999 999999 999999 999999 999999 999999 999999 999999 999999 999999 999999 999999 999999 999999 999999 999999 999999 999999 999999 10251
999999 14364 18081 15742 14765 17851 17175 19301 18207 19184 15423 15044 16645 15581 11897 17043 17384 11400 14428 14482 12675 19339 11729 19918 16222 19613 15463 19060 11639 17242 19739 18156 15249 16556 14844 13027 19441 10103 13391 10701 13764 14320 13447 15692 12788 16983 14499 16389 16726 19500 15415 18470 18125 11350 17237 13662 15618 15306 14534 19599 15755 10657 12381 15433 15363 12801 19107 17180 14237 13450 13502 999999 999999 999999 999999 999999 999999 999999 999999 999999 999999 999999 999999 999999 999999 999999 999999 999999 999999 999999 999999 999999 999999 0 999999 999999 999999 999999 999999 999999 999999 999999 999999 999999 999999 999999 999999 999999 999999 999999 999999 999999 999999 999999 999999 999999 999999 999999 999999 999999 999999 999999 999999 999999 999999 999999 999999 999999 999999 999999 999999 999999 999999 999999 999999 999999 999999 999999 999999 999999 999999 9438
999999 12175 16430 15191 11660 12686 11248 13900 15408 14301 11321 19632 16947 17181 16417 19717 15099 17366 18433 16935 17258 12912 15454 19640 11690 14953 10724 17623 10188 11899 16122 12493 14212 19128 19540 17013 14149 11168 14715 19400 19062 14030 16914 19906 11115 10313 15818 18164 16483 19208 18507 13152 18982 17088 19131 18583 18904 16014 15309 11228 11085 14501 12560 11178 14825 15980 19803 14107 12178 15888 10319 999999 999999 999999 999999 999999 999999 999999 999999 999999 999999 999999 999999 999999 999999 999999 999999 999999 999999 999999 999999 999999 999999 999999 0 999999 999999 999999 999999 999999 999999 999999 999999 999999 999999 999999 999999 999999 999999 999999 999999 999999 999999 999999 999999 999999 999999 999999 999999 999999 999999 999999 999999 999999 999999 999999 999999 999999 999999 999999 999999 999999 999999 999999 999999 999999 999999 999999 999999 999999 999999 8233
999999 14426 14978 14370 13427 10545 17935 10875 12499 15233 18599 11372 13234 13899 12816 18755 19760 19602 14070 15646 16348 17054 10473 14852 16226 10773 15615 16098 17463 15565 19606 16396 17590 17916 18707 12114 17498 19466 14073 13087 11604 13331 13353 13617 15350 11720 12780 15833 19870 10956 19916 17410 15737 14100 10477 11165 11065 13862 10377 14305 11328 17619 16295 14736 17931 18863 12269 15111 17345 11423 10576 999999 999999 999999 999999 999999 999999 999999 999999 999999 999999 999999 999999 999999 999999 999999 999999 999999 999999 999999 999999 999999 999999 999999 999999 0 999999 999999 999999 999999 999999 999999 999999 999999 999999 999999 999999 999999 999999 999999 999999 999999 999999 999999 999999 999999 999999 999999 999999 999999 999999 999999 999999 999999 999999 999999 999999 999999 999999 999999 999999 999999 999999 999999 999999 999999 999999 999999 999999 999999 999999 10981
999999 18806 13219 15979 15138 11022 18033 19543 14029 14234 16906 12292 13205 17704 13440 15544 15430 16022 19271 18825 18392 11417 14735 10295 10541 14896 11314 17220 10785 12586 15573 14950 17910 11111 10131 17035 14943 16265 13252 12816 19739 19893 18754 19843 18219 11029 11690 15859 17331 15587 16981 12089 12600 14315 14608 14045 11932 15070 10066 17230 15959 18296 12567 19362 10451 10988 18189 10265 10437 10794 15261 999999 999999 999999 999999 999999 999999 999999 999999 999999 999999 999999 999999 999999 999999 999999 999999 999999 999999 999999 999999 999999 999999 999999 999999 999999 0 999999 999999 999999 999999 999999 999999 999999 999999 999999 999999 999999 999999 999999 999999 999999 999999 999999 999999 999999 999999 999999 999999 999999 999999 999999 999999 999999 999999 999999 999999 999999 999999 999999 999999 999999 999999 999999 999999 999999 999999 999999 999999 999999 999999 13576
999999 19759 14605 14003 15961 12847 11940 14824 13442 18588 13577 16018 10572 12179 17100 17267 19330 13321 19334 17832 11198 14908 12205 19259 16876 17154 12305 12072 10801 17734 11703 18080 10234 18136 19222 18882 14484 19191 15678 11121 15690 17812 16986 10374 19849 12963 18937 19204 19345 16994 18489 18935 11797 10088 13619 14322 11921 14839 17299 17025 19754 12480 14392 18656 19061 10468 10354 15658 13644 19897 10924 999999 999999 999999 999999 999999 999999 999999 999999 999999 999999 999999 999999 999999 999999 999999 999999 999999 999999 999999 999999 999999 999999 999999 999999 999999 999999 0 999999 999999 999999 999999 999999 999999 999999 999999 999999 999999 999999 999999 999999 999999 999999 999999 999999 999999 999999 999999 999999 999999 999999 999999 999999 999999 999999 999999 999999 999999 999999 999999 999999 999999 999999 999999 999999 999999 999999 999999 999999 999999 999999 9177
999999 12128 10602 10478 12402 15342 16580 10991 14501 11085 19359 19010 12123 13809 10199 13935 18755 13530 16095 10734 17297 16524 19988 10740 14211 19766 12403 11160 11383 12219 16105 12664 16137 11959 17827 17433 19741 11890 10364 17068 18206 11851 12193 15805 19809 10702 13988 11509 11253 14156 18992 19142 11889 12083 14074 13370 12903 16290 12370 18004 19937 12024 13599 13785 11773 17010 15998 11538 12216 13366 10769 999999 999999 999999 999999 999999 999999 999999 999999 999999 999999 999999 999999 999999 999999 999999 999999 999999 999999 999999 999999 999999 999999 999999 999999 999999 999999 999999 0 999999 999999 999999 999999 999999 999999 999999 999999 999999 999999 999999 999999 999999 999999 999999 999999 999999 999999 999999 999999 999999 999999 999999 999999 999999 999999 999999 999999 999999 999999 999999 999999 999999 999999 999999 999999 999999 999999 999999 999999 999999 999999 12000
999999 18926 11957 17598 13558 14088 10050 12440 17740 16667 11488 14855 15551 13239 11274 14819 10927 12359 17708 19117 15298 15109 18503 13453 17693 13335 13975 10849 17690 18620 13326 18389 10115 12592 11375 18731 15467 14997 19632 13303 12709 15887 16996 11403 17259 13405 13247 18563 11085 19460 13687 12607 18424 13471 17766 17094 10681 11382 10872 14853 15435 11021 17706 18437 16782 19038 15113 12252 19732 10936 14314 999999 999999 999999 999999 999999 999999 999999 999999 999999 999999 999999 999999 999999 999999 999999 999999 999999 999999 999999 999999 999999 999999 999999 999999 999999 999999 999999 999999 0 999999 999999 999999 999999 999999 999999 999999 999999 999999 999999 999999 999999 999999 999999 999999 999999 999999 999999 999999 999999 999999 999999 999999 999999 999999 999999 999999 999999 999999 999999 999999 999999 999999 999999 999999 999999 999999 999999 999999 999999 999999 11093
999999 19426 12820 14014 12287 14418 14124 18023 12021 18980 14869 12259 16817 17712 10986 10009 17758 17336 16166 13543 19276 19578 19800 12442 15110 13147 11898 12816 14803 12469 13963 12910 12399 13778 15654 15215 13937 15143 19801 14965 18164 17134 10936 10091 19136 16218 12533 12370 17379 15194 18091 13079 17996 13577 12758 15793 16042 14382 17024 17092 14481 10901 12271 18949 16778 13182 19816 16528 15015 12939 18462 999999 999999 999999 999999 999999 999999 999999 999999 999999 999999 999999 999999 999999 999999 999999 999999 999999 999999 999999 999999 999999 999999 999999 999999 999999 999999 999999 999999 999999 0 999999 999999 999999 999999 999999 999999 999999 999999 999999 999999 999999 999999 999999 999999 999999 999999 999999 999999 999999 999999 999999 999999 999999 999999 999999 999999 999999 999999 999999 999999 999999 999999 999999 999999 999999 999999 999999 999999 999999 999999 11848
999999 19962 14488 10605 19511 10145 18848 12156 12479 18958 19473 19983 11669 18772 17973 10207 15118 11648 16216 11844 19811 10114 18222 13808 16308 16384 15384 13356 16502 19519 11096 14809 15659 19773 10129 17821 18595 12142 12229 18275 18135 11546 14310 15930 11645 12908 13300 11382 17050 17225 18390 16327 10080 12316 12221 16999 10995 13700 17271 14692 14454 18936 13883 13901 14375 13980 10715 18742 14560 14953 12799 999999 999999 999999 999999 999999 999999 999999 999999 999999 999999 999999 999999 999999 999999 999999 999999 999999 999999 999999 999999 999999 999999 999999 999999 999999 999999 999999 999999 999999 999999 0 999999 999999 999999 999999 999999 999999 999999 999999 999999 999999 999999 999999 999999 999999 999999 999999 999999 999999 999999 999999 999999 999999 999999 999999 999999 999999 999999 999999 999999 999999 999999 999999 999999 999999 999999 999999 999999 999999 999999 12137
999999 19796 15970 16636 12469 10016 13533 12753 13137 18231 19347 18812 11119 18702 19984 10171 14720 19652 16967 12359 11364 10703 13316 11031 11749 13108 11282 10352 16404 13809 17197 12881 10748 16829 18336 16602 15841 18946 17113 14024 12307 12762 12487 15226 16587 11966 12320 17565 13451 17832 19072 19511 16654 18842 17736 12657 19427 19169 12497 10544 12680 13977 19334 12525 15005 19188 13278 15888 13678 13039 11286 999999 999999 999999 999999 999999 999999 999999 999999 999999 999999 999999 999999 999999 999999 999999 999999 999999 999999 999999 999999 999999 999999 999999 999999 999999 999999 999999 999999 999999 999999 999999 0 999999 999999 999999 999999 999999 999999 999999 999999 999999 999999 999999 999999 999999 999999 999999 999999 999999 999999 999999 999999 999999 999999 999999 999999 999999 999999 999999 999999 999999 999999 999999 999999 999999 999999 999999 999999 999999 999999 13703
999999 19426 13408 10182 13855 16496 15716 13378 12495 12299 15654 10801 14768 14120 18005 10548 11844 12528 16190 19724 11951 16611 16089 12343 17124 12855 19603 15475 11657 18284 18588 19513 11888 16400 13804 18005 17822 13797 16973 11456 16438 16280 12424 17170 18081 18736 13787 10758 17413 13341 11306 19375 11494 14122 16800 16010 14539 10834 10121 18499 11758 11898 11241 19745 14486 19699 15537 18420 17228 12602 15626 999999 999999 999999 999999 999999 999999 999999 999999 999999 999999 999999 999999 999999 999999 999999 999999 999999 999999 999999 999999 999999 999999 999999 999999 999999 999999 999999 999999 999999 999999 999999 999999 0 999999 999999 999999 999999 999999 999999 999999 999999 999999 999999 999999 999999 999999 999999 999999 999999 999999 999999 999999 999999 999999 999999 999999 999999 999999 999999 999999 999999 999999 999999 999999 999999 999999 999999 999999 999999 999999 6405
999999 15394 11059 12960 12880 13351 13313 18095 10278 10100 10003 11359 14151 11108 18094 17134 10868 10266 11078 14835 18949 18766 10782 11863 18159 16374 15690 14142 11722 13363 12259 14332 18476 13228 19487 13534 15189 14384 17891 15971 10384 15948 14690 15685 10167 14749 19067 13454 12728 12474 18269 12508 10786 19617 12438 11256 12918 11523 15090 11811 18840 11261 10156 15668 13297 16148 19155 18972 18006 10601 14904 999999 999999 999999 999999 999999 999999 999999 999999 999999 999999 999999 999999 999999 999999 999999 999999 999999 999999 999999 999999 999999 999999 999999 999999 999999 999999 999999 999999 999999 999999 999999 999999 999999 0 999999 999999 999999 999999 999999 999999 999999 999999 999999 999999 999999 999999 999999 999999 999999 999999 999999 999999 999999 999999 999999 999999 999999 999999 999999 999999 999999 999999 999999 999999 999999 999999 999999 999999 999999 999999 9413
999999 11139 12112 10265 18759 10697 17499 18643 17719 17861 13386 18186 17990 14898 16593 14305 18592 14268 11902 19044 15855 14849 16686 13988 19205 19281 17347 14775 16954 16531 11698 17287 11738 11322 15709 17990 11053 17272 15085 19586 16717 13614 14568 10425 16383 18417 12768 13142 10575 14080 10887 19370 19214 13497 13614 10105 10897 18341 18957 16458 15615 18656 10434 19092 16968 14013 12187 10958 12666 12942 13609 999999 999999 999999 999999 999999 999999 999999 999999 999999 999999 999999 999999 999999 999999 999999 999999 999999 999999 999999 999999 999999 999999 999999 999999 999999 999999 999999 999999 999999 999999 999999 999999 999999 999999 0 999999 999999 999999 999999 999999 999999 999999 999999 999999 999999 999999 999999 999999 999999 999999 999999 999999 999999 999999 999999 999999 999999 999999 999999 999999 999999 999999 999999 999999 999999 999999 999999 999999 999999 999999 14196
999999 11778 18494 11018 10981 15359 10586 14160 14511 18399 15650 13142 16475 14830 18970 16716 15712 19072 13072 13113 12363 17814 12457 14547 14123 15159 18252 10628 19451 17900 19065 16843 14345 10145 16897 15224 12812 15613 14831 15998 16805 16702 19979 13311 12047 17048 19560 14842 14846 17808 19701 13767 12837 13496 11909 15580 19953 18205 11142 10338 16935 13052 14029 18340 10606 12994 14844 11188 19088 19909 10087 999999 999999 999999 999999 999999 999999 999999 999999 999999 999999 999999 999999 999999 999999 999999 999999 999999 999999 999999 999999 999999 999999 999999 999999 999999 999999 999999 999999 999999 999999 999999 999999 999999 999999 999999 0 999999 999999 999999 999999 999999 999999 999999 999999 999999 999999 999999 999999 999999 999999 999999 999999 999999 999999 999999 999999 999999 999999 999999 999999 999999 999999 999999 999999 999999 999999 999999 999999 999999 999999 12162
999999 14266 15521 18802 10499 11641 10063 12382 19712 15967 13171 15407 14720 11514 19713 17437 13833 11301 13738 11634 13804 10169 15049 10231 10909 11256 18226 14851 10570 18008 15854 10698 13215 14874 13007 19972 19901 18458 15334 16796 11553 13953 10786 19760 14063 15361 11153 10381 16704 16727 17202 10588 12404 18606 11022 13688 14679 15254 19340 14160 18661 12235 12758 11521 15338 10742 17141 11546 12990 16661 10227 999999 999999 999999 999999 999999 999999 999999 999999 999999 999999 999999 999999 999999 999999 999999 999999 999999 999999 999999 999999 999999 999999 999999 999999 999999 999999 999999 999999 999999 999999 999999 999999 999999 999999 999999 999999 0 999999 999999 999999 999999 999999 999999 999999 999999 999999 999999 999999 999999 999999 999999 999999 999999 999999 999999 999999 999999 999999 999999 999999 999999 999999 999999 999999 999999 999999 999999 999999 999999 999999 10326
999999 11288 17604 15235 18437 17842 14614 17839 17239 16974 11639 12345 19385 12557 11741 15103 18316 10020 11194 14843 19365 16668 16987 17234 13928 16195 15307 17585 11850 15290 10631 10786 13036 14475 14942 17181 15588 11975 13803 15718 17700 16682 11250 10969 15070 14958 17631 11807 12264 10398 15985 19458 12366 10646 16342 19417 13885 16857 19784 11558 18873 12280 18489 12504 16682 16313 13989 15322 14721 11252 16708 999999 999999 999999 999999 999999 999999 999999 999999 999999 999999 999999 999999 999999 999999 999999 999999 999999 999999 999999 999999 999999 999999 999999 999999 999999 999999 999999 999999 999999 999999 999999 999999 999999 999999 999999 999999 999999 0 999999 999999 999999 999999 999999 999999 999999 999999 999999 999999 999999 999999 999999 999999 999999 999999 999999 999999 999999 999999 999999 999999 999999 999999 999999 999999 999999 999999 999999 999999 999999 999999 5584
999999 10626 10998 10869 19295 14541 12218 16703 11532 16617 12048 19422 18448 17434 12426 18338 17552 17417 16202 12093 17078 14548 17719 13738 14429 14681 10968 14848 10636 10320 19336 13598 14911 16632 16010 17207 13571 16902 13785 12523 16050 16418 17274 17297 19660 15564 19057 15891 16753 18635 14590 17080 15048 14930 18735 11643 10298 15190 11566 17640 15375 16324 10696 18822 11702 16041 18602 16450 10273 14781 13112 999999 999999 999999 999999 999999 999999 999999 999999 999999 999999 999999 999999 999999 999999 999999 999999 999999 999999 999999 999999 999999 999999 999999 999999 999999 999999 999999 999999 999999 999999 999999 999999 999999 999999 999999 999999 999999 999999 0 999999 999999 999999 999999 999999 999999 999999 999999 999999 999999 999999 999999 999999 999999 999999 999999 999999 999999 999999 999999 999999 999999 999999 999999 999999 999999 999999 999999 999999 999999 999999 5798
999999 16281 10215 15853 15452 10573 18498 13028 15264 15701 14603 18690 15820 18695 11068 17727 10329 10100 14037 18504 10011 10152 15831 18525 17386 18550 17083 17700 18497 17422 19810 16829 13207 17673 17946 10589 14096 13491 10642 15002 10551 10550 10015 16874 11374 14937 11941 10103 19744 18446 11404 12581 14673 12729 18447 14176 16885 15452 11595 14382 17701 14261 15831 10818 14958 17192 12016 15442 17942 16478 18238 999999 999999 999999 999999 999999 999999 999999 999999 999999 999999 999999 999999 999999 999999 999999 999999 999999 999999 999999 999999 999999 999999 999999 999999 999999 999999 999999 999999 999999 999999 999999 999999 999999 999999 999999 999999 999999 999999 999999 0 999999 999999 999999 999999 999999 999999 999999 999999 999999 999999 999999 999999 999999 999999 999999 999999 999999 999999 999999 999999 999999 999999 999999 999999 999999 999999 999999 999999 999999 999999 9056
999999 15517 18588 17162 11342 13660 10490 17001 13550 12172 11025 10700 18964 11481 11268 11004 15039 15006 12256 17918 14545 13861 18531 14250 14927 17230 18950 19416 11351 12541 18592 19167 18552 12309 19258 18078 12162 11906 14533 14097 10976 13393 18433 17273 11296 14160 10308 11771 16212 17610 12377 13019 16689 15393 18055 12838 16132 17637 11606 15087 10497 16776 13649 17509 13531 10910 19922 11276 13448 13950 15233 999999 999999 999999 999999 999999 999999 999999 999999 999999 999999 999999 999999 999999 999999 999999 999999 999999 999999 999999 999999 999999 999999 999999 999999 999999 999999 999999 999999 999999 999999 999999 999999 999999 999999 999999 999999 999999 999999 999999 999999 0 999999 999999 999999 999999 999999 999999 999999 999999 999999 999999 999999 999999 999999 999999 999999 999999 999999 999999 999999 999999 999999 999999 999999 999999 999999 999999 999999 999999 999999 11629
999999 12287 17885 19034 18684 13688 18675 13071 19693 15128 19930 16790 18799 17113 14204 12398 14477 18056 16794 16531 12656 12460 19386 11487 19319 12231 18761 13865 17453 16432 15850 16836 11379 10270 19469 16149 18811 10645 13973 13776 17384 13103 14087 14716 12067 19786 13994 19974 15771 17043 11032 19763 15428 17916 15792 11444 14090 12131 10336 12436 12000 17093 14379 18560 14411 11482 10330 18110 13747 14612 10017 999999 999999 999999 999999 999999 999999 999999 999999 999999 999999 999999 999999 999999 999999 999999 999999 999999 999999 999999 999999 999999 999999 999999 999999 999999 999999 999999 999999 999999 999999 999999 999999 999999 999999 999999 999999 999999 999999 999999 999999 999999 0 999999 999999 999999 999999 999999 999999 999999 999999 999999 999999 999999 999999 999999 999999 999999 999999 999999 999999 999999 999999 999999 999999 999999 999999 999999 999999 999999 999999 7472
999999 16141 18243 16719 19055 19402 13568 10637 17275 10658 11135 14104 17820 16096 10770 12674 12934 15106 19207 12074 16730 15362 15073 16142 11546 16608 14702 10980 17653 19650 11984 17557 15769 16963 11084 19600 11306 10853 17553 18847 18064 19652 12053 10086 14148 14030 14916 15698 18704 13212 10822 18664 12367 19538 17087 17855 14625 11538 14524 14178 10274 18027 10170 10837 14924 18421 13068 11680 19068 16572 13548 999999 999999 999999 999999 999999 999999 999999 999999 999999 999999 999999 999999 999999 999999 999999 999999 999999 999999 999999 999999 999999 999999 999999 999999 999999 999999 999999 999999 999999 999999 999999 999999 999999 999999 999999 999999 999999 999999 999999 999999 999999 999999 0 999999 999999 999999 999999 999999 999999 999999 999999 999999 999999 999999 999999 999999 999999 999999 999999 999999 999999 999999 999999 999999 999999 999999 999999 999999 999999 999999 9683
999999 19338 10811 11078 15292 19006 12787 15043 14794 15287 19918 13824 17333 10451 11532 14401 17845 10938 12361 16802 13634 15492 19807 18088 12477 13310 19459 13687 13001 15013 14211 12113 15880 10974 16935 14536 13321 15694 11069 16753 13832 12681 12574 19781 14490 15891 12943 12175 18165 15691 19107 10627 18282 16612 15664 10368 18695 13929 15793 14216 16714 16674 11860 14160 16275 14242 13521 16337 10329 15354 15600 999999 999999 999999 999999 999999 999999 999999 999999 999999 999999 999999 999999 999999 999999 999999 999999 999999 999999 999999 999999 999999 999999 999999 999999 999999 999999 999999 999999 999999 999999 999999 999999 999999 999999 999999 999999 999999 999999 999999 999999 999999 999999 999999 0 999999 999999 999999 999999 999999 999999 999999 999999 999999 999999 999999 999999 999999 999999 999999 999999 999999 999999 999999 999999 999999 999999 999999 999999 999999 999999 13092
999999 10633 13231 12906 12783 19165 19305 17901 17827 13431 16860 15807 17340 17518 19975 15005 19797 11634 17149 11502 13413 16306 11317 13201 11950 15880 13205 16998 18597 13087 13613 12538 16299 12076 13190 15288 16499 13212 16734 19791 19506 15727 13487 11836 15369 16413 14305 10413 15811 11620 11910 10357 10290 15039 17090 17767 19694 14381 13293 17053 14026 10404 11706 11114 13859 10940 17394 16770 14876 16306 17797 999999 999999 999999 999999 999999 999999 999999 999999 999999 999999 999999 999999 999999 999999 999999 999999 999999 999999 999999 999999 999999 999999 999999 999999 999999 999999 999999 999999 999999 999999 999999 999999 999999 999999 999999 999999 999999 999999 999999 999999 999999 999999 999999 999999 0 999999 999999 999999 999999 999999 999999 999999 999999 999999 999999 999999 999999 999999 999999 999999 999999 999999 999999 999999 999999 999999 999999 999999 999999 999999 12132
999999 10552 16303 12372 12846 18407 15546 12148 10312 13821 11967 16123 16724 10027 14946 16857 17737 10495 14385 19848 11234 11837 14154 19878 16137 14314 16646 10711 16939 18929 16719 14963 12736 14989 15678 19845 14624 17332 11006 11241 15436 16427 10121 18321 18913 13191 18013 19877 10814 17570 17178 17036 11270 11920 16077 14858 12563 14406 18809 11949 15454 15390 14221 10859 10121 18338 12222 11175 10605 13065 14935 999999 999999 999999 999999 999999 999999 999999 999999 999999 999999 999999 999999 999999 999999 999999 999999 999999 999999 999999 999999 999999 999999 999999 999999 999999 999999 999999 999999 999999 999999 999999 999999 999999 999999 999999 999999 999999 999999 999999 999999 999999 999999 999999 999999 999999 0 999999 999999 999999 999999 999999 999999 999999 999999 999999 999999 999999 999999 999999 999999 999999 999999 999999 999999 999999 999999 999999 999999 999999 999999 5483
999999 18363 13745 14229 17255 10910 10804 12357 14608 12002 17093 17176 18782 17364 11618 10028 17763 10640 13453 14763 19328 12898 19134 13715 15841 19706 18064 13613 15354 16586 19935 11260 18786 13321 16193 10463 16357 13595 15221 17470 13894 19960 10656 15214 15171 10545 10003 10022 14317 18327 13500 16599 10863 13598 13559 18194 14315 15414 14858 17506 14446 11997 18522 15611 15195 17250 16435 13647 11707 15026 13430 999999 999999 999999 999999 999999 999999 999999 999999 999999 999999 999999 999999 999999 999999 999999 999999 999999 999999 999999 999999 999999 999999 999999 999999 999999 999999 999999 999999 999999 999999 999999 999999 999999 999999 999999 999999 999999 999999 999999 999999 999999 999999 999999 999999 999999 999999 0 999999 999999 999999 999999 999999 999999 999999 999999 999999 999999 999999 999999 999999 999999 999999 999999 999999 999999 999999 999999 999999 999999 999999 11190
999999 10341 13224 17612 14975 15808 15609 11355 16240 16003 17067 12205 17492 10537 15398 14839 18425 11470 19335 15882 17806 15468 13280 14596 12824 19063 12905 18980 18551 10546 10571 13706 14648 17721 14941 10848 11788 15689 19859 16280 10967 16103 10291 10977 13642 17207 11581 14877 14094 16886 15989 15611 14617 11807 15488 11373 14394 10953 16615 17522 14546 14595 15983 16376 13238 10586 14080 12348 14976 15932 17445 999999 999999 999999 999999 999999 999999 999999 999999 999999 999999 999999 999999 999999 999999 999999 999999 999999 999999 999999 999999 999999 999999 999999 999999 999999 999999 999999 999999 999999 999999 999999 999999 999999 999999 999999 999999 999999 999999 999999 999999 999999 999999 999999 999999 999999 999999 999999 0 999999 999999 999999 999999 999999 999999 999999 999999 999999 999999 999999 999999 999999 999999 999999 999999 999999 999999 999999 999999 999999 999999 14708
999999 12315 16585 12559 19226 14423 13394 11746 16949 19824 17427 13084 13291 14947 17108 13625 10885 17861 19768 15958 13948 17689 11040 12603 18770 16911 18180 19291 18423 15469 14542 14555 16756 10285 12447 17369 11219 13081 13763 12761 18138 19238 18340 16694 13060 16536 15596 18906 12601 13355 14470 18631 17342 18456 14425 17091 15984 10487 12656 11081 11348 19396 17784 12203 11987 17859 19695 14843 10353 12307 17444 999999 999999 999999 999999 999999 999999 999999 999999 999999 999999 999999 999999 999999 999999 999999 999999 999999 999999 999999 999999 999999 999999 999999 999999 999999 999999 999999 999999 999999 999999 999999 999999 999999 999999 999999 999999 999999 999999 999999 999999 999999 999999 999999 999999 999999 999999 999999 999999 0 999999 999999 999999 999999 999999 999999 999999 999999 999999 999999 999999 999999 999999 999999 999999 999999 999999 999999 999999 999999 999999 10563
999999 17331 19070 19535 19778 19822 19881 17215 12670 17575 13954 12584 17601 19690 19656 13780 10113 12996 11752 18067 19276 17351 14830 16065 14611 15897 11809 14871 14598 11892 17885 17770 15091 19436 12450 10418 15217 18619 16454 18274 18959 14440 18292 14789 10318 16711 15151 15341 11399 19554 11623 13637 17957 15597 13071 12050 12347 19501 11574 19031 17534 16437 12760 14272 15964 11866 15484 14068 18499 19575 10873 999999 999999 999999 999999 999999 999999 999999 999999 999999 999999 999999 999999 999999 999999 999999 999999 999999 999999 999999 999999 999999 999999 999999 999999 999999 999999 999999 999999 999999 999999 999999 999999 999999 999999 999999 999999 999999 999999 999999 999999 999999 999999 999999 999999 999999 999999 999999 999999 999999 0 999999 999999 999999 999999 999999 999999 999999 999999 999999 999999 999999 999999 999999 999999 999999 999999 999999 999999 999999 999999 8333
999999 14721 13526 10153 14506 10677 18171 19505 19704 19684 13964 17137 13865 10353 16512 16097 16168 15520 18182 17318 10072 19624 16951 15279 13927 15486 10507 13343 18485 15563 11968 15778 16669 17822 18581 16960 14832 19097 12981 18862 13892 13529 16675 15415 14141 11373 14439 18951 19009 13002 16256 10274 16532 17862 12750 17460 10401 13831 13544 16391 14476 17098 18137 18672 15574 17690 19120 18278 17184 14571 11514 999999 999999 999999 999999 999999 999999 999999 999999 999999 999999 999999 999999 999999 999999 999999 999999 999999 999999 999999 999999 999999 999999 999999 999999 999999 999999 999999 999999 999999 999999 999999 999999 999999 999999 999999 999999 999999 999999 999999 999999 999999 999999 999999 999999 999999 999999 999999 999999 999999 999999 0 999999 999999 999999 999999 999999 999999 999999 999999 999999 999999 999999 999999 999999 999999 999999 999999 999999 999999 999999 14544
999999 14688 12897 13586 16691 13307 11627 14458 10515 12251 13655 16580 15541 19761 17995 16048 16539 17600 11059 14766 14529 13992 19011 15157 13156 11248 19258 18271 13734 19855 10369 19245 15019 16035 15724 10722 14706 12997 19232 19834 14357 15206 12847 17896 12904 15598 11981 12471 10904 13273 19842 15095 16758 18901 18162 12770 17275 15856 14257 19115 15729 14370 14217 11916 19447 18613 16959 15007 14360 17150 12792 999999 999999 999999 999999 999999 999999 999999 999999 999999 999999 999999 999999 999999 999999 999999 999999 999999 999999 999999 999999 999999 999999 999999 999999 999999 999999 999999 999999 999999 999999 999999 999999 999999 999999 999999 999999 999999 999999 999999 999999 999999 999999 999999 999999 999999 999999 999999 999999 999999 999999 999999 0 999999 999999 999999 999999 999999 999999 999999 999999 999999 999999 999999 999999 999999 999999 999999 999999 999999 999999 10865
999999 17907 10967 17038 11057 18355 10546 17684 11948 11044 13751 19401 16488 13295 12307 11370 10379 19700 16700 12772 12064 10675 13793 12826 13259 16005 17353 15175 17070 14223 13563 10375 13554 17552 13332 13968 17244 10626 15198 13167 12722 17359 10702 15467 15680 19366 14875 13266 12024 19107 17138 11217 14520 19924 19775 19282 13238 18873 17748 19712 16255 12089 12711 13054 16139 15273 18609 15046 19943 11201 15878 999999 999999 999999 999999 999999 999999 999999 999999 999999 999999 999999 999999 999999 999999 999999 999999 999999 999999 999999 999999 999999 999999 999999 999999 999999 999999 999999 999999 999999 999999 999999 999999 999999 999999 999999 999999 999999 999999 999999 999999 999999 999999 999999 999999 999999 999999 999999 999999 999999 999999 999999 999999 0 999999 999999 999999 999999 999999 999999 999999 999999 999999 999999 999999 999999 999999 999999 999999 999999 999999 6280
999999 10617 17593 17070 14112 17799 13775 19576 14199 14546 11944 18653 17228 15219 14490 12450 12694 17907 18167 16659 18417 17422 13907 11418 10969 13533 18320 14232 17298 15371 17070 10005 19258 15509 10761 11676 12775 17594 17483 13019 15836 15879 13919 18593 13212 13551 17459 12047 19943 12446 10518 19354 16139 10217 15009 14925 12049 19712 18416 18000 17385 15398 14361 10312 18355 19316 11686 10464 15505 17772 13208 999999 999999 999999 999999 999999 999999 999999 999999 999999 999999 999999 999999 999999 999999 999999 999999 999999 999999 999999 999999 999999 999999 999999 999999 999999 999999 999999 999999 999999 999999 999999 999999 999999 999999 999999 999999 999999 999999 999999 999999 999999 999999 999999 999999 999999 999999 999999 999999 999999 999999 999999 999999 999999 0 999999 999999 999999 999999 999999 999999 999999 999999 999999 999999 999999 999999 999999 999999 999999 999999 14885
999999 14917 12909 17586 17865 10919 10838 15481 11659 17238 12107 17122 18404 12163 19132 19214 10193 12568 17671 15431 11813 18544 18886 13950 16639 15093 17889 17431 15165 10122 14094 15188 19388 10799 19417 16415 14503 11600 18206 10053 16999 10854 19324 13457 17470 10061 17370 16726 13397 18859 11911 13239 14588 15171 17044 14008 18484 14045 11939 13376 16547 10915 12847 13347 12184 15825 18216 16740 18652 14736 12265 999999 999999 999999 999999 999999 999999 999999 999999 999999 999999 999999 999999 999999 999999 999999 999999 999999 999999 999999 999999 999999 999999 999999 999999 999999 999999 999999 999999 999999 999999 999999 999999 999999 999999 999999 999999 999999 999999 999999 999999 999999 999999 999999 999999 999999 999999 999999 999999 999999 999999 999999 999999 999999 999999 0 999999 999999 999999 999999 999999 999999 999999 999999 999999 999999 999999 999999 999999 999999 999999 8232
999999 18128 19596 15301 12069 16585 10803 14823 14162 15639 18357 15044 16875 15312 10325 13579 16408 19221 10664 17777 16685 15006 18087 17567 14314 15971 17211 10567 19544 18053 18890 10754 13021 18373 19158 18140 17218 10138 16263 12577 18924 14572 12069 15173 13119 19153 14667 15067 10491 12514 19524 14031 12723 10883 13210 15096 12119 14281 15505 17725 18264 16311 17760 11254 14298 13808 13527 19433 18710 14785 10894 999999 999999 999999 999999 999999 999999 999999 999999 999999 999999 999999 999999 999999 999999 999999 999999 999999 999999 999999 999999 999999 999999 999999 999999 999999 999999 999999 999999 999999 999999 999999 999999 999999 999999 999999 999999 999999 999999 999999 999999 999999 999999 999999 999999 999999 999999 999999 999999 999999 999999 999999 999999 999999 999999 999999 0 999999 999999 999999 999999 999999 999999 999999 999999 999999 999999 999999 999999 999999 999999 7353
999999 12158 15347 18495 15056 13495 14239 10459 16129 16510 12968 16821 16197 11968 10662 10269 12416 16961 14655 11585 18881 18914 16045 13744 11615 13511 10020 12697 19016 13843 18745 14906 19071 19610 13602 17584 16609 18255 13409 10883 10266 18173 12772 12376 11210 16393 13536 16675 10746 18082 18583 13512 15016 14089 16825 15330 14821 19994 14163 14356 17986 11723 18648 18766 15166 13704 14347 15162 14008 15222 19858 999999 999999 999999 999999 999999 999999 999999 999999 999999 999999 999999 999999 999999 999999 999999 999999 999999 999999 999999 999999 999999 999999 999999 999999 999999 999999 999999 999999 999999 999999 999999 999999 999999 999999 999999 999999 999999 999999 999999 999999 999999 999999 999999 999999 999999 999999 999999 999999 999999 999999 999999 999999 999999 999999 999999 999999 0 999999 999999 999999 999999 999999 999999 999999 999999 999999 999999 999999 999999 999999 6834
999999 14146 17039 16445 17637 16648 11815 13664 12826 19117 16802 17078 11722 15040 11966 14481 19002 18391 19216 17492 12913 18794 14923 10730 18466 13616 14725 18590 11249 16287 14684 12225 18471 11288 14123 18611 13647 18579 14536 15110 19673 19837 17288 10889 18893 18114 19218 17110 16162 11501 15388 13114 15010 16750 19536 11660 17330 11346 13129 17546 14951 16187 14891 10314 10147 19227 17503 17221 19762 16535 16030 999999 999999 999999 999999 999999 999999 999999 999999 999999 999999 999999 999999 999999 999999 999999 999999 999999 999999 999999 999999 999999 999999 999999 999999 999999 999999 999999 999999 999999 999999 999999 999999 999999 999999 999999 999999 999999 999999 999999 999999 999999 999999 999999 999999 999999 999999 999999 999999 999999 999999 999999 999999 999999 999999 999999 999999 999999 0 999999 999999 999999 999999 999999 999999 999999 999999 999999 999999 999999 999999 10651
999999 14476 19486 13037 15417 11160 12790 12020 15708 17606 11832 12963 14288 12134 17098 10519 12360 17595 13983 17672 12339 19042 14747 15069 14332 10667 11636 19088 13554 12033 10642 10324 15516 11599 17425 10515 12795 14981 13108 10133 18807 14839 19370 19840 19123 16070 18994 12104 12480 13025 18331 12651 11236 17530 15599 11925 18777 13766 16490 10397 19679 14220 18206 10814 19852 19421 16364 13550 12034 12108 12276 999999 999999 999999 999999 999999 999999 999999 999999 999999 999999 999999 999999 999999 999999 999999 999999 999999 999999 999999 999999 999999 999999 999999 999999 999999 999999 999999 999999 999999 999999 999999 999999 999999 999999 999999 999999 999999 999999 999999 999999 999999 999999 999999 999999 999999 999999 999999 999999 999999 999999 999999 999999 999999 999999 999999 999999 999999 999999 0 999999 999999 999999 999999 999999 999999 999999 999999 999999 999999 999999 5048
999999 13137 12592 17134 14339 19785 18189 14260 12215 13176 13340 17865 12016 15149 10434 14497 17552 17816 17482 17471 10438 12031 13498 11440 11401 18857 19216 18273 19252 11839 14787 18851 19105 11161 17599 17129 14666 17286 18091 19813 14653 17470 15759 14183 15229 18318 14672 14319 18243 10818 18625 13057 16647 12259 12237 16137 11232 16527 12639 18078 11105 14455 13381 16480 18729 18019 17715 15975 16124 18202 10552 999999 999999 999999 999999 999999 999999 999999 999999 999999 999999 999999 999999 999999 999999 999999 999999 999999 999999 999999 999999 999999 999999 999999 999999 999999 999999 999999 999999 999999 999999 999999 999999 999999 999999 999999 999999 999999 999999 999999 999999 999999 999999 999999 999999 999999 999999 999999 999999 999999 999999 999999 999999 999999 999999 999999 999999 999999 999999 999999 0 999999 999999 999999 999999 999999 999999 999999 999999 999999 999999 13287
999999 17836 12357 13013 13103 11599 15098 18550 12466 15740 17711 13575 15338 10043 15592 16977 17738 19271 13605 19005 13890 19290 18873 18026 14860 16971 17402 13107 13286 18233 19967 12401 18410 18084 12172 11907 18575 13516 11187 11584 13978 10670 18786 16643 14057 12387 17080 12539 20000 19729 16928 15997 19180 19429 10832 12008 12529 14176 18817 16425 16331 12519 15544 17556 12060 12591 19140 14975 15935 13740 16601 999999 999999 999999 999999 999999 999999 999999 999999 999999 999999 999999 999999 999999 999999 999999 999999 999999 999999 999999 999999 999999 999999 999999 999999 999999 999999 999999 999999 999999 999999 999999 999999 999999 999999 999999 999999 999999 999999 999999 999999 999999 999999 999999 999999 999999 999999 999999 999999 999999 999999 999999 999999 999999 999999 999999 999999 999999 999999 999999 999999 0 999999 999999 999999 999999 999999 999999 999999 999999 999999 13071
999999 17178 10468 19036 16487 11210 13905 18868 18358 11888 12179 18958 16536 17780 16620 13191 10109 16643 13160 16516 14288 19807 15422 12904 10684 11015 15137 17138 16237 14549 10962 15527 12941 15088 14598 12731 15690 13470 19358 16926 13730 12161 11741 15404 19014 14443 19362 12261 14451 11678 11116 14757 17267 17418 12160 16120 12557 13141 13617 13092 12626 11868 11630 11678 17169 15039 18283 19137 14925 13606 19523 999999 999999 999999 999999 999999 999999 999999 999999 999999 999999 999999 999999 999999 999999 999999 999999 999999 999999 999999 999999 999999 999999 999999 999999 999999 999999 999999 999999 999999 999999 999999 999999 999999 999999 999999 999999 999999 999999 999999 999999 999999 999999 999999 999999 999999 999999 999999 999999 999999 999999 999999 999999 999999 999999 999999 999999 999999 999999 999999 999999 999999 0 999999 999999 999999 999999 999999 999999 999999 999999 9283
999999 11300 12931 11858 17764 18729 13798 18306 11385 12283 12898 16125 13800 15987 16192 17969 16503 14966 14517 18654 10690 10017 10650 19844 17314 15939 14890 13068 13062 15243 16491 18991 19464 16355 10896 12332 15600 13933 10065 12152 16340 12211 10560 19857 13303 19600 10911 19698 15231 10659 11372 12002 15826 18012 15831 18785 11068 17217 15157 17653 12794 10420 19409 19392 18491 18720 11863 17321 12050 16656 11202 999999 999999 999999 999999 999999 999999 999999 999999 999999 999999 999999 999999 999999 999999 999999 999999 999999 999999 999999 999999 999999 999999 999999 999999 999999 999999 999999 999999 999999 999999 999999 999999 999999 999999 999999 999999 999999 999999 999999 999999 999999 999999 999999 999999 999999 999999 999999 999999 999999 999999 999999 999999 999999 999999 999999 999999 999999 999999 999999 999999 999999 999999 0 999999 999999 999999 999999 999999 999999 999999 8484
999999 11392 11407 17765 14522 17188 13893 16575 19558 19888 18521 16570 16946 10585 15853 14931 14059 15985 12619 17506 19562 11912 11029 16503 10148 16118 19888 13644 16435 17282 12656 14849 14673 10969 15261 18900 19416 18877 10808 12190 11046 12095 15058 10312 14697 14399 19499 11221 11288 14081 14374 13227 19659 18986 16437 12001 17470 13603 19964 16379 16100 10428 17420 15677 17284 12708 11117 19365 18307 14802 18604 999999 999999 999999 999999 999999 999999 999999 999999 999999 999999 999999 999999 999999 999999 999999 999999 999999 999999 999999 999999 999999 999999 999999 999999 999999 999999 999999 999999 999999 999999 999999 999999 999999 999999 999999 999999 999999 999999 999999 999999 999999 999999 999999 999999 999999 999999 999999 999999 999999 999999 999999 999999 999999 999999 999999 999999 999999 999999 999999 999999 999999 999999 999999 0 999999 999999 999999 999999 999999 999999 11461
999999 18813 10864 18875 15182 17426 11894 14863 17291 19663 19439 14523 12451 12281 17724 15875 18143 14416 15866 17883 12064 14023 19578 10089 11988 19659 15195 17535 10035 15031 11929 18450 18692 18334 11910 11216 13005 18045 15796 19509 16099 15870 15277 15929 10273 19019 12678 16403 18961 11138 15344 15679 19064 18613 18329 15529 15422 13065 19826 19512 19183 10747 19715 11837 17959 11781 18670 15220 13104 15704 19875 999999 999999 999999 999999 999999 999999 999999 999999 999999 999999 999999 999999 999999 999999 999999 999999 999999 999999 999999 999999 999999 999999 999999 999999 999999 999999 999999 999999 999999 999999 999999 999999 999999 999999 999999 999999 999999 999999 999999 999999 999999 999999 999999 999999 999999 999999 999999 999999 999999 999999 999999 999999 999999 999999 999999 999999 999999 999999 999999 999999 999999 999999 999999 999999 0 999999 999999 999999 999999 999999 10145
999999 14656 15920 18030 16453 19943 10295 13883 12706 15232 19508 17675 16249 11972 13899 14196 15885 11695 17133 11597 14012 11621 16421 15365 15943 13915 13970 16112 14158 16149 19206 18106 15159 17195 16100 17994 19177 12005 15354 14166 13668 11223 17644 19727 15446 10441 16001 16988 16697 18042 14339 18711 13225 10451 11396 18036 15814 12098 10850 19744 15667 17458 14346 18188 16478 19374 18671 17279 13657 19881 15305 999999 999999 999999 999999 999999 999999 999999 999999 999999 999999 999999 999999 999999 999999 999999 999999 999999 999999 999999 999999 999999 999999 999999 999999 999999 999999 999999 999999 999999 999999 999999 999999 999999 999999 999999 999999 999999 999999 999999 999999 999999 999999 999999 999999 999999 999999 999999 999999 999999 999999 999999 999999 999999 999999 999999 999999 999999 999999 999999 999999 999999 999999 999999 999999 999999 0 999999 999999 999999 999999 12859
999999 10880 15479 17672 15636 14351 16426 17627 12080 10104 12417 13217 17899 15879 10658 10671 15119 16180 16625 11604 19139 12103 14871 12971 15931 19838 12001 10531 12753 13731 18600 15799 11308 12603 15672 11344 15532 13448 18378 11514 11792 18308 12517 14129 11087 13599 12796 17071 19783 18570 15361 13127 10643 17070 15428 19870 11072 16924 10747 11761 10254 15398 19332 12863 16080 14017 13522 11053 19397 19122 11268 999999 999999 999999 999999 999999 999999 999999 999999 999999 999999 999999 999999 999999 999999 999999 999999 999999 999999 999999 999999 999999 999999 999999 999999 999999 999999 999999 999999 999999 999999 999999 999999 999999 999999 999999 999999 999999 999999 999999 999999 999999 999999 999999 999999 999999 999999 999999 999999 999999 999999 999999 999999 999999 999999 999999 999999 999999 999999 999999 999999 999999 999999 999999 999999 999999 999999 0 999999 999999 999999 9526
999999 18430 12174 17620 13924 19062 16046 12446 10012 17611 13472 16342 16752 14582 10552 11683 17962 13787 11970 16200 14052 14805 14012 10581 19564 13007 15519 16400 18972 15979 11259 14678 16293 18434 12533 11094 16826 17902 14222 18720 17181 17605 10344 19320 16588 15144 15070 17300 17945 12139 17321 11111 19420 19447 10571 13075 19886 11381 11570 14762 12302 14649 18860 18802 12795 17655 15419 11369 12126 19488 14352 999999 999999 999999 999999 999999 999999 999999 999999 999999 999999 999999 999999 999999 999999 999999 999999 999999 999999 999999 999999 999999 999999 999999 999999 999999 999999 999999 999999 999999 999999 999999 999999 999999 999999 999999 999999 999999 999999 999999 999999 999999 999999 999999 999999 999999 999999 999999 999999 999999 999999 999999 999999 999999 999999 999999 999999 999999 999999 999999 999999 999999 999999 999999 999999 999999 999999 999999 0 999999 999999 11504
999999 18737 11145 12075 12511 17198 17314 19151 15930 18829 13925 14160 11785 15184 18236 14884 18850 19527 10742 10598 13966 10079 15078 11085 17920 10190 16135 12745 11131 13609 13105 16712 18742 13059 13270 17608 15155 16035 18606 13661 13520 14675 19018 18471 11645 18536 11410 11927 19144 18940 14306 14421 14258 16381 11137 11464 15162 16468 16105 12519 14898 10165 12948 16877 10328 15342 15237 15540 16744 19561 13456 999999 999999 999999 999999 999999 999999 999999 999999 999999 999999 999999 999999 999999 999999 999999 999999 999999 999999 999999 999999 999999 999999 999999 999999 999999 999999 999999 999999 999999 999999 999999 999999 999999 999999 999999 999999 999999 999999 999999 999999 999999 999999 999999 999999 999999 999999 999999 999999 999999 999999 999999 999999 999999 999999 999999 999999 999999 999999 999999 999999 999999 999999 999999 999999 999999 999999 999999 999999 0 999999 9471
999999 16598 13966 14263 14356 14142 16775 15799 15927 11315 19097 11224 16001 18104 15682 16035 15224 11462 16454 15399 15099 13275 19033 13570 12069 16714 12285 10359 13428 10058 19479 18630 11313 10224 11365 10961 16780 15937 19856 16591 15532 11567 14442 15607 12206 13509 16514 16270 17865 11373 11841 13845 12379 12575 15985 15504 18769 17851 12234 13139 11449 17950 18879 11028 13668 16161 16055 18971 18330 11613 12136 999999 999999 999999 999999 999999 999999 999999 999999 999999 999999 999999 999999 999999 999999 999999 999999 999999 999999 999999 999999 999999 999999 999999 999999 999999 999999 999999 999999 999999 999999 999999 999999 999999 999999 999999 999999 999999 999999 999999 999999 999999 999999 999999 999999 999999 999999 999999 999999 999999 999999 999999 999999 999999 999999 999999 999999 999999 999999 999999 999999 999999 999999 999999 999999 999999 999999 999999 999999 999999 0 11378
1 999999 999999 999999 999999 999999 999999 999999 999999 999999 999999 999999 999999 999999 999999 999999 999999 999999 999999 999999 999999 999999 999999 999999 999999 999999 999999 999999 999999 999999 999999 999999 999999 999999 999999 999999 999999 999999 999999 999999 999999 999999 999999 999999 999999 999999 999999 999999 999999 999999 999999 999999 999999 999999 999999 999999 999999 999999 999999 999999 999999 999999 999999 999999 999999 999999 999999 999999 999999 999999 999999 999999 999999 999999 999999 999999 999999 999999 999999 999999 999999 999999 999999 999999 999999 999999 999999 999999 999999 999999 999999 999999 999999 999999 999999 999999 999999 999999 999999 999999 999999 999999 999999 999999 999999 999999 999999 999999 999999 999999 999999 999999 999999 999999 999999 999999 999999 999999 999999 999999 999999 999999 999999 999999 999999 999999 999999 999999 999999 999999 999999 999999 999999 999999 999999 999999 999999 999999 999999 999999 999999 0
EOF