NAME: GR_2x2x35_KH_5x10_Run_6
TYPE: TSP
COMMENT: BTSP instance |A|=140 GR nodes |B|=50 KH nodes depot=0.0 end=0.0.0
DIMENSION: 192
EDGE_WEIGHT_TYPE: EXPLICIT
EDGE_WEIGHT_FORMAT: FULL_MATRIX
NODE_COORD_TYPE: NO_COORDS
EDGE_WEIGHT_SECTION
0 11623 10511 5411 13324 9791 9124 10401 5387 5351 8759 10559 9360 7835 11097 6822 9101 13201 5322 11280 10456 12885 8157 9552 9238 9783 8700 6848 11816 14203 10849 7458 7056 14795 11214 8858 10477 5571 7853 13968 12987 13130 9808 11085 14633 5047 8286 10168 13663 10096 6730 5969 9558 8281 5149 11795 7425 10314 6556 10120 12113 10591 14961 5729 13991 9832 14042 10150 14161 14692 8813 12397 13543 13428 9515 6823 14711 6482 14662 6318 12652 10704 9282 13703 9314 7355 6800 13821 14121 9502 10667 7314 5411 13647 8656 8746 12384 6645 6915 7673 8065 10264 6982 6889 14451 12145 9948 7838 10978 7197 10808 14082 12164 12384 14178 13351 6566 11252 11337 8894 5106 6045 13794 12422 13705 8726 12450 6378 8433 12950 6199 12458 12541 5597 14581 5875 7530 14884 14741 13263 5238 999999 999999 999999 999999 999999 999999 999999 999999 999999 999999 999999 999999 999999 999999 999999 999999 999999 999999 999999 999999 999999 999999 999999 999999 999999 999999 999999 999999 999999 999999 999999 999999 999999 999999 999999 999999 999999 999999 999999 999999 999999 999999 999999 999999 999999 999999 999999 999999 999999 999999 999999
999999 0 999999 999999 999999 999999 999999 999999 999999 999999 999999 999999 999999 999999 999999 999999 999999 999999 999999 999999 999999 999999 999999 999999 999999 999999 999999 999999 999999 999999 999999 999999 999999 999999 999999 999999 999999 999999 999999 999999 999999 999999 999999 999999 999999 999999 999999 999999 999999 999999 999999 999999 999999 999999 999999 999999 999999 999999 999999 999999 999999 999999 999999 999999 999999 999999 999999 999999 999999 999999 999999 999999 999999 999999 999999 999999 999999 999999 999999 999999 999999 999999 999999 999999 999999 999999 999999 999999 999999 999999 999999 999999 999999 999999 999999 999999 999999 999999 999999 999999 999999 999999 999999 999999 999999 999999 999999 999999 999999 999999 999999 999999 999999 999999 999999 999999 999999 999999 999999 999999 999999 999999 999999 999999 999999 999999 999999 999999 999999 999999 999999 999999 999999 999999 999999 999999 999999 999999 999999 999999 999999 17201 15674 17533 13009 10743 18761 17430 16965 13756 11282 18365 13702 14223 12633 10203 18924 16357 18594 16019 18459 19307 17061 19603 16719 14690 10051 18476 13295 10514 11622 14849 13088 17781 10868 14861 17154 17729 15364 10258 15913 14653 11321 17055 14700 18629 10539 16331 12661 12697 10091 999999
999999 999999 0 999999 999999 999999 999999 999999 999999 999999 999999 999999 999999 999999 999999 999999 999999 999999 999999 999999 999999 999999 999999 999999 999999 999999 999999 999999 999999 999999 999999 999999 999999 999999 999999 999999 999999 999999 999999 999999 999999 999999 999999 999999 999999 999999 999999 999999 999999 999999 999999 999999 999999 999999 999999 999999 999999 999999 999999 999999 999999 999999 999999 999999 999999 999999 999999 999999 999999 999999 999999 999999 999999 999999 999999 999999 999999 999999 999999 999999 999999 999999 999999 999999 999999 999999 999999 999999 999999 999999 999999 999999 999999 999999 999999 999999 999999 999999 999999 999999 999999 999999 999999 999999 999999 999999 999999 999999 999999 999999 999999 999999 999999 999999 999999 999999 999999 999999 999999 999999 999999 999999 999999 999999 999999 999999 999999 999999 999999 999999 999999 999999 999999 999999 999999 999999 999999 999999 999999 999999 999999 11686 14904 10187 11327 19432 15836 12729 10433 19015 14105 11862 10759 10987 10854 19367 19436 13617 10968 18158 11263 15731 12687 18758 11820 15503 11427 15433 14902 18125 15012 12864 13996 10628 15974 17708 17985 18458 11755 14267 19189 10669 19526 10708 14981 15908 13467 15060 13330 19488 18766 999999
999999 999999 999999 0 999999 999999 999999 999999 999999 999999 999999 999999 999999 999999 999999 999999 999999 999999 999999 999999 999999 999999 999999 999999 999999 999999 999999 999999 999999 999999 999999 999999 999999 999999 999999 999999 999999 999999 999999 999999 999999 999999 999999 999999 999999 999999 999999 999999 999999 999999 999999 999999 999999 999999 999999 999999 999999 999999 999999 999999 999999 999999 999999 999999 999999 999999 999999 999999 999999 999999 999999 999999 999999 999999 999999 999999 999999 999999 999999 999999 999999 999999 999999 999999 999999 999999 999999 999999 999999 999999 999999 999999 999999 999999 999999 999999 999999 999999 999999 999999 999999 999999 999999 999999 999999 999999 999999 999999 999999 999999 999999 999999 999999 999999 999999 999999 999999 999999 999999 999999 999999 999999 999999 999999 999999 999999 999999 999999 999999 999999 999999 999999 999999 999999 999999 999999 999999 999999 999999 999999 999999 10665 12910 12937 14927 17166 11331 16475 18688 12822 19928 19583 16494 17089 13426 13581 12671 16125 15669 16032 10955 14459 14420 14517 13000 15483 16649 13369 10206 10033 18492 16981 14610 18014 19392 17782 15141 11286 13237 11052 14343 10720 19549 18904 16874 13087 12825 13683 16739 16930 16994 999999
999999 999999 999999 999999 0 999999 999999 999999 999999 999999 999999 999999 999999 999999 999999 999999 999999 999999 999999 999999 999999 999999 999999 999999 999999 999999 999999 999999 999999 999999 999999 999999 999999 999999 999999 999999 999999 999999 999999 999999 999999 999999 999999 999999 999999 999999 999999 999999 999999 999999 999999 999999 999999 999999 999999 999999 999999 999999 999999 999999 999999 999999 999999 999999 999999 999999 999999 999999 999999 999999 999999 999999 999999 999999 999999 999999 999999 999999 999999 999999 999999 999999 999999 999999 999999 999999 999999 999999 999999 999999 999999 999999 999999 999999 999999 999999 999999 999999 999999 999999 999999 999999 999999 999999 999999 999999 999999 999999 999999 999999 999999 999999 999999 999999 999999 999999 999999 999999 999999 999999 999999 999999 999999 999999 999999 999999 999999 999999 999999 999999 999999 999999 999999 999999 999999 999999 999999 999999 999999 999999 999999 11571 17168 10688 17641 16103 14027 15050 10039 17167 13867 18741 13203 19303 17296 18744 16911 14986 12074 19431 18549 19109 12387 13671 19944 14392 14666 12486 15014 15096 16946 12625 10610 18302 19731 15135 17640 16642 16471 19265 13943 16399 19331 17638 16508 14340 10632 16209 14283 19426 14339 999999
999999 999999 999999 999999 999999 0 999999 999999 999999 999999 999999 999999 999999 999999 999999 999999 999999 999999 999999 999999 999999 999999 999999 999999 999999 999999 999999 999999 999999 999999 999999 999999 999999 999999 999999 999999 999999 999999 999999 999999 999999 999999 999999 999999 999999 999999 999999 999999 999999 999999 999999 999999 999999 999999 999999 999999 999999 999999 999999 999999 999999 999999 999999 999999 999999 999999 999999 999999 999999 999999 999999 999999 999999 999999 999999 999999 999999 999999 999999 999999 999999 999999 999999 999999 999999 999999 999999 999999 999999 999999 999999 999999 999999 999999 999999 999999 999999 999999 999999 999999 999999 999999 999999 999999 999999 999999 999999 999999 999999 999999 999999 999999 999999 999999 999999 999999 999999 999999 999999 999999 999999 999999 999999 999999 999999 999999 999999 999999 999999 999999 999999 999999 999999 999999 999999 999999 999999 999999 999999 999999 999999 13538 10593 17097 11300 14118 15542 14497 17447 14665 19915 13648 16725 18377 16847 11983 15171 14830 15549 13744 13428 14700 11267 18168 13212 18428 17637 11880 14673 15112 13429 19873 18184 17056 12303 15914 16306 19210 14201 10402 10976 11373 16726 17301 12532 11743 11254 10232 15396 11455 17612 999999
999999 999999 999999 999999 999999 999999 0 999999 999999 999999 999999 999999 999999 999999 999999 999999 999999 999999 999999 999999 999999 999999 999999 999999 999999 999999 999999 999999 999999 999999 999999 999999 999999 999999 999999 999999 999999 999999 999999 999999 999999 999999 999999 999999 999999 999999 999999 999999 999999 999999 999999 999999 999999 999999 999999 999999 999999 999999 999999 999999 999999 999999 999999 999999 999999 999999 999999 999999 999999 999999 999999 999999 999999 999999 999999 999999 999999 999999 999999 999999 999999 999999 999999 999999 999999 999999 999999 999999 999999 999999 999999 999999 999999 999999 999999 999999 999999 999999 999999 999999 999999 999999 999999 999999 999999 999999 999999 999999 999999 999999 999999 999999 999999 999999 999999 999999 999999 999999 999999 999999 999999 999999 999999 999999 999999 999999 999999 999999 999999 999999 999999 999999 999999 999999 999999 999999 999999 999999 999999 999999 999999 11786 13725 14528 15966 13578 12004 19778 19558 15390 11319 17828 11287 10504 11276 12952 13732 16650 18434 18174 19746 12958 11800 16109 16670 13437 12070 13063 19323 16881 15590 13175 10838 17421 11207 16839 17320 10830 10493 18580 13414 19889 12709 15438 15104 17598 18031 15483 19794 12295 19641 999999
999999 999999 999999 999999 999999 999999 999999 0 999999 999999 999999 999999 999999 999999 999999 999999 999999 999999 999999 999999 999999 999999 999999 999999 999999 999999 999999 999999 999999 999999 999999 999999 999999 999999 999999 999999 999999 999999 999999 999999 999999 999999 999999 999999 999999 999999 999999 999999 999999 999999 999999 999999 999999 999999 999999 999999 999999 999999 999999 999999 999999 999999 999999 999999 999999 999999 999999 999999 999999 999999 999999 999999 999999 999999 999999 999999 999999 999999 999999 999999 999999 999999 999999 999999 999999 999999 999999 999999 999999 999999 999999 999999 999999 999999 999999 999999 999999 999999 999999 999999 999999 999999 999999 999999 999999 999999 999999 999999 999999 999999 999999 999999 999999 999999 999999 999999 999999 999999 999999 999999 999999 999999 999999 999999 999999 999999 999999 999999 999999 999999 999999 999999 999999 999999 999999 999999 999999 999999 999999 999999 999999 13651 19070 13409 17132 18436 11995 17854 10223 16553 10005 13839 10277 13907 18095 17623 10365 10512 18578 14994 11349 12221 13614 14724 17253 15457 14653 11177 19886 11714 11239 16745 11826 12923 17219 18208 16381 12356 12900 14481 18411 16925 18397 13526 12841 18693 10098 12690 12991 16411 11042 999999
999999 999999 999999 999999 999999 999999 999999 999999 0 999999 999999 999999 999999 999999 999999 999999 999999 999999 999999 999999 999999 999999 999999 999999 999999 999999 999999 999999 999999 999999 999999 999999 999999 999999 999999 999999 999999 999999 999999 999999 999999 999999 999999 999999 999999 999999 999999 999999 999999 999999 999999 999999 999999 999999 999999 999999 999999 999999 999999 999999 999999 999999 999999 999999 999999 999999 999999 999999 999999 999999 999999 999999 999999 999999 999999 999999 999999 999999 999999 999999 999999 999999 999999 999999 999999 999999 999999 999999 999999 999999 999999 999999 999999 999999 999999 999999 999999 999999 999999 999999 999999 999999 999999 999999 999999 999999 999999 999999 999999 999999 999999 999999 999999 999999 999999 999999 999999 999999 999999 999999 999999 999999 999999 999999 999999 999999 999999 999999 999999 999999 999999 999999 999999 999999 999999 999999 999999 999999 999999 999999 999999 15931 17651 11617 12628 16951 18940 10751 16950 13612 16070 14773 13603 14943 17056 16727 15935 10530 14274 10602 18352 17682 14284 14686 18958 19386 11619 15664 16808 14313 14316 14716 14162 17555 11555 10525 10269 16043 16865 17243 12454 16544 12047 12443 17163 16571 16230 10801 18184 15300 17734 999999
999999 999999 999999 999999 999999 999999 999999 999999 999999 0 999999 999999 999999 999999 999999 999999 999999 999999 999999 999999 999999 999999 999999 999999 999999 999999 999999 999999 999999 999999 999999 999999 999999 999999 999999 999999 999999 999999 999999 999999 999999 999999 999999 999999 999999 999999 999999 999999 999999 999999 999999 999999 999999 999999 999999 999999 999999 999999 999999 999999 999999 999999 999999 999999 999999 999999 999999 999999 999999 999999 999999 999999 999999 999999 999999 999999 999999 999999 999999 999999 999999 999999 999999 999999 999999 999999 999999 999999 999999 999999 999999 999999 999999 999999 999999 999999 999999 999999 999999 999999 999999 999999 999999 999999 999999 999999 999999 999999 999999 999999 999999 999999 999999 999999 999999 999999 999999 999999 999999 999999 999999 999999 999999 999999 999999 999999 999999 999999 999999 999999 999999 999999 999999 999999 999999 999999 999999 999999 999999 999999 999999 17345 13836 10111 12823 17580 17181 19069 13688 18031 15135 18975 11301 18477 16433 16600 15793 17760 19289 13400 15537 15825 11401 19336 11815 12671 11627 19838 11203 16941 17991 19003 12212 19693 16541 13748 15143 12579 10263 16674 14886 10552 10599 16769 14495 18703 12052 11942 11097 10302 17698 999999
999999 999999 999999 999999 999999 999999 999999 999999 999999 999999 0 999999 999999 999999 999999 999999 999999 999999 999999 999999 999999 999999 999999 999999 999999 999999 999999 999999 999999 999999 999999 999999 999999 999999 999999 999999 999999 999999 999999 999999 999999 999999 999999 999999 999999 999999 999999 999999 999999 999999 999999 999999 999999 999999 999999 999999 999999 999999 999999 999999 999999 999999 999999 999999 999999 999999 999999 999999 999999 999999 999999 999999 999999 999999 999999 999999 999999 999999 999999 999999 999999 999999 999999 999999 999999 999999 999999 999999 999999 999999 999999 999999 999999 999999 999999 999999 999999 999999 999999 999999 999999 999999 999999 999999 999999 999999 999999 999999 999999 999999 999999 999999 999999 999999 999999 999999 999999 999999 999999 999999 999999 999999 999999 999999 999999 999999 999999 999999 999999 999999 999999 999999 999999 999999 999999 999999 999999 999999 999999 999999 999999 10211 12120 14054 10257 11804 10188 17444 12411 16341 18636 18618 18463 12992 15696 17667 15647 16426 16234 18237 11975 10004 19803 10860 13704 17275 13064 17825 11988 12801 14899 11300 12671 13820 18144 16750 16915 14978 16030 16145 12277 18378 19519 12210 12104 10182 11595 10172 10743 11268 14544 999999
999999 999999 999999 999999 999999 999999 999999 999999 999999 999999 999999 0 999999 999999 999999 999999 999999 999999 999999 999999 999999 999999 999999 999999 999999 999999 999999 999999 999999 999999 999999 999999 999999 999999 999999 999999 999999 999999 999999 999999 999999 999999 999999 999999 999999 999999 999999 999999 999999 999999 999999 999999 999999 999999 999999 999999 999999 999999 999999 999999 999999 999999 999999 999999 999999 999999 999999 999999 999999 999999 999999 999999 999999 999999 999999 999999 999999 999999 999999 999999 999999 999999 999999 999999 999999 999999 999999 999999 999999 999999 999999 999999 999999 999999 999999 999999 999999 999999 999999 999999 999999 999999 999999 999999 999999 999999 999999 999999 999999 999999 999999 999999 999999 999999 999999 999999 999999 999999 999999 999999 999999 999999 999999 999999 999999 999999 999999 999999 999999 999999 999999 999999 999999 999999 999999 999999 999999 999999 999999 999999 999999 15704 16205 11149 16261 11941 11354 13865 15586 15803 12616 15788 18460 13930 16799 10471 14022 15396 14290 16734 12049 12025 17670 13673 13573 13360 16235 17974 10829 18061 11646 10214 18188 14456 13213 15352 15634 14356 12700 10069 12235 13780 15987 18598 15619 13175 18220 13682 19357 10962 19410 999999
999999 999999 999999 999999 999999 999999 999999 999999 999999 999999 999999 999999 0 999999 999999 999999 999999 999999 999999 999999 999999 999999 999999 999999 999999 999999 999999 999999 999999 999999 999999 999999 999999 999999 999999 999999 999999 999999 999999 999999 999999 999999 999999 999999 999999 999999 999999 999999 999999 999999 999999 999999 999999 999999 999999 999999 999999 999999 999999 999999 999999 999999 999999 999999 999999 999999 999999 999999 999999 999999 999999 999999 999999 999999 999999 999999 999999 999999 999999 999999 999999 999999 999999 999999 999999 999999 999999 999999 999999 999999 999999 999999 999999 999999 999999 999999 999999 999999 999999 999999 999999 999999 999999 999999 999999 999999 999999 999999 999999 999999 999999 999999 999999 999999 999999 999999 999999 999999 999999 999999 999999 999999 999999 999999 999999 999999 999999 999999 999999 999999 999999 999999 999999 999999 999999 999999 999999 999999 999999 999999 999999 14653 18070 18147 12485 13094 14911 15096 14309 12895 11115 14513 10070 10381 11100 16404 16751 16689 19585 10663 12942 14615 13237 10384 14718 14832 19240 10528 14762 12263 13042 17850 14679 12300 17468 16755 16801 14715 14154 15913 12346 17820 18376 13870 15120 11955 14541 14347 15561 11478 10972 999999
999999 999999 999999 999999 999999 999999 999999 999999 999999 999999 999999 999999 999999 0 999999 999999 999999 999999 999999 999999 999999 999999 999999 999999 999999 999999 999999 999999 999999 999999 999999 999999 999999 999999 999999 999999 999999 999999 999999 999999 999999 999999 999999 999999 999999 999999 999999 999999 999999 999999 999999 999999 999999 999999 999999 999999 999999 999999 999999 999999 999999 999999 999999 999999 999999 999999 999999 999999 999999 999999 999999 999999 999999 999999 999999 999999 999999 999999 999999 999999 999999 999999 999999 999999 999999 999999 999999 999999 999999 999999 999999 999999 999999 999999 999999 999999 999999 999999 999999 999999 999999 999999 999999 999999 999999 999999 999999 999999 999999 999999 999999 999999 999999 999999 999999 999999 999999 999999 999999 999999 999999 999999 999999 999999 999999 999999 999999 999999 999999 999999 999999 999999 999999 999999 999999 999999 999999 999999 999999 999999 999999 12501 19279 15905 10510 17584 12642 18117 10081 10324 15333 19670 13737 19648 12240 14768 10325 10527 10966 19086 18761 17856 19027 16522 16780 14437 16993 17905 11990 12593 10841 14030 14727 11606 11470 19966 12501 17027 19980 13608 13897 16558 18120 18362 13003 19814 14428 10259 19014 17292 19442 999999
999999 999999 999999 999999 999999 999999 999999 999999 999999 999999 999999 999999 999999 999999 0 999999 999999 999999 999999 999999 999999 999999 999999 999999 999999 999999 999999 999999 999999 999999 999999 999999 999999 999999 999999 999999 999999 999999 999999 999999 999999 999999 999999 999999 999999 999999 999999 999999 999999 999999 999999 999999 999999 999999 999999 999999 999999 999999 999999 999999 999999 999999 999999 999999 999999 999999 999999 999999 999999 999999 999999 999999 999999 999999 999999 999999 999999 999999 999999 999999 999999 999999 999999 999999 999999 999999 999999 999999 999999 999999 999999 999999 999999 999999 999999 999999 999999 999999 999999 999999 999999 999999 999999 999999 999999 999999 999999 999999 999999 999999 999999 999999 999999 999999 999999 999999 999999 999999 999999 999999 999999 999999 999999 999999 999999 999999 999999 999999 999999 999999 999999 999999 999999 999999 999999 999999 999999 999999 999999 999999 999999 13156 14966 18638 16131 11709 10415 17516 17218 12931 15828 10640 19875 14590 11849 11312 16771 16153 19723 10172 17929 17651 15446 15685 13308 11528 17644 15328 15810 19735 13626 19134 13772 12317 12663 12122 16689 15381 19399 13661 18771 10760 18483 12595 17355 15234 18659 13561 10472 18627 13185 999999
999999 999999 999999 999999 999999 999999 999999 999999 999999 999999 999999 999999 999999 999999 999999 0 999999 999999 999999 999999 999999 999999 999999 999999 999999 999999 999999 999999 999999 999999 999999 999999 999999 999999 999999 999999 999999 999999 999999 999999 999999 999999 999999 999999 999999 999999 999999 999999 999999 999999 999999 999999 999999 999999 999999 999999 999999 999999 999999 999999 999999 999999 999999 999999 999999 999999 999999 999999 999999 999999 999999 999999 999999 999999 999999 999999 999999 999999 999999 999999 999999 999999 999999 999999 999999 999999 999999 999999 999999 999999 999999 999999 999999 999999 999999 999999 999999 999999 999999 999999 999999 999999 999999 999999 999999 999999 999999 999999 999999 999999 999999 999999 999999 999999 999999 999999 999999 999999 999999 999999 999999 999999 999999 999999 999999 999999 999999 999999 999999 999999 999999 999999 999999 999999 999999 999999 999999 999999 999999 999999 999999 15194 13379 18743 17666 17162 19138 11352 14183 13051 11253 11975 12641 18269 15554 10450 11585 10570 10149 11747 10520 19004 13246 18802 12238 11431 17636 19785 10818 13503 12446 19383 18402 16984 12881 16047 15436 13723 14113 17082 10586 10353 11186 15501 14328 13044 19446 16858 16361 11664 16692 999999
999999 999999 999999 999999 999999 999999 999999 999999 999999 999999 999999 999999 999999 999999 999999 999999 0 999999 999999 999999 999999 999999 999999 999999 999999 999999 999999 999999 999999 999999 999999 999999 999999 999999 999999 999999 999999 999999 999999 999999 999999 999999 999999 999999 999999 999999 999999 999999 999999 999999 999999 999999 999999 999999 999999 999999 999999 999999 999999 999999 999999 999999 999999 999999 999999 999999 999999 999999 999999 999999 999999 999999 999999 999999 999999 999999 999999 999999 999999 999999 999999 999999 999999 999999 999999 999999 999999 999999 999999 999999 999999 999999 999999 999999 999999 999999 999999 999999 999999 999999 999999 999999 999999 999999 999999 999999 999999 999999 999999 999999 999999 999999 999999 999999 999999 999999 999999 999999 999999 999999 999999 999999 999999 999999 999999 999999 999999 999999 999999 999999 999999 999999 999999 999999 999999 999999 999999 999999 999999 999999 999999 19516 14746 14646 16344 17147 18282 13003 17349 18566 15859 11559 17949 16511 17197 16932 12454 16000 18717 18745 17858 12857 10091 13177 15254 12699 12080 13782 12501 12174 13129 14598 10690 12545 10072 17923 11292 18824 12733 15461 13126 15874 12991 15508 14290 18003 18771 17339 14430 14300 17568 999999
999999 999999 999999 999999 999999 999999 999999 999999 999999 999999 999999 999999 999999 999999 999999 999999 999999 0 999999 999999 999999 999999 999999 999999 999999 999999 999999 999999 999999 999999 999999 999999 999999 999999 999999 999999 999999 999999 999999 999999 999999 999999 999999 999999 999999 999999 999999 999999 999999 999999 999999 999999 999999 999999 999999 999999 999999 999999 999999 999999 999999 999999 999999 999999 999999 999999 999999 999999 999999 999999 999999 999999 999999 999999 999999 999999 999999 999999 999999 999999 999999 999999 999999 999999 999999 999999 999999 999999 999999 999999 999999 999999 999999 999999 999999 999999 999999 999999 999999 999999 999999 999999 999999 999999 999999 999999 999999 999999 999999 999999 999999 999999 999999 999999 999999 999999 999999 999999 999999 999999 999999 999999 999999 999999 999999 999999 999999 999999 999999 999999 999999 999999 999999 999999 999999 999999 999999 999999 999999 999999 999999 12421 16259 14205 14559 11656 18518 17324 19758 11813 18221 12306 11199 18568 18575 11397 19339 14027 12491 16604 11087 13939 16408 19736 11819 18882 10838 12306 12572 14818 16956 11246 13526 13407 17877 13111 15019 17750 17275 10842 11988 17867 16748 16046 15553 15091 16779 13073 12383 11612 11298 999999
999999 999999 999999 999999 999999 999999 999999 999999 999999 999999 999999 999999 999999 999999 999999 999999 999999 999999 0 999999 999999 999999 999999 999999 999999 999999 999999 999999 999999 999999 999999 999999 999999 999999 999999 999999 999999 999999 999999 999999 999999 999999 999999 999999 999999 999999 999999 999999 999999 999999 999999 999999 999999 999999 999999 999999 999999 999999 999999 999999 999999 999999 999999 999999 999999 999999 999999 999999 999999 999999 999999 999999 999999 999999 999999 999999 999999 999999 999999 999999 999999 999999 999999 999999 999999 999999 999999 999999 999999 999999 999999 999999 999999 999999 999999 999999 999999 999999 999999 999999 999999 999999 999999 999999 999999 999999 999999 999999 999999 999999 999999 999999 999999 999999 999999 999999 999999 999999 999999 999999 999999 999999 999999 999999 999999 999999 999999 999999 999999 999999 999999 999999 999999 999999 999999 999999 999999 999999 999999 999999 999999 18623 17752 15906 10840 15853 14476 12207 13502 16536 12983 14745 12885 19906 13020 19046 12887 14379 14100 16114 12980 15201 14759 12119 10823 12888 16074 12042 10648 16682 12768 12190 13355 14005 14284 19696 17972 16656 16905 18623 15479 12039 15208 18462 12510 17667 13745 16334 18358 10186 14024 999999
999999 999999 999999 999999 999999 999999 999999 999999 999999 999999 999999 999999 999999 999999 999999 999999 999999 999999 999999 0 999999 999999 999999 999999 999999 999999 999999 999999 999999 999999 999999 999999 999999 999999 999999 999999 999999 999999 999999 999999 999999 999999 999999 999999 999999 999999 999999 999999 999999 999999 999999 999999 999999 999999 999999 999999 999999 999999 999999 999999 999999 999999 999999 999999 999999 999999 999999 999999 999999 999999 999999 999999 999999 999999 999999 999999 999999 999999 999999 999999 999999 999999 999999 999999 999999 999999 999999 999999 999999 999999 999999 999999 999999 999999 999999 999999 999999 999999 999999 999999 999999 999999 999999 999999 999999 999999 999999 999999 999999 999999 999999 999999 999999 999999 999999 999999 999999 999999 999999 999999 999999 999999 999999 999999 999999 999999 999999 999999 999999 999999 999999 999999 999999 999999 999999 999999 999999 999999 999999 999999 999999 15994 18411 19317 12976 12893 19885 15924 15073 17459 12954 19083 11626 19639 12475 14181 17916 12473 14043 19557 16289 13615 10482 14229 18274 18903 16440 12492 10664 11345 19489 11046 17584 11562 13865 15500 15140 13087 18648 14519 18217 12856 17259 16428 11601 10344 10014 13877 17840 13192 10522 999999
999999 999999 999999 999999 999999 999999 999999 999999 999999 999999 999999 999999 999999 999999 999999 999999 999999 999999 999999 999999 0 999999 999999 999999 999999 999999 999999 999999 999999 999999 999999 999999 999999 999999 999999 999999 999999 999999 999999 999999 999999 999999 999999 999999 999999 999999 999999 999999 999999 999999 999999 999999 999999 999999 999999 999999 999999 999999 999999 999999 999999 999999 999999 999999 999999 999999 999999 999999 999999 999999 999999 999999 999999 999999 999999 999999 999999 999999 999999 999999 999999 999999 999999 999999 999999 999999 999999 999999 999999 999999 999999 999999 999999 999999 999999 999999 999999 999999 999999 999999 999999 999999 999999 999999 999999 999999 999999 999999 999999 999999 999999 999999 999999 999999 999999 999999 999999 999999 999999 999999 999999 999999 999999 999999 999999 999999 999999 999999 999999 999999 999999 999999 999999 999999 999999 999999 999999 999999 999999 999999 999999 11889 16498 18841 11155 14965 15227 14793 18531 14295 17469 12974 10788 17048 19859 13124 13107 13102 16894 11449 13858 17711 11264 19150 14631 17213 13750 15707 11948 14191 11341 16511 18912 18369 13094 15871 14630 14829 13656 10524 19738 14276 18746 15010 11155 18096 19968 17886 17396 12330 17992 999999
999999 999999 999999 999999 999999 999999 999999 999999 999999 999999 999999 999999 999999 999999 999999 999999 999999 999999 999999 999999 999999 0 999999 999999 999999 999999 999999 999999 999999 999999 999999 999999 999999 999999 999999 999999 999999 999999 999999 999999 999999 999999 999999 999999 999999 999999 999999 999999 999999 999999 999999 999999 999999 999999 999999 999999 999999 999999 999999 999999 999999 999999 999999 999999 999999 999999 999999 999999 999999 999999 999999 999999 999999 999999 999999 999999 999999 999999 999999 999999 999999 999999 999999 999999 999999 999999 999999 999999 999999 999999 999999 999999 999999 999999 999999 999999 999999 999999 999999 999999 999999 999999 999999 999999 999999 999999 999999 999999 999999 999999 999999 999999 999999 999999 999999 999999 999999 999999 999999 999999 999999 999999 999999 999999 999999 999999 999999 999999 999999 999999 999999 999999 999999 999999 999999 999999 999999 999999 999999 999999 999999 16264 12921 18926 11467 10101 11347 14080 14537 13597 10755 18393 14389 12188 13590 14663 13922 17509 17749 17530 13071 14279 11752 16199 19948 15123 17723 11650 14156 17138 10482 11339 14608 11777 19434 18916 18802 12755 19506 14809 16309 18260 15510 18123 11722 17830 17333 11619 11804 18847 10677 999999
999999 999999 999999 999999 999999 999999 999999 999999 999999 999999 999999 999999 999999 999999 999999 999999 999999 999999 999999 999999 999999 999999 0 999999 999999 999999 999999 999999 999999 999999 999999 999999 999999 999999 999999 999999 999999 999999 999999 999999 999999 999999 999999 999999 999999 999999 999999 999999 999999 999999 999999 999999 999999 999999 999999 999999 999999 999999 999999 999999 999999 999999 999999 999999 999999 999999 999999 999999 999999 999999 999999 999999 999999 999999 999999 999999 999999 999999 999999 999999 999999 999999 999999 999999 999999 999999 999999 999999 999999 999999 999999 999999 999999 999999 999999 999999 999999 999999 999999 999999 999999 999999 999999 999999 999999 999999 999999 999999 999999 999999 999999 999999 999999 999999 999999 999999 999999 999999 999999 999999 999999 999999 999999 999999 999999 999999 999999 999999 999999 999999 999999 999999 999999 999999 999999 999999 999999 999999 999999 999999 999999 14223 12744 19497 13277 19341 12825 14589 13945 15376 13845 15673 13431 13274 15731 16199 11359 12681 19865 16333 11787 16143 17346 19625 15307 10766 16594 13503 19115 14820 12396 10212 10047 16397 11111 16883 12268 10297 17879 17736 19691 15714 14988 14034 17812 15169 15356 10948 19197 12642 10470 999999
999999 999999 999999 999999 999999 999999 999999 999999 999999 999999 999999 999999 999999 999999 999999 999999 999999 999999 999999 999999 999999 999999 999999 0 999999 999999 999999 999999 999999 999999 999999 999999 999999 999999 999999 999999 999999 999999 999999 999999 999999 999999 999999 999999 999999 999999 999999 999999 999999 999999 999999 999999 999999 999999 999999 999999 999999 999999 999999 999999 999999 999999 999999 999999 999999 999999 999999 999999 999999 999999 999999 999999 999999 999999 999999 999999 999999 999999 999999 999999 999999 999999 999999 999999 999999 999999 999999 999999 999999 999999 999999 999999 999999 999999 999999 999999 999999 999999 999999 999999 999999 999999 999999 999999 999999 999999 999999 999999 999999 999999 999999 999999 999999 999999 999999 999999 999999 999999 999999 999999 999999 999999 999999 999999 999999 999999 999999 999999 999999 999999 999999 999999 999999 999999 999999 999999 999999 999999 999999 999999 999999 18013 17352 13866 14462 19610 13362 15381 12140 11441 18541 14491 19751 16974 18078 11097 16346 11132 14040 10574 17842 18277 13059 19051 12044 12993 16158 10612 15450 17872 19726 17694 10746 16747 17834 15568 11235 13626 10128 11219 12559 10521 15949 18606 11592 14741 17888 19459 11150 13437 17548 999999
999999 999999 999999 999999 999999 999999 999999 999999 999999 999999 999999 999999 999999 999999 999999 999999 999999 999999 999999 999999 999999 999999 999999 999999 0 999999 999999 999999 999999 999999 999999 999999 999999 999999 999999 999999 999999 999999 999999 999999 999999 999999 999999 999999 999999 999999 999999 999999 999999 999999 999999 999999 999999 999999 999999 999999 999999 999999 999999 999999 999999 999999 999999 999999 999999 999999 999999 999999 999999 999999 999999 999999 999999 999999 999999 999999 999999 999999 999999 999999 999999 999999 999999 999999 999999 999999 999999 999999 999999 999999 999999 999999 999999 999999 999999 999999 999999 999999 999999 999999 999999 999999 999999 999999 999999 999999 999999 999999 999999 999999 999999 999999 999999 999999 999999 999999 999999 999999 999999 999999 999999 999999 999999 999999 999999 999999 999999 999999 999999 999999 999999 999999 999999 999999 999999 999999 999999 999999 999999 999999 999999 11559 12464 18265 18774 11128 19019 16036 18118 15376 10192 10982 17970 17422 12085 12588 14562 10353 12013 13561 16102 13430 12622 12878 13614 12651 19995 11627 15945 15859 16115 16751 18394 12213 13538 17416 10624 11260 18394 14473 12952 11874 12658 11200 19226 18215 17270 17843 12270 10421 13741 999999
999999 999999 999999 999999 999999 999999 999999 999999 999999 999999 999999 999999 999999 999999 999999 999999 999999 999999 999999 999999 999999 999999 999999 999999 999999 0 999999 999999 999999 999999 999999 999999 999999 999999 999999 999999 999999 999999 999999 999999 999999 999999 999999 999999 999999 999999 999999 999999 999999 999999 999999 999999 999999 999999 999999 999999 999999 999999 999999 999999 999999 999999 999999 999999 999999 999999 999999 999999 999999 999999 999999 999999 999999 999999 999999 999999 999999 999999 999999 999999 999999 999999 999999 999999 999999 999999 999999 999999 999999 999999 999999 999999 999999 999999 999999 999999 999999 999999 999999 999999 999999 999999 999999 999999 999999 999999 999999 999999 999999 999999 999999 999999 999999 999999 999999 999999 999999 999999 999999 999999 999999 999999 999999 999999 999999 999999 999999 999999 999999 999999 999999 999999 999999 999999 999999 999999 999999 999999 999999 999999 999999 14313 10858 13390 10956 18465 14984 17237 14113 19738 12072 16043 13144 11892 11354 19073 19638 15858 11523 16518 13380 10519 15056 18968 18789 15092 12391 14003 10669 11562 15030 14163 18577 10536 17222 10323 12768 15219 15948 18065 14868 17392 16682 12951 19067 14760 13985 13751 19645 19444 14880 999999
999999 999999 999999 999999 999999 999999 999999 999999 999999 999999 999999 999999 999999 999999 999999 999999 999999 999999 999999 999999 999999 999999 999999 999999 999999 999999 0 999999 999999 999999 999999 999999 999999 999999 999999 999999 999999 999999 999999 999999 999999 999999 999999 999999 999999 999999 999999 999999 999999 999999 999999 999999 999999 999999 999999 999999 999999 999999 999999 999999 999999 999999 999999 999999 999999 999999 999999 999999 999999 999999 999999 999999 999999 999999 999999 999999 999999 999999 999999 999999 999999 999999 999999 999999 999999 999999 999999 999999 999999 999999 999999 999999 999999 999999 999999 999999 999999 999999 999999 999999 999999 999999 999999 999999 999999 999999 999999 999999 999999 999999 999999 999999 999999 999999 999999 999999 999999 999999 999999 999999 999999 999999 999999 999999 999999 999999 999999 999999 999999 999999 999999 999999 999999 999999 999999 999999 999999 999999 999999 999999 999999 13885 11715 10159 19301 12216 12153 12014 18188 17731 15647 12516 12586 15240 17616 19998 15587 17781 10127 19822 12915 17696 15296 15514 16421 16895 19892 17544 11969 10112 12673 12962 18306 10984 14881 10757 19137 12493 12916 13000 17029 11298 18147 10264 10629 14980 13316 13956 10928 11566 13559 999999
999999 999999 999999 999999 999999 999999 999999 999999 999999 999999 999999 999999 999999 999999 999999 999999 999999 999999 999999 999999 999999 999999 999999 999999 999999 999999 999999 0 999999 999999 999999 999999 999999 999999 999999 999999 999999 999999 999999 999999 999999 999999 999999 999999 999999 999999 999999 999999 999999 999999 999999 999999 999999 999999 999999 999999 999999 999999 999999 999999 999999 999999 999999 999999 999999 999999 999999 999999 999999 999999 999999 999999 999999 999999 999999 999999 999999 999999 999999 999999 999999 999999 999999 999999 999999 999999 999999 999999 999999 999999 999999 999999 999999 999999 999999 999999 999999 999999 999999 999999 999999 999999 999999 999999 999999 999999 999999 999999 999999 999999 999999 999999 999999 999999 999999 999999 999999 999999 999999 999999 999999 999999 999999 999999 999999 999999 999999 999999 999999 999999 999999 999999 999999 999999 999999 999999 999999 999999 999999 999999 999999 17729 14678 16504 18280 17619 19383 16772 10864 17427 11925 14888 17529 12809 18706 15256 19495 11485 19712 19528 15535 17927 10644 10530 16341 15992 11426 14618 13455 19868 19647 10932 15742 16960 13906 10629 14399 13166 18328 15594 10727 10445 16505 11108 15508 13718 14007 16366 15301 16301 19225 999999
999999 999999 999999 999999 999999 999999 999999 999999 999999 999999 999999 999999 999999 999999 999999 999999 999999 999999 999999 999999 999999 999999 999999 999999 999999 999999 999999 999999 0 999999 999999 999999 999999 999999 999999 999999 999999 999999 999999 999999 999999 999999 999999 999999 999999 999999 999999 999999 999999 999999 999999 999999 999999 999999 999999 999999 999999 999999 999999 999999 999999 999999 999999 999999 999999 999999 999999 999999 999999 999999 999999 999999 999999 999999 999999 999999 999999 999999 999999 999999 999999 999999 999999 999999 999999 999999 999999 999999 999999 999999 999999 999999 999999 999999 999999 999999 999999 999999 999999 999999 999999 999999 999999 999999 999999 999999 999999 999999 999999 999999 999999 999999 999999 999999 999999 999999 999999 999999 999999 999999 999999 999999 999999 999999 999999 999999 999999 999999 999999 999999 999999 999999 999999 999999 999999 999999 999999 999999 999999 999999 999999 13672 15082 14891 10650 13477 13617 12127 16892 10379 17361 11394 12987 17634 15140 19095 19989 13924 14772 16853 19472 16244 11522 16775 19779 12290 11552 12969 10729 18844 13100 11458 19772 11313 13797 16483 11464 13086 18466 14412 14584 13579 17132 19991 11074 11513 10636 12170 17191 16038 18617 999999
999999 999999 999999 999999 999999 999999 999999 999999 999999 999999 999999 999999 999999 999999 999999 999999 999999 999999 999999 999999 999999 999999 999999 999999 999999 999999 999999 999999 999999 0 999999 999999 999999 999999 999999 999999 999999 999999 999999 999999 999999 999999 999999 999999 999999 999999 999999 999999 999999 999999 999999 999999 999999 999999 999999 999999 999999 999999 999999 999999 999999 999999 999999 999999 999999 999999 999999 999999 999999 999999 999999 999999 999999 999999 999999 999999 999999 999999 999999 999999 999999 999999 999999 999999 999999 999999 999999 999999 999999 999999 999999 999999 999999 999999 999999 999999 999999 999999 999999 999999 999999 999999 999999 999999 999999 999999 999999 999999 999999 999999 999999 999999 999999 999999 999999 999999 999999 999999 999999 999999 999999 999999 999999 999999 999999 999999 999999 999999 999999 999999 999999 999999 999999 999999 999999 999999 999999 999999 999999 999999 999999 10950 16003 16084 10330 18390 16697 12192 10447 14979 15810 16862 18154 10267 12540 11368 12769 16913 19565 16703 11891 18817 10665 19993 16908 10095 16521 17977 10663 11806 14099 17199 10241 13713 13721 12490 11315 18317 14012 15403 10051 10770 12256 10328 13882 16320 17667 12366 13210 12469 19749 999999
999999 999999 999999 999999 999999 999999 999999 999999 999999 999999 999999 999999 999999 999999 999999 999999 999999 999999 999999 999999 999999 999999 999999 999999 999999 999999 999999 999999 999999 999999 0 999999 999999 999999 999999 999999 999999 999999 999999 999999 999999 999999 999999 999999 999999 999999 999999 999999 999999 999999 999999 999999 999999 999999 999999 999999 999999 999999 999999 999999 999999 999999 999999 999999 999999 999999 999999 999999 999999 999999 999999 999999 999999 999999 999999 999999 999999 999999 999999 999999 999999 999999 999999 999999 999999 999999 999999 999999 999999 999999 999999 999999 999999 999999 999999 999999 999999 999999 999999 999999 999999 999999 999999 999999 999999 999999 999999 999999 999999 999999 999999 999999 999999 999999 999999 999999 999999 999999 999999 999999 999999 999999 999999 999999 999999 999999 999999 999999 999999 999999 999999 999999 999999 999999 999999 999999 999999 999999 999999 999999 999999 11836 11092 17871 11712 11224 11126 17021 15909 10233 12597 17147 18638 18896 16162 10140 17316 11383 14433 18627 15089 13104 18318 14135 11282 17597 19381 17136 11323 11349 12279 12524 17537 14432 14703 19878 15138 14731 10885 11284 14072 17350 18921 11727 15597 15480 17068 19228 13518 13167 19480 999999
999999 999999 999999 999999 999999 999999 999999 999999 999999 999999 999999 999999 999999 999999 999999 999999 999999 999999 999999 999999 999999 999999 999999 999999 999999 999999 999999 999999 999999 999999 999999 0 999999 999999 999999 999999 999999 999999 999999 999999 999999 999999 999999 999999 999999 999999 999999 999999 999999 999999 999999 999999 999999 999999 999999 999999 999999 999999 999999 999999 999999 999999 999999 999999 999999 999999 999999 999999 999999 999999 999999 999999 999999 999999 999999 999999 999999 999999 999999 999999 999999 999999 999999 999999 999999 999999 999999 999999 999999 999999 999999 999999 999999 999999 999999 999999 999999 999999 999999 999999 999999 999999 999999 999999 999999 999999 999999 999999 999999 999999 999999 999999 999999 999999 999999 999999 999999 999999 999999 999999 999999 999999 999999 999999 999999 999999 999999 999999 999999 999999 999999 999999 999999 999999 999999 999999 999999 999999 999999 999999 999999 19367 14480 10177 12714 13195 16868 17454 19970 14331 14757 16364 14526 11987 11709 15929 13204 11783 15561 19089 10304 13113 17901 17048 18240 19766 11808 15349 15372 16701 14900 12854 19053 12199 16019 16340 14291 13121 18170 16632 17381 13529 13157 14924 17027 18891 16468 13640 13594 17680 18682 999999
999999 999999 999999 999999 999999 999999 999999 999999 999999 999999 999999 999999 999999 999999 999999 999999 999999 999999 999999 999999 999999 999999 999999 999999 999999 999999 999999 999999 999999 999999 999999 999999 0 999999 999999 999999 999999 999999 999999 999999 999999 999999 999999 999999 999999 999999 999999 999999 999999 999999 999999 999999 999999 999999 999999 999999 999999 999999 999999 999999 999999 999999 999999 999999 999999 999999 999999 999999 999999 999999 999999 999999 999999 999999 999999 999999 999999 999999 999999 999999 999999 999999 999999 999999 999999 999999 999999 999999 999999 999999 999999 999999 999999 999999 999999 999999 999999 999999 999999 999999 999999 999999 999999 999999 999999 999999 999999 999999 999999 999999 999999 999999 999999 999999 999999 999999 999999 999999 999999 999999 999999 999999 999999 999999 999999 999999 999999 999999 999999 999999 999999 999999 999999 999999 999999 999999 999999 999999 999999 999999 999999 10667 18831 11719 10729 13093 12014 12508 13349 10246 14537 10486 10477 14475 15681 18153 13427 11658 17881 15093 14223 11875 17302 15765 14480 14585 14007 11678 16260 17076 11664 12819 10284 13155 11877 10732 15401 11597 14520 12739 18664 18142 10856 14279 15165 13351 13377 10586 12508 15718 18058 999999
999999 999999 999999 999999 999999 999999 999999 999999 999999 999999 999999 999999 999999 999999 999999 999999 999999 999999 999999 999999 999999 999999 999999 999999 999999 999999 999999 999999 999999 999999 999999 999999 999999 0 999999 999999 999999 999999 999999 999999 999999 999999 999999 999999 999999 999999 999999 999999 999999 999999 999999 999999 999999 999999 999999 999999 999999 999999 999999 999999 999999 999999 999999 999999 999999 999999 999999 999999 999999 999999 999999 999999 999999 999999 999999 999999 999999 999999 999999 999999 999999 999999 999999 999999 999999 999999 999999 999999 999999 999999 999999 999999 999999 999999 999999 999999 999999 999999 999999 999999 999999 999999 999999 999999 999999 999999 999999 999999 999999 999999 999999 999999 999999 999999 999999 999999 999999 999999 999999 999999 999999 999999 999999 999999 999999 999999 999999 999999 999999 999999 999999 999999 999999 999999 999999 999999 999999 999999 999999 999999 999999 13453 16261 15483 14173 10511 13255 15163 12140 19144 12102 16308 18080 12105 17461 15929 16708 13396 16050 19651 14435 16936 14270 12798 19521 10137 17744 17718 15074 14551 17628 11214 17138 17324 19749 19254 17771 13381 17754 10190 11194 10644 17267 16698 13687 16504 18408 13964 17151 17696 17447 999999
999999 999999 999999 999999 999999 999999 999999 999999 999999 999999 999999 999999 999999 999999 999999 999999 999999 999999 999999 999999 999999 999999 999999 999999 999999 999999 999999 999999 999999 999999 999999 999999 999999 999999 0 999999 999999 999999 999999 999999 999999 999999 999999 999999 999999 999999 999999 999999 999999 999999 999999 999999 999999 999999 999999 999999 999999 999999 999999 999999 999999 999999 999999 999999 999999 999999 999999 999999 999999 999999 999999 999999 999999 999999 999999 999999 999999 999999 999999 999999 999999 999999 999999 999999 999999 999999 999999 999999 999999 999999 999999 999999 999999 999999 999999 999999 999999 999999 999999 999999 999999 999999 999999 999999 999999 999999 999999 999999 999999 999999 999999 999999 999999 999999 999999 999999 999999 999999 999999 999999 999999 999999 999999 999999 999999 999999 999999 999999 999999 999999 999999 999999 999999 999999 999999 999999 999999 999999 999999 999999 999999 16045 17841 18885 14482 19889 13272 14577 12036 11500 11760 16515 13219 14869 18360 16797 14201 15482 11508 18451 11519 11727 18376 17214 13502 13174 17916 11023 18480 16990 11449 14325 19538 16781 11284 10065 14824 15133 14534 14431 19497 11282 14093 17709 18973 17992 11987 14423 10636 10785 11104 999999
999999 999999 999999 999999 999999 999999 999999 999999 999999 999999 999999 999999 999999 999999 999999 999999 999999 999999 999999 999999 999999 999999 999999 999999 999999 999999 999999 999999 999999 999999 999999 999999 999999 999999 999999 0 999999 999999 999999 999999 999999 999999 999999 999999 999999 999999 999999 999999 999999 999999 999999 999999 999999 999999 999999 999999 999999 999999 999999 999999 999999 999999 999999 999999 999999 999999 999999 999999 999999 999999 999999 999999 999999 999999 999999 999999 999999 999999 999999 999999 999999 999999 999999 999999 999999 999999 999999 999999 999999 999999 999999 999999 999999 999999 999999 999999 999999 999999 999999 999999 999999 999999 999999 999999 999999 999999 999999 999999 999999 999999 999999 999999 999999 999999 999999 999999 999999 999999 999999 999999 999999 999999 999999 999999 999999 999999 999999 999999 999999 999999 999999 999999 999999 999999 999999 999999 999999 999999 999999 999999 999999 19200 18004 14782 19052 14548 10984 16489 18941 12672 15918 10410 19237 17227 14236 15741 18832 12711 15929 18185 12602 12786 10272 11548 11806 14621 15857 10307 15303 18593 18633 18660 14753 19433 19951 18239 15512 18769 13325 12740 19437 13106 13618 14785 15754 19309 12483 15711 18205 17071 15323 999999
999999 999999 999999 999999 999999 999999 999999 999999 999999 999999 999999 999999 999999 999999 999999 999999 999999 999999 999999 999999 999999 999999 999999 999999 999999 999999 999999 999999 999999 999999 999999 999999 999999 999999 999999 999999 0 999999 999999 999999 999999 999999 999999 999999 999999 999999 999999 999999 999999 999999 999999 999999 999999 999999 999999 999999 999999 999999 999999 999999 999999 999999 999999 999999 999999 999999 999999 999999 999999 999999 999999 999999 999999 999999 999999 999999 999999 999999 999999 999999 999999 999999 999999 999999 999999 999999 999999 999999 999999 999999 999999 999999 999999 999999 999999 999999 999999 999999 999999 999999 999999 999999 999999 999999 999999 999999 999999 999999 999999 999999 999999 999999 999999 999999 999999 999999 999999 999999 999999 999999 999999 999999 999999 999999 999999 999999 999999 999999 999999 999999 999999 999999 999999 999999 999999 999999 999999 999999 999999 999999 999999 16553 19925 14544 12518 12919 19461 16181 19156 12847 12374 15740 18542 11370 16137 10836 11566 12609 10877 12049 12509 13363 17631 19482 11778 18569 18903 10779 18119 14065 19598 11041 10852 18010 11035 18187 17102 10939 10574 17883 15014 15060 17762 11428 17099 12059 17458 17875 14243 13034 15079 999999
999999 999999 999999 999999 999999 999999 999999 999999 999999 999999 999999 999999 999999 999999 999999 999999 999999 999999 999999 999999 999999 999999 999999 999999 999999 999999 999999 999999 999999 999999 999999 999999 999999 999999 999999 999999 999999 0 999999 999999 999999 999999 999999 999999 999999 999999 999999 999999 999999 999999 999999 999999 999999 999999 999999 999999 999999 999999 999999 999999 999999 999999 999999 999999 999999 999999 999999 999999 999999 999999 999999 999999 999999 999999 999999 999999 999999 999999 999999 999999 999999 999999 999999 999999 999999 999999 999999 999999 999999 999999 999999 999999 999999 999999 999999 999999 999999 999999 999999 999999 999999 999999 999999 999999 999999 999999 999999 999999 999999 999999 999999 999999 999999 999999 999999 999999 999999 999999 999999 999999 999999 999999 999999 999999 999999 999999 999999 999999 999999 999999 999999 999999 999999 999999 999999 999999 999999 999999 999999 999999 999999 13860 15882 12916 12105 14018 15679 14380 13859 14428 12078 11301 18380 12702 14289 15182 17031 18602 13851 10670 17987 12294 14136 15219 19921 14209 13446 11444 15490 12785 14118 16499 14612 17667 17901 13681 17408 15775 18534 18139 16145 17644 14115 13288 18485 19761 18111 18147 17147 10408 13945 999999
999999 999999 999999 999999 999999 999999 999999 999999 999999 999999 999999 999999 999999 999999 999999 999999 999999 999999 999999 999999 999999 999999 999999 999999 999999 999999 999999 999999 999999 999999 999999 999999 999999 999999 999999 999999 999999 999999 0 999999 999999 999999 999999 999999 999999 999999 999999 999999 999999 999999 999999 999999 999999 999999 999999 999999 999999 999999 999999 999999 999999 999999 999999 999999 999999 999999 999999 999999 999999 999999 999999 999999 999999 999999 999999 999999 999999 999999 999999 999999 999999 999999 999999 999999 999999 999999 999999 999999 999999 999999 999999 999999 999999 999999 999999 999999 999999 999999 999999 999999 999999 999999 999999 999999 999999 999999 999999 999999 999999 999999 999999 999999 999999 999999 999999 999999 999999 999999 999999 999999 999999 999999 999999 999999 999999 999999 999999 999999 999999 999999 999999 999999 999999 999999 999999 999999 999999 999999 999999 999999 999999 15385 15009 15252 16750 14774 12110 17235 16554 10091 13057 19562 17223 12616 12770 13332 12170 14759 15884 16861 10934 15231 11670 19695 12577 19510 14568 15711 14661 18860 18319 18280 14831 12605 16069 18428 13694 11006 16917 14181 14039 18815 15426 13080 17962 16745 16976 11079 17914 13073 17749 999999
999999 999999 999999 999999 999999 999999 999999 999999 999999 999999 999999 999999 999999 999999 999999 999999 999999 999999 999999 999999 999999 999999 999999 999999 999999 999999 999999 999999 999999 999999 999999 999999 999999 999999 999999 999999 999999 999999 999999 0 999999 999999 999999 999999 999999 999999 999999 999999 999999 999999 999999 999999 999999 999999 999999 999999 999999 999999 999999 999999 999999 999999 999999 999999 999999 999999 999999 999999 999999 999999 999999 999999 999999 999999 999999 999999 999999 999999 999999 999999 999999 999999 999999 999999 999999 999999 999999 999999 999999 999999 999999 999999 999999 999999 999999 999999 999999 999999 999999 999999 999999 999999 999999 999999 999999 999999 999999 999999 999999 999999 999999 999999 999999 999999 999999 999999 999999 999999 999999 999999 999999 999999 999999 999999 999999 999999 999999 999999 999999 999999 999999 999999 999999 999999 999999 999999 999999 999999 999999 999999 999999 17179 18046 15283 10292 13643 19579 17049 15769 11937 16596 19985 14937 15368 16901 13134 18067 10801 19555 14288 18501 10018 10720 15367 17939 19058 13866 18573 10449 17574 17245 11198 17818 16684 17870 17870 15777 10135 17753 12567 18527 19765 10731 13345 17075 15341 14747 12795 19551 16053 19876 999999
999999 999999 999999 999999 999999 999999 999999 999999 999999 999999 999999 999999 999999 999999 999999 999999 999999 999999 999999 999999 999999 999999 999999 999999 999999 999999 999999 999999 999999 999999 999999 999999 999999 999999 999999 999999 999999 999999 999999 999999 0 999999 999999 999999 999999 999999 999999 999999 999999 999999 999999 999999 999999 999999 999999 999999 999999 999999 999999 999999 999999 999999 999999 999999 999999 999999 999999 999999 999999 999999 999999 999999 999999 999999 999999 999999 999999 999999 999999 999999 999999 999999 999999 999999 999999 999999 999999 999999 999999 999999 999999 999999 999999 999999 999999 999999 999999 999999 999999 999999 999999 999999 999999 999999 999999 999999 999999 999999 999999 999999 999999 999999 999999 999999 999999 999999 999999 999999 999999 999999 999999 999999 999999 999999 999999 999999 999999 999999 999999 999999 999999 999999 999999 999999 999999 999999 999999 999999 999999 999999 999999 13051 14760 18322 15573 16626 12178 15050 17321 14654 10156 11566 18585 16555 15902 17124 18889 10604 13617 19551 14051 16700 19659 10746 11931 18018 12352 10519 18664 16441 14318 17545 19095 14701 19839 13176 13933 17992 11987 13490 19879 18304 10990 12493 16884 12815 10481 12758 19375 13662 14382 999999
999999 999999 999999 999999 999999 999999 999999 999999 999999 999999 999999 999999 999999 999999 999999 999999 999999 999999 999999 999999 999999 999999 999999 999999 999999 999999 999999 999999 999999 999999 999999 999999 999999 999999 999999 999999 999999 999999 999999 999999 999999 0 999999 999999 999999 999999 999999 999999 999999 999999 999999 999999 999999 999999 999999 999999 999999 999999 999999 999999 999999 999999 999999 999999 999999 999999 999999 999999 999999 999999 999999 999999 999999 999999 999999 999999 999999 999999 999999 999999 999999 999999 999999 999999 999999 999999 999999 999999 999999 999999 999999 999999 999999 999999 999999 999999 999999 999999 999999 999999 999999 999999 999999 999999 999999 999999 999999 999999 999999 999999 999999 999999 999999 999999 999999 999999 999999 999999 999999 999999 999999 999999 999999 999999 999999 999999 999999 999999 999999 999999 999999 999999 999999 999999 999999 999999 999999 999999 999999 999999 999999 11183 13004 10796 13571 12911 15269 17337 12544 12921 12410 10754 13179 13179 12282 17885 15107 17971 14918 18904 11645 17367 13463 18015 10595 12351 17578 19062 12948 10503 19320 15141 13141 10339 15407 11583 19986 19322 15555 11915 14736 15752 11317 12792 13047 15262 15931 18401 12641 12222 12862 999999
999999 999999 999999 999999 999999 999999 999999 999999 999999 999999 999999 999999 999999 999999 999999 999999 999999 999999 999999 999999 999999 999999 999999 999999 999999 999999 999999 999999 999999 999999 999999 999999 999999 999999 999999 999999 999999 999999 999999 999999 999999 999999 0 999999 999999 999999 999999 999999 999999 999999 999999 999999 999999 999999 999999 999999 999999 999999 999999 999999 999999 999999 999999 999999 999999 999999 999999 999999 999999 999999 999999 999999 999999 999999 999999 999999 999999 999999 999999 999999 999999 999999 999999 999999 999999 999999 999999 999999 999999 999999 999999 999999 999999 999999 999999 999999 999999 999999 999999 999999 999999 999999 999999 999999 999999 999999 999999 999999 999999 999999 999999 999999 999999 999999 999999 999999 999999 999999 999999 999999 999999 999999 999999 999999 999999 999999 999999 999999 999999 999999 999999 999999 999999 999999 999999 999999 999999 999999 999999 999999 999999 18970 18773 16206 18091 12007 14646 17817 17417 18625 16894 15705 17880 10004 15538 11732 14104 11682 18632 15011 14373 19596 10196 10570 15798 10325 19975 19983 10543 13038 18769 18564 16625 15275 17841 10958 19761 17062 12264 14019 17349 16394 14906 15245 12221 14242 19412 17450 14435 10124 17416 999999
999999 999999 999999 999999 999999 999999 999999 999999 999999 999999 999999 999999 999999 999999 999999 999999 999999 999999 999999 999999 999999 999999 999999 999999 999999 999999 999999 999999 999999 999999 999999 999999 999999 999999 999999 999999 999999 999999 999999 999999 999999 999999 999999 0 999999 999999 999999 999999 999999 999999 999999 999999 999999 999999 999999 999999 999999 999999 999999 999999 999999 999999 999999 999999 999999 999999 999999 999999 999999 999999 999999 999999 999999 999999 999999 999999 999999 999999 999999 999999 999999 999999 999999 999999 999999 999999 999999 999999 999999 999999 999999 999999 999999 999999 999999 999999 999999 999999 999999 999999 999999 999999 999999 999999 999999 999999 999999 999999 999999 999999 999999 999999 999999 999999 999999 999999 999999 999999 999999 999999 999999 999999 999999 999999 999999 999999 999999 999999 999999 999999 999999 999999 999999 999999 999999 999999 999999 999999 999999 999999 999999 13705 13800 16067 11580 12664 15086 17007 15226 16262 18645 19304 11520 16808 12726 16744 15853 18906 19379 10910 10128 13729 17518 12640 17450 16502 12847 18776 10177 19151 13676 16386 18016 15077 12396 15432 14519 16556 13078 17289 13695 17626 13217 10297 17434 16732 11611 19981 13380 10842 15908 999999
999999 999999 999999 999999 999999 999999 999999 999999 999999 999999 999999 999999 999999 999999 999999 999999 999999 999999 999999 999999 999999 999999 999999 999999 999999 999999 999999 999999 999999 999999 999999 999999 999999 999999 999999 999999 999999 999999 999999 999999 999999 999999 999999 999999 0 999999 999999 999999 999999 999999 999999 999999 999999 999999 999999 999999 999999 999999 999999 999999 999999 999999 999999 999999 999999 999999 999999 999999 999999 999999 999999 999999 999999 999999 999999 999999 999999 999999 999999 999999 999999 999999 999999 999999 999999 999999 999999 999999 999999 999999 999999 999999 999999 999999 999999 999999 999999 999999 999999 999999 999999 999999 999999 999999 999999 999999 999999 999999 999999 999999 999999 999999 999999 999999 999999 999999 999999 999999 999999 999999 999999 999999 999999 999999 999999 999999 999999 999999 999999 999999 999999 999999 999999 999999 999999 999999 999999 999999 999999 999999 999999 12063 11027 19196 17780 15634 18325 19426 10290 16227 12252 14143 18918 19834 10405 17846 19792 18227 19284 14953 16679 18285 18471 12759 12796 12023 15119 15679 17876 11883 17483 15232 11232 16763 12664 13661 18042 15435 12826 17368 19468 18213 12104 12843 15427 15762 12290 15970 13068 19048 17423 999999
999999 999999 999999 999999 999999 999999 999999 999999 999999 999999 999999 999999 999999 999999 999999 999999 999999 999999 999999 999999 999999 999999 999999 999999 999999 999999 999999 999999 999999 999999 999999 999999 999999 999999 999999 999999 999999 999999 999999 999999 999999 999999 999999 999999 999999 0 999999 999999 999999 999999 999999 999999 999999 999999 999999 999999 999999 999999 999999 999999 999999 999999 999999 999999 999999 999999 999999 999999 999999 999999 999999 999999 999999 999999 999999 999999 999999 999999 999999 999999 999999 999999 999999 999999 999999 999999 999999 999999 999999 999999 999999 999999 999999 999999 999999 999999 999999 999999 999999 999999 999999 999999 999999 999999 999999 999999 999999 999999 999999 999999 999999 999999 999999 999999 999999 999999 999999 999999 999999 999999 999999 999999 999999 999999 999999 999999 999999 999999 999999 999999 999999 999999 999999 999999 999999 999999 999999 999999 999999 999999 999999 12529 14150 19836 18535 12717 19073 12469 19667 17556 11045 18903 19392 16483 16361 10304 11823 10610 17980 17169 12568 14789 14391 12088 14037 18262 18938 18280 18934 14850 18276 12593 14807 16018 16415 19897 17554 17001 13258 15393 19963 14480 10696 14298 14126 17737 16432 10845 17621 12710 17254 999999
999999 999999 999999 999999 999999 999999 999999 999999 999999 999999 999999 999999 999999 999999 999999 999999 999999 999999 999999 999999 999999 999999 999999 999999 999999 999999 999999 999999 999999 999999 999999 999999 999999 999999 999999 999999 999999 999999 999999 999999 999999 999999 999999 999999 999999 999999 0 999999 999999 999999 999999 999999 999999 999999 999999 999999 999999 999999 999999 999999 999999 999999 999999 999999 999999 999999 999999 999999 999999 999999 999999 999999 999999 999999 999999 999999 999999 999999 999999 999999 999999 999999 999999 999999 999999 999999 999999 999999 999999 999999 999999 999999 999999 999999 999999 999999 999999 999999 999999 999999 999999 999999 999999 999999 999999 999999 999999 999999 999999 999999 999999 999999 999999 999999 999999 999999 999999 999999 999999 999999 999999 999999 999999 999999 999999 999999 999999 999999 999999 999999 999999 999999 999999 999999 999999 999999 999999 999999 999999 999999 999999 18124 12587 13067 16013 17864 12949 15452 18313 13149 17552 16067 10715 10700 19251 10387 17715 16863 18996 18528 18086 18955 13682 11250 12946 16584 15855 10999 15962 15526 10414 14448 10081 17868 12706 14074 18663 15635 16949 11224 14099 12220 16316 15081 16292 14736 14574 12144 19262 15776 11118 999999
999999 999999 999999 999999 999999 999999 999999 999999 999999 999999 999999 999999 999999 999999 999999 999999 999999 999999 999999 999999 999999 999999 999999 999999 999999 999999 999999 999999 999999 999999 999999 999999 999999 999999 999999 999999 999999 999999 999999 999999 999999 999999 999999 999999 999999 999999 999999 0 999999 999999 999999 999999 999999 999999 999999 999999 999999 999999 999999 999999 999999 999999 999999 999999 999999 999999 999999 999999 999999 999999 999999 999999 999999 999999 999999 999999 999999 999999 999999 999999 999999 999999 999999 999999 999999 999999 999999 999999 999999 999999 999999 999999 999999 999999 999999 999999 999999 999999 999999 999999 999999 999999 999999 999999 999999 999999 999999 999999 999999 999999 999999 999999 999999 999999 999999 999999 999999 999999 999999 999999 999999 999999 999999 999999 999999 999999 999999 999999 999999 999999 999999 999999 999999 999999 999999 999999 999999 999999 999999 999999 999999 15048 19193 15075 15536 17844 12863 19259 19830 10151 18510 13148 14692 13656 14827 10785 12838 12452 19792 10030 15767 13814 10532 10688 16923 13506 14872 12325 11856 19878 15927 17534 11425 16024 10070 12774 12365 11716 16126 14501 11876 12868 12133 14694 17801 10832 19538 17543 17011 19919 19356 999999
999999 999999 999999 999999 999999 999999 999999 999999 999999 999999 999999 999999 999999 999999 999999 999999 999999 999999 999999 999999 999999 999999 999999 999999 999999 999999 999999 999999 999999 999999 999999 999999 999999 999999 999999 999999 999999 999999 999999 999999 999999 999999 999999 999999 999999 999999 999999 999999 0 999999 999999 999999 999999 999999 999999 999999 999999 999999 999999 999999 999999 999999 999999 999999 999999 999999 999999 999999 999999 999999 999999 999999 999999 999999 999999 999999 999999 999999 999999 999999 999999 999999 999999 999999 999999 999999 999999 999999 999999 999999 999999 999999 999999 999999 999999 999999 999999 999999 999999 999999 999999 999999 999999 999999 999999 999999 999999 999999 999999 999999 999999 999999 999999 999999 999999 999999 999999 999999 999999 999999 999999 999999 999999 999999 999999 999999 999999 999999 999999 999999 999999 999999 999999 999999 999999 999999 999999 999999 999999 999999 999999 10156 19390 17507 15834 12137 19706 15476 13411 10819 18180 14547 12198 15846 18845 11916 12950 17687 19263 15127 19596 18265 18048 16164 16081 13590 12944 11725 16244 12533 14900 14677 18726 12069 18428 12656 10722 13295 14329 13960 19576 12164 10206 13757 10931 16735 17036 16530 13150 17455 14707 999999
999999 999999 999999 999999 999999 999999 999999 999999 999999 999999 999999 999999 999999 999999 999999 999999 999999 999999 999999 999999 999999 999999 999999 999999 999999 999999 999999 999999 999999 999999 999999 999999 999999 999999 999999 999999 999999 999999 999999 999999 999999 999999 999999 999999 999999 999999 999999 999999 999999 0 999999 999999 999999 999999 999999 999999 999999 999999 999999 999999 999999 999999 999999 999999 999999 999999 999999 999999 999999 999999 999999 999999 999999 999999 999999 999999 999999 999999 999999 999999 999999 999999 999999 999999 999999 999999 999999 999999 999999 999999 999999 999999 999999 999999 999999 999999 999999 999999 999999 999999 999999 999999 999999 999999 999999 999999 999999 999999 999999 999999 999999 999999 999999 999999 999999 999999 999999 999999 999999 999999 999999 999999 999999 999999 999999 999999 999999 999999 999999 999999 999999 999999 999999 999999 999999 999999 999999 999999 999999 999999 999999 14378 12750 13119 12220 11417 16105 12829 14572 12562 16236 15864 19420 10786 18589 13415 19466 10654 11107 11402 17322 17458 11709 10844 12283 19500 11643 14595 17880 11648 17759 10247 19545 11940 15511 17554 18663 15300 13778 14110 19457 17217 18176 16881 17945 14875 14366 13887 13187 10776 10671 999999
999999 999999 999999 999999 999999 999999 999999 999999 999999 999999 999999 999999 999999 999999 999999 999999 999999 999999 999999 999999 999999 999999 999999 999999 999999 999999 999999 999999 999999 999999 999999 999999 999999 999999 999999 999999 999999 999999 999999 999999 999999 999999 999999 999999 999999 999999 999999 999999 999999 999999 0 999999 999999 999999 999999 999999 999999 999999 999999 999999 999999 999999 999999 999999 999999 999999 999999 999999 999999 999999 999999 999999 999999 999999 999999 999999 999999 999999 999999 999999 999999 999999 999999 999999 999999 999999 999999 999999 999999 999999 999999 999999 999999 999999 999999 999999 999999 999999 999999 999999 999999 999999 999999 999999 999999 999999 999999 999999 999999 999999 999999 999999 999999 999999 999999 999999 999999 999999 999999 999999 999999 999999 999999 999999 999999 999999 999999 999999 999999 999999 999999 999999 999999 999999 999999 999999 999999 999999 999999 999999 999999 19733 13908 18348 11800 15373 10810 18705 10141 18750 10138 11419 11482 16662 13741 14113 17607 12695 13162 15183 11125 16017 11194 19553 12286 14678 15899 16599 12597 11286 14502 17886 17639 16459 14175 15806 12627 13184 17759 18941 10781 14784 12350 18199 14516 10004 11658 11184 12328 17880 12611 999999
999999 999999 999999 999999 999999 999999 999999 999999 999999 999999 999999 999999 999999 999999 999999 999999 999999 999999 999999 999999 999999 999999 999999 999999 999999 999999 999999 999999 999999 999999 999999 999999 999999 999999 999999 999999 999999 999999 999999 999999 999999 999999 999999 999999 999999 999999 999999 999999 999999 999999 999999 0 999999 999999 999999 999999 999999 999999 999999 999999 999999 999999 999999 999999 999999 999999 999999 999999 999999 999999 999999 999999 999999 999999 999999 999999 999999 999999 999999 999999 999999 999999 999999 999999 999999 999999 999999 999999 999999 999999 999999 999999 999999 999999 999999 999999 999999 999999 999999 999999 999999 999999 999999 999999 999999 999999 999999 999999 999999 999999 999999 999999 999999 999999 999999 999999 999999 999999 999999 999999 999999 999999 999999 999999 999999 999999 999999 999999 999999 999999 999999 999999 999999 999999 999999 999999 999999 999999 999999 999999 999999 19662 19548 15073 13822 12055 11015 15204 16816 12277 17467 18460 15474 10823 19275 17608 13795 14562 15696 11769 10649 19056 10009 10010 18788 10551 18329 17846 13763 16579 13150 14156 10497 15058 14208 12619 11444 18328 13392 10338 15721 18616 10051 13430 15587 10216 10149 19523 18768 15234 11339 999999
999999 999999 999999 999999 999999 999999 999999 999999 999999 999999 999999 999999 999999 999999 999999 999999 999999 999999 999999 999999 999999 999999 999999 999999 999999 999999 999999 999999 999999 999999 999999 999999 999999 999999 999999 999999 999999 999999 999999 999999 999999 999999 999999 999999 999999 999999 999999 999999 999999 999999 999999 999999 0 999999 999999 999999 999999 999999 999999 999999 999999 999999 999999 999999 999999 999999 999999 999999 999999 999999 999999 999999 999999 999999 999999 999999 999999 999999 999999 999999 999999 999999 999999 999999 999999 999999 999999 999999 999999 999999 999999 999999 999999 999999 999999 999999 999999 999999 999999 999999 999999 999999 999999 999999 999999 999999 999999 999999 999999 999999 999999 999999 999999 999999 999999 999999 999999 999999 999999 999999 999999 999999 999999 999999 999999 999999 999999 999999 999999 999999 999999 999999 999999 999999 999999 999999 999999 999999 999999 999999 999999 12633 18226 16570 17429 19018 19929 14299 18924 14588 13173 12735 17615 17922 18056 11908 18019 18034 12273 13480 19001 14987 13996 13281 10205 10901 19403 10728 16203 17872 14899 19275 17409 18075 16140 17205 18147 11976 17776 19188 11219 19115 16198 13259 15050 17382 10306 13194 19745 19262 17024 999999
999999 999999 999999 999999 999999 999999 999999 999999 999999 999999 999999 999999 999999 999999 999999 999999 999999 999999 999999 999999 999999 999999 999999 999999 999999 999999 999999 999999 999999 999999 999999 999999 999999 999999 999999 999999 999999 999999 999999 999999 999999 999999 999999 999999 999999 999999 999999 999999 999999 999999 999999 999999 999999 0 999999 999999 999999 999999 999999 999999 999999 999999 999999 999999 999999 999999 999999 999999 999999 999999 999999 999999 999999 999999 999999 999999 999999 999999 999999 999999 999999 999999 999999 999999 999999 999999 999999 999999 999999 999999 999999 999999 999999 999999 999999 999999 999999 999999 999999 999999 999999 999999 999999 999999 999999 999999 999999 999999 999999 999999 999999 999999 999999 999999 999999 999999 999999 999999 999999 999999 999999 999999 999999 999999 999999 999999 999999 999999 999999 999999 999999 999999 999999 999999 999999 999999 999999 999999 999999 999999 999999 11041 10072 11953 12088 15554 19241 11610 18479 13263 14020 19620 16253 19067 10890 17378 12351 17252 19135 15608 12883 14538 12689 15502 12415 11235 17292 10280 15306 10299 16782 10490 17648 11658 10491 12519 10795 10057 19769 15483 13225 15812 12031 18439 15538 11442 16238 15245 14018 11273 13439 999999
999999 999999 999999 999999 999999 999999 999999 999999 999999 999999 999999 999999 999999 999999 999999 999999 999999 999999 999999 999999 999999 999999 999999 999999 999999 999999 999999 999999 999999 999999 999999 999999 999999 999999 999999 999999 999999 999999 999999 999999 999999 999999 999999 999999 999999 999999 999999 999999 999999 999999 999999 999999 999999 999999 0 999999 999999 999999 999999 999999 999999 999999 999999 999999 999999 999999 999999 999999 999999 999999 999999 999999 999999 999999 999999 999999 999999 999999 999999 999999 999999 999999 999999 999999 999999 999999 999999 999999 999999 999999 999999 999999 999999 999999 999999 999999 999999 999999 999999 999999 999999 999999 999999 999999 999999 999999 999999 999999 999999 999999 999999 999999 999999 999999 999999 999999 999999 999999 999999 999999 999999 999999 999999 999999 999999 999999 999999 999999 999999 999999 999999 999999 999999 999999 999999 999999 999999 999999 999999 999999 999999 14036 18488 16335 15692 18637 10662 15195 18908 12182 11193 18289 17400 16655 18990 19266 14168 15308 11175 17437 14592 16524 19114 11917 10729 17078 10223 16266 12695 11241 13559 19495 17604 19561 14170 12610 18679 13240 11983 12607 18077 18560 17807 16893 10168 18503 12137 10052 17763 11997 14245 999999
999999 999999 999999 999999 999999 999999 999999 999999 999999 999999 999999 999999 999999 999999 999999 999999 999999 999999 999999 999999 999999 999999 999999 999999 999999 999999 999999 999999 999999 999999 999999 999999 999999 999999 999999 999999 999999 999999 999999 999999 999999 999999 999999 999999 999999 999999 999999 999999 999999 999999 999999 999999 999999 999999 999999 0 999999 999999 999999 999999 999999 999999 999999 999999 999999 999999 999999 999999 999999 999999 999999 999999 999999 999999 999999 999999 999999 999999 999999 999999 999999 999999 999999 999999 999999 999999 999999 999999 999999 999999 999999 999999 999999 999999 999999 999999 999999 999999 999999 999999 999999 999999 999999 999999 999999 999999 999999 999999 999999 999999 999999 999999 999999 999999 999999 999999 999999 999999 999999 999999 999999 999999 999999 999999 999999 999999 999999 999999 999999 999999 999999 999999 999999 999999 999999 999999 999999 999999 999999 999999 999999 19369 11679 14872 17802 16584 17721 17998 17425 13085 13715 11338 18663 14496 11348 12877 17057 12934 11363 19054 18377 18639 17661 19522 12940 15916 13118 10565 14840 11321 11826 11740 14658 16911 19805 11025 19554 14365 11863 17824 16978 10580 18694 11355 15826 19682 15802 14540 13092 15774 17325 999999
999999 999999 999999 999999 999999 999999 999999 999999 999999 999999 999999 999999 999999 999999 999999 999999 999999 999999 999999 999999 999999 999999 999999 999999 999999 999999 999999 999999 999999 999999 999999 999999 999999 999999 999999 999999 999999 999999 999999 999999 999999 999999 999999 999999 999999 999999 999999 999999 999999 999999 999999 999999 999999 999999 999999 999999 0 999999 999999 999999 999999 999999 999999 999999 999999 999999 999999 999999 999999 999999 999999 999999 999999 999999 999999 999999 999999 999999 999999 999999 999999 999999 999999 999999 999999 999999 999999 999999 999999 999999 999999 999999 999999 999999 999999 999999 999999 999999 999999 999999 999999 999999 999999 999999 999999 999999 999999 999999 999999 999999 999999 999999 999999 999999 999999 999999 999999 999999 999999 999999 999999 999999 999999 999999 999999 999999 999999 999999 999999 999999 999999 999999 999999 999999 999999 999999 999999 999999 999999 999999 999999 15112 11459 10938 16417 12926 18341 16082 17898 18689 10146 18746 19893 13169 19132 12934 18094 10449 16739 15535 11787 15814 12677 17901 12102 17149 19178 14285 12569 11595 12908 12781 17281 16653 10456 15083 14670 11348 12101 13353 15603 18278 13156 11738 13539 13837 11043 19792 12710 12496 11674 999999
999999 999999 999999 999999 999999 999999 999999 999999 999999 999999 999999 999999 999999 999999 999999 999999 999999 999999 999999 999999 999999 999999 999999 999999 999999 999999 999999 999999 999999 999999 999999 999999 999999 999999 999999 999999 999999 999999 999999 999999 999999 999999 999999 999999 999999 999999 999999 999999 999999 999999 999999 999999 999999 999999 999999 999999 999999 0 999999 999999 999999 999999 999999 999999 999999 999999 999999 999999 999999 999999 999999 999999 999999 999999 999999 999999 999999 999999 999999 999999 999999 999999 999999 999999 999999 999999 999999 999999 999999 999999 999999 999999 999999 999999 999999 999999 999999 999999 999999 999999 999999 999999 999999 999999 999999 999999 999999 999999 999999 999999 999999 999999 999999 999999 999999 999999 999999 999999 999999 999999 999999 999999 999999 999999 999999 999999 999999 999999 999999 999999 999999 999999 999999 999999 999999 999999 999999 999999 999999 999999 999999 12417 15367 15921 19357 12603 13751 11183 19113 13725 16189 11635 10704 11376 14188 12791 18137 17929 16485 15836 17338 10787 16567 15127 15921 17700 18927 18661 12880 14426 12745 12909 10787 15660 12604 13568 16617 13277 11302 10208 11895 11636 18703 10686 19121 13898 16906 17364 15089 19815 17477 999999
999999 999999 999999 999999 999999 999999 999999 999999 999999 999999 999999 999999 999999 999999 999999 999999 999999 999999 999999 999999 999999 999999 999999 999999 999999 999999 999999 999999 999999 999999 999999 999999 999999 999999 999999 999999 999999 999999 999999 999999 999999 999999 999999 999999 999999 999999 999999 999999 999999 999999 999999 999999 999999 999999 999999 999999 999999 999999 0 999999 999999 999999 999999 999999 999999 999999 999999 999999 999999 999999 999999 999999 999999 999999 999999 999999 999999 999999 999999 999999 999999 999999 999999 999999 999999 999999 999999 999999 999999 999999 999999 999999 999999 999999 999999 999999 999999 999999 999999 999999 999999 999999 999999 999999 999999 999999 999999 999999 999999 999999 999999 999999 999999 999999 999999 999999 999999 999999 999999 999999 999999 999999 999999 999999 999999 999999 999999 999999 999999 999999 999999 999999 999999 999999 999999 999999 999999 999999 999999 999999 999999 19714 10335 13450 13326 12893 10508 10808 15258 13131 11381 13777 12025 17484 15082 18135 12831 18015 11918 14623 16012 16628 19639 13509 10668 14396 12357 18865 11540 16059 15753 18240 19979 18554 17229 19711 14970 19555 14320 17927 17538 18563 17399 12423 10902 15801 19545 19364 15441 10393 18106 999999
999999 999999 999999 999999 999999 999999 999999 999999 999999 999999 999999 999999 999999 999999 999999 999999 999999 999999 999999 999999 999999 999999 999999 999999 999999 999999 999999 999999 999999 999999 999999 999999 999999 999999 999999 999999 999999 999999 999999 999999 999999 999999 999999 999999 999999 999999 999999 999999 999999 999999 999999 999999 999999 999999 999999 999999 999999 999999 999999 0 999999 999999 999999 999999 999999 999999 999999 999999 999999 999999 999999 999999 999999 999999 999999 999999 999999 999999 999999 999999 999999 999999 999999 999999 999999 999999 999999 999999 999999 999999 999999 999999 999999 999999 999999 999999 999999 999999 999999 999999 999999 999999 999999 999999 999999 999999 999999 999999 999999 999999 999999 999999 999999 999999 999999 999999 999999 999999 999999 999999 999999 999999 999999 999999 999999 999999 999999 999999 999999 999999 999999 999999 999999 999999 999999 999999 999999 999999 999999 999999 999999 10768 14562 13816 10526 16801 14816 15112 17248 11964 18695 16295 12494 19335 14984 12487 16000 17042 17107 12877 18702 15415 17483 16494 18511 17583 19408 15131 11203 18733 14938 14049 17174 16875 10596 13939 13649 17425 14429 18873 16833 17925 16812 19192 13371 16224 14266 12035 11949 13560 17959 999999
999999 999999 999999 999999 999999 999999 999999 999999 999999 999999 999999 999999 999999 999999 999999 999999 999999 999999 999999 999999 999999 999999 999999 999999 999999 999999 999999 999999 999999 999999 999999 999999 999999 999999 999999 999999 999999 999999 999999 999999 999999 999999 999999 999999 999999 999999 999999 999999 999999 999999 999999 999999 999999 999999 999999 999999 999999 999999 999999 999999 0 999999 999999 999999 999999 999999 999999 999999 999999 999999 999999 999999 999999 999999 999999 999999 999999 999999 999999 999999 999999 999999 999999 999999 999999 999999 999999 999999 999999 999999 999999 999999 999999 999999 999999 999999 999999 999999 999999 999999 999999 999999 999999 999999 999999 999999 999999 999999 999999 999999 999999 999999 999999 999999 999999 999999 999999 999999 999999 999999 999999 999999 999999 999999 999999 999999 999999 999999 999999 999999 999999 999999 999999 999999 999999 999999 999999 999999 999999 999999 999999 12021 15093 11342 19605 14296 13088 18720 14807 10930 12026 15237 19643 19745 17433 16536 13306 14679 13625 16416 15723 16349 14971 14956 12897 16200 17022 12572 10176 11210 13084 15822 16500 10934 18106 16627 12925 11048 14138 11173 12010 15207 18694 12380 11614 16560 16242 11643 19385 18587 14568 999999
999999 999999 999999 999999 999999 999999 999999 999999 999999 999999 999999 999999 999999 999999 999999 999999 999999 999999 999999 999999 999999 999999 999999 999999 999999 999999 999999 999999 999999 999999 999999 999999 999999 999999 999999 999999 999999 999999 999999 999999 999999 999999 999999 999999 999999 999999 999999 999999 999999 999999 999999 999999 999999 999999 999999 999999 999999 999999 999999 999999 999999 0 999999 999999 999999 999999 999999 999999 999999 999999 999999 999999 999999 999999 999999 999999 999999 999999 999999 999999 999999 999999 999999 999999 999999 999999 999999 999999 999999 999999 999999 999999 999999 999999 999999 999999 999999 999999 999999 999999 999999 999999 999999 999999 999999 999999 999999 999999 999999 999999 999999 999999 999999 999999 999999 999999 999999 999999 999999 999999 999999 999999 999999 999999 999999 999999 999999 999999 999999 999999 999999 999999 999999 999999 999999 999999 999999 999999 999999 999999 999999 16168 13667 10388 17873 18031 16003 16484 19119 13459 18906 16980 14941 13060 11647 17974 14523 15615 12947 16157 12727 11006 14233 10829 15951 11404 16412 11077 14985 15319 13947 18989 19649 11539 15983 11405 16201 17487 19075 11084 13009 19497 10519 14975 11472 12886 13171 10632 14095 19458 11109 999999
999999 999999 999999 999999 999999 999999 999999 999999 999999 999999 999999 999999 999999 999999 999999 999999 999999 999999 999999 999999 999999 999999 999999 999999 999999 999999 999999 999999 999999 999999 999999 999999 999999 999999 999999 999999 999999 999999 999999 999999 999999 999999 999999 999999 999999 999999 999999 999999 999999 999999 999999 999999 999999 999999 999999 999999 999999 999999 999999 999999 999999 999999 0 999999 999999 999999 999999 999999 999999 999999 999999 999999 999999 999999 999999 999999 999999 999999 999999 999999 999999 999999 999999 999999 999999 999999 999999 999999 999999 999999 999999 999999 999999 999999 999999 999999 999999 999999 999999 999999 999999 999999 999999 999999 999999 999999 999999 999999 999999 999999 999999 999999 999999 999999 999999 999999 999999 999999 999999 999999 999999 999999 999999 999999 999999 999999 999999 999999 999999 999999 999999 999999 999999 999999 999999 999999 999999 999999 999999 999999 999999 10617 18847 15472 17324 15583 13518 13364 16299 10686 13912 12002 11467 18894 16620 10069 11960 18055 14982 16408 13166 11548 15106 15258 18582 10097 10428 14254 11499 13634 13403 15074 11122 15247 19202 18099 11142 13387 15032 12752 10993 16394 10927 19161 12244 15332 12287 18130 16976 14361 12583 999999
999999 999999 999999 999999 999999 999999 999999 999999 999999 999999 999999 999999 999999 999999 999999 999999 999999 999999 999999 999999 999999 999999 999999 999999 999999 999999 999999 999999 999999 999999 999999 999999 999999 999999 999999 999999 999999 999999 999999 999999 999999 999999 999999 999999 999999 999999 999999 999999 999999 999999 999999 999999 999999 999999 999999 999999 999999 999999 999999 999999 999999 999999 999999 0 999999 999999 999999 999999 999999 999999 999999 999999 999999 999999 999999 999999 999999 999999 999999 999999 999999 999999 999999 999999 999999 999999 999999 999999 999999 999999 999999 999999 999999 999999 999999 999999 999999 999999 999999 999999 999999 999999 999999 999999 999999 999999 999999 999999 999999 999999 999999 999999 999999 999999 999999 999999 999999 999999 999999 999999 999999 999999 999999 999999 999999 999999 999999 999999 999999 999999 999999 999999 999999 999999 999999 999999 999999 999999 999999 999999 999999 15236 12384 10469 13064 15664 10026 13574 10737 10165 14572 11937 14292 11066 15270 13967 11459 11292 10222 14083 12617 12552 16325 14062 17630 15279 17768 11347 12512 14520 13738 15289 13015 12777 10316 17762 12903 16714 14589 11975 13661 13073 18269 15097 11782 17425 16785 18198 14600 10147 17876 999999
999999 999999 999999 999999 999999 999999 999999 999999 999999 999999 999999 999999 999999 999999 999999 999999 999999 999999 999999 999999 999999 999999 999999 999999 999999 999999 999999 999999 999999 999999 999999 999999 999999 999999 999999 999999 999999 999999 999999 999999 999999 999999 999999 999999 999999 999999 999999 999999 999999 999999 999999 999999 999999 999999 999999 999999 999999 999999 999999 999999 999999 999999 999999 999999 0 999999 999999 999999 999999 999999 999999 999999 999999 999999 999999 999999 999999 999999 999999 999999 999999 999999 999999 999999 999999 999999 999999 999999 999999 999999 999999 999999 999999 999999 999999 999999 999999 999999 999999 999999 999999 999999 999999 999999 999999 999999 999999 999999 999999 999999 999999 999999 999999 999999 999999 999999 999999 999999 999999 999999 999999 999999 999999 999999 999999 999999 999999 999999 999999 999999 999999 999999 999999 999999 999999 999999 999999 999999 999999 999999 999999 16819 16979 15495 17191 19481 13387 15564 16302 12990 12514 14209 14858 15641 19397 11407 12387 16540 14808 16798 16136 19331 19798 10622 14164 10725 19181 19868 18982 18011 10208 17033 18442 17430 17086 10383 14894 14722 12108 18154 17293 10033 11301 18533 19689 19867 13910 16312 14930 14113 15816 999999
999999 999999 999999 999999 999999 999999 999999 999999 999999 999999 999999 999999 999999 999999 999999 999999 999999 999999 999999 999999 999999 999999 999999 999999 999999 999999 999999 999999 999999 999999 999999 999999 999999 999999 999999 999999 999999 999999 999999 999999 999999 999999 999999 999999 999999 999999 999999 999999 999999 999999 999999 999999 999999 999999 999999 999999 999999 999999 999999 999999 999999 999999 999999 999999 999999 0 999999 999999 999999 999999 999999 999999 999999 999999 999999 999999 999999 999999 999999 999999 999999 999999 999999 999999 999999 999999 999999 999999 999999 999999 999999 999999 999999 999999 999999 999999 999999 999999 999999 999999 999999 999999 999999 999999 999999 999999 999999 999999 999999 999999 999999 999999 999999 999999 999999 999999 999999 999999 999999 999999 999999 999999 999999 999999 999999 999999 999999 999999 999999 999999 999999 999999 999999 999999 999999 999999 999999 999999 999999 999999 999999 10407 10996 19491 11227 19956 18441 14202 14365 13073 10629 16352 13797 19148 18842 11633 11521 18704 10689 16905 13900 13654 16666 10254 11544 10726 17753 13060 10133 12065 12307 12173 10188 10928 12986 14998 19262 14665 18841 13251 14803 11000 11194 11425 19175 12471 18933 14095 17911 16434 16944 999999
999999 999999 999999 999999 999999 999999 999999 999999 999999 999999 999999 999999 999999 999999 999999 999999 999999 999999 999999 999999 999999 999999 999999 999999 999999 999999 999999 999999 999999 999999 999999 999999 999999 999999 999999 999999 999999 999999 999999 999999 999999 999999 999999 999999 999999 999999 999999 999999 999999 999999 999999 999999 999999 999999 999999 999999 999999 999999 999999 999999 999999 999999 999999 999999 999999 999999 0 999999 999999 999999 999999 999999 999999 999999 999999 999999 999999 999999 999999 999999 999999 999999 999999 999999 999999 999999 999999 999999 999999 999999 999999 999999 999999 999999 999999 999999 999999 999999 999999 999999 999999 999999 999999 999999 999999 999999 999999 999999 999999 999999 999999 999999 999999 999999 999999 999999 999999 999999 999999 999999 999999 999999 999999 999999 999999 999999 999999 999999 999999 999999 999999 999999 999999 999999 999999 999999 999999 999999 999999 999999 999999 18134 14550 10242 11618 18644 10080 11611 15010 14040 11604 10166 13132 11994 17693 11625 10110 17335 16026 18903 11016 16672 15183 14330 19119 16846 19133 10074 15538 12128 16821 12861 16721 17648 15309 13520 14575 11432 13416 18468 18979 16603 17977 16056 17341 10173 19168 15164 19911 12820 12000 999999
999999 999999 999999 999999 999999 999999 999999 999999 999999 999999 999999 999999 999999 999999 999999 999999 999999 999999 999999 999999 999999 999999 999999 999999 999999 999999 999999 999999 999999 999999 999999 999999 999999 999999 999999 999999 999999 999999 999999 999999 999999 999999 999999 999999 999999 999999 999999 999999 999999 999999 999999 999999 999999 999999 999999 999999 999999 999999 999999 999999 999999 999999 999999 999999 999999 999999 999999 0 999999 999999 999999 999999 999999 999999 999999 999999 999999 999999 999999 999999 999999 999999 999999 999999 999999 999999 999999 999999 999999 999999 999999 999999 999999 999999 999999 999999 999999 999999 999999 999999 999999 999999 999999 999999 999999 999999 999999 999999 999999 999999 999999 999999 999999 999999 999999 999999 999999 999999 999999 999999 999999 999999 999999 999999 999999 999999 999999 999999 999999 999999 999999 999999 999999 999999 999999 999999 999999 999999 999999 999999 999999 16447 11504 16745 17716 17582 10919 14901 19653 12257 13046 12631 12474 14086 10302 18260 15614 14062 12615 14410 16936 19657 13105 16098 12946 13066 13605 12468 17197 15438 19716 15458 17061 13969 14625 18570 17429 19880 19655 12927 13238 15793 16405 12188 13535 18589 12732 19402 16391 11816 14834 999999
999999 999999 999999 999999 999999 999999 999999 999999 999999 999999 999999 999999 999999 999999 999999 999999 999999 999999 999999 999999 999999 999999 999999 999999 999999 999999 999999 999999 999999 999999 999999 999999 999999 999999 999999 999999 999999 999999 999999 999999 999999 999999 999999 999999 999999 999999 999999 999999 999999 999999 999999 999999 999999 999999 999999 999999 999999 999999 999999 999999 999999 999999 999999 999999 999999 999999 999999 999999 0 999999 999999 999999 999999 999999 999999 999999 999999 999999 999999 999999 999999 999999 999999 999999 999999 999999 999999 999999 999999 999999 999999 999999 999999 999999 999999 999999 999999 999999 999999 999999 999999 999999 999999 999999 999999 999999 999999 999999 999999 999999 999999 999999 999999 999999 999999 999999 999999 999999 999999 999999 999999 999999 999999 999999 999999 999999 999999 999999 999999 999999 999999 999999 999999 999999 999999 999999 999999 999999 999999 999999 999999 12536 18008 16150 18561 14821 12119 11629 19700 17534 13212 17260 14503 13990 10310 13625 17705 10305 17264 12655 16017 18076 15413 19841 16929 12267 11832 16498 12016 17469 15462 19298 11010 11644 16765 15772 15701 18679 18114 11994 15710 12644 19735 11936 12951 11133 16384 11916 12072 18544 14330 999999
999999 999999 999999 999999 999999 999999 999999 999999 999999 999999 999999 999999 999999 999999 999999 999999 999999 999999 999999 999999 999999 999999 999999 999999 999999 999999 999999 999999 999999 999999 999999 999999 999999 999999 999999 999999 999999 999999 999999 999999 999999 999999 999999 999999 999999 999999 999999 999999 999999 999999 999999 999999 999999 999999 999999 999999 999999 999999 999999 999999 999999 999999 999999 999999 999999 999999 999999 999999 999999 0 999999 999999 999999 999999 999999 999999 999999 999999 999999 999999 999999 999999 999999 999999 999999 999999 999999 999999 999999 999999 999999 999999 999999 999999 999999 999999 999999 999999 999999 999999 999999 999999 999999 999999 999999 999999 999999 999999 999999 999999 999999 999999 999999 999999 999999 999999 999999 999999 999999 999999 999999 999999 999999 999999 999999 999999 999999 999999 999999 999999 999999 999999 999999 999999 999999 999999 999999 999999 999999 999999 999999 10987 19089 14965 10262 15898 10321 16906 11673 12753 12111 12331 15713 13527 16361 10082 14359 17761 17601 15703 13749 17478 12718 15274 16422 13683 12847 12722 16597 10738 18445 14384 15592 13264 13536 12443 16846 19642 13353 19567 19336 13950 17722 17444 12551 11168 14774 18453 16536 14065 17107 999999
999999 999999 999999 999999 999999 999999 999999 999999 999999 999999 999999 999999 999999 999999 999999 999999 999999 999999 999999 999999 999999 999999 999999 999999 999999 999999 999999 999999 999999 999999 999999 999999 999999 999999 999999 999999 999999 999999 999999 999999 999999 999999 999999 999999 999999 999999 999999 999999 999999 999999 999999 999999 999999 999999 999999 999999 999999 999999 999999 999999 999999 999999 999999 999999 999999 999999 999999 999999 999999 999999 0 999999 999999 999999 999999 999999 999999 999999 999999 999999 999999 999999 999999 999999 999999 999999 999999 999999 999999 999999 999999 999999 999999 999999 999999 999999 999999 999999 999999 999999 999999 999999 999999 999999 999999 999999 999999 999999 999999 999999 999999 999999 999999 999999 999999 999999 999999 999999 999999 999999 999999 999999 999999 999999 999999 999999 999999 999999 999999 999999 999999 999999 999999 999999 999999 999999 999999 999999 999999 999999 999999 12562 15891 11921 18848 12487 17945 14841 11789 18181 11595 10076 16018 18191 12949 18275 19386 12626 14195 11361 11980 18820 17782 18654 14852 16942 15228 10651 13172 12736 19780 19330 11565 18511 12549 16600 15005 18975 13267 17463 19003 11480 17013 14682 17253 18087 13763 16075 10790 10678 10159 999999
999999 999999 999999 999999 999999 999999 999999 999999 999999 999999 999999 999999 999999 999999 999999 999999 999999 999999 999999 999999 999999 999999 999999 999999 999999 999999 999999 999999 999999 999999 999999 999999 999999 999999 999999 999999 999999 999999 999999 999999 999999 999999 999999 999999 999999 999999 999999 999999 999999 999999 999999 999999 999999 999999 999999 999999 999999 999999 999999 999999 999999 999999 999999 999999 999999 999999 999999 999999 999999 999999 999999 0 999999 999999 999999 999999 999999 999999 999999 999999 999999 999999 999999 999999 999999 999999 999999 999999 999999 999999 999999 999999 999999 999999 999999 999999 999999 999999 999999 999999 999999 999999 999999 999999 999999 999999 999999 999999 999999 999999 999999 999999 999999 999999 999999 999999 999999 999999 999999 999999 999999 999999 999999 999999 999999 999999 999999 999999 999999 999999 999999 999999 999999 999999 999999 999999 999999 999999 999999 999999 999999 12868 11350 10616 18466 15149 16825 17192 12327 17723 18297 13794 10701 16706 19878 12303 18621 12693 11211 19196 13319 14103 19654 18800 17585 16187 13898 10768 12922 12192 12728 10275 13276 10103 13686 10056 16275 19144 18858 16752 16957 14476 13283 14713 14893 11981 15248 16917 15165 15048 14381 999999
999999 999999 999999 999999 999999 999999 999999 999999 999999 999999 999999 999999 999999 999999 999999 999999 999999 999999 999999 999999 999999 999999 999999 999999 999999 999999 999999 999999 999999 999999 999999 999999 999999 999999 999999 999999 999999 999999 999999 999999 999999 999999 999999 999999 999999 999999 999999 999999 999999 999999 999999 999999 999999 999999 999999 999999 999999 999999 999999 999999 999999 999999 999999 999999 999999 999999 999999 999999 999999 999999 999999 999999 0 999999 999999 999999 999999 999999 999999 999999 999999 999999 999999 999999 999999 999999 999999 999999 999999 999999 999999 999999 999999 999999 999999 999999 999999 999999 999999 999999 999999 999999 999999 999999 999999 999999 999999 999999 999999 999999 999999 999999 999999 999999 999999 999999 999999 999999 999999 999999 999999 999999 999999 999999 999999 999999 999999 999999 999999 999999 999999 999999 999999 999999 999999 999999 999999 999999 999999 999999 999999 13509 19594 11741 11493 13154 18373 14317 12686 10600 10969 12279 16648 18679 18584 16850 14257 10495 11108 10050 13026 17270 10338 10914 13632 15016 17720 18780 19819 17305 10208 12116 14201 19614 13062 10413 19107 13664 14152 19943 16599 13773 12482 17330 13251 17702 11655 19730 13584 13718 10324 999999
999999 999999 999999 999999 999999 999999 999999 999999 999999 999999 999999 999999 999999 999999 999999 999999 999999 999999 999999 999999 999999 999999 999999 999999 999999 999999 999999 999999 999999 999999 999999 999999 999999 999999 999999 999999 999999 999999 999999 999999 999999 999999 999999 999999 999999 999999 999999 999999 999999 999999 999999 999999 999999 999999 999999 999999 999999 999999 999999 999999 999999 999999 999999 999999 999999 999999 999999 999999 999999 999999 999999 999999 999999 0 999999 999999 999999 999999 999999 999999 999999 999999 999999 999999 999999 999999 999999 999999 999999 999999 999999 999999 999999 999999 999999 999999 999999 999999 999999 999999 999999 999999 999999 999999 999999 999999 999999 999999 999999 999999 999999 999999 999999 999999 999999 999999 999999 999999 999999 999999 999999 999999 999999 999999 999999 999999 999999 999999 999999 999999 999999 999999 999999 999999 999999 999999 999999 999999 999999 999999 999999 16971 17218 17724 12290 19410 12220 14528 10251 12288 11309 16815 13094 13128 14451 10891 16506 17012 13228 18173 16552 19404 18728 10878 19456 12906 14873 18055 13703 19456 19678 15148 17055 12055 17181 11686 11515 13131 11655 17977 18181 18010 18086 11445 18649 18712 17343 13183 17345 10267 10709 999999
999999 999999 999999 999999 999999 999999 999999 999999 999999 999999 999999 999999 999999 999999 999999 999999 999999 999999 999999 999999 999999 999999 999999 999999 999999 999999 999999 999999 999999 999999 999999 999999 999999 999999 999999 999999 999999 999999 999999 999999 999999 999999 999999 999999 999999 999999 999999 999999 999999 999999 999999 999999 999999 999999 999999 999999 999999 999999 999999 999999 999999 999999 999999 999999 999999 999999 999999 999999 999999 999999 999999 999999 999999 999999 0 999999 999999 999999 999999 999999 999999 999999 999999 999999 999999 999999 999999 999999 999999 999999 999999 999999 999999 999999 999999 999999 999999 999999 999999 999999 999999 999999 999999 999999 999999 999999 999999 999999 999999 999999 999999 999999 999999 999999 999999 999999 999999 999999 999999 999999 999999 999999 999999 999999 999999 999999 999999 999999 999999 999999 999999 999999 999999 999999 999999 999999 999999 999999 999999 999999 999999 19115 15211 17433 10763 13036 11857 10972 13568 18547 13435 15202 18224 10469 12604 13225 15846 15494 10716 12502 10364 16078 11193 18278 19408 13566 18479 12907 10125 14996 15800 15718 18210 14836 13635 16140 14272 17285 14765 11711 12069 10732 16559 15266 19800 16910 12241 15501 15796 12155 13020 999999
999999 999999 999999 999999 999999 999999 999999 999999 999999 999999 999999 999999 999999 999999 999999 999999 999999 999999 999999 999999 999999 999999 999999 999999 999999 999999 999999 999999 999999 999999 999999 999999 999999 999999 999999 999999 999999 999999 999999 999999 999999 999999 999999 999999 999999 999999 999999 999999 999999 999999 999999 999999 999999 999999 999999 999999 999999 999999 999999 999999 999999 999999 999999 999999 999999 999999 999999 999999 999999 999999 999999 999999 999999 999999 999999 0 999999 999999 999999 999999 999999 999999 999999 999999 999999 999999 999999 999999 999999 999999 999999 999999 999999 999999 999999 999999 999999 999999 999999 999999 999999 999999 999999 999999 999999 999999 999999 999999 999999 999999 999999 999999 999999 999999 999999 999999 999999 999999 999999 999999 999999 999999 999999 999999 999999 999999 999999 999999 999999 999999 999999 999999 999999 999999 999999 999999 999999 999999 999999 999999 999999 17486 18816 11945 12950 13988 19617 17824 17593 18588 11385 11092 18098 14656 14374 14396 19610 13002 10851 17252 17543 14653 18191 19901 16896 13810 17333 10773 12077 13824 12315 14717 16049 17522 13053 19876 16416 13064 17303 11034 17085 17666 14552 18787 13592 10014 10837 13325 18811 14567 18813 999999
999999 999999 999999 999999 999999 999999 999999 999999 999999 999999 999999 999999 999999 999999 999999 999999 999999 999999 999999 999999 999999 999999 999999 999999 999999 999999 999999 999999 999999 999999 999999 999999 999999 999999 999999 999999 999999 999999 999999 999999 999999 999999 999999 999999 999999 999999 999999 999999 999999 999999 999999 999999 999999 999999 999999 999999 999999 999999 999999 999999 999999 999999 999999 999999 999999 999999 999999 999999 999999 999999 999999 999999 999999 999999 999999 999999 0 999999 999999 999999 999999 999999 999999 999999 999999 999999 999999 999999 999999 999999 999999 999999 999999 999999 999999 999999 999999 999999 999999 999999 999999 999999 999999 999999 999999 999999 999999 999999 999999 999999 999999 999999 999999 999999 999999 999999 999999 999999 999999 999999 999999 999999 999999 999999 999999 999999 999999 999999 999999 999999 999999 999999 999999 999999 999999 999999 999999 999999 999999 999999 999999 15203 10250 16263 12513 10557 12629 18443 16461 16629 16517 16446 17531 12816 18574 13617 16092 15451 10927 11415 13357 13735 10333 10032 14868 10975 11624 11675 11205 11901 18583 17654 16027 15114 14109 17735 15358 19903 19847 14908 19294 16902 14538 13189 14403 17434 12842 16810 10151 19204 12643 999999
999999 999999 999999 999999 999999 999999 999999 999999 999999 999999 999999 999999 999999 999999 999999 999999 999999 999999 999999 999999 999999 999999 999999 999999 999999 999999 999999 999999 999999 999999 999999 999999 999999 999999 999999 999999 999999 999999 999999 999999 999999 999999 999999 999999 999999 999999 999999 999999 999999 999999 999999 999999 999999 999999 999999 999999 999999 999999 999999 999999 999999 999999 999999 999999 999999 999999 999999 999999 999999 999999 999999 999999 999999 999999 999999 999999 999999 0 999999 999999 999999 999999 999999 999999 999999 999999 999999 999999 999999 999999 999999 999999 999999 999999 999999 999999 999999 999999 999999 999999 999999 999999 999999 999999 999999 999999 999999 999999 999999 999999 999999 999999 999999 999999 999999 999999 999999 999999 999999 999999 999999 999999 999999 999999 999999 999999 999999 999999 999999 999999 999999 999999 999999 999999 999999 999999 999999 999999 999999 999999 999999 14153 13005 18217 15680 17042 19424 12807 15824 13254 19440 19510 19710 14740 18833 17508 13142 16110 11807 18387 14536 11000 16964 17151 10004 14704 13616 17913 14717 16466 18864 14675 17851 18222 13203 16725 15554 18071 11491 19567 11484 15819 16605 13332 14779 17421 13692 13763 15444 10594 17005 999999
999999 999999 999999 999999 999999 999999 999999 999999 999999 999999 999999 999999 999999 999999 999999 999999 999999 999999 999999 999999 999999 999999 999999 999999 999999 999999 999999 999999 999999 999999 999999 999999 999999 999999 999999 999999 999999 999999 999999 999999 999999 999999 999999 999999 999999 999999 999999 999999 999999 999999 999999 999999 999999 999999 999999 999999 999999 999999 999999 999999 999999 999999 999999 999999 999999 999999 999999 999999 999999 999999 999999 999999 999999 999999 999999 999999 999999 999999 0 999999 999999 999999 999999 999999 999999 999999 999999 999999 999999 999999 999999 999999 999999 999999 999999 999999 999999 999999 999999 999999 999999 999999 999999 999999 999999 999999 999999 999999 999999 999999 999999 999999 999999 999999 999999 999999 999999 999999 999999 999999 999999 999999 999999 999999 999999 999999 999999 999999 999999 999999 999999 999999 999999 999999 999999 999999 999999 999999 999999 999999 999999 10086 10185 19156 13161 17001 11191 19059 12073 13378 16711 14692 14241 18130 18990 13264 16480 13916 19586 12632 19405 18753 15610 13843 13412 15754 13891 17671 15074 16933 14696 11326 19993 12672 11023 15327 13969 16632 14407 15510 10326 19222 10298 15968 14780 11196 14893 17364 15476 18936 12858 999999
999999 999999 999999 999999 999999 999999 999999 999999 999999 999999 999999 999999 999999 999999 999999 999999 999999 999999 999999 999999 999999 999999 999999 999999 999999 999999 999999 999999 999999 999999 999999 999999 999999 999999 999999 999999 999999 999999 999999 999999 999999 999999 999999 999999 999999 999999 999999 999999 999999 999999 999999 999999 999999 999999 999999 999999 999999 999999 999999 999999 999999 999999 999999 999999 999999 999999 999999 999999 999999 999999 999999 999999 999999 999999 999999 999999 999999 999999 999999 0 999999 999999 999999 999999 999999 999999 999999 999999 999999 999999 999999 999999 999999 999999 999999 999999 999999 999999 999999 999999 999999 999999 999999 999999 999999 999999 999999 999999 999999 999999 999999 999999 999999 999999 999999 999999 999999 999999 999999 999999 999999 999999 999999 999999 999999 999999 999999 999999 999999 999999 999999 999999 999999 999999 999999 999999 999999 999999 999999 999999 999999 16475 15454 12629 14102 12824 15151 10696 13037 18634 17084 19837 17021 14778 14442 13240 12458 19993 17772 15120 11337 13774 18845 15107 18507 14808 10622 11655 11310 12872 16902 14509 19180 15848 19480 10571 12129 14202 10675 17081 13234 14091 19041 12088 14269 17776 15402 16730 19769 14292 15861 999999
999999 999999 999999 999999 999999 999999 999999 999999 999999 999999 999999 999999 999999 999999 999999 999999 999999 999999 999999 999999 999999 999999 999999 999999 999999 999999 999999 999999 999999 999999 999999 999999 999999 999999 999999 999999 999999 999999 999999 999999 999999 999999 999999 999999 999999 999999 999999 999999 999999 999999 999999 999999 999999 999999 999999 999999 999999 999999 999999 999999 999999 999999 999999 999999 999999 999999 999999 999999 999999 999999 999999 999999 999999 999999 999999 999999 999999 999999 999999 999999 0 999999 999999 999999 999999 999999 999999 999999 999999 999999 999999 999999 999999 999999 999999 999999 999999 999999 999999 999999 999999 999999 999999 999999 999999 999999 999999 999999 999999 999999 999999 999999 999999 999999 999999 999999 999999 999999 999999 999999 999999 999999 999999 999999 999999 999999 999999 999999 999999 999999 999999 999999 999999 999999 999999 999999 999999 999999 999999 999999 999999 11209 10244 16545 14975 13103 10060 19827 15522 14075 15167 10604 14368 10601 12636 11321 18601 19563 17098 13357 17434 15807 15910 10912 13375 17974 16039 16825 19929 11955 16500 15012 14990 19314 12413 17891 15297 17657 13545 18407 16814 12939 18409 19862 13856 15138 16872 16073 12137 16481 10168 999999
999999 999999 999999 999999 999999 999999 999999 999999 999999 999999 999999 999999 999999 999999 999999 999999 999999 999999 999999 999999 999999 999999 999999 999999 999999 999999 999999 999999 999999 999999 999999 999999 999999 999999 999999 999999 999999 999999 999999 999999 999999 999999 999999 999999 999999 999999 999999 999999 999999 999999 999999 999999 999999 999999 999999 999999 999999 999999 999999 999999 999999 999999 999999 999999 999999 999999 999999 999999 999999 999999 999999 999999 999999 999999 999999 999999 999999 999999 999999 999999 999999 0 999999 999999 999999 999999 999999 999999 999999 999999 999999 999999 999999 999999 999999 999999 999999 999999 999999 999999 999999 999999 999999 999999 999999 999999 999999 999999 999999 999999 999999 999999 999999 999999 999999 999999 999999 999999 999999 999999 999999 999999 999999 999999 999999 999999 999999 999999 999999 999999 999999 999999 999999 999999 999999 999999 999999 999999 999999 999999 999999 14940 12983 16165 11837 12596 18289 15062 17981 11634 18944 10677 17778 15805 17846 10693 18274 14971 18364 12278 18523 17069 13532 16579 17673 17909 17554 16098 12950 11279 12293 13844 13554 17363 19930 18496 15665 11349 18497 15417 13650 19969 14093 18131 19659 16988 13233 17675 16421 16864 17966 999999
999999 999999 999999 999999 999999 999999 999999 999999 999999 999999 999999 999999 999999 999999 999999 999999 999999 999999 999999 999999 999999 999999 999999 999999 999999 999999 999999 999999 999999 999999 999999 999999 999999 999999 999999 999999 999999 999999 999999 999999 999999 999999 999999 999999 999999 999999 999999 999999 999999 999999 999999 999999 999999 999999 999999 999999 999999 999999 999999 999999 999999 999999 999999 999999 999999 999999 999999 999999 999999 999999 999999 999999 999999 999999 999999 999999 999999 999999 999999 999999 999999 999999 0 999999 999999 999999 999999 999999 999999 999999 999999 999999 999999 999999 999999 999999 999999 999999 999999 999999 999999 999999 999999 999999 999999 999999 999999 999999 999999 999999 999999 999999 999999 999999 999999 999999 999999 999999 999999 999999 999999 999999 999999 999999 999999 999999 999999 999999 999999 999999 999999 999999 999999 999999 999999 999999 999999 999999 999999 999999 999999 15969 12394 16489 13307 11547 18170 17317 18051 12336 17703 15319 16855 16508 10819 11046 12195 16930 15897 12330 12799 17258 16863 18792 11400 17033 16691 12858 12791 17437 16148 13949 12373 14677 10576 17784 10615 18689 13642 13334 10747 15417 18899 15704 11707 11377 15358 11254 15955 12131 14837 999999
999999 999999 999999 999999 999999 999999 999999 999999 999999 999999 999999 999999 999999 999999 999999 999999 999999 999999 999999 999999 999999 999999 999999 999999 999999 999999 999999 999999 999999 999999 999999 999999 999999 999999 999999 999999 999999 999999 999999 999999 999999 999999 999999 999999 999999 999999 999999 999999 999999 999999 999999 999999 999999 999999 999999 999999 999999 999999 999999 999999 999999 999999 999999 999999 999999 999999 999999 999999 999999 999999 999999 999999 999999 999999 999999 999999 999999 999999 999999 999999 999999 999999 999999 0 999999 999999 999999 999999 999999 999999 999999 999999 999999 999999 999999 999999 999999 999999 999999 999999 999999 999999 999999 999999 999999 999999 999999 999999 999999 999999 999999 999999 999999 999999 999999 999999 999999 999999 999999 999999 999999 999999 999999 999999 999999 999999 999999 999999 999999 999999 999999 999999 999999 999999 999999 999999 999999 999999 999999 999999 999999 10403 17101 15422 12799 17164 16126 11642 17285 16115 19523 12478 11676 12213 11098 17712 15090 19525 11367 12425 14437 10420 17382 18190 18514 15127 12174 10442 16492 19329 12794 11138 14930 16114 13678 18780 16669 17566 12918 15727 11347 18532 11060 15780 11558 19138 14857 14584 17970 15490 11399 999999
999999 999999 999999 999999 999999 999999 999999 999999 999999 999999 999999 999999 999999 999999 999999 999999 999999 999999 999999 999999 999999 999999 999999 999999 999999 999999 999999 999999 999999 999999 999999 999999 999999 999999 999999 999999 999999 999999 999999 999999 999999 999999 999999 999999 999999 999999 999999 999999 999999 999999 999999 999999 999999 999999 999999 999999 999999 999999 999999 999999 999999 999999 999999 999999 999999 999999 999999 999999 999999 999999 999999 999999 999999 999999 999999 999999 999999 999999 999999 999999 999999 999999 999999 999999 0 999999 999999 999999 999999 999999 999999 999999 999999 999999 999999 999999 999999 999999 999999 999999 999999 999999 999999 999999 999999 999999 999999 999999 999999 999999 999999 999999 999999 999999 999999 999999 999999 999999 999999 999999 999999 999999 999999 999999 999999 999999 999999 999999 999999 999999 999999 999999 999999 999999 999999 999999 999999 999999 999999 999999 999999 11372 19290 13073 19260 12742 18204 18768 13369 18287 14170 11335 15979 19389 16231 11535 13956 10950 15691 12533 14394 19994 19594 11752 11231 15708 11998 15062 19405 10701 15887 19872 12515 14165 16371 10839 16581 10380 12959 14876 15317 13477 14154 11110 10393 15411 11334 14030 16576 10124 13257 999999
999999 999999 999999 999999 999999 999999 999999 999999 999999 999999 999999 999999 999999 999999 999999 999999 999999 999999 999999 999999 999999 999999 999999 999999 999999 999999 999999 999999 999999 999999 999999 999999 999999 999999 999999 999999 999999 999999 999999 999999 999999 999999 999999 999999 999999 999999 999999 999999 999999 999999 999999 999999 999999 999999 999999 999999 999999 999999 999999 999999 999999 999999 999999 999999 999999 999999 999999 999999 999999 999999 999999 999999 999999 999999 999999 999999 999999 999999 999999 999999 999999 999999 999999 999999 999999 0 999999 999999 999999 999999 999999 999999 999999 999999 999999 999999 999999 999999 999999 999999 999999 999999 999999 999999 999999 999999 999999 999999 999999 999999 999999 999999 999999 999999 999999 999999 999999 999999 999999 999999 999999 999999 999999 999999 999999 999999 999999 999999 999999 999999 999999 999999 999999 999999 999999 999999 999999 999999 999999 999999 999999 11149 11088 10805 18787 16404 13071 13173 17815 18407 19374 13626 19321 10591 16414 14183 14296 13989 14228 19355 18215 13681 12726 18618 19726 14378 13469 13293 16841 18868 16765 18574 12186 10219 15946 18685 13565 11914 10642 16424 16664 13246 18992 18471 19504 14603 11235 19674 14360 19168 10029 999999
999999 999999 999999 999999 999999 999999 999999 999999 999999 999999 999999 999999 999999 999999 999999 999999 999999 999999 999999 999999 999999 999999 999999 999999 999999 999999 999999 999999 999999 999999 999999 999999 999999 999999 999999 999999 999999 999999 999999 999999 999999 999999 999999 999999 999999 999999 999999 999999 999999 999999 999999 999999 999999 999999 999999 999999 999999 999999 999999 999999 999999 999999 999999 999999 999999 999999 999999 999999 999999 999999 999999 999999 999999 999999 999999 999999 999999 999999 999999 999999 999999 999999 999999 999999 999999 999999 0 999999 999999 999999 999999 999999 999999 999999 999999 999999 999999 999999 999999 999999 999999 999999 999999 999999 999999 999999 999999 999999 999999 999999 999999 999999 999999 999999 999999 999999 999999 999999 999999 999999 999999 999999 999999 999999 999999 999999 999999 999999 999999 999999 999999 999999 999999 999999 999999 999999 999999 999999 999999 999999 999999 12696 17509 11773 13154 19024 13799 19815 13479 11803 13212 16491 18299 12369 19678 12631 18380 14548 18440 12011 19116 19285 13927 12558 17913 15629 11306 15072 16817 18370 13371 18206 10393 10094 18369 17617 11271 18644 14897 17004 16525 18369 11501 17483 14452 11596 19669 17174 10794 18598 15256 999999
999999 999999 999999 999999 999999 999999 999999 999999 999999 999999 999999 999999 999999 999999 999999 999999 999999 999999 999999 999999 999999 999999 999999 999999 999999 999999 999999 999999 999999 999999 999999 999999 999999 999999 999999 999999 999999 999999 999999 999999 999999 999999 999999 999999 999999 999999 999999 999999 999999 999999 999999 999999 999999 999999 999999 999999 999999 999999 999999 999999 999999 999999 999999 999999 999999 999999 999999 999999 999999 999999 999999 999999 999999 999999 999999 999999 999999 999999 999999 999999 999999 999999 999999 999999 999999 999999 999999 0 999999 999999 999999 999999 999999 999999 999999 999999 999999 999999 999999 999999 999999 999999 999999 999999 999999 999999 999999 999999 999999 999999 999999 999999 999999 999999 999999 999999 999999 999999 999999 999999 999999 999999 999999 999999 999999 999999 999999 999999 999999 999999 999999 999999 999999 999999 999999 999999 999999 999999 999999 999999 999999 10989 12384 19838 19176 14646 19094 18049 11038 16829 11355 16205 17637 16909 12968 19917 13313 10119 13582 17782 13262 12774 13343 10119 13086 14494 13125 11530 11761 18052 14055 19406 18198 16016 18786 15188 17540 13766 19428 19412 13052 13411 18037 13479 19126 15859 15822 18155 17335 17855 15121 999999
999999 999999 999999 999999 999999 999999 999999 999999 999999 999999 999999 999999 999999 999999 999999 999999 999999 999999 999999 999999 999999 999999 999999 999999 999999 999999 999999 999999 999999 999999 999999 999999 999999 999999 999999 999999 999999 999999 999999 999999 999999 999999 999999 999999 999999 999999 999999 999999 999999 999999 999999 999999 999999 999999 999999 999999 999999 999999 999999 999999 999999 999999 999999 999999 999999 999999 999999 999999 999999 999999 999999 999999 999999 999999 999999 999999 999999 999999 999999 999999 999999 999999 999999 999999 999999 999999 999999 999999 0 999999 999999 999999 999999 999999 999999 999999 999999 999999 999999 999999 999999 999999 999999 999999 999999 999999 999999 999999 999999 999999 999999 999999 999999 999999 999999 999999 999999 999999 999999 999999 999999 999999 999999 999999 999999 999999 999999 999999 999999 999999 999999 999999 999999 999999 999999 999999 999999 999999 999999 999999 999999 11416 16012 15986 11063 15628 13992 13721 16835 11826 14308 16152 10521 18517 17918 12762 16842 11235 18032 17250 12681 12698 14723 16545 17684 14321 14706 14480 17765 13545 16012 11726 14236 19105 11146 18509 16333 19820 10849 14304 19625 18329 14226 16069 19255 18452 14773 10889 19248 18158 12041 999999
999999 999999 999999 999999 999999 999999 999999 999999 999999 999999 999999 999999 999999 999999 999999 999999 999999 999999 999999 999999 999999 999999 999999 999999 999999 999999 999999 999999 999999 999999 999999 999999 999999 999999 999999 999999 999999 999999 999999 999999 999999 999999 999999 999999 999999 999999 999999 999999 999999 999999 999999 999999 999999 999999 999999 999999 999999 999999 999999 999999 999999 999999 999999 999999 999999 999999 999999 999999 999999 999999 999999 999999 999999 999999 999999 999999 999999 999999 999999 999999 999999 999999 999999 999999 999999 999999 999999 999999 999999 0 999999 999999 999999 999999 999999 999999 999999 999999 999999 999999 999999 999999 999999 999999 999999 999999 999999 999999 999999 999999 999999 999999 999999 999999 999999 999999 999999 999999 999999 999999 999999 999999 999999 999999 999999 999999 999999 999999 999999 999999 999999 999999 999999 999999 999999 999999 999999 999999 999999 999999 999999 18950 10198 11545 18710 11873 15881 14925 13910 12194 16154 13770 16994 14403 18108 12851 13116 17564 17725 11423 12945 15620 15264 13748 18694 15658 12079 17952 16304 13808 19650 15739 13379 19881 14062 17428 12839 11662 19457 19864 13863 11581 15020 19671 17866 15742 10319 17196 16599 17823 15492 999999
999999 999999 999999 999999 999999 999999 999999 999999 999999 999999 999999 999999 999999 999999 999999 999999 999999 999999 999999 999999 999999 999999 999999 999999 999999 999999 999999 999999 999999 999999 999999 999999 999999 999999 999999 999999 999999 999999 999999 999999 999999 999999 999999 999999 999999 999999 999999 999999 999999 999999 999999 999999 999999 999999 999999 999999 999999 999999 999999 999999 999999 999999 999999 999999 999999 999999 999999 999999 999999 999999 999999 999999 999999 999999 999999 999999 999999 999999 999999 999999 999999 999999 999999 999999 999999 999999 999999 999999 999999 999999 0 999999 999999 999999 999999 999999 999999 999999 999999 999999 999999 999999 999999 999999 999999 999999 999999 999999 999999 999999 999999 999999 999999 999999 999999 999999 999999 999999 999999 999999 999999 999999 999999 999999 999999 999999 999999 999999 999999 999999 999999 999999 999999 999999 999999 999999 999999 999999 999999 999999 999999 14278 15824 13147 19420 11687 14722 11658 18382 19371 13195 14006 14371 18324 19175 12755 19043 12172 12412 11327 10661 13086 13531 14059 11981 10134 17584 14394 12041 14395 14118 14513 13346 11907 17817 13277 15261 13931 19894 19437 15352 15626 13222 17361 19684 13920 12901 14706 17560 15514 16835 999999
999999 999999 999999 999999 999999 999999 999999 999999 999999 999999 999999 999999 999999 999999 999999 999999 999999 999999 999999 999999 999999 999999 999999 999999 999999 999999 999999 999999 999999 999999 999999 999999 999999 999999 999999 999999 999999 999999 999999 999999 999999 999999 999999 999999 999999 999999 999999 999999 999999 999999 999999 999999 999999 999999 999999 999999 999999 999999 999999 999999 999999 999999 999999 999999 999999 999999 999999 999999 999999 999999 999999 999999 999999 999999 999999 999999 999999 999999 999999 999999 999999 999999 999999 999999 999999 999999 999999 999999 999999 999999 999999 0 999999 999999 999999 999999 999999 999999 999999 999999 999999 999999 999999 999999 999999 999999 999999 999999 999999 999999 999999 999999 999999 999999 999999 999999 999999 999999 999999 999999 999999 999999 999999 999999 999999 999999 999999 999999 999999 999999 999999 999999 999999 999999 999999 999999 999999 999999 999999 999999 999999 16743 15427 10828 14756 11346 12591 19930 15078 17338 11842 11292 14660 11449 18123 11193 12777 14201 14146 12407 17631 14234 10346 11207 14753 16533 15456 17109 14526 18693 16897 17890 11058 17961 18404 18642 17524 18176 18925 18167 17063 14067 16163 14953 17026 14111 15325 19091 12943 10522 11344 999999
999999 999999 999999 999999 999999 999999 999999 999999 999999 999999 999999 999999 999999 999999 999999 999999 999999 999999 999999 999999 999999 999999 999999 999999 999999 999999 999999 999999 999999 999999 999999 999999 999999 999999 999999 999999 999999 999999 999999 999999 999999 999999 999999 999999 999999 999999 999999 999999 999999 999999 999999 999999 999999 999999 999999 999999 999999 999999 999999 999999 999999 999999 999999 999999 999999 999999 999999 999999 999999 999999 999999 999999 999999 999999 999999 999999 999999 999999 999999 999999 999999 999999 999999 999999 999999 999999 999999 999999 999999 999999 999999 999999 0 999999 999999 999999 999999 999999 999999 999999 999999 999999 999999 999999 999999 999999 999999 999999 999999 999999 999999 999999 999999 999999 999999 999999 999999 999999 999999 999999 999999 999999 999999 999999 999999 999999 999999 999999 999999 999999 999999 999999 999999 999999 999999 999999 999999 999999 999999 999999 999999 16060 12350 15748 17876 13814 17007 10966 16493 15584 18060 17548 13135 11796 12529 12626 13180 12498 10001 16302 15562 15474 14870 13599 16491 10799 15553 10226 17040 19493 12110 15821 14437 15076 14511 14531 15148 10769 19305 12172 11526 14748 19412 18207 12671 18331 15511 14004 16505 15675 11655 999999
999999 999999 999999 999999 999999 999999 999999 999999 999999 999999 999999 999999 999999 999999 999999 999999 999999 999999 999999 999999 999999 999999 999999 999999 999999 999999 999999 999999 999999 999999 999999 999999 999999 999999 999999 999999 999999 999999 999999 999999 999999 999999 999999 999999 999999 999999 999999 999999 999999 999999 999999 999999 999999 999999 999999 999999 999999 999999 999999 999999 999999 999999 999999 999999 999999 999999 999999 999999 999999 999999 999999 999999 999999 999999 999999 999999 999999 999999 999999 999999 999999 999999 999999 999999 999999 999999 999999 999999 999999 999999 999999 999999 999999 0 999999 999999 999999 999999 999999 999999 999999 999999 999999 999999 999999 999999 999999 999999 999999 999999 999999 999999 999999 999999 999999 999999 999999 999999 999999 999999 999999 999999 999999 999999 999999 999999 999999 999999 999999 999999 999999 999999 999999 999999 999999 999999 999999 999999 999999 999999 999999 19590 14746 12692 19652 11698 16094 13114 16101 11241 14988 10392 11491 12114 12204 17998 12189 18406 13383 17515 13615 18062 14568 16674 17989 12773 11667 14315 17690 12147 12674 15533 14238 16565 19639 13552 14249 17722 14053 12528 14876 15247 18286 13593 16099 15570 14274 13251 13286 19133 14509 999999
999999 999999 999999 999999 999999 999999 999999 999999 999999 999999 999999 999999 999999 999999 999999 999999 999999 999999 999999 999999 999999 999999 999999 999999 999999 999999 999999 999999 999999 999999 999999 999999 999999 999999 999999 999999 999999 999999 999999 999999 999999 999999 999999 999999 999999 999999 999999 999999 999999 999999 999999 999999 999999 999999 999999 999999 999999 999999 999999 999999 999999 999999 999999 999999 999999 999999 999999 999999 999999 999999 999999 999999 999999 999999 999999 999999 999999 999999 999999 999999 999999 999999 999999 999999 999999 999999 999999 999999 999999 999999 999999 999999 999999 999999 0 999999 999999 999999 999999 999999 999999 999999 999999 999999 999999 999999 999999 999999 999999 999999 999999 999999 999999 999999 999999 999999 999999 999999 999999 999999 999999 999999 999999 999999 999999 999999 999999 999999 999999 999999 999999 999999 999999 999999 999999 999999 999999 999999 999999 999999 999999 10407 11360 16912 15660 18733 16651 16170 17866 18393 13423 11223 17721 18024 10170 14661 13489 16900 10062 13097 10730 10693 12594 13573 18283 18220 11181 12308 15384 16724 17082 11056 18268 19793 16334 17495 16496 14125 11274 18956 10673 18552 14360 18811 19922 15779 15661 16112 19342 17065 12871 999999
999999 999999 999999 999999 999999 999999 999999 999999 999999 999999 999999 999999 999999 999999 999999 999999 999999 999999 999999 999999 999999 999999 999999 999999 999999 999999 999999 999999 999999 999999 999999 999999 999999 999999 999999 999999 999999 999999 999999 999999 999999 999999 999999 999999 999999 999999 999999 999999 999999 999999 999999 999999 999999 999999 999999 999999 999999 999999 999999 999999 999999 999999 999999 999999 999999 999999 999999 999999 999999 999999 999999 999999 999999 999999 999999 999999 999999 999999 999999 999999 999999 999999 999999 999999 999999 999999 999999 999999 999999 999999 999999 999999 999999 999999 999999 0 999999 999999 999999 999999 999999 999999 999999 999999 999999 999999 999999 999999 999999 999999 999999 999999 999999 999999 999999 999999 999999 999999 999999 999999 999999 999999 999999 999999 999999 999999 999999 999999 999999 999999 999999 999999 999999 999999 999999 999999 999999 999999 999999 999999 999999 18707 15930 19435 10982 10521 17415 18601 11196 18541 19346 15556 16440 17242 10359 19636 12943 11720 11119 17342 14580 12117 19772 17174 10979 11360 11990 16357 10556 19413 19589 16932 15905 10660 11750 11052 18581 15868 14775 17571 16897 18035 15319 16786 13521 16286 12797 17433 19926 10852 19494 999999
999999 999999 999999 999999 999999 999999 999999 999999 999999 999999 999999 999999 999999 999999 999999 999999 999999 999999 999999 999999 999999 999999 999999 999999 999999 999999 999999 999999 999999 999999 999999 999999 999999 999999 999999 999999 999999 999999 999999 999999 999999 999999 999999 999999 999999 999999 999999 999999 999999 999999 999999 999999 999999 999999 999999 999999 999999 999999 999999 999999 999999 999999 999999 999999 999999 999999 999999 999999 999999 999999 999999 999999 999999 999999 999999 999999 999999 999999 999999 999999 999999 999999 999999 999999 999999 999999 999999 999999 999999 999999 999999 999999 999999 999999 999999 999999 0 999999 999999 999999 999999 999999 999999 999999 999999 999999 999999 999999 999999 999999 999999 999999 999999 999999 999999 999999 999999 999999 999999 999999 999999 999999 999999 999999 999999 999999 999999 999999 999999 999999 999999 999999 999999 999999 999999 999999 999999 999999 999999 999999 999999 15715 18389 19345 13741 16253 15028 10336 13978 18571 17939 15614 16959 10072 11575 17124 16165 16540 18449 16220 19328 15966 14441 13250 17024 13676 16342 17100 13945 17541 15846 13123 15817 16898 17885 13267 12471 12749 18333 15399 16324 17218 13462 19462 18680 18182 10038 14906 16900 11003 14270 999999
999999 999999 999999 999999 999999 999999 999999 999999 999999 999999 999999 999999 999999 999999 999999 999999 999999 999999 999999 999999 999999 999999 999999 999999 999999 999999 999999 999999 999999 999999 999999 999999 999999 999999 999999 999999 999999 999999 999999 999999 999999 999999 999999 999999 999999 999999 999999 999999 999999 999999 999999 999999 999999 999999 999999 999999 999999 999999 999999 999999 999999 999999 999999 999999 999999 999999 999999 999999 999999 999999 999999 999999 999999 999999 999999 999999 999999 999999 999999 999999 999999 999999 999999 999999 999999 999999 999999 999999 999999 999999 999999 999999 999999 999999 999999 999999 999999 0 999999 999999 999999 999999 999999 999999 999999 999999 999999 999999 999999 999999 999999 999999 999999 999999 999999 999999 999999 999999 999999 999999 999999 999999 999999 999999 999999 999999 999999 999999 999999 999999 999999 999999 999999 999999 999999 999999 999999 999999 999999 999999 999999 15675 12123 18281 16396 14297 11561 10104 15181 12897 19019 15003 15073 16047 11934 13714 18290 10927 12283 16738 12546 16745 15526 14480 19224 17020 16313 12090 16403 10117 12759 13505 11931 16491 13218 16112 16149 14797 11235 10131 14889 18067 13522 16976 16293 10943 16085 10736 16290 15092 15070 999999
999999 999999 999999 999999 999999 999999 999999 999999 999999 999999 999999 999999 999999 999999 999999 999999 999999 999999 999999 999999 999999 999999 999999 999999 999999 999999 999999 999999 999999 999999 999999 999999 999999 999999 999999 999999 999999 999999 999999 999999 999999 999999 999999 999999 999999 999999 999999 999999 999999 999999 999999 999999 999999 999999 999999 999999 999999 999999 999999 999999 999999 999999 999999 999999 999999 999999 999999 999999 999999 999999 999999 999999 999999 999999 999999 999999 999999 999999 999999 999999 999999 999999 999999 999999 999999 999999 999999 999999 999999 999999 999999 999999 999999 999999 999999 999999 999999 999999 0 999999 999999 999999 999999 999999 999999 999999 999999 999999 999999 999999 999999 999999 999999 999999 999999 999999 999999 999999 999999 999999 999999 999999 999999 999999 999999 999999 999999 999999 999999 999999 999999 999999 999999 999999 999999 999999 999999 999999 999999 999999 999999 11458 11761 18026 15122 19181 19525 16446 17016 17603 12216 13353 15104 13864 18593 15453 18251 16910 12980 14024 12566 11437 16050 16482 15459 18312 17215 17880 11164 17767 19387 16046 18477 12178 12034 18452 16578 17123 15649 16454 13530 14111 15086 18903 18172 12088 19848 16867 15513 17347 10154 999999
999999 999999 999999 999999 999999 999999 999999 999999 999999 999999 999999 999999 999999 999999 999999 999999 999999 999999 999999 999999 999999 999999 999999 999999 999999 999999 999999 999999 999999 999999 999999 999999 999999 999999 999999 999999 999999 999999 999999 999999 999999 999999 999999 999999 999999 999999 999999 999999 999999 999999 999999 999999 999999 999999 999999 999999 999999 999999 999999 999999 999999 999999 999999 999999 999999 999999 999999 999999 999999 999999 999999 999999 999999 999999 999999 999999 999999 999999 999999 999999 999999 999999 999999 999999 999999 999999 999999 999999 999999 999999 999999 999999 999999 999999 999999 999999 999999 999999 999999 0 999999 999999 999999 999999 999999 999999 999999 999999 999999 999999 999999 999999 999999 999999 999999 999999 999999 999999 999999 999999 999999 999999 999999 999999 999999 999999 999999 999999 999999 999999 999999 999999 999999 999999 999999 999999 999999 999999 999999 999999 999999 13132 10293 16698 19881 10975 17491 18342 12337 14643 19232 10331 13104 16378 15379 11219 15473 12827 16389 16241 15729 15617 13428 17626 14462 19392 10760 14593 15887 10595 13611 10207 18949 15203 18284 17752 13784 19289 16400 15471 17819 11861 16008 16934 13251 19233 19999 11513 16643 19771 17741 999999
999999 999999 999999 999999 999999 999999 999999 999999 999999 999999 999999 999999 999999 999999 999999 999999 999999 999999 999999 999999 999999 999999 999999 999999 999999 999999 999999 999999 999999 999999 999999 999999 999999 999999 999999 999999 999999 999999 999999 999999 999999 999999 999999 999999 999999 999999 999999 999999 999999 999999 999999 999999 999999 999999 999999 999999 999999 999999 999999 999999 999999 999999 999999 999999 999999 999999 999999 999999 999999 999999 999999 999999 999999 999999 999999 999999 999999 999999 999999 999999 999999 999999 999999 999999 999999 999999 999999 999999 999999 999999 999999 999999 999999 999999 999999 999999 999999 999999 999999 999999 0 999999 999999 999999 999999 999999 999999 999999 999999 999999 999999 999999 999999 999999 999999 999999 999999 999999 999999 999999 999999 999999 999999 999999 999999 999999 999999 999999 999999 999999 999999 999999 999999 999999 999999 999999 999999 999999 999999 999999 999999 14322 17238 15103 14066 12461 10132 15081 11582 17085 11148 14411 18252 18322 17694 13417 14367 14811 12217 13956 18531 14159 17820 13154 18572 13491 16195 12412 11859 16461 10396 13527 15787 11880 19963 18833 13157 17712 15782 12209 11248 17820 18020 17424 15626 19528 11525 19064 19438 19540 12615 999999
999999 999999 999999 999999 999999 999999 999999 999999 999999 999999 999999 999999 999999 999999 999999 999999 999999 999999 999999 999999 999999 999999 999999 999999 999999 999999 999999 999999 999999 999999 999999 999999 999999 999999 999999 999999 999999 999999 999999 999999 999999 999999 999999 999999 999999 999999 999999 999999 999999 999999 999999 999999 999999 999999 999999 999999 999999 999999 999999 999999 999999 999999 999999 999999 999999 999999 999999 999999 999999 999999 999999 999999 999999 999999 999999 999999 999999 999999 999999 999999 999999 999999 999999 999999 999999 999999 999999 999999 999999 999999 999999 999999 999999 999999 999999 999999 999999 999999 999999 999999 999999 0 999999 999999 999999 999999 999999 999999 999999 999999 999999 999999 999999 999999 999999 999999 999999 999999 999999 999999 999999 999999 999999 999999 999999 999999 999999 999999 999999 999999 999999 999999 999999 999999 999999 999999 999999 999999 999999 999999 999999 16645 12445 19118 16152 10579 18505 19873 14199 13829 17435 13056 16059 13241 12608 13848 18929 13186 15805 13115 19248 14006 16119 11731 15081 13373 13100 19802 11064 17937 19489 10361 10927 14415 16648 11471 14160 15073 11130 13354 19594 17683 14105 10206 12440 15650 19490 10111 14723 15788 17216 999999
999999 999999 999999 999999 999999 999999 999999 999999 999999 999999 999999 999999 999999 999999 999999 999999 999999 999999 999999 999999 999999 999999 999999 999999 999999 999999 999999 999999 999999 999999 999999 999999 999999 999999 999999 999999 999999 999999 999999 999999 999999 999999 999999 999999 999999 999999 999999 999999 999999 999999 999999 999999 999999 999999 999999 999999 999999 999999 999999 999999 999999 999999 999999 999999 999999 999999 999999 999999 999999 999999 999999 999999 999999 999999 999999 999999 999999 999999 999999 999999 999999 999999 999999 999999 999999 999999 999999 999999 999999 999999 999999 999999 999999 999999 999999 999999 999999 999999 999999 999999 999999 999999 0 999999 999999 999999 999999 999999 999999 999999 999999 999999 999999 999999 999999 999999 999999 999999 999999 999999 999999 999999 999999 999999 999999 999999 999999 999999 999999 999999 999999 999999 999999 999999 999999 999999 999999 999999 999999 999999 999999 14613 14912 11644 17370 19541 12500 19508 12356 18260 11000 14489 17875 13482 18938 17024 16184 12575 14045 11637 13536 13764 14413 19666 17831 19504 19878 13229 11915 13514 17913 12800 10750 11411 12703 10135 14981 11359 13720 10787 18883 13913 16001 15867 17216 15054 10296 18112 17715 14566 19033 999999
999999 999999 999999 999999 999999 999999 999999 999999 999999 999999 999999 999999 999999 999999 999999 999999 999999 999999 999999 999999 999999 999999 999999 999999 999999 999999 999999 999999 999999 999999 999999 999999 999999 999999 999999 999999 999999 999999 999999 999999 999999 999999 999999 999999 999999 999999 999999 999999 999999 999999 999999 999999 999999 999999 999999 999999 999999 999999 999999 999999 999999 999999 999999 999999 999999 999999 999999 999999 999999 999999 999999 999999 999999 999999 999999 999999 999999 999999 999999 999999 999999 999999 999999 999999 999999 999999 999999 999999 999999 999999 999999 999999 999999 999999 999999 999999 999999 999999 999999 999999 999999 999999 999999 0 999999 999999 999999 999999 999999 999999 999999 999999 999999 999999 999999 999999 999999 999999 999999 999999 999999 999999 999999 999999 999999 999999 999999 999999 999999 999999 999999 999999 999999 999999 999999 999999 999999 999999 999999 999999 999999 18574 12092 13135 12677 16662 17015 15781 18696 13509 11990 10416 13072 13860 14594 17863 13582 16982 18882 15043 11562 13313 19727 14672 15498 12963 14667 11304 17555 13641 13610 16132 11058 10665 12278 19875 17364 11735 15093 13293 15181 17553 16210 17952 10027 15344 17348 18858 10990 11496 12468 999999
999999 999999 999999 999999 999999 999999 999999 999999 999999 999999 999999 999999 999999 999999 999999 999999 999999 999999 999999 999999 999999 999999 999999 999999 999999 999999 999999 999999 999999 999999 999999 999999 999999 999999 999999 999999 999999 999999 999999 999999 999999 999999 999999 999999 999999 999999 999999 999999 999999 999999 999999 999999 999999 999999 999999 999999 999999 999999 999999 999999 999999 999999 999999 999999 999999 999999 999999 999999 999999 999999 999999 999999 999999 999999 999999 999999 999999 999999 999999 999999 999999 999999 999999 999999 999999 999999 999999 999999 999999 999999 999999 999999 999999 999999 999999 999999 999999 999999 999999 999999 999999 999999 999999 999999 0 999999 999999 999999 999999 999999 999999 999999 999999 999999 999999 999999 999999 999999 999999 999999 999999 999999 999999 999999 999999 999999 999999 999999 999999 999999 999999 999999 999999 999999 999999 999999 999999 999999 999999 999999 999999 16175 13829 14471 15120 11877 14959 17175 18217 16383 15447 13079 13441 15821 19121 13261 17953 16176 12138 13928 15523 16436 16069 12565 16695 10274 12492 13360 16715 10278 12593 11636 16413 11726 16369 17060 19362 16166 11630 13503 19341 19959 14099 15568 13947 10824 19873 11169 19614 13877 19834 999999
999999 999999 999999 999999 999999 999999 999999 999999 999999 999999 999999 999999 999999 999999 999999 999999 999999 999999 999999 999999 999999 999999 999999 999999 999999 999999 999999 999999 999999 999999 999999 999999 999999 999999 999999 999999 999999 999999 999999 999999 999999 999999 999999 999999 999999 999999 999999 999999 999999 999999 999999 999999 999999 999999 999999 999999 999999 999999 999999 999999 999999 999999 999999 999999 999999 999999 999999 999999 999999 999999 999999 999999 999999 999999 999999 999999 999999 999999 999999 999999 999999 999999 999999 999999 999999 999999 999999 999999 999999 999999 999999 999999 999999 999999 999999 999999 999999 999999 999999 999999 999999 999999 999999 999999 999999 0 999999 999999 999999 999999 999999 999999 999999 999999 999999 999999 999999 999999 999999 999999 999999 999999 999999 999999 999999 999999 999999 999999 999999 999999 999999 999999 999999 999999 999999 999999 999999 999999 999999 999999 999999 19262 12649 11735 13935 18620 19176 18070 18122 13182 19816 11373 11701 15333 15699 17198 14394 16983 15678 18760 12363 12561 10852 11491 16902 12382 14383 19615 12122 12524 19002 11018 12810 13679 16609 18088 13351 14141 19589 14958 15545 19478 12233 12771 13588 16726 14951 15999 13008 12333 12742 999999
999999 999999 999999 999999 999999 999999 999999 999999 999999 999999 999999 999999 999999 999999 999999 999999 999999 999999 999999 999999 999999 999999 999999 999999 999999 999999 999999 999999 999999 999999 999999 999999 999999 999999 999999 999999 999999 999999 999999 999999 999999 999999 999999 999999 999999 999999 999999 999999 999999 999999 999999 999999 999999 999999 999999 999999 999999 999999 999999 999999 999999 999999 999999 999999 999999 999999 999999 999999 999999 999999 999999 999999 999999 999999 999999 999999 999999 999999 999999 999999 999999 999999 999999 999999 999999 999999 999999 999999 999999 999999 999999 999999 999999 999999 999999 999999 999999 999999 999999 999999 999999 999999 999999 999999 999999 999999 0 999999 999999 999999 999999 999999 999999 999999 999999 999999 999999 999999 999999 999999 999999 999999 999999 999999 999999 999999 999999 999999 999999 999999 999999 999999 999999 999999 999999 999999 999999 999999 999999 999999 999999 17832 15720 14151 17925 19957 17742 18904 18925 10504 15691 11463 16973 14474 14411 16777 13662 17484 11967 19050 19643 10518 16030 18071 10256 12997 15064 15749 12213 14985 18993 16069 18774 13442 16175 16357 11836 11717 11719 13828 17292 18448 18489 19167 15712 17123 10685 19010 15090 18704 10239 999999
999999 999999 999999 999999 999999 999999 999999 999999 999999 999999 999999 999999 999999 999999 999999 999999 999999 999999 999999 999999 999999 999999 999999 999999 999999 999999 999999 999999 999999 999999 999999 999999 999999 999999 999999 999999 999999 999999 999999 999999 999999 999999 999999 999999 999999 999999 999999 999999 999999 999999 999999 999999 999999 999999 999999 999999 999999 999999 999999 999999 999999 999999 999999 999999 999999 999999 999999 999999 999999 999999 999999 999999 999999 999999 999999 999999 999999 999999 999999 999999 999999 999999 999999 999999 999999 999999 999999 999999 999999 999999 999999 999999 999999 999999 999999 999999 999999 999999 999999 999999 999999 999999 999999 999999 999999 999999 999999 0 999999 999999 999999 999999 999999 999999 999999 999999 999999 999999 999999 999999 999999 999999 999999 999999 999999 999999 999999 999999 999999 999999 999999 999999 999999 999999 999999 999999 999999 999999 999999 999999 999999 14547 10868 14320 15339 15233 11894 10500 19156 10010 17085 12874 14637 10948 12865 18306 12131 10862 10793 18966 15177 11373 19538 16147 13582 15592 10125 12492 19381 12452 15526 18710 17840 11244 16126 18405 15648 11336 11926 11413 14374 14599 17614 10967 10382 18656 17066 19309 12776 15619 14561 999999
999999 999999 999999 999999 999999 999999 999999 999999 999999 999999 999999 999999 999999 999999 999999 999999 999999 999999 999999 999999 999999 999999 999999 999999 999999 999999 999999 999999 999999 999999 999999 999999 999999 999999 999999 999999 999999 999999 999999 999999 999999 999999 999999 999999 999999 999999 999999 999999 999999 999999 999999 999999 999999 999999 999999 999999 999999 999999 999999 999999 999999 999999 999999 999999 999999 999999 999999 999999 999999 999999 999999 999999 999999 999999 999999 999999 999999 999999 999999 999999 999999 999999 999999 999999 999999 999999 999999 999999 999999 999999 999999 999999 999999 999999 999999 999999 999999 999999 999999 999999 999999 999999 999999 999999 999999 999999 999999 999999 0 999999 999999 999999 999999 999999 999999 999999 999999 999999 999999 999999 999999 999999 999999 999999 999999 999999 999999 999999 999999 999999 999999 999999 999999 999999 999999 999999 999999 999999 999999 999999 999999 10835 18807 18879 12977 17951 15525 12170 14373 10493 14894 15265 19757 18330 16768 19605 18356 11880 11934 13668 11508 11393 12868 10127 17539 18388 17124 11544 16655 15338 13232 19388 12299 13653 17842 19458 18202 17461 10892 14193 17050 19260 18578 16470 19932 18897 19941 13550 12936 18756 13133 999999
999999 999999 999999 999999 999999 999999 999999 999999 999999 999999 999999 999999 999999 999999 999999 999999 999999 999999 999999 999999 999999 999999 999999 999999 999999 999999 999999 999999 999999 999999 999999 999999 999999 999999 999999 999999 999999 999999 999999 999999 999999 999999 999999 999999 999999 999999 999999 999999 999999 999999 999999 999999 999999 999999 999999 999999 999999 999999 999999 999999 999999 999999 999999 999999 999999 999999 999999 999999 999999 999999 999999 999999 999999 999999 999999 999999 999999 999999 999999 999999 999999 999999 999999 999999 999999 999999 999999 999999 999999 999999 999999 999999 999999 999999 999999 999999 999999 999999 999999 999999 999999 999999 999999 999999 999999 999999 999999 999999 999999 0 999999 999999 999999 999999 999999 999999 999999 999999 999999 999999 999999 999999 999999 999999 999999 999999 999999 999999 999999 999999 999999 999999 999999 999999 999999 999999 999999 999999 999999 999999 999999 11867 11933 19408 18414 11455 18284 16398 14909 10485 15300 14980 10317 14392 19726 12289 17144 18765 15537 11045 19574 11936 13289 10723 13184 13944 11432 19187 12692 14561 15446 17737 15002 10934 17668 13606 13691 12021 12658 14891 18842 12794 19691 12438 15477 15460 19768 12770 18625 16291 12601 999999
999999 999999 999999 999999 999999 999999 999999 999999 999999 999999 999999 999999 999999 999999 999999 999999 999999 999999 999999 999999 999999 999999 999999 999999 999999 999999 999999 999999 999999 999999 999999 999999 999999 999999 999999 999999 999999 999999 999999 999999 999999 999999 999999 999999 999999 999999 999999 999999 999999 999999 999999 999999 999999 999999 999999 999999 999999 999999 999999 999999 999999 999999 999999 999999 999999 999999 999999 999999 999999 999999 999999 999999 999999 999999 999999 999999 999999 999999 999999 999999 999999 999999 999999 999999 999999 999999 999999 999999 999999 999999 999999 999999 999999 999999 999999 999999 999999 999999 999999 999999 999999 999999 999999 999999 999999 999999 999999 999999 999999 999999 0 999999 999999 999999 999999 999999 999999 999999 999999 999999 999999 999999 999999 999999 999999 999999 999999 999999 999999 999999 999999 999999 999999 999999 999999 999999 999999 999999 999999 999999 999999 13337 13875 10182 13347 17894 15979 15969 12755 18991 15527 14284 19837 18265 15390 15735 14091 17346 12001 13290 10685 11803 18248 13220 17642 10246 16698 10702 16586 12191 13100 12017 10023 12769 16308 19154 13873 14011 15843 12218 11809 12214 10924 18687 16062 13461 10551 10841 10500 15381 14273 999999
999999 999999 999999 999999 999999 999999 999999 999999 999999 999999 999999 999999 999999 999999 999999 999999 999999 999999 999999 999999 999999 999999 999999 999999 999999 999999 999999 999999 999999 999999 999999 999999 999999 999999 999999 999999 999999 999999 999999 999999 999999 999999 999999 999999 999999 999999 999999 999999 999999 999999 999999 999999 999999 999999 999999 999999 999999 999999 999999 999999 999999 999999 999999 999999 999999 999999 999999 999999 999999 999999 999999 999999 999999 999999 999999 999999 999999 999999 999999 999999 999999 999999 999999 999999 999999 999999 999999 999999 999999 999999 999999 999999 999999 999999 999999 999999 999999 999999 999999 999999 999999 999999 999999 999999 999999 999999 999999 999999 999999 999999 999999 0 999999 999999 999999 999999 999999 999999 999999 999999 999999 999999 999999 999999 999999 999999 999999 999999 999999 999999 999999 999999 999999 999999 999999 999999 999999 999999 999999 999999 999999 17999 15158 12637 19504 13146 15317 16837 11150 17066 10298 16222 13684 12640 14091 13915 14807 10520 16177 18801 17448 12353 18900 15058 14220 17580 18632 14982 12368 17443 19930 12008 10967 18172 16325 11553 15289 15856 13312 17273 16911 13488 19079 18259 18545 10526 13781 12707 11044 11687 19125 999999
999999 999999 999999 999999 999999 999999 999999 999999 999999 999999 999999 999999 999999 999999 999999 999999 999999 999999 999999 999999 999999 999999 999999 999999 999999 999999 999999 999999 999999 999999 999999 999999 999999 999999 999999 999999 999999 999999 999999 999999 999999 999999 999999 999999 999999 999999 999999 999999 999999 999999 999999 999999 999999 999999 999999 999999 999999 999999 999999 999999 999999 999999 999999 999999 999999 999999 999999 999999 999999 999999 999999 999999 999999 999999 999999 999999 999999 999999 999999 999999 999999 999999 999999 999999 999999 999999 999999 999999 999999 999999 999999 999999 999999 999999 999999 999999 999999 999999 999999 999999 999999 999999 999999 999999 999999 999999 999999 999999 999999 999999 999999 999999 0 999999 999999 999999 999999 999999 999999 999999 999999 999999 999999 999999 999999 999999 999999 999999 999999 999999 999999 999999 999999 999999 999999 999999 999999 999999 999999 999999 999999 13747 10887 16152 15987 16338 17280 10884 15872 16652 17513 18080 14991 18341 18264 16119 14355 15324 13690 16607 15450 11850 15521 10570 18704 13566 16960 13358 11269 13755 13375 11754 17046 19625 17246 11597 12539 13035 17913 17456 17839 14446 19018 14346 10795 16548 19227 17740 15328 16130 17905 999999
999999 999999 999999 999999 999999 999999 999999 999999 999999 999999 999999 999999 999999 999999 999999 999999 999999 999999 999999 999999 999999 999999 999999 999999 999999 999999 999999 999999 999999 999999 999999 999999 999999 999999 999999 999999 999999 999999 999999 999999 999999 999999 999999 999999 999999 999999 999999 999999 999999 999999 999999 999999 999999 999999 999999 999999 999999 999999 999999 999999 999999 999999 999999 999999 999999 999999 999999 999999 999999 999999 999999 999999 999999 999999 999999 999999 999999 999999 999999 999999 999999 999999 999999 999999 999999 999999 999999 999999 999999 999999 999999 999999 999999 999999 999999 999999 999999 999999 999999 999999 999999 999999 999999 999999 999999 999999 999999 999999 999999 999999 999999 999999 999999 0 999999 999999 999999 999999 999999 999999 999999 999999 999999 999999 999999 999999 999999 999999 999999 999999 999999 999999 999999 999999 999999 999999 999999 999999 999999 999999 999999 16981 12561 11023 16248 15115 15687 18328 12730 12850 15572 13786 16851 14699 16793 17898 19758 19679 12339 16344 12322 14306 12360 17645 13127 11475 16786 15013 17875 10626 19850 12587 14544 18946 19436 18439 19271 17366 10247 12229 16081 10920 19872 15545 15161 17982 19904 11278 18706 15100 10905 999999
999999 999999 999999 999999 999999 999999 999999 999999 999999 999999 999999 999999 999999 999999 999999 999999 999999 999999 999999 999999 999999 999999 999999 999999 999999 999999 999999 999999 999999 999999 999999 999999 999999 999999 999999 999999 999999 999999 999999 999999 999999 999999 999999 999999 999999 999999 999999 999999 999999 999999 999999 999999 999999 999999 999999 999999 999999 999999 999999 999999 999999 999999 999999 999999 999999 999999 999999 999999 999999 999999 999999 999999 999999 999999 999999 999999 999999 999999 999999 999999 999999 999999 999999 999999 999999 999999 999999 999999 999999 999999 999999 999999 999999 999999 999999 999999 999999 999999 999999 999999 999999 999999 999999 999999 999999 999999 999999 999999 999999 999999 999999 999999 999999 999999 0 999999 999999 999999 999999 999999 999999 999999 999999 999999 999999 999999 999999 999999 999999 999999 999999 999999 999999 999999 999999 999999 999999 999999 999999 999999 999999 18252 12931 13561 16282 12822 18211 16779 16971 12925 13867 17961 16726 17133 11089 16998 15495 13833 16246 14174 16113 14890 15702 14764 15331 16246 19661 19160 12196 12926 14500 11367 17472 17170 14565 14546 13069 17711 14471 18498 11637 18428 18948 17355 15374 12355 10542 19953 19401 17766 16405 999999
999999 999999 999999 999999 999999 999999 999999 999999 999999 999999 999999 999999 999999 999999 999999 999999 999999 999999 999999 999999 999999 999999 999999 999999 999999 999999 999999 999999 999999 999999 999999 999999 999999 999999 999999 999999 999999 999999 999999 999999 999999 999999 999999 999999 999999 999999 999999 999999 999999 999999 999999 999999 999999 999999 999999 999999 999999 999999 999999 999999 999999 999999 999999 999999 999999 999999 999999 999999 999999 999999 999999 999999 999999 999999 999999 999999 999999 999999 999999 999999 999999 999999 999999 999999 999999 999999 999999 999999 999999 999999 999999 999999 999999 999999 999999 999999 999999 999999 999999 999999 999999 999999 999999 999999 999999 999999 999999 999999 999999 999999 999999 999999 999999 999999 999999 0 999999 999999 999999 999999 999999 999999 999999 999999 999999 999999 999999 999999 999999 999999 999999 999999 999999 999999 999999 999999 999999 999999 999999 999999 999999 15589 14274 14316 14426 12251 14204 11367 14708 13522 18586 14510 12448 12101 18894 13740 18695 14633 18626 11270 11667 19252 10208 19293 18786 12162 13190 18107 12902 19371 15453 13803 12540 12390 16897 13552 17341 10822 13615 10571 17680 11818 10942 19514 17216 17545 15443 19641 16223 10946 18516 999999
999999 999999 999999 999999 999999 999999 999999 999999 999999 999999 999999 999999 999999 999999 999999 999999 999999 999999 999999 999999 999999 999999 999999 999999 999999 999999 999999 999999 999999 999999 999999 999999 999999 999999 999999 999999 999999 999999 999999 999999 999999 999999 999999 999999 999999 999999 999999 999999 999999 999999 999999 999999 999999 999999 999999 999999 999999 999999 999999 999999 999999 999999 999999 999999 999999 999999 999999 999999 999999 999999 999999 999999 999999 999999 999999 999999 999999 999999 999999 999999 999999 999999 999999 999999 999999 999999 999999 999999 999999 999999 999999 999999 999999 999999 999999 999999 999999 999999 999999 999999 999999 999999 999999 999999 999999 999999 999999 999999 999999 999999 999999 999999 999999 999999 999999 999999 0 999999 999999 999999 999999 999999 999999 999999 999999 999999 999999 999999 999999 999999 999999 999999 999999 999999 999999 999999 999999 999999 999999 999999 999999 13177 17636 13852 15922 12081 16579 17426 17939 14518 12810 14858 19987 19326 11907 19057 14867 11404 19475 12698 17125 10908 10622 19331 15779 16224 10086 18572 16385 15164 15293 10179 18027 18654 10669 16659 12084 19259 12539 12867 15353 12694 12139 10347 10323 17885 16179 11761 12581 11129 14475 999999
999999 999999 999999 999999 999999 999999 999999 999999 999999 999999 999999 999999 999999 999999 999999 999999 999999 999999 999999 999999 999999 999999 999999 999999 999999 999999 999999 999999 999999 999999 999999 999999 999999 999999 999999 999999 999999 999999 999999 999999 999999 999999 999999 999999 999999 999999 999999 999999 999999 999999 999999 999999 999999 999999 999999 999999 999999 999999 999999 999999 999999 999999 999999 999999 999999 999999 999999 999999 999999 999999 999999 999999 999999 999999 999999 999999 999999 999999 999999 999999 999999 999999 999999 999999 999999 999999 999999 999999 999999 999999 999999 999999 999999 999999 999999 999999 999999 999999 999999 999999 999999 999999 999999 999999 999999 999999 999999 999999 999999 999999 999999 999999 999999 999999 999999 999999 999999 0 999999 999999 999999 999999 999999 999999 999999 999999 999999 999999 999999 999999 999999 999999 999999 999999 999999 999999 999999 999999 999999 999999 999999 18613 18684 12091 17905 15440 18064 16560 19453 11664 11153 16249 13380 19049 12229 16356 10675 14815 19404 18192 12901 14544 11453 13348 16635 16404 14046 15546 14443 19250 14060 17829 15127 13270 11022 11501 18002 15058 12508 11374 11349 13605 10384 14258 12221 14086 10621 11252 15631 14444 13344 999999
999999 999999 999999 999999 999999 999999 999999 999999 999999 999999 999999 999999 999999 999999 999999 999999 999999 999999 999999 999999 999999 999999 999999 999999 999999 999999 999999 999999 999999 999999 999999 999999 999999 999999 999999 999999 999999 999999 999999 999999 999999 999999 999999 999999 999999 999999 999999 999999 999999 999999 999999 999999 999999 999999 999999 999999 999999 999999 999999 999999 999999 999999 999999 999999 999999 999999 999999 999999 999999 999999 999999 999999 999999 999999 999999 999999 999999 999999 999999 999999 999999 999999 999999 999999 999999 999999 999999 999999 999999 999999 999999 999999 999999 999999 999999 999999 999999 999999 999999 999999 999999 999999 999999 999999 999999 999999 999999 999999 999999 999999 999999 999999 999999 999999 999999 999999 999999 999999 0 999999 999999 999999 999999 999999 999999 999999 999999 999999 999999 999999 999999 999999 999999 999999 999999 999999 999999 999999 999999 999999 999999 17316 16619 14711 11964 16425 13573 14688 10342 13009 19046 15082 14082 11878 14596 10131 12211 17219 14857 19013 13831 17741 15936 18914 11034 15465 15402 19786 19033 12106 11399 13781 10492 16986 17721 13090 12822 16725 19374 15644 15048 18029 14917 10925 10804 14354 17565 14911 15366 18527 11438 999999
999999 999999 999999 999999 999999 999999 999999 999999 999999 999999 999999 999999 999999 999999 999999 999999 999999 999999 999999 999999 999999 999999 999999 999999 999999 999999 999999 999999 999999 999999 999999 999999 999999 999999 999999 999999 999999 999999 999999 999999 999999 999999 999999 999999 999999 999999 999999 999999 999999 999999 999999 999999 999999 999999 999999 999999 999999 999999 999999 999999 999999 999999 999999 999999 999999 999999 999999 999999 999999 999999 999999 999999 999999 999999 999999 999999 999999 999999 999999 999999 999999 999999 999999 999999 999999 999999 999999 999999 999999 999999 999999 999999 999999 999999 999999 999999 999999 999999 999999 999999 999999 999999 999999 999999 999999 999999 999999 999999 999999 999999 999999 999999 999999 999999 999999 999999 999999 999999 999999 0 999999 999999 999999 999999 999999 999999 999999 999999 999999 999999 999999 999999 999999 999999 999999 999999 999999 999999 999999 999999 999999 13601 18149 10510 12516 17354 16367 19167 16175 13587 11404 19534 17795 19638 13639 16797 13087 19345 18390 10621 17499 10297 13799 16733 18562 17655 12303 16009 10460 17466 10631 17645 14604 18433 10876 12226 16922 15196 13078 18165 15426 17216 12628 18786 19043 10687 11374 11880 15690 16085 17275 999999
999999 999999 999999 999999 999999 999999 999999 999999 999999 999999 999999 999999 999999 999999 999999 999999 999999 999999 999999 999999 999999 999999 999999 999999 999999 999999 999999 999999 999999 999999 999999 999999 999999 999999 999999 999999 999999 999999 999999 999999 999999 999999 999999 999999 999999 999999 999999 999999 999999 999999 999999 999999 999999 999999 999999 999999 999999 999999 999999 999999 999999 999999 999999 999999 999999 999999 999999 999999 999999 999999 999999 999999 999999 999999 999999 999999 999999 999999 999999 999999 999999 999999 999999 999999 999999 999999 999999 999999 999999 999999 999999 999999 999999 999999 999999 999999 999999 999999 999999 999999 999999 999999 999999 999999 999999 999999 999999 999999 999999 999999 999999 999999 999999 999999 999999 999999 999999 999999 999999 999999 0 999999 999999 999999 999999 999999 999999 999999 999999 999999 999999 999999 999999 999999 999999 999999 999999 999999 999999 999999 999999 15630 12518 15298 10418 19570 19225 14333 14273 17746 11452 13318 19861 13087 19988 11706 17875 17036 16129 18455 15721 14671 15278 15532 18570 15477 16775 10774 10850 19821 15976 11750 12416 13848 11240 10568 16184 12161 15147 17298 17641 17455 12208 11003 11931 17745 14344 13194 10358 17802 19619 999999
999999 999999 999999 999999 999999 999999 999999 999999 999999 999999 999999 999999 999999 999999 999999 999999 999999 999999 999999 999999 999999 999999 999999 999999 999999 999999 999999 999999 999999 999999 999999 999999 999999 999999 999999 999999 999999 999999 999999 999999 999999 999999 999999 999999 999999 999999 999999 999999 999999 999999 999999 999999 999999 999999 999999 999999 999999 999999 999999 999999 999999 999999 999999 999999 999999 999999 999999 999999 999999 999999 999999 999999 999999 999999 999999 999999 999999 999999 999999 999999 999999 999999 999999 999999 999999 999999 999999 999999 999999 999999 999999 999999 999999 999999 999999 999999 999999 999999 999999 999999 999999 999999 999999 999999 999999 999999 999999 999999 999999 999999 999999 999999 999999 999999 999999 999999 999999 999999 999999 999999 999999 0 999999 999999 999999 999999 999999 999999 999999 999999 999999 999999 999999 999999 999999 999999 999999 999999 999999 999999 999999 10668 14175 11303 17206 10254 15533 19175 17663 13711 15150 11882 17055 16853 14314 11488 13013 16891 12289 11370 11297 16535 12544 12002 12742 13772 10338 15446 19006 18262 12217 16124 13142 16330 12269 15477 15829 12534 12500 16004 16024 16433 13220 10893 15856 15048 19605 18810 12563 11210 13732 999999
999999 999999 999999 999999 999999 999999 999999 999999 999999 999999 999999 999999 999999 999999 999999 999999 999999 999999 999999 999999 999999 999999 999999 999999 999999 999999 999999 999999 999999 999999 999999 999999 999999 999999 999999 999999 999999 999999 999999 999999 999999 999999 999999 999999 999999 999999 999999 999999 999999 999999 999999 999999 999999 999999 999999 999999 999999 999999 999999 999999 999999 999999 999999 999999 999999 999999 999999 999999 999999 999999 999999 999999 999999 999999 999999 999999 999999 999999 999999 999999 999999 999999 999999 999999 999999 999999 999999 999999 999999 999999 999999 999999 999999 999999 999999 999999 999999 999999 999999 999999 999999 999999 999999 999999 999999 999999 999999 999999 999999 999999 999999 999999 999999 999999 999999 999999 999999 999999 999999 999999 999999 999999 0 999999 999999 999999 999999 999999 999999 999999 999999 999999 999999 999999 999999 999999 999999 999999 999999 999999 999999 14779 13083 18616 19910 13289 13328 12017 19240 11372 13428 11480 16691 13611 15336 19453 13354 15346 17602 12590 15786 10613 18082 13355 17778 17053 14581 12783 17912 17421 12526 16613 17138 18906 13410 12772 16999 12496 18220 19052 17037 16123 13621 15454 11295 14834 19466 16997 16973 18188 13415 999999
999999 999999 999999 999999 999999 999999 999999 999999 999999 999999 999999 999999 999999 999999 999999 999999 999999 999999 999999 999999 999999 999999 999999 999999 999999 999999 999999 999999 999999 999999 999999 999999 999999 999999 999999 999999 999999 999999 999999 999999 999999 999999 999999 999999 999999 999999 999999 999999 999999 999999 999999 999999 999999 999999 999999 999999 999999 999999 999999 999999 999999 999999 999999 999999 999999 999999 999999 999999 999999 999999 999999 999999 999999 999999 999999 999999 999999 999999 999999 999999 999999 999999 999999 999999 999999 999999 999999 999999 999999 999999 999999 999999 999999 999999 999999 999999 999999 999999 999999 999999 999999 999999 999999 999999 999999 999999 999999 999999 999999 999999 999999 999999 999999 999999 999999 999999 999999 999999 999999 999999 999999 999999 999999 0 999999 999999 999999 999999 999999 999999 999999 999999 999999 999999 999999 999999 999999 999999 999999 999999 999999 12205 13477 16088 11765 17982 19365 19457 14694 15976 19301 12288 19913 15220 12701 18512 19947 14522 18210 18777 11053 14521 12120 16482 19331 16276 11247 14965 16668 14595 17165 16893 18050 14370 16804 15129 16377 17643 14684 16409 11878 15658 13613 19743 11267 17666 11947 11272 10397 12712 12752 999999
999999 999999 999999 999999 999999 999999 999999 999999 999999 999999 999999 999999 999999 999999 999999 999999 999999 999999 999999 999999 999999 999999 999999 999999 999999 999999 999999 999999 999999 999999 999999 999999 999999 999999 999999 999999 999999 999999 999999 999999 999999 999999 999999 999999 999999 999999 999999 999999 999999 999999 999999 999999 999999 999999 999999 999999 999999 999999 999999 999999 999999 999999 999999 999999 999999 999999 999999 999999 999999 999999 999999 999999 999999 999999 999999 999999 999999 999999 999999 999999 999999 999999 999999 999999 999999 999999 999999 999999 999999 999999 999999 999999 999999 999999 999999 999999 999999 999999 999999 999999 999999 999999 999999 999999 999999 999999 999999 999999 999999 999999 999999 999999 999999 999999 999999 999999 999999 999999 999999 999999 999999 999999 999999 999999 0 999999 999999 999999 999999 999999 999999 999999 999999 999999 999999 999999 999999 999999 999999 999999 999999 12614 14578 13492 17944 15731 18062 11982 10686 17761 13515 14522 10125 13791 19559 13561 11804 13987 18996 13554 16367 15337 18548 14594 12818 12578 15095 18654 18908 14355 18053 17119 13746 18071 12980 18194 13106 14325 13241 16024 13365 17036 14471 18662 10649 16601 15375 15000 17453 10974 12023 999999
999999 999999 999999 999999 999999 999999 999999 999999 999999 999999 999999 999999 999999 999999 999999 999999 999999 999999 999999 999999 999999 999999 999999 999999 999999 999999 999999 999999 999999 999999 999999 999999 999999 999999 999999 999999 999999 999999 999999 999999 999999 999999 999999 999999 999999 999999 999999 999999 999999 999999 999999 999999 999999 999999 999999 999999 999999 999999 999999 999999 999999 999999 999999 999999 999999 999999 999999 999999 999999 999999 999999 999999 999999 999999 999999 999999 999999 999999 999999 999999 999999 999999 999999 999999 999999 999999 999999 999999 999999 999999 999999 999999 999999 999999 999999 999999 999999 999999 999999 999999 999999 999999 999999 999999 999999 999999 999999 999999 999999 999999 999999 999999 999999 999999 999999 999999 999999 999999 999999 999999 999999 999999 999999 999999 999999 0 999999 999999 999999 999999 999999 999999 999999 999999 999999 999999 999999 999999 999999 999999 999999 10438 11243 17843 19815 10185 17069 12929 11800 16552 10587 11794 17525 19581 16820 18861 11733 18345 15313 13595 17850 13400 17623 15670 13391 13215 14063 11373 10715 16814 17224 12048 16682 18149 12040 16543 12994 12667 16147 12081 17421 12370 16087 14864 13556 16274 14613 15712 16380 18664 11615 999999
999999 999999 999999 999999 999999 999999 999999 999999 999999 999999 999999 999999 999999 999999 999999 999999 999999 999999 999999 999999 999999 999999 999999 999999 999999 999999 999999 999999 999999 999999 999999 999999 999999 999999 999999 999999 999999 999999 999999 999999 999999 999999 999999 999999 999999 999999 999999 999999 999999 999999 999999 999999 999999 999999 999999 999999 999999 999999 999999 999999 999999 999999 999999 999999 999999 999999 999999 999999 999999 999999 999999 999999 999999 999999 999999 999999 999999 999999 999999 999999 999999 999999 999999 999999 999999 999999 999999 999999 999999 999999 999999 999999 999999 999999 999999 999999 999999 999999 999999 999999 999999 999999 999999 999999 999999 999999 999999 999999 999999 999999 999999 999999 999999 999999 999999 999999 999999 999999 999999 999999 999999 999999 999999 999999 999999 999999 0 999999 999999 999999 999999 999999 999999 999999 999999 999999 999999 999999 999999 999999 999999 19177 16211 13902 10988 16286 16548 10901 11023 15901 16705 11719 18502 14710 15823 14320 12415 17218 17260 18934 11094 19094 12937 10937 12566 16772 14487 17892 12461 13040 12688 10398 11990 15336 19896 17460 14597 19016 11955 18046 19629 11365 16167 13484 17098 19291 14903 11215 11903 11402 10348 999999
999999 999999 999999 999999 999999 999999 999999 999999 999999 999999 999999 999999 999999 999999 999999 999999 999999 999999 999999 999999 999999 999999 999999 999999 999999 999999 999999 999999 999999 999999 999999 999999 999999 999999 999999 999999 999999 999999 999999 999999 999999 999999 999999 999999 999999 999999 999999 999999 999999 999999 999999 999999 999999 999999 999999 999999 999999 999999 999999 999999 999999 999999 999999 999999 999999 999999 999999 999999 999999 999999 999999 999999 999999 999999 999999 999999 999999 999999 999999 999999 999999 999999 999999 999999 999999 999999 999999 999999 999999 999999 999999 999999 999999 999999 999999 999999 999999 999999 999999 999999 999999 999999 999999 999999 999999 999999 999999 999999 999999 999999 999999 999999 999999 999999 999999 999999 999999 999999 999999 999999 999999 999999 999999 999999 999999 999999 999999 0 999999 999999 999999 999999 999999 999999 999999 999999 999999 999999 999999 999999 999999 12763 16322 16260 17590 16571 12527 10088 11926 17120 19906 15981 14541 18465 10803 14308 15257 13420 14882 17510 15171 16722 15178 18138 13796 19133 17492 16308 16466 12510 13796 16524 10985 14870 15091 13836 18274 10405 19724 11191 10102 15949 15686 11749 13960 14829 16886 18599 17588 11378 19270 999999
999999 999999 999999 999999 999999 999999 999999 999999 999999 999999 999999 999999 999999 999999 999999 999999 999999 999999 999999 999999 999999 999999 999999 999999 999999 999999 999999 999999 999999 999999 999999 999999 999999 999999 999999 999999 999999 999999 999999 999999 999999 999999 999999 999999 999999 999999 999999 999999 999999 999999 999999 999999 999999 999999 999999 999999 999999 999999 999999 999999 999999 999999 999999 999999 999999 999999 999999 999999 999999 999999 999999 999999 999999 999999 999999 999999 999999 999999 999999 999999 999999 999999 999999 999999 999999 999999 999999 999999 999999 999999 999999 999999 999999 999999 999999 999999 999999 999999 999999 999999 999999 999999 999999 999999 999999 999999 999999 999999 999999 999999 999999 999999 999999 999999 999999 999999 999999 999999 999999 999999 999999 999999 999999 999999 999999 999999 999999 999999 0 999999 999999 999999 999999 999999 999999 999999 999999 999999 999999 999999 999999 13984 13504 10741 10829 18405 12551 15545 13546 11362 12452 10933 11038 18610 19430 15198 15378 11705 10481 13786 19458 14572 13887 13747 12591 13815 14081 10788 19094 15249 19404 15514 15473 18520 11927 16911 18764 19586 19778 13959 15857 15103 11975 17875 12379 13906 17911 19575 12129 12444 15736 999999
999999 999999 999999 999999 999999 999999 999999 999999 999999 999999 999999 999999 999999 999999 999999 999999 999999 999999 999999 999999 999999 999999 999999 999999 999999 999999 999999 999999 999999 999999 999999 999999 999999 999999 999999 999999 999999 999999 999999 999999 999999 999999 999999 999999 999999 999999 999999 999999 999999 999999 999999 999999 999999 999999 999999 999999 999999 999999 999999 999999 999999 999999 999999 999999 999999 999999 999999 999999 999999 999999 999999 999999 999999 999999 999999 999999 999999 999999 999999 999999 999999 999999 999999 999999 999999 999999 999999 999999 999999 999999 999999 999999 999999 999999 999999 999999 999999 999999 999999 999999 999999 999999 999999 999999 999999 999999 999999 999999 999999 999999 999999 999999 999999 999999 999999 999999 999999 999999 999999 999999 999999 999999 999999 999999 999999 999999 999999 999999 999999 0 999999 999999 999999 999999 999999 999999 999999 999999 999999 999999 999999 13200 15650 18003 11635 10494 15573 14114 15679 10470 11534 13725 13154 14531 12322 19691 10677 12719 18194 11752 17143 15968 17389 17064 14702 18925 10081 13276 18819 10701 14350 16098 18311 16533 16026 17975 16975 18647 10576 18442 11033 11589 13862 10875 14883 18345 10786 13038 11922 10473 19109 999999
999999 999999 999999 999999 999999 999999 999999 999999 999999 999999 999999 999999 999999 999999 999999 999999 999999 999999 999999 999999 999999 999999 999999 999999 999999 999999 999999 999999 999999 999999 999999 999999 999999 999999 999999 999999 999999 999999 999999 999999 999999 999999 999999 999999 999999 999999 999999 999999 999999 999999 999999 999999 999999 999999 999999 999999 999999 999999 999999 999999 999999 999999 999999 999999 999999 999999 999999 999999 999999 999999 999999 999999 999999 999999 999999 999999 999999 999999 999999 999999 999999 999999 999999 999999 999999 999999 999999 999999 999999 999999 999999 999999 999999 999999 999999 999999 999999 999999 999999 999999 999999 999999 999999 999999 999999 999999 999999 999999 999999 999999 999999 999999 999999 999999 999999 999999 999999 999999 999999 999999 999999 999999 999999 999999 999999 999999 999999 999999 999999 999999 0 999999 999999 999999 999999 999999 999999 999999 999999 999999 999999 13833 13327 16736 19673 17804 16265 15242 13520 12941 16251 17651 15042 16948 19274 11613 19916 11709 12107 15789 16594 13952 10843 19186 14300 15561 16165 19655 19395 12570 17893 13391 18907 16017 15728 16771 19420 17389 14829 11839 12103 12507 14075 15008 19583 13237 10085 16548 15631 16349 12605 999999
999999 999999 999999 999999 999999 999999 999999 999999 999999 999999 999999 999999 999999 999999 999999 999999 999999 999999 999999 999999 999999 999999 999999 999999 999999 999999 999999 999999 999999 999999 999999 999999 999999 999999 999999 999999 999999 999999 999999 999999 999999 999999 999999 999999 999999 999999 999999 999999 999999 999999 999999 999999 999999 999999 999999 999999 999999 999999 999999 999999 999999 999999 999999 999999 999999 999999 999999 999999 999999 999999 999999 999999 999999 999999 999999 999999 999999 999999 999999 999999 999999 999999 999999 999999 999999 999999 999999 999999 999999 999999 999999 999999 999999 999999 999999 999999 999999 999999 999999 999999 999999 999999 999999 999999 999999 999999 999999 999999 999999 999999 999999 999999 999999 999999 999999 999999 999999 999999 999999 999999 999999 999999 999999 999999 999999 999999 999999 999999 999999 999999 999999 0 999999 999999 999999 999999 999999 999999 999999 999999 999999 16863 13099 17425 18866 17360 13623 19763 15847 10480 17491 12946 11620 15823 19744 16290 15648 19242 14836 12805 19308 19883 15677 17393 13269 15877 19021 11452 13489 17585 10079 19555 13337 10666 14392 10360 16435 18677 14794 18484 16423 17596 16698 14394 18220 11706 17259 13762 16189 14188 15214 999999
999999 999999 999999 999999 999999 999999 999999 999999 999999 999999 999999 999999 999999 999999 999999 999999 999999 999999 999999 999999 999999 999999 999999 999999 999999 999999 999999 999999 999999 999999 999999 999999 999999 999999 999999 999999 999999 999999 999999 999999 999999 999999 999999 999999 999999 999999 999999 999999 999999 999999 999999 999999 999999 999999 999999 999999 999999 999999 999999 999999 999999 999999 999999 999999 999999 999999 999999 999999 999999 999999 999999 999999 999999 999999 999999 999999 999999 999999 999999 999999 999999 999999 999999 999999 999999 999999 999999 999999 999999 999999 999999 999999 999999 999999 999999 999999 999999 999999 999999 999999 999999 999999 999999 999999 999999 999999 999999 999999 999999 999999 999999 999999 999999 999999 999999 999999 999999 999999 999999 999999 999999 999999 999999 999999 999999 999999 999999 999999 999999 999999 999999 999999 0 999999 999999 999999 999999 999999 999999 999999 999999 18882 14144 15680 10353 17357 12982 17320 12638 18302 16489 11946 15362 15968 12328 19533 10415 12273 15151 14780 12796 14708 12844 15996 12245 10273 10574 18452 10136 12727 18387 11396 18486 15341 10914 18495 12904 14560 17931 18261 17127 11771 14634 14522 14765 12515 16383 12646 15004 15494 12631 999999
999999 999999 999999 999999 999999 999999 999999 999999 999999 999999 999999 999999 999999 999999 999999 999999 999999 999999 999999 999999 999999 999999 999999 999999 999999 999999 999999 999999 999999 999999 999999 999999 999999 999999 999999 999999 999999 999999 999999 999999 999999 999999 999999 999999 999999 999999 999999 999999 999999 999999 999999 999999 999999 999999 999999 999999 999999 999999 999999 999999 999999 999999 999999 999999 999999 999999 999999 999999 999999 999999 999999 999999 999999 999999 999999 999999 999999 999999 999999 999999 999999 999999 999999 999999 999999 999999 999999 999999 999999 999999 999999 999999 999999 999999 999999 999999 999999 999999 999999 999999 999999 999999 999999 999999 999999 999999 999999 999999 999999 999999 999999 999999 999999 999999 999999 999999 999999 999999 999999 999999 999999 999999 999999 999999 999999 999999 999999 999999 999999 999999 999999 999999 999999 0 999999 999999 999999 999999 999999 999999 999999 17823 10758 18972 19954 15808 13891 10336 17361 15676 13684 16653 18692 14392 13384 18513 19863 10058 10431 19895 17242 10170 17596 19501 10256 15043 11510 17867 18377 16570 10305 19813 15559 12221 11423 11446 12140 10076 18751 15705 19244 18635 12825 14587 15555 13741 14926 17028 12040 16528 13973 999999
999999 999999 999999 999999 999999 999999 999999 999999 999999 999999 999999 999999 999999 999999 999999 999999 999999 999999 999999 999999 999999 999999 999999 999999 999999 999999 999999 999999 999999 999999 999999 999999 999999 999999 999999 999999 999999 999999 999999 999999 999999 999999 999999 999999 999999 999999 999999 999999 999999 999999 999999 999999 999999 999999 999999 999999 999999 999999 999999 999999 999999 999999 999999 999999 999999 999999 999999 999999 999999 999999 999999 999999 999999 999999 999999 999999 999999 999999 999999 999999 999999 999999 999999 999999 999999 999999 999999 999999 999999 999999 999999 999999 999999 999999 999999 999999 999999 999999 999999 999999 999999 999999 999999 999999 999999 999999 999999 999999 999999 999999 999999 999999 999999 999999 999999 999999 999999 999999 999999 999999 999999 999999 999999 999999 999999 999999 999999 999999 999999 999999 999999 999999 999999 999999 0 999999 999999 999999 999999 999999 999999 13322 16769 15807 10586 14821 14554 14891 13024 14049 18946 19695 10182 12090 13673 12751 17086 12329 16757 15925 16487 13464 12041 10161 10785 12485 13927 15564 13596 11200 13730 17020 16163 17047 11030 12096 19168 15249 10806 17108 17617 15958 18880 15112 11627 18009 19959 15507 19230 14163 14647 999999
999999 999999 999999 999999 999999 999999 999999 999999 999999 999999 999999 999999 999999 999999 999999 999999 999999 999999 999999 999999 999999 999999 999999 999999 999999 999999 999999 999999 999999 999999 999999 999999 999999 999999 999999 999999 999999 999999 999999 999999 999999 999999 999999 999999 999999 999999 999999 999999 999999 999999 999999 999999 999999 999999 999999 999999 999999 999999 999999 999999 999999 999999 999999 999999 999999 999999 999999 999999 999999 999999 999999 999999 999999 999999 999999 999999 999999 999999 999999 999999 999999 999999 999999 999999 999999 999999 999999 999999 999999 999999 999999 999999 999999 999999 999999 999999 999999 999999 999999 999999 999999 999999 999999 999999 999999 999999 999999 999999 999999 999999 999999 999999 999999 999999 999999 999999 999999 999999 999999 999999 999999 999999 999999 999999 999999 999999 999999 999999 999999 999999 999999 999999 999999 999999 999999 0 999999 999999 999999 999999 999999 12257 16349 19715 12192 12400 19050 16109 17714 11993 12434 18030 13947 19454 10800 13851 15556 19921 19112 17324 10858 14206 11935 12408 19149 13744 14980 16523 18748 17877 17977 19011 19985 12184 16807 15900 11099 17425 12931 11892 11437 17542 10660 17917 13228 19365 19875 16598 18568 10539 19197 999999
999999 999999 999999 999999 999999 999999 999999 999999 999999 999999 999999 999999 999999 999999 999999 999999 999999 999999 999999 999999 999999 999999 999999 999999 999999 999999 999999 999999 999999 999999 999999 999999 999999 999999 999999 999999 999999 999999 999999 999999 999999 999999 999999 999999 999999 999999 999999 999999 999999 999999 999999 999999 999999 999999 999999 999999 999999 999999 999999 999999 999999 999999 999999 999999 999999 999999 999999 999999 999999 999999 999999 999999 999999 999999 999999 999999 999999 999999 999999 999999 999999 999999 999999 999999 999999 999999 999999 999999 999999 999999 999999 999999 999999 999999 999999 999999 999999 999999 999999 999999 999999 999999 999999 999999 999999 999999 999999 999999 999999 999999 999999 999999 999999 999999 999999 999999 999999 999999 999999 999999 999999 999999 999999 999999 999999 999999 999999 999999 999999 999999 999999 999999 999999 999999 999999 999999 0 999999 999999 999999 999999 17183 10190 13314 15277 14692 12310 15802 15379 15246 12718 15845 13427 15209 17777 15749 15671 11300 14134 19614 17906 17399 17214 10017 17452 10533 16204 19717 17738 18929 15609 18135 13354 17908 13648 11670 19007 11771 15188 17397 11300 19070 15970 10697 13082 13949 11049 11189 13242 12596 10788 999999
999999 999999 999999 999999 999999 999999 999999 999999 999999 999999 999999 999999 999999 999999 999999 999999 999999 999999 999999 999999 999999 999999 999999 999999 999999 999999 999999 999999 999999 999999 999999 999999 999999 999999 999999 999999 999999 999999 999999 999999 999999 999999 999999 999999 999999 999999 999999 999999 999999 999999 999999 999999 999999 999999 999999 999999 999999 999999 999999 999999 999999 999999 999999 999999 999999 999999 999999 999999 999999 999999 999999 999999 999999 999999 999999 999999 999999 999999 999999 999999 999999 999999 999999 999999 999999 999999 999999 999999 999999 999999 999999 999999 999999 999999 999999 999999 999999 999999 999999 999999 999999 999999 999999 999999 999999 999999 999999 999999 999999 999999 999999 999999 999999 999999 999999 999999 999999 999999 999999 999999 999999 999999 999999 999999 999999 999999 999999 999999 999999 999999 999999 999999 999999 999999 999999 999999 999999 0 999999 999999 999999 16621 10163 12319 17500 11110 10590 17301 17928 15329 18088 10096 14451 17161 19727 11489 19483 16275 13087 18884 14659 19756 11607 19518 18526 19607 14442 18000 17665 15431 11913 14465 14401 13228 19901 12486 19011 13163 12812 10874 15864 18416 18961 11554 15711 10396 10149 12005 19163 19615 17385 999999
999999 999999 999999 999999 999999 999999 999999 999999 999999 999999 999999 999999 999999 999999 999999 999999 999999 999999 999999 999999 999999 999999 999999 999999 999999 999999 999999 999999 999999 999999 999999 999999 999999 999999 999999 999999 999999 999999 999999 999999 999999 999999 999999 999999 999999 999999 999999 999999 999999 999999 999999 999999 999999 999999 999999 999999 999999 999999 999999 999999 999999 999999 999999 999999 999999 999999 999999 999999 999999 999999 999999 999999 999999 999999 999999 999999 999999 999999 999999 999999 999999 999999 999999 999999 999999 999999 999999 999999 999999 999999 999999 999999 999999 999999 999999 999999 999999 999999 999999 999999 999999 999999 999999 999999 999999 999999 999999 999999 999999 999999 999999 999999 999999 999999 999999 999999 999999 999999 999999 999999 999999 999999 999999 999999 999999 999999 999999 999999 999999 999999 999999 999999 999999 999999 999999 999999 999999 999999 0 999999 999999 11073 17031 14641 17622 16340 14780 11905 13611 18325 11759 10269 11827 11067 15092 12805 12597 17153 13553 18200 15935 14521 18857 15223 10552 16245 14686 19283 18305 18094 13627 11320 13101 12273 16016 13839 13354 13032 14807 15699 11399 18483 13078 12746 13696 12177 12559 13396 15964 19345 17169 999999
999999 999999 999999 999999 999999 999999 999999 999999 999999 999999 999999 999999 999999 999999 999999 999999 999999 999999 999999 999999 999999 999999 999999 999999 999999 999999 999999 999999 999999 999999 999999 999999 999999 999999 999999 999999 999999 999999 999999 999999 999999 999999 999999 999999 999999 999999 999999 999999 999999 999999 999999 999999 999999 999999 999999 999999 999999 999999 999999 999999 999999 999999 999999 999999 999999 999999 999999 999999 999999 999999 999999 999999 999999 999999 999999 999999 999999 999999 999999 999999 999999 999999 999999 999999 999999 999999 999999 999999 999999 999999 999999 999999 999999 999999 999999 999999 999999 999999 999999 999999 999999 999999 999999 999999 999999 999999 999999 999999 999999 999999 999999 999999 999999 999999 999999 999999 999999 999999 999999 999999 999999 999999 999999 999999 999999 999999 999999 999999 999999 999999 999999 999999 999999 999999 999999 999999 999999 999999 999999 0 999999 11114 18178 17181 10582 18522 13053 11823 14012 11992 12010 14416 13983 17077 16152 11945 17261 15405 16244 16643 18710 19919 16038 19960 17826 16375 13493 10386 14014 10114 18484 14567 14117 16830 18741 14982 14722 11785 11233 11993 16558 18055 15719 13595 14575 16939 11237 11491 15618 17429 17285 999999
999999 999999 999999 999999 999999 999999 999999 999999 999999 999999 999999 999999 999999 999999 999999 999999 999999 999999 999999 999999 999999 999999 999999 999999 999999 999999 999999 999999 999999 999999 999999 999999 999999 999999 999999 999999 999999 999999 999999 999999 999999 999999 999999 999999 999999 999999 999999 999999 999999 999999 999999 999999 999999 999999 999999 999999 999999 999999 999999 999999 999999 999999 999999 999999 999999 999999 999999 999999 999999 999999 999999 999999 999999 999999 999999 999999 999999 999999 999999 999999 999999 999999 999999 999999 999999 999999 999999 999999 999999 999999 999999 999999 999999 999999 999999 999999 999999 999999 999999 999999 999999 999999 999999 999999 999999 999999 999999 999999 999999 999999 999999 999999 999999 999999 999999 999999 999999 999999 999999 999999 999999 999999 999999 999999 999999 999999 999999 999999 999999 999999 999999 999999 999999 999999 999999 999999 999999 999999 999999 999999 0 17895 10198 19660 15376 13967 17054 17163 18754 16763 15084 18081 18560 11896 19949 19402 10714 17124 11424 19000 14715 16759 17478 11415 18245 17240 17663 18193 10992 14296 10076 15968 18482 13771 18548 18018 19654 18024 13211 12187 11050 13892 19824 19509 16114 12064 10517 19797 20000 19962 10532 999999
999999 17201 11686 10665 11571 13538 11786 13651 15931 17345 10211 15704 14653 12501 13156 15194 19516 12421 18623 15994 11889 16264 14223 18013 11559 14313 13885 17729 13672 10950 11836 19367 10667 13453 16045 19200 16553 13860 15385 17179 13051 11183 18970 13705 12063 12529 18124 15048 10156 14378 19733 19662 12633 11041 14036 19369 15112 12417 19714 10768 12021 16168 10617 15236 16819 10407 18134 16447 12536 10987 12562 12868 13509 16971 19115 17486 15203 14153 10086 16475 11209 14940 15969 10403 11372 11149 12696 10989 11416 18950 14278 16743 16060 19590 10407 18707 15715 15675 11458 13132 14322 16645 14613 18574 16175 19262 17832 14547 10835 11867 13337 17999 13747 16981 18252 15589 13177 18613 17316 13601 15630 10668 14779 12205 12614 10438 19177 12763 13984 13200 13833 16863 18882 17823 13322 12257 17183 16621 11073 11114 17895 0 999999 999999 999999 999999 999999 999999 999999 999999 999999 999999 999999 999999 999999 999999 999999 999999 999999 999999 999999 999999 999999 999999 999999 999999 999999 999999 999999 999999 999999 999999 999999 999999 999999 999999 999999 999999 999999 999999 999999 999999 999999 999999 999999 999999 999999 999999 999999 999999 999999 7402
999999 15674 14904 12910 17168 10593 13725 19070 17651 13836 12120 16205 18070 19279 14966 13379 14746 16259 17752 18411 16498 12921 12744 17352 12464 10858 11715 14678 15082 16003 11092 14480 18831 16261 17841 18004 19925 15882 15009 18046 14760 13004 18773 13800 11027 14150 12587 19193 19390 12750 13908 19548 18226 10072 18488 11679 11459 15367 10335 14562 15093 13667 18847 12384 16979 10996 14550 11504 18008 19089 15891 11350 19594 17218 15211 18816 10250 13005 10185 15454 10244 12983 12394 17101 19290 11088 17509 12384 16012 10198 15824 15427 12350 14746 11360 15930 18389 12123 11761 10293 17238 12445 14912 12092 13829 12649 15720 10868 18807 11933 13875 15158 10887 12561 12931 14274 17636 18684 16619 18149 12518 14175 13083 13477 14578 11243 16211 16322 13504 15650 13327 13099 14144 10758 16769 16349 10190 10163 17031 18178 10198 999999 0 999999 999999 999999 999999 999999 999999 999999 999999 999999 999999 999999 999999 999999 999999 999999 999999 999999 999999 999999 999999 999999 999999 999999 999999 999999 999999 999999 999999 999999 999999 999999 999999 999999 999999 999999 999999 999999 999999 999999 999999 999999 999999 999999 999999 999999 999999 999999 999999 14859
999999 17533 10187 12937 10688 17097 14528 13409 11617 10111 14054 11149 18147 15905 18638 18743 14646 14205 15906 19317 18841 18926 19497 13866 18265 13390 10159 16504 14891 16084 17871 10177 11719 15483 18885 14782 14544 12916 15252 15283 18322 10796 16206 16067 19196 19836 13067 15075 17507 13119 18348 15073 16570 11953 16335 14872 10938 15921 13450 13816 11342 10388 15472 10469 15495 19491 10242 16745 16150 14965 11921 10616 11741 17724 17433 11945 16263 18217 19156 12629 16545 16165 16489 15422 13073 10805 11773 19838 15986 11545 13147 10828 15748 12692 16912 19435 19345 18281 18026 16698 15103 19118 11644 13135 14471 11735 14151 14320 18879 19408 10182 12637 16152 11023 13561 14316 13852 12091 14711 10510 15298 11303 18616 16088 13492 17843 13902 16260 10741 18003 16736 17425 15680 18972 15807 19715 13314 12319 14641 17181 19660 999999 999999 0 999999 999999 999999 999999 999999 999999 999999 999999 999999 999999 999999 999999 999999 999999 999999 999999 999999 999999 999999 999999 999999 999999 999999 999999 999999 999999 999999 999999 999999 999999 999999 999999 999999 999999 999999 999999 999999 999999 999999 999999 999999 999999 999999 999999 999999 999999 999999 5309
999999 13009 11327 14927 17641 11300 15966 17132 12628 12823 10257 16261 12485 10510 16131 17666 16344 14559 10840 12976 11155 11467 13277 14462 18774 10956 19301 18280 10650 10330 11712 12714 10729 14173 14482 19052 12518 12105 16750 10292 15573 13571 18091 11580 17780 18535 16013 15536 15834 12220 11800 13822 17429 12088 15692 17802 16417 19357 13326 10526 19605 17873 17324 13064 17191 11227 11618 17716 18561 10262 18848 18466 11493 12290 10763 12950 12513 15680 13161 14102 14975 11837 13307 12799 19260 18787 13154 19176 11063 18710 19420 14756 17876 19652 15660 10982 13741 16396 15122 19881 14066 16152 17370 12677 15120 13935 17925 15339 12977 18414 13347 19504 15987 16248 16282 14426 15922 17905 11964 12516 10418 17206 19910 11765 17944 19815 10988 17590 10829 11635 19673 18866 10353 19954 10586 12192 15277 17500 17622 10582 15376 999999 999999 999999 0 999999 999999 999999 999999 999999 999999 999999 999999 999999 999999 999999 999999 999999 999999 999999 999999 999999 999999 999999 999999 999999 999999 999999 999999 999999 999999 999999 999999 999999 999999 999999 999999 999999 999999 999999 999999 999999 999999 999999 999999 999999 999999 999999 999999 999999 999999 10156
999999 10743 19432 17166 16103 14118 13578 18436 16951 17580 11804 11941 13094 17584 11709 17162 17147 11656 15853 12893 14965 10101 19341 19610 11128 18465 12216 17619 13477 18390 11224 13195 13093 10511 19889 14548 12919 14018 14774 13643 16626 12911 12007 12664 15634 12717 17864 17844 12137 11417 15373 12055 19018 15554 18637 16584 12926 12603 12893 16801 14296 18031 15583 15664 19481 19956 18644 17582 14821 15898 12487 15149 13154 19410 13036 13988 10557 17042 17001 12824 13103 12596 11547 17164 12742 16404 19024 14646 15628 11873 11687 11346 13814 11698 18733 10521 16253 14297 19181 10975 12461 10579 19541 16662 11877 18620 19957 15233 17951 11455 17894 13146 16338 15115 12822 12251 12081 15440 16425 17354 19570 10254 13289 17982 15731 10185 16286 16571 18405 10494 17804 17360 17357 15808 14821 12400 14692 11110 16340 18522 13967 999999 999999 999999 999999 0 999999 999999 999999 999999 999999 999999 999999 999999 999999 999999 999999 999999 999999 999999 999999 999999 999999 999999 999999 999999 999999 999999 999999 999999 999999 999999 999999 999999 999999 999999 999999 999999 999999 999999 999999 999999 999999 999999 999999 999999 999999 999999 999999 999999 999999 8024
999999 18761 15836 11331 14027 15542 12004 11995 18940 17181 10188 11354 14911 12642 10415 19138 18282 18518 14476 19885 15227 11347 12825 13362 19019 14984 12153 19383 13617 16697 11126 16868 12014 13255 13272 10984 19461 15679 12110 19579 12178 15269 14646 15086 18325 19073 12949 12863 19706 16105 10810 11015 19929 19241 10662 17721 18341 13751 10508 14816 13088 16003 13518 10026 13387 18441 10080 10919 12119 10321 17945 16825 18373 12220 11857 19617 12629 19424 11191 15151 10060 18289 18170 16126 18204 13071 13799 19094 13992 15881 14722 12591 17007 16094 16651 17415 15028 11561 19525 17491 10132 18505 12500 17015 14959 19176 17742 11894 15525 18284 15979 15317 17280 15687 18211 14204 16579 18064 13573 16367 19225 15533 13328 19365 18062 17069 16548 12527 12551 15573 16265 13623 12982 13891 14554 19050 12310 10590 14780 13053 17054 999999 999999 999999 999999 999999 0 999999 999999 999999 999999 999999 999999 999999 999999 999999 999999 999999 999999 999999 999999 999999 999999 999999 999999 999999 999999 999999 999999 999999 999999 999999 999999 999999 999999 999999 999999 999999 999999 999999 999999 999999 999999 999999 999999 999999 999999 999999 999999 999999 999999 11342
999999 17430 12729 16475 15050 14497 19778 17854 10751 19069 17444 13865 15096 18117 17516 11352 13003 17324 12207 15924 14793 14080 14589 15381 16036 17237 12014 16772 12127 12192 17021 17454 12508 15163 14577 16489 16181 14380 17235 17049 15050 17337 17817 17007 19426 12469 15452 19259 15476 12829 18705 15204 14299 11610 15195 17998 16082 11183 10808 15112 18720 16484 13364 13574 15564 14202 11611 14901 11629 16906 14841 17192 14317 14528 10972 17824 18443 12807 19059 10696 19827 15062 17317 11642 18768 13173 19815 18049 13721 14925 11658 19930 10966 13114 16170 18601 10336 10104 16446 18342 15081 19873 19508 15781 17175 18070 18904 10500 12170 16398 15969 16837 10884 18328 16779 11367 17426 16560 14688 19167 14333 19175 12017 19457 11982 12929 10901 10088 15545 14114 15242 19763 17320 10336 14891 16109 15802 17301 11905 11823 17163 999999 999999 999999 999999 999999 999999 0 999999 999999 999999 999999 999999 999999 999999 999999 999999 999999 999999 999999 999999 999999 999999 999999 999999 999999 999999 999999 999999 999999 999999 999999 999999 999999 999999 999999 999999 999999 999999 999999 999999 999999 999999 999999 999999 999999 999999 999999 999999 999999 999999 13881
999999 16965 10433 18688 10039 17447 19558 10223 16950 13688 12411 15586 14309 10081 17218 14183 17349 19758 13502 15073 18531 14537 13945 12140 18118 14113 18188 10864 16892 10447 15909 19970 13349 12140 12036 18941 19156 13859 16554 15769 17321 12544 17417 15226 10290 19667 18313 19830 13411 14572 10141 16816 18924 18479 18908 17425 17898 19113 15258 17248 14807 19119 16299 10737 16302 14365 15010 19653 19700 11673 11789 12327 12686 10251 13568 17593 16461 15824 12073 13037 15522 17981 18051 17285 13369 17815 13479 11038 16835 13910 18382 15078 16493 16101 17866 11196 13978 15181 17016 12337 11582 14199 12356 18696 18217 18122 18925 19156 14373 14909 12755 11150 15872 12730 16971 14708 17939 19453 10342 16175 14273 17663 19240 14694 10686 11800 11023 11926 13546 15679 13520 15847 12638 17361 13024 17714 15379 17928 13611 14012 18754 999999 999999 999999 999999 999999 999999 999999 0 999999 999999 999999 999999 999999 999999 999999 999999 999999 999999 999999 999999 999999 999999 999999 999999 999999 999999 999999 999999 999999 999999 999999 999999 999999 999999 999999 999999 999999 999999 999999 999999 999999 999999 999999 999999 999999 999999 999999 999999 999999 999999 9666
999999 13756 19015 12822 17167 14665 15390 16553 13612 18031 16341 15803 12895 10324 12931 13051 18566 11813 16536 17459 14295 13597 15376 11441 15376 19738 17731 17427 10379 14979 10233 14331 10246 19144 11500 12672 12847 14428 10091 11937 14654 12921 18625 16262 16227 17556 13149 10151 10819 12562 18750 12277 14588 13263 12182 13085 18689 13725 13131 11964 10930 13459 10686 10165 12990 13073 14040 12257 17534 12753 18181 17723 10600 12288 18547 18588 16629 13254 13378 18634 14075 11634 12336 16115 18287 18407 11803 16829 11826 12194 19371 17338 15584 11241 18393 18541 18571 12897 17603 14643 17085 13829 18260 13509 16383 13182 10504 10010 10493 10485 18991 17066 16652 12850 12925 13522 14518 11664 13009 13587 17746 13711 11372 15976 17761 16552 15901 17120 11362 10470 12941 10480 18302 15676 14049 11993 15246 15329 18325 11992 16763 999999 999999 999999 999999 999999 999999 999999 999999 0 999999 999999 999999 999999 999999 999999 999999 999999 999999 999999 999999 999999 999999 999999 999999 999999 999999 999999 999999 999999 999999 999999 999999 999999 999999 999999 999999 999999 999999 999999 999999 999999 999999 999999 999999 999999 999999 999999 999999 999999 999999 12050
999999 11282 14105 19928 13867 19915 11319 10005 16070 15135 18636 12616 11115 15333 15828 11253 15859 18221 12983 12954 17469 10755 13845 18541 10192 12072 15647 11925 17361 15810 12597 14757 14537 12102 11760 15918 12374 12078 13057 16596 10156 12410 16894 18645 12252 11045 17552 18510 18180 16236 10138 17467 13173 14020 11193 13715 10146 16189 11381 18695 12026 18906 13912 14572 12514 10629 11604 13046 13212 12111 11595 18297 10969 11309 13435 11385 16517 19440 16711 17084 15167 18944 17703 19523 14170 19374 13212 11355 14308 16154 13195 11842 18060 14988 13423 19346 17939 19019 12216 19232 11148 17435 11000 11990 15447 19816 15691 17085 14894 15300 15527 10298 17513 15572 13867 18586 12810 11153 19046 11404 11452 15150 13428 19301 13515 10587 16705 19906 12452 11534 16251 17491 16489 13684 18946 12434 12718 18088 11759 12010 15084 999999 999999 999999 999999 999999 999999 999999 999999 999999 0 999999 999999 999999 999999 999999 999999 999999 999999 999999 999999 999999 999999 999999 999999 999999 999999 999999 999999 999999 999999 999999 999999 999999 999999 999999 999999 999999 999999 999999 999999 999999 999999 999999 999999 999999 999999 999999 999999 999999 999999 11323
999999 18365 11862 19583 18741 13648 17828 13839 14773 18975 18618 15788 14513 19670 10640 11975 11559 12306 14745 19083 12974 18393 15673 14491 10982 16043 12516 14888 11394 16862 17147 16364 10486 16308 16515 10410 15740 11301 19562 19985 11566 10754 15705 19304 14143 18903 16067 13148 14547 15864 11419 18460 12735 19620 18289 11338 18746 11635 13777 16295 15237 16980 12002 11937 14209 16352 10166 12631 17260 12331 10076 13794 12279 16815 15202 11092 16446 19510 14692 19837 10604 10677 15319 12478 11335 13626 16491 16205 16152 13770 14006 11292 17548 10392 11223 15556 15614 15003 13353 10331 14411 13056 14489 10416 13079 11373 11463 12874 15265 14980 14284 16222 18080 13786 17961 14510 14858 16249 15082 19534 13318 11882 11480 12288 14522 11794 11719 15981 10933 13725 17651 12946 11946 16653 19695 18030 15845 10096 10269 14416 18081 999999 999999 999999 999999 999999 999999 999999 999999 999999 999999 0 999999 999999 999999 999999 999999 999999 999999 999999 999999 999999 999999 999999 999999 999999 999999 999999 999999 999999 999999 999999 999999 999999 999999 999999 999999 999999 999999 999999 999999 999999 999999 999999 999999 999999 999999 999999 999999 999999 999999 13070
999999 13702 10759 16494 13203 16725 11287 10277 13603 11301 18463 18460 10070 13737 19875 12641 17949 11199 12885 11626 10788 14389 13431 19751 17970 13144 12586 17529 12987 18154 18638 14526 10477 18080 13219 19237 18542 18380 17223 14937 18585 13179 17880 11520 18918 19392 10715 14692 12198 19420 11482 15474 17615 16253 17400 18663 19893 10704 12025 12494 19643 14941 11467 14292 14858 13797 13132 12474 14503 15713 16018 10701 16648 13094 18224 18098 17531 19710 14241 17021 14368 17778 16855 11676 15979 19321 18299 17637 10521 16994 14371 14660 13135 11491 17721 16440 16959 15073 15104 13104 18252 16059 17875 13072 13441 11701 16973 14637 19757 10317 19837 13684 14991 16851 16726 12448 19987 13380 14082 17795 19861 17055 16691 19913 10125 17525 18502 14541 11038 13154 15042 11620 15362 18692 10182 13947 13427 14451 11827 13983 18560 999999 999999 999999 999999 999999 999999 999999 999999 999999 999999 999999 0 999999 999999 999999 999999 999999 999999 999999 999999 999999 999999 999999 999999 999999 999999 999999 999999 999999 999999 999999 999999 999999 999999 999999 999999 999999 999999 999999 999999 999999 999999 999999 999999 999999 999999 999999 999999 999999 999999 14767
999999 14223 10987 17089 19303 18377 10504 13907 14943 18477 12992 13930 10381 19648 14590 18269 16511 18568 19906 19639 17048 12188 13274 16974 17422 11892 15240 12809 17634 10267 18896 11987 14475 12105 14869 17227 11370 12702 12616 15368 16555 13179 10004 16808 19834 16483 10700 13656 15846 10786 16662 10823 17922 19067 16655 14496 13169 11376 17484 19335 19745 13060 18894 11066 15641 19148 11994 14086 13990 13527 18191 16706 18679 13128 10469 14656 12816 14740 18130 14778 10601 15805 16508 12213 19389 10591 12369 16909 18517 14403 18324 11449 11796 12114 18024 17242 10072 16047 13864 16378 18322 13241 13482 13860 15821 15333 14474 10948 18330 14392 18265 12640 18341 14699 17133 12101 19326 19049 11878 19638 13087 16853 13611 15220 13791 19581 14710 18465 18610 14531 16948 15823 15968 14392 12090 19454 15209 17161 11067 17077 11896 999999 999999 999999 999999 999999 999999 999999 999999 999999 999999 999999 999999 0 999999 999999 999999 999999 999999 999999 999999 999999 999999 999999 999999 999999 999999 999999 999999 999999 999999 999999 999999 999999 999999 999999 999999 999999 999999 999999 999999 999999 999999 999999 999999 999999 999999 999999 999999 999999 999999 8802
999999 12633 10854 13426 17296 16847 11276 18095 17056 16433 15696 16799 11100 12240 11849 15554 17197 18575 13020 12475 19859 13590 15731 18078 12085 11354 17616 18706 15140 12540 16162 11709 15681 17461 18360 14236 16137 14289 12770 16901 15902 12282 15538 12726 10405 16361 19251 14827 18845 18589 13741 19275 18056 10890 18990 11348 19132 14188 15082 14984 17433 11647 16620 15270 19397 18842 17693 10302 10310 16361 12949 19878 18584 14451 12604 14374 18574 18833 18990 14442 12636 17846 10819 11098 16231 16414 19678 12968 17918 18108 19175 18123 12529 12204 10170 10359 11575 11934 18593 15379 17694 12608 18938 14594 19121 15699 14411 12865 16768 19726 15390 14091 18264 16793 11089 18894 11907 12229 14596 13639 19988 14314 15336 12701 19559 16820 15823 10803 19430 12322 19274 19744 12328 13384 13673 10800 17777 19727 15092 16152 19949 999999 999999 999999 999999 999999 999999 999999 999999 999999 999999 999999 999999 999999 0 999999 999999 999999 999999 999999 999999 999999 999999 999999 999999 999999 999999 999999 999999 999999 999999 999999 999999 999999 999999 999999 999999 999999 999999 999999 999999 999999 999999 999999 999999 999999 999999 999999 999999 999999 999999 10042
999999 10203 19367 13581 18744 11983 12952 17623 16727 16600 17667 10471 16404 14768 11312 10450 16932 11397 19046 14181 13124 14663 16199 11097 12588 19073 19998 15256 19095 11368 10140 15929 18153 15929 16797 15741 10836 15182 13332 13134 17124 17885 11732 16744 17846 10304 10387 10785 11916 13415 14113 17608 11908 17378 19266 12877 12934 12791 18135 12487 16536 17974 10069 13967 11407 11633 11625 18260 13625 10082 18275 12303 16850 10891 13225 14396 13617 17508 13264 13240 11321 10693 11046 17712 11535 14183 12631 19917 12762 12851 12755 11193 12626 17998 14661 19636 17124 13714 15453 11219 13417 13848 17024 17863 13261 17198 16777 18306 19605 12289 15735 13915 16119 17898 16998 13740 19057 16356 10131 16797 11706 11488 19453 18512 13561 18861 14320 14308 15198 19691 11613 16290 19533 18513 12751 13851 15749 11489 12805 11945 19402 999999 999999 999999 999999 999999 999999 999999 999999 999999 999999 999999 999999 999999 999999 0 999999 999999 999999 999999 999999 999999 999999 999999 999999 999999 999999 999999 999999 999999 999999 999999 999999 999999 999999 999999 999999 999999 999999 999999 999999 999999 999999 999999 999999 999999 999999 999999 999999 999999 999999 11199
999999 18924 19436 12671 16911 15171 13732 10365 15935 15793 15647 14022 16751 10325 16771 11585 12454 19339 12887 17916 13107 13922 11359 16346 14562 19638 15587 19495 19989 12769 17316 13204 13427 16708 14201 18832 11566 17031 12170 18067 18889 15107 14104 15853 19792 11823 17715 12838 12950 19466 17607 13795 18019 12351 14168 17057 18094 18137 12831 16000 13306 14523 11960 11459 12387 11521 10110 15614 17705 14359 19386 18621 14257 16506 15846 19610 16092 13142 16480 12458 18601 18274 12195 15090 13956 14296 18380 13313 16842 13116 19043 12777 13180 12189 13489 12943 16165 18290 18251 15473 14367 18929 16184 13582 17953 14394 13662 12131 18356 17144 14091 14807 14355 19758 15495 18695 14867 10675 12211 13087 17875 13013 13354 19947 11804 11733 12415 15257 15378 10677 19916 15648 10415 19863 17086 15556 15671 19483 12597 17261 10714 999999 999999 999999 999999 999999 999999 999999 999999 999999 999999 999999 999999 999999 999999 999999 0 999999 999999 999999 999999 999999 999999 999999 999999 999999 999999 999999 999999 999999 999999 999999 999999 999999 999999 999999 999999 999999 999999 999999 999999 999999 999999 999999 999999 999999 999999 999999 999999 999999 999999 7953
999999 16357 13617 16125 14986 14830 16650 10512 10530 17760 16426 15396 16689 10527 16153 10570 16000 14027 14379 12473 13102 17509 12681 11132 10353 15858 17781 11485 13924 16913 11383 11783 11658 13396 15482 12711 12609 18602 14759 10801 10604 17971 11682 18906 18227 10610 16863 12452 17687 10654 12695 14562 18034 17252 15308 12934 10449 17929 18015 17042 14679 15615 18055 11292 16540 18704 17335 14062 10305 17761 12626 12693 10495 17012 15494 13002 15451 16110 13916 19993 19563 14971 16930 19525 10950 13989 14548 10119 11235 17564 12172 14201 12498 18406 16900 11720 16540 10927 16910 12827 14811 13186 12575 16982 16176 16983 17484 10862 11880 18765 17346 10520 15324 19679 13833 14633 11404 14815 17219 19345 17036 16891 15346 14522 13987 18345 17218 13420 11705 12719 11709 19242 12273 10058 12329 19921 11300 16275 17153 15405 17124 999999 999999 999999 999999 999999 999999 999999 999999 999999 999999 999999 999999 999999 999999 999999 999999 0 999999 999999 999999 999999 999999 999999 999999 999999 999999 999999 999999 999999 999999 999999 999999 999999 999999 999999 999999 999999 999999 999999 999999 999999 999999 999999 999999 999999 999999 999999 999999 999999 999999 13540
999999 18594 10968 15669 12074 15549 18434 18578 14274 19289 16234 14290 19585 10966 19723 10149 18717 12491 14100 14043 16894 17749 19865 14040 12013 11523 10127 19712 14772 19565 14433 15561 17881 16050 11508 15929 10877 13851 15884 19555 13617 14918 18632 19379 19284 17980 18996 19792 19263 11107 13162 15696 12273 19135 11175 11363 16739 16485 11918 17107 13625 12947 14982 10222 14808 10689 16026 12615 17264 17601 14195 11211 11108 13228 10716 10851 10927 11807 19586 17772 17098 18364 15897 11367 15691 14228 18440 13582 18032 17725 12412 14146 10001 13383 10062 11119 18449 12283 12980 16389 12217 15805 14045 18882 12138 15678 11967 10793 11934 15537 12001 16177 13690 12339 16246 18626 19475 19404 14857 18390 16129 12289 17602 18210 18996 15313 17260 14882 10481 18194 12107 14836 15151 10431 16757 19112 14134 13087 13553 16244 11424 999999 999999 999999 999999 999999 999999 999999 999999 999999 999999 999999 999999 999999 999999 999999 999999 999999 0 999999 999999 999999 999999 999999 999999 999999 999999 999999 999999 999999 999999 999999 999999 999999 999999 999999 999999 999999 999999 999999 999999 999999 999999 999999 999999 999999 999999 999999 999999 999999 999999 6558
999999 16019 18158 16032 19431 13744 18174 14994 10602 13400 18237 16734 10663 19086 10172 11747 18745 16604 16114 19557 11449 17530 16333 10574 13561 16518 19822 19528 16853 16703 18627 19089 15093 19651 18451 18185 12049 10670 16861 14288 19551 18904 15011 10910 14953 17169 18528 10030 15127 11402 15183 11769 13480 15608 17437 19054 15535 15836 14623 12877 16416 16157 16408 14083 16798 16905 18903 14410 12655 15703 11361 19196 10050 18173 12502 17252 11415 18387 12632 15120 13357 12278 12330 12425 12533 19355 12011 17782 17250 11423 11327 12407 16302 17515 13097 17342 16220 16738 14024 16241 13956 13115 11637 15043 13928 18760 19050 18966 13668 11045 13290 18801 16607 16344 14174 11270 12698 18192 19013 10621 18455 11370 12590 18777 13554 13595 18934 17510 13786 11752 15789 12805 14780 19895 15925 17324 19614 18884 18200 16643 19000 999999 999999 999999 999999 999999 999999 999999 999999 999999 999999 999999 999999 999999 999999 999999 999999 999999 999999 0 999999 999999 999999 999999 999999 999999 999999 999999 999999 999999 999999 999999 999999 999999 999999 999999 999999 999999 999999 999999 999999 999999 999999 999999 999999 999999 999999 999999 999999 999999 999999 9511
999999 18459 11263 10955 18549 13428 19746 11349 18352 15537 11975 12049 12942 18761 17929 10520 17858 11087 12980 16289 13858 13071 11787 17842 16102 13380 12915 15535 19472 11891 15089 10304 14223 14435 11519 12602 12509 17987 10934 18501 14051 11645 14373 10128 16679 12568 18086 15767 19596 17322 11125 10649 19001 12883 14592 18377 11787 17338 16012 18702 15723 12727 13166 12617 16136 13900 11016 16936 16017 13749 11980 13319 13026 16552 10364 17543 13357 14536 19405 11337 17434 18523 12799 14437 14394 18215 19116 13262 12681 12945 10661 17631 15562 13615 10730 14580 19328 12546 12566 15729 18531 19248 13536 11562 15523 12363 19643 15177 11508 19574 10685 17448 15450 12322 16113 11667 17125 12901 13831 17499 15721 11297 15786 11053 16367 17850 11094 15171 19458 17143 16594 19308 12796 17242 16487 10858 17906 14659 15935 18710 14715 999999 999999 999999 999999 999999 999999 999999 999999 999999 999999 999999 999999 999999 999999 999999 999999 999999 999999 999999 0 999999 999999 999999 999999 999999 999999 999999 999999 999999 999999 999999 999999 999999 999999 999999 999999 999999 999999 999999 999999 999999 999999 999999 999999 999999 999999 999999 999999 999999 999999 13708
999999 19307 15731 14459 19109 14700 12958 12221 17682 15825 10004 12025 14615 17856 17651 19004 12857 13939 15201 13615 17711 14279 16143 18277 13430 10519 17696 17927 16244 18817 13104 13113 11875 16936 11727 12786 13363 12294 15231 10018 16700 17367 19596 13729 18285 14789 18955 13814 18265 17458 16017 19056 14987 14538 16524 18639 15814 10787 16628 15415 16349 11006 11548 12552 19331 13654 16672 19657 18076 17478 18820 14103 17270 19404 16078 14653 13735 11000 18753 13774 15807 17069 17258 10420 19994 13681 19285 12774 12698 15620 13086 14234 15474 18062 10693 12117 15966 16745 11437 15617 14159 14006 13764 13313 16436 12561 10518 11373 11393 11936 11803 12353 11850 14306 14890 19252 10908 14544 17741 10297 14671 16535 10613 14521 15337 13400 19094 16722 14572 15968 13952 19883 14708 10170 13464 14206 17399 19756 14521 19919 16759 999999 999999 999999 999999 999999 999999 999999 999999 999999 999999 999999 999999 999999 999999 999999 999999 999999 999999 999999 999999 0 999999 999999 999999 999999 999999 999999 999999 999999 999999 999999 999999 999999 999999 999999 999999 999999 999999 999999 999999 999999 999999 999999 999999 999999 999999 999999 999999 999999 999999 7497
999999 17061 12687 14420 12387 11267 11800 13614 14284 11401 19803 17670 13237 19027 15446 13246 10091 16408 14759 10482 11264 11752 17346 13059 12622 15056 15296 10644 11522 10665 18318 17901 17302 14270 18376 10272 17631 14136 11670 10720 19659 13463 10196 17518 18471 14391 13682 10532 18048 11709 11194 10009 13996 12689 19114 17661 12677 16567 19639 17483 14971 14233 15106 16325 19798 16666 15183 13105 15413 12718 17782 19654 10338 18728 11193 18191 10333 16964 15610 18845 15910 13532 16863 17382 19594 12726 13927 13343 14723 15264 13531 10346 14870 14568 12594 19772 14441 15526 16050 13428 17820 16119 14413 19727 16069 10852 16030 19538 12868 13289 18248 18900 15521 12360 15702 10208 10622 11453 15936 13799 15278 12544 18082 12120 18548 17623 12937 15178 13887 17389 10843 15677 12844 17596 12041 11935 17214 11607 18857 16038 17478 999999 999999 999999 999999 999999 999999 999999 999999 999999 999999 999999 999999 999999 999999 999999 999999 999999 999999 999999 999999 999999 0 999999 999999 999999 999999 999999 999999 999999 999999 999999 999999 999999 999999 999999 999999 999999 999999 999999 999999 999999 999999 999999 999999 999999 999999 999999 999999 999999 999999 13733
999999 19603 18758 14517 13671 18168 16109 14724 14686 19336 10860 13673 10384 16522 15685 18802 13177 19736 12119 14229 19150 16199 19625 19051 12878 18968 15514 10530 16775 19993 14135 17048 15765 12798 17214 11548 19482 15219 19695 15367 10746 18015 10570 12640 12759 12088 11250 10688 16164 10844 19553 10010 13281 15502 11917 19522 17901 15127 13509 16494 14956 10829 15258 14062 10622 10254 14330 16098 19841 15274 18654 18800 10914 10878 18278 19901 10032 17151 13843 15107 10912 16579 18792 18190 11752 18618 12558 10119 16545 13748 14059 11207 13599 16674 13573 17174 13250 14480 16482 17626 13154 11731 19666 14672 12565 11491 18071 16147 10127 10723 13220 15058 10570 17645 14764 19293 19331 13348 18914 16733 15532 12002 13355 16482 14594 15670 10937 18138 13747 17064 19186 17393 15996 19501 10161 12408 10017 19518 15223 19960 11415 999999 999999 999999 999999 999999 999999 999999 999999 999999 999999 999999 999999 999999 999999 999999 999999 999999 999999 999999 999999 999999 999999 0 999999 999999 999999 999999 999999 999999 999999 999999 999999 999999 999999 999999 999999 999999 999999 999999 999999 999999 999999 999999 999999 999999 999999 999999 999999 999999 999999 10793
999999 16719 11820 13000 19944 13212 16670 17253 18958 11815 13704 13573 14718 16780 13308 12238 15254 11819 10823 18274 14631 19948 15307 12044 13614 18789 16421 16341 19779 16908 11282 18240 14480 19521 13502 11806 11778 19921 12577 17939 11931 10595 15798 17450 12796 14037 12946 16923 16081 12283 12286 18788 10205 12415 10729 12940 12102 15921 10668 18511 12897 15951 18582 17630 14164 11544 19119 12946 16929 16422 14852 17585 13632 19456 19408 16896 14868 10004 13412 18507 13375 17673 11400 18514 11231 19726 17913 13086 17684 18694 11981 14753 16491 17989 18283 10979 17024 19224 15459 14462 18572 15081 17831 15498 16695 16902 10256 13582 17539 13184 17642 14220 18704 13127 15331 18786 15779 16635 11034 18562 18570 12742 17778 19331 12818 13391 12566 13796 12591 14702 14300 13269 12245 10256 10785 19149 17452 18526 10552 17826 18245 999999 999999 999999 999999 999999 999999 999999 999999 999999 999999 999999 999999 999999 999999 999999 999999 999999 999999 999999 999999 999999 999999 999999 0 999999 999999 999999 999999 999999 999999 999999 999999 999999 999999 999999 999999 999999 999999 999999 999999 999999 999999 999999 999999 999999 999999 999999 999999 999999 999999 13838
999999 14690 15503 15483 14392 18428 13437 15457 19386 12671 17275 13360 14832 14437 11528 11431 12699 18882 12888 18903 17213 15123 10766 12993 12651 15092 16895 15992 12290 10095 17597 19766 14585 10137 13174 14621 18569 14209 19510 19058 18018 12351 10325 16502 12023 18262 16584 13506 13590 19500 14678 10551 10901 11235 17078 15916 17149 17700 14396 17583 16200 11404 10097 15279 10725 10726 16846 13066 12267 13683 16942 16187 15016 12906 13566 13810 10975 14704 15754 14808 17974 17909 17033 15127 15708 14378 15629 14494 14321 15658 10134 16533 10799 12773 18220 11360 13676 17020 18312 19392 13491 13373 19504 12963 10274 12382 12997 15592 18388 13944 10246 17580 13566 11475 16246 12162 16224 16404 15465 17655 15477 13772 17053 16276 12578 13215 16772 19133 13815 18925 15561 15877 10273 15043 12485 13744 10533 19607 16245 16375 17240 999999 999999 999999 999999 999999 999999 999999 999999 999999 999999 999999 999999 999999 999999 999999 999999 999999 999999 999999 999999 999999 999999 999999 999999 0 999999 999999 999999 999999 999999 999999 999999 999999 999999 999999 999999 999999 999999 999999 999999 999999 999999 999999 999999 999999 999999 999999 999999 999999 999999 9760
999999 10051 11427 16649 14666 17637 12070 14653 11619 11627 13064 16235 19240 16993 17644 17636 12080 10838 16074 16440 13750 17723 16594 16158 19995 12391 19892 11426 11552 16521 19381 11808 14007 17744 17916 15857 18903 13446 14568 13866 12352 17578 19975 12847 15119 18938 15855 14872 12944 11643 15899 18329 19403 17292 10223 13118 19178 18927 12357 19408 17022 16412 10428 17768 19181 17753 19133 13605 11832 12847 15228 13898 17720 14873 18479 17333 11624 13616 13891 10622 16039 17554 16691 12174 11998 13469 11306 13125 14706 12079 17584 15456 15553 11667 11181 11990 16342 16313 17215 10760 16195 13100 19878 14667 12492 14383 15064 10125 17124 11432 16698 18632 16960 16786 19661 13190 10086 14046 15402 12303 16775 10338 14581 11247 15095 14063 14487 17492 14081 10081 16165 19021 10574 11510 13927 14980 16204 14442 14686 13493 17663 999999 999999 999999 999999 999999 999999 999999 999999 999999 999999 999999 999999 999999 999999 999999 999999 999999 999999 999999 999999 999999 999999 999999 999999 999999 0 999999 999999 999999 999999 999999 999999 999999 999999 999999 999999 999999 999999 999999 999999 999999 999999 999999 999999 999999 999999 999999 999999 999999 999999 10442
999999 18476 15433 13369 12486 11880 13063 11177 15664 19838 17825 17974 10528 17905 15328 19785 13782 12306 12042 12492 15707 11650 13503 10612 11627 14003 17544 14618 12969 17977 17136 15349 11678 17718 11023 10307 10779 11444 15711 18573 10519 19062 19983 18776 15679 18280 10999 12325 11725 14595 16599 17846 10728 10280 16266 10565 14285 18661 18865 15131 12572 11077 14254 11347 19868 13060 10074 12468 16498 12722 10651 10768 18780 18055 12907 10773 11675 17913 17671 11655 16825 16098 12858 10442 15062 13293 15072 11530 14480 17952 14394 17109 10226 14315 12308 16357 17100 12090 17880 14593 12412 19802 13229 11304 13360 19615 15749 12492 11544 19187 10702 14982 13358 15013 19160 18107 18572 15546 19786 16009 10774 15446 12783 14965 18654 11373 17892 16308 10788 13276 19655 11452 18452 17867 15564 16523 19717 18000 19283 10386 18193 999999 999999 999999 999999 999999 999999 999999 999999 999999 999999 999999 999999 999999 999999 999999 999999 999999 999999 999999 999999 999999 999999 999999 999999 999999 999999 0 999999 999999 999999 999999 999999 999999 999999 999999 999999 999999 999999 999999 999999 999999 999999 999999 999999 999999 999999 999999 999999 999999 999999 10216
999999 13295 14902 10206 15014 14673 19323 19886 16808 11203 11988 10829 14762 11990 15810 10818 12501 12572 10648 10664 11948 14156 19115 15450 15945 10669 11969 13455 10729 10663 11323 15372 16260 15074 18480 15303 18119 15490 14661 10449 18664 12948 10543 10177 17876 18934 15962 11856 16244 17880 12597 13763 16203 15306 12695 14840 12569 12880 11540 11203 10176 14985 11499 12512 18982 10133 15538 17197 12016 16597 13172 12922 19819 13703 10125 12077 11205 14717 15074 11310 19929 12950 12791 16492 19405 16841 16817 11761 17765 16304 12041 14526 17040 17690 15384 10556 13945 16403 11164 15887 11859 11064 11915 17555 16715 12122 12213 19381 16655 12692 16586 12368 11269 17875 12196 12902 16385 14443 19033 10460 10850 19006 17912 16668 18908 10715 12461 16466 19094 18819 19395 13489 10136 18377 13596 18748 17738 17665 18305 14014 10992 999999 999999 999999 999999 999999 999999 999999 999999 999999 999999 999999 999999 999999 999999 999999 999999 999999 999999 999999 999999 999999 999999 999999 999999 999999 999999 999999 0 999999 999999 999999 999999 999999 999999 999999 999999 999999 999999 999999 999999 999999 999999 999999 999999 999999 999999 999999 999999 999999 999999 12473
999999 10514 18125 10033 15096 15112 16881 11714 14313 16941 12801 18061 12263 12593 19735 13503 12174 14818 16682 11345 14191 17138 14820 17872 15859 11562 10112 19868 18844 11806 11349 16701 17076 14551 16990 18593 14065 12785 18860 17574 16441 10503 13038 19151 11883 14850 15526 19878 12533 11648 11286 16579 17872 10299 11241 11321 11595 14426 16059 18733 11210 15319 13634 14520 18011 12065 12128 15438 17469 10738 12736 12192 17305 19456 14996 13824 11901 16466 16933 12872 11955 11279 17437 19329 10701 18868 18370 18052 13545 13808 14395 18693 19493 12147 16724 19413 17541 10117 17767 10595 16461 17937 13514 13641 10278 12524 14985 12452 15338 14561 12191 17443 13755 10626 12926 19371 15164 19250 12106 17466 19821 18262 17421 14595 14355 16814 13040 12510 15249 10701 12570 17585 12727 16570 11200 17877 18929 15431 18094 10114 14296 999999 999999 999999 999999 999999 999999 999999 999999 999999 999999 999999 999999 999999 999999 999999 999999 999999 999999 999999 999999 999999 999999 999999 999999 999999 999999 999999 999999 0 999999 999999 999999 999999 999999 999999 999999 999999 999999 999999 999999 999999 999999 999999 999999 999999 999999 999999 999999 999999 999999 5314
999999 11622 15012 18492 16946 13429 15590 11239 14316 17991 14899 11646 13042 10841 13626 12446 13129 16956 12768 19489 11341 10482 12396 19726 16115 15030 12673 19647 13100 14099 12279 14900 11664 17628 11449 18633 19598 14118 18319 17245 14318 19320 18769 13676 17483 18276 10414 15927 14900 17759 14502 13150 14899 16782 13559 11826 12908 12745 15753 14938 13084 13947 13403 13738 10208 12307 16821 19716 15462 18445 19780 12728 10208 19678 15800 12315 18583 18864 14696 16902 16500 12293 16148 12794 15887 16765 13371 14055 16012 19650 14118 16897 12110 12674 17082 19589 15846 12759 19387 13611 10396 19489 17913 13610 12593 19002 18993 15526 13232 15446 13100 19930 13375 19850 14500 15453 15293 14060 11399 10631 15976 12217 12526 17165 18053 17224 12688 13796 19404 14350 17893 10079 18387 10305 13730 17977 15609 11913 13627 18484 10076 999999 999999 999999 999999 999999 999999 999999 999999 999999 999999 999999 999999 999999 999999 999999 999999 999999 999999 999999 999999 999999 999999 999999 999999 999999 999999 999999 999999 999999 0 999999 999999 999999 999999 999999 999999 999999 999999 999999 999999 999999 999999 999999 999999 999999 999999 999999 999999 999999 999999 10565
999999 14849 12864 16981 12625 19873 13175 16745 14716 19003 11300 10214 17850 14030 19134 19383 14598 11246 12190 11046 16511 11339 10212 17694 16751 14163 12962 10932 11458 17199 12524 12854 12819 11214 14325 18660 11041 16499 18280 11198 17545 15141 18564 16386 15232 12593 14448 17534 14677 10247 17886 14156 19275 10490 19495 11740 12781 12909 18240 14049 15822 18989 15074 15289 17033 12173 12861 15458 19298 14384 19330 10275 12116 15148 15718 14717 17654 14675 11326 14509 15012 13844 13949 11138 19872 18574 18206 19406 11726 15739 14513 17890 15821 15533 11056 16932 13123 13505 16046 10207 13527 10361 12800 16132 11636 11018 16069 18710 19388 17737 12017 12008 11754 12587 11367 13803 10179 17829 13781 17645 11750 16124 16613 16893 17119 12048 10398 16524 15514 16098 13391 19555 11396 19813 17020 19011 18135 14465 11320 14567 15968 999999 999999 999999 999999 999999 999999 999999 999999 999999 999999 999999 999999 999999 999999 999999 999999 999999 999999 999999 999999 999999 999999 999999 999999 999999 999999 999999 999999 999999 999999 0 999999 999999 999999 999999 999999 999999 999999 999999 999999 999999 999999 999999 999999 999999 999999 999999 999999 999999 999999 9648
999999 13088 13996 14610 10610 18184 10838 11826 14162 12212 12671 18188 14679 14727 13772 18402 10690 13526 13355 17584 18912 14608 10047 10746 18394 18577 18306 15742 19772 10241 17537 19053 10284 17138 19538 14753 10852 14612 14831 17818 19095 13141 16625 18016 11232 14807 10081 11425 18726 19545 17639 10497 17409 17648 17604 14658 17281 10787 19979 17174 16500 19649 11122 13015 18442 10188 16721 17061 11010 15592 11565 13276 14201 17055 18210 16049 16027 17851 19993 19180 14990 13554 12373 14930 12515 12186 10393 18198 14236 13379 13346 11058 14437 14238 18268 15905 15817 11931 18477 18949 15787 10927 10750 11058 16413 12810 18774 17840 12299 15002 10023 10967 17046 14544 17472 12540 18027 15127 10492 14604 12416 13142 17138 18050 13746 16682 11990 10985 15473 18311 18907 13337 18486 15559 16163 19985 13354 14401 13101 14117 18482 999999 999999 999999 999999 999999 999999 999999 999999 999999 999999 999999 999999 999999 999999 999999 999999 999999 999999 999999 999999 999999 999999 999999 999999 999999 999999 999999 999999 999999 999999 999999 0 999999 999999 999999 999999 999999 999999 999999 999999 999999 999999 999999 999999 999999 999999 999999 999999 999999 999999 13953
999999 17781 10628 18014 18302 17056 17421 12923 17555 19693 13820 14456 12300 11606 12317 16984 12545 13407 14005 11562 18369 11777 16397 16747 12213 10536 10984 16960 11313 13713 14432 12199 13155 17324 16781 19433 18010 17667 12605 16684 14701 10339 15275 15077 16763 16018 17868 16024 12069 11940 16459 15058 18075 11658 19561 16911 16653 15660 18554 16875 10934 11539 15247 12777 17430 10928 17648 13969 11644 13264 18511 10103 19614 12055 14836 17522 15114 18222 12672 15848 19314 17363 14677 16114 14165 10219 10094 16016 19105 19881 11907 17961 15076 16565 19793 10660 16898 16491 12178 15203 11880 14415 11411 10665 11726 13679 13442 11244 13653 10934 12769 18172 19625 18946 17170 12390 18654 13270 16986 18433 13848 16330 18906 14370 18071 18149 15336 14870 18520 16533 16017 10666 15341 12221 17047 12184 17908 13228 12273 16830 13771 999999 999999 999999 999999 999999 999999 999999 999999 999999 999999 999999 999999 999999 999999 999999 999999 999999 999999 999999 999999 999999 999999 999999 999999 999999 999999 999999 999999 999999 999999 999999 999999 0 999999 999999 999999 999999 999999 999999 999999 999999 999999 999999 999999 999999 999999 999999 999999 999999 999999 5159
999999 10868 15974 19392 19731 12303 11207 17219 11555 16541 18144 13213 17468 11470 12663 12881 10072 17877 14284 13865 13094 19434 11111 17834 13538 17222 14881 13906 13797 13721 14703 16019 11877 19749 11284 19951 11035 17901 16069 17870 19839 15407 17841 12396 12664 16415 12706 10070 18428 15511 14175 14208 16140 10491 14170 19805 10456 12604 17229 10596 18106 15983 19202 10316 17086 12986 15309 14625 16765 13536 12549 13686 13062 17181 13635 13053 14109 13203 11023 19480 12413 19930 10576 13678 16371 15946 18369 18786 11146 14062 17817 18404 14511 19639 16334 11750 17885 13218 12034 18284 19963 16648 12703 12278 16369 16609 16175 16126 17842 17668 16308 16325 17246 19436 14565 16897 10669 11022 17721 10876 11240 12269 13410 16804 12980 12040 19896 15091 11927 16026 15728 14392 10914 11423 11030 16807 13648 19901 16016 18741 18548 999999 999999 999999 999999 999999 999999 999999 999999 999999 999999 999999 999999 999999 999999 999999 999999 999999 999999 999999 999999 999999 999999 999999 999999 999999 999999 999999 999999 999999 999999 999999 999999 999999 0 999999 999999 999999 999999 999999 999999 999999 999999 999999 999999 999999 999999 999999 999999 999999 999999 9178
999999 14861 17708 17782 15135 15914 16839 18208 10525 13748 16750 15352 16755 19966 12122 16047 17923 13111 19696 15500 15871 18916 16883 15568 17416 10323 10757 10629 16483 12490 19878 16340 10732 19254 10065 18239 18187 13681 18428 17870 13176 11583 10958 15432 13661 19897 14074 12774 12656 17554 15806 12619 17205 12519 12610 11025 15083 13568 19711 13939 16627 11405 18099 17762 10383 14998 13520 18570 15772 12443 16600 10056 10413 11686 16140 19876 17735 16725 15327 10571 17891 18496 17784 18780 10839 18685 17617 15188 18509 17428 13277 18642 14531 13552 17495 11052 13267 16112 18452 17752 18833 11471 10135 19875 17060 18088 16357 18405 19458 13606 19154 11553 11597 18439 14546 13552 16659 11501 13090 12226 10568 15477 12772 15129 18194 16543 17460 13836 16911 17975 16771 10360 18495 11446 12096 15900 11670 12486 13839 14982 18018 999999 999999 999999 999999 999999 999999 999999 999999 999999 999999 999999 999999 999999 999999 999999 999999 999999 999999 999999 999999 999999 999999 999999 999999 999999 999999 999999 999999 999999 999999 999999 999999 999999 999999 0 999999 999999 999999 999999 999999 999999 999999 999999 999999 999999 999999 999999 999999 999999 999999 11378
999999 17154 17985 15141 17640 16306 17320 16381 10269 15143 16915 15634 16801 12501 16689 15436 11292 15019 17972 15140 14630 18802 12268 11235 10624 12768 19137 14399 11464 11315 15138 14291 15401 17771 14824 15512 17102 17408 13694 15777 13933 19986 19761 14519 18042 17554 18663 12365 10722 18663 12627 11444 18147 10795 18679 19554 14670 16617 14970 13649 12925 16201 11142 12903 14894 19262 14575 17429 15701 16846 15005 16275 19107 11515 14272 16416 15358 15554 13969 12129 15297 15665 10615 16669 16581 13565 11271 17540 16333 12839 15261 17524 15148 14249 16496 18581 12471 16149 16578 13784 13157 14160 14981 17364 19362 13351 11836 15648 18202 13691 13873 15289 12539 19271 13069 17341 12084 18002 12822 16922 16184 15829 16999 16377 13106 12994 14597 18274 18764 16975 19420 16435 12904 12140 19168 11099 19007 19011 13354 14722 19654 999999 999999 999999 999999 999999 999999 999999 999999 999999 999999 999999 999999 999999 999999 999999 999999 999999 999999 999999 999999 999999 999999 999999 999999 999999 999999 999999 999999 999999 999999 999999 999999 999999 999999 999999 0 999999 999999 999999 999999 999999 999999 999999 999999 999999 999999 999999 999999 999999 999999 7308
999999 17729 18458 11286 16642 19210 10830 12356 16043 12579 14978 14356 14715 17027 15381 13723 18824 17750 16656 13087 14829 12755 10297 13626 11260 15219 12493 13166 13086 18317 14731 13121 11597 13381 15133 18769 10939 15775 11006 10135 17992 19322 17062 16556 15435 17001 15635 11716 13295 15300 13184 18328 11976 10057 13240 14365 11348 13277 19555 17425 11048 17487 13387 16714 14722 14665 11432 19880 18679 19642 18975 19144 13664 13131 17285 13064 19903 18071 16632 14202 17657 11349 18689 17566 10380 11914 18644 13766 19820 11662 13931 18176 10769 17722 14125 15868 12749 14797 17123 19289 17712 15073 11359 11735 16166 14141 11717 11336 17461 12021 14011 15856 13035 17366 17711 10822 19259 15058 16725 15196 12161 12534 12496 17643 14325 12667 19016 10405 19586 18647 17389 18677 14560 10076 15249 17425 11771 13163 13032 11785 18024 999999 999999 999999 999999 999999 999999 999999 999999 999999 999999 999999 999999 999999 999999 999999 999999 999999 999999 999999 999999 999999 999999 999999 999999 999999 999999 999999 999999 999999 999999 999999 999999 999999 999999 999999 999999 0 999999 999999 999999 999999 999999 999999 999999 999999 999999 999999 999999 999999 999999 10167
999999 15364 11755 13237 16471 14201 10493 12900 16865 10263 16030 12700 14154 19980 19399 14113 12733 17275 16905 18648 13656 19506 17879 10128 18394 15948 12916 18328 18466 14012 10885 18170 14520 17754 14534 13325 10574 18534 16917 17753 11987 15555 12264 13078 12826 13258 16949 16126 14329 13778 17759 13392 17776 19769 11983 11863 12101 11302 14320 14429 14138 19075 15032 14589 12108 18841 13416 19655 18114 13353 13267 18858 14152 11655 14765 17303 19847 11491 14407 10675 13545 18497 13642 12918 12959 10642 14897 19428 10849 19457 19894 18925 19305 14053 11274 14775 18333 11235 15649 16400 15782 11130 13720 15093 11630 19589 11719 11926 10892 12658 15843 13312 17913 10247 14471 13615 12539 12508 19374 13078 15147 12500 18220 14684 13241 16147 11955 19724 19778 10576 14829 14794 17931 18751 10806 12931 15188 12812 14807 11233 13211 999999 999999 999999 999999 999999 999999 999999 999999 999999 999999 999999 999999 999999 999999 999999 999999 999999 999999 999999 999999 999999 999999 999999 999999 999999 999999 999999 999999 999999 999999 999999 999999 999999 999999 999999 999999 999999 0 999999 999999 999999 999999 999999 999999 999999 999999 999999 999999 999999 999999 13069
999999 10258 14267 11052 19265 10402 18580 14481 17243 16674 16145 10069 15913 13608 13661 17082 15461 10842 18623 14519 10524 14809 17736 11219 14473 18065 13000 15594 14412 15403 11284 16632 12739 10190 14431 12740 17883 18139 14181 12567 13490 11915 14019 17289 17368 15393 11224 14501 13960 14110 18941 10338 19188 15483 12607 17824 13353 10208 17927 18873 11173 11084 12752 11975 18154 13251 18468 12927 11994 19567 17463 16752 19943 17977 11711 11034 14908 19567 15510 17081 18407 15417 13334 15727 14876 16424 17004 19412 14304 19864 19437 18167 12172 12528 18956 17571 15399 10131 16454 15471 12209 13354 10787 13293 13503 14958 13828 11413 14193 14891 12218 17273 17456 12229 18498 10571 12867 11374 15644 18165 17298 16004 19052 16409 16024 12081 18046 11191 13959 18442 11839 18484 18261 15705 17108 11892 17397 10874 15699 11993 12187 999999 999999 999999 999999 999999 999999 999999 999999 999999 999999 999999 999999 999999 999999 999999 999999 999999 999999 999999 999999 999999 999999 999999 999999 999999 999999 999999 999999 999999 999999 999999 999999 999999 999999 999999 999999 999999 999999 0 999999 999999 999999 999999 999999 999999 999999 999999 999999 999999 999999 11469
999999 15913 19189 14343 13943 10976 13414 18411 12454 14886 12277 12235 12346 13897 18771 10586 13126 11988 15479 18217 19738 16309 19691 12559 12952 14868 17029 10727 14584 10051 14072 17381 18664 11194 19497 19437 15014 16145 14039 18527 19879 14736 17349 13695 19468 19963 14099 11876 19576 19457 10781 15721 11219 13225 18077 16978 15603 11895 17538 16833 12010 13009 10993 13661 17293 14803 18979 13238 15710 19336 19003 16957 16599 18181 12069 17085 19294 11484 10326 13234 16814 13650 10747 11347 15317 16664 16525 13052 19625 13863 15352 17063 11526 14876 10673 16897 16324 14889 13530 17819 11248 19594 18883 15181 19341 15545 17292 14374 17050 18842 11809 16911 17839 16081 11637 17680 15353 11349 15048 15426 17641 16024 17037 11878 13365 17421 19629 10102 15857 11033 12103 16423 17127 19244 17617 11437 11300 15864 11399 16558 11050 999999 999999 999999 999999 999999 999999 999999 999999 999999 999999 999999 999999 999999 999999 999999 999999 999999 999999 999999 999999 999999 999999 999999 999999 999999 999999 999999 999999 999999 999999 999999 999999 999999 999999 999999 999999 999999 999999 999999 0 999999 999999 999999 999999 999999 999999 999999 999999 999999 999999 9732
999999 14653 10669 10720 16399 11373 19889 16925 16544 10552 18378 13780 17820 16558 10760 10353 15874 17867 12039 12856 14276 18260 15714 10521 11874 17392 11298 10445 13579 10770 17350 13529 18142 10644 11282 13106 15060 17644 18815 19765 18304 15752 16394 17626 18213 14480 12220 12868 12164 17217 14784 18616 19115 15812 18560 10580 18278 11636 18563 17925 15207 19497 16394 13073 10033 11000 16603 15793 12644 13950 11480 14476 13773 18010 10732 17666 16902 15819 19222 14091 12939 19969 15417 18532 13477 13246 18369 13411 18329 11581 15626 14067 14748 15247 18552 18035 17218 18067 14111 11861 17820 17683 13913 17553 19959 19478 18448 14599 19260 12794 12214 13488 14446 10920 18428 11818 12694 13605 18029 17216 17455 16433 16123 15658 17036 12370 11365 15949 15103 11589 12507 17596 11771 18635 15958 17542 19070 18416 18483 18055 13892 999999 999999 999999 999999 999999 999999 999999 999999 999999 999999 999999 999999 999999 999999 999999 999999 999999 999999 999999 999999 999999 999999 999999 999999 999999 999999 999999 999999 999999 999999 999999 999999 999999 999999 999999 999999 999999 999999 999999 999999 0 999999 999999 999999 999999 999999 999999 999999 999999 999999 12062
999999 11321 19526 19549 19331 16726 12709 18397 12047 10599 19519 15987 18376 18120 18483 11186 12991 16748 15208 17259 18746 15510 14988 15949 12658 16682 18147 16505 17132 12256 18921 13157 10856 17267 14093 13618 17762 14115 15426 10731 10990 11317 14906 13217 12104 10696 16316 12133 10206 18176 12350 10051 16198 12031 17807 18694 13156 18703 17399 16812 18694 10519 10927 18269 11301 11194 17977 16405 19735 17722 17013 13283 12482 18086 16559 14552 14538 16605 10298 19041 18409 14093 18899 11060 14154 18992 11501 18037 14226 15020 13222 16163 19412 18286 14360 15319 13462 13522 15086 16008 18020 14105 16001 16210 14099 12233 18489 17614 18578 19691 10924 19079 19018 19872 18948 10942 12139 10384 14917 12628 12208 13220 13621 13613 14471 16087 16167 15686 11975 13862 14075 16698 14634 12825 18880 10660 15970 18961 13078 15719 19824 999999 999999 999999 999999 999999 999999 999999 999999 999999 999999 999999 999999 999999 999999 999999 999999 999999 999999 999999 999999 999999 999999 999999 999999 999999 999999 999999 999999 999999 999999 999999 999999 999999 999999 999999 999999 999999 999999 999999 999999 999999 0 999999 999999 999999 999999 999999 999999 999999 999999 6047
999999 17055 10708 18904 17638 17301 15438 13526 12443 16769 12210 18598 13870 18362 12595 15501 15508 16046 18462 16428 15010 18123 14034 18606 11200 12951 10264 11108 19991 10328 11727 14924 14279 16698 17709 14785 11428 13288 13080 13345 12493 12792 15245 10297 12843 14298 15081 14694 13757 16881 18199 13430 13259 18439 16893 11355 11738 10686 12423 19192 12380 14975 19161 15097 18533 11425 16056 12188 11936 17444 14682 14713 17330 11445 15266 18787 13189 13332 15968 12088 19862 18131 15704 15780 11110 18471 17483 13479 16069 19671 17361 14953 18207 13593 18811 16786 19462 16976 18903 16934 17424 10206 15867 17952 15568 12771 19167 10967 16470 12438 18687 18259 14346 15545 17355 19514 10347 14258 10925 18786 11003 10893 15454 19743 18662 14864 13484 11749 17875 10875 15008 14394 14522 14587 15112 17917 10697 11554 12746 13595 19509 999999 999999 999999 999999 999999 999999 999999 999999 999999 999999 999999 999999 999999 999999 999999 999999 999999 999999 999999 999999 999999 999999 999999 999999 999999 999999 999999 999999 999999 999999 999999 999999 999999 999999 999999 999999 999999 999999 999999 999999 999999 999999 0 999999 999999 999999 999999 999999 999999 999999 10337
999999 14700 14981 16874 16508 12532 15104 12841 17163 14495 12104 15619 15120 13003 17355 14328 14290 15553 12510 11601 11155 11722 17812 11592 19226 19067 10629 15508 11074 13882 15597 17027 15165 13687 18973 15754 17099 18485 17962 17075 16884 13047 12221 17434 15427 14126 16292 17801 10931 17945 14516 15587 15050 15538 10168 15826 13539 19121 10902 13371 11614 11472 12244 11782 19689 19175 17341 13535 12951 12551 17253 14893 13251 18649 19800 13592 14403 14779 14780 14269 13856 19659 11707 11558 10393 19504 14452 19126 19255 17866 19684 17026 12671 16099 19922 13521 18680 16293 18172 13251 15626 12440 17216 10027 13947 13588 15712 10382 19932 15477 16062 18545 10795 15161 15374 17216 10323 12221 10804 19043 11931 15856 11295 11267 10649 13556 17098 13960 12379 14883 19583 18220 14765 15555 11627 13228 13082 15711 13696 14575 16114 999999 999999 999999 999999 999999 999999 999999 999999 999999 999999 999999 999999 999999 999999 999999 999999 999999 999999 999999 999999 999999 999999 999999 999999 999999 999999 999999 999999 999999 999999 999999 999999 999999 999999 999999 999999 999999 999999 999999 999999 999999 999999 999999 0 999999 999999 999999 999999 999999 999999 13279
999999 18629 15908 13087 14340 11743 17598 18693 16571 18703 10182 13175 11955 19814 15234 13044 18003 15091 17667 10344 18096 17830 15169 14741 18215 14760 14980 13718 11513 16320 15480 18891 13351 16504 17992 19309 12059 19761 16745 15341 12815 15262 14242 16732 15762 17737 14736 10832 16735 14875 10004 10216 17382 11442 18503 19682 13837 13898 15801 16224 16560 12886 15332 17425 19867 12471 10173 18589 11133 11168 18087 11981 17702 18712 16910 10014 17434 17421 11196 17776 15138 16988 11377 19138 15411 14603 11596 15859 18452 15742 13920 14111 18331 15570 15779 16286 18182 10943 12088 19233 19528 15650 15054 15344 10824 16726 17123 18656 18897 15460 13461 10526 16548 17982 12355 17545 17885 14086 14354 10687 17745 15048 14834 17666 16601 16274 19291 14829 13906 18345 13237 11706 12515 13741 18009 19365 13949 10396 12177 16939 12064 999999 999999 999999 999999 999999 999999 999999 999999 999999 999999 999999 999999 999999 999999 999999 999999 999999 999999 999999 999999 999999 999999 999999 999999 999999 999999 999999 999999 999999 999999 999999 999999 999999 999999 999999 999999 999999 999999 999999 999999 999999 999999 999999 999999 0 999999 999999 999999 999999 999999 8198
999999 10539 13467 12825 10632 11254 18031 10098 16230 12052 11595 18220 14541 14428 18659 19446 18771 16779 13745 10014 19968 17333 15356 17888 17270 13985 13316 14007 10636 17667 17068 16468 13377 18408 11987 12483 17458 18111 16976 14747 10481 15931 19412 11611 12290 16432 14574 19538 17036 14366 11658 10149 10306 16238 12137 15802 11043 16906 19545 14266 16242 13171 12287 16785 13910 18933 19168 12732 16384 14774 13763 15248 11655 17343 12241 10837 12842 13692 14893 15402 16872 13233 15358 14857 11334 11235 19669 15822 14773 10319 12901 15325 15511 14274 15661 12797 10038 16085 19848 19999 11525 19490 10296 17348 19873 14951 10685 17066 19941 19768 10551 13781 19227 19904 10542 15443 16179 10621 17565 11374 14344 19605 19466 11947 15375 14613 14903 16886 17911 10786 10085 17259 16383 14926 19959 19875 11049 10149 12559 11237 10517 999999 999999 999999 999999 999999 999999 999999 999999 999999 999999 999999 999999 999999 999999 999999 999999 999999 999999 999999 999999 999999 999999 999999 999999 999999 999999 999999 999999 999999 999999 999999 999999 999999 999999 999999 999999 999999 999999 999999 999999 999999 999999 999999 999999 999999 0 999999 999999 999999 999999 11388
999999 16331 15060 13683 16209 10232 15483 12690 10801 11942 10172 13682 14347 10259 13561 16858 17339 13073 16334 13877 17886 11619 10948 19459 17843 13751 13956 16366 12170 12366 19228 13640 10586 13964 14423 15711 17875 18147 11079 12795 12758 18401 17450 19981 15970 10845 12144 17543 16530 13887 11184 19523 13194 15245 10052 14540 19792 17364 19364 12035 11643 10632 18130 18198 16312 14095 15164 19402 11916 18453 16075 16917 19730 13183 15501 13325 16810 13763 17364 16730 16073 17675 11254 14584 14030 19674 17174 18155 10889 17196 14706 19091 14004 13251 16112 17433 14906 10736 16867 11513 19064 10111 18112 18858 11169 15999 19010 19309 13550 12770 10841 12707 17740 11278 19953 19641 11761 11252 14911 11880 13194 18810 16997 11272 15000 15712 11215 18599 19575 13038 16548 13762 12646 17028 15507 16598 11189 12005 13396 11491 19797 999999 999999 999999 999999 999999 999999 999999 999999 999999 999999 999999 999999 999999 999999 999999 999999 999999 999999 999999 999999 999999 999999 999999 999999 999999 999999 999999 999999 999999 999999 999999 999999 999999 999999 999999 999999 999999 999999 999999 999999 999999 999999 999999 999999 999999 999999 0 999999 999999 999999 5575
999999 12661 13330 16739 14283 15396 19794 12991 18184 11097 10743 19357 15561 19014 10472 16361 14430 12383 18358 17840 17396 11804 19197 11150 12270 19645 10928 15301 17191 13210 13518 13594 12508 17151 10636 18205 14243 17147 17914 19551 19375 12641 14435 13380 13068 17621 19262 17011 13150 13187 12328 18768 19745 14018 17763 13092 12710 15089 15441 11949 19385 14095 16976 14600 14930 17911 19911 16391 12072 16536 10790 15165 13584 17345 15796 18811 10151 15444 15476 19769 12137 16421 15955 17970 16576 14360 10794 17335 19248 16599 17560 12943 16505 13286 19342 19926 16900 16290 15513 16643 19438 14723 17715 10990 19614 13008 15090 12776 12936 18625 10500 11044 15328 18706 19401 16223 12581 15631 15366 15690 10358 12563 16973 10397 17453 16380 11903 17588 12129 11922 15631 16189 15004 12040 19230 18568 13242 19163 15964 15618 20000 999999 999999 999999 999999 999999 999999 999999 999999 999999 999999 999999 999999 999999 999999 999999 999999 999999 999999 999999 999999 999999 999999 999999 999999 999999 999999 999999 999999 999999 999999 999999 999999 999999 999999 999999 999999 999999 999999 999999 999999 999999 999999 999999 999999 999999 999999 999999 0 999999 999999 8815
999999 12697 19488 16930 19426 11455 12295 16411 15300 10302 11268 10962 11478 17292 18627 11664 14300 11612 10186 13192 12330 18847 12642 13437 10421 19444 11566 16301 16038 12469 13167 17680 15718 17696 10785 17071 13034 10408 13073 16053 13662 12222 10124 10842 19048 12710 15776 19919 17455 10776 17880 15234 19262 11273 11997 15774 12496 19815 10393 13560 18587 19458 14361 10147 14113 16434 12820 11816 18544 14065 10678 15048 13718 10267 12155 14567 19204 10594 18936 14292 16481 16864 12131 15490 10124 19168 18598 17855 18158 17823 15514 10522 15675 19133 17065 10852 11003 15092 17347 19771 19540 15788 14566 11496 13877 12333 18704 15619 18756 16291 15381 11687 16130 15100 17766 10946 11129 14444 18527 16085 17802 11210 18188 12712 10974 18664 11402 11378 12444 10473 16349 14188 15494 16528 14163 10539 12596 19615 19345 17429 19962 999999 999999 999999 999999 999999 999999 999999 999999 999999 999999 999999 999999 999999 999999 999999 999999 999999 999999 999999 999999 999999 999999 999999 999999 999999 999999 999999 999999 999999 999999 999999 999999 999999 999999 999999 999999 999999 999999 999999 999999 999999 999999 999999 999999 999999 999999 999999 999999 0 999999 8917
999999 10091 18766 16994 14339 17612 19641 11042 17734 17698 14544 19410 10972 19442 13185 16692 17568 11298 14024 10522 17992 10677 10470 17548 13741 14880 13559 19225 18617 19749 19480 18682 18058 17447 11104 15323 15079 13945 17749 19876 14382 12862 17416 15908 17423 17254 11118 19356 14707 10671 12611 11339 17024 13439 14245 17325 11674 17477 18106 17959 14568 11109 12583 17876 15816 16944 12000 14834 14330 17107 10159 14381 10324 10709 13020 18813 12643 17005 12858 15861 10168 17966 14837 11399 13257 10029 15256 15121 12041 15492 16835 11344 11655 14509 12871 19494 14270 15070 10154 17741 12615 17216 19033 12468 19834 12742 10239 14561 13133 12601 14273 19125 17905 10905 16405 18516 14475 13344 11438 17275 19619 13732 13415 12752 12023 11615 10348 19270 15736 19109 12605 15214 12631 13973 14647 19197 10788 17385 17169 17285 10532 999999 999999 999999 999999 999999 999999 999999 999999 999999 999999 999999 999999 999999 999999 999999 999999 999999 999999 999999 999999 999999 999999 999999 999999 999999 999999 999999 999999 999999 999999 999999 999999 999999 999999 999999 999999 999999 999999 999999 999999 999999 999999 999999 999999 999999 999999 999999 999999 999999 0 7741
1 999999 999999 999999 999999 999999 999999 999999 999999 999999 999999 999999 999999 999999 999999 999999 999999 999999 999999 999999 999999 999999 999999 999999 999999 999999 999999 999999 999999 999999 999999 999999 999999 999999 999999 999999 999999 999999 999999 999999 999999 999999 999999 999999 999999 999999 999999 999999 999999 999999 999999 999999 999999 999999 999999 999999 999999 999999 999999 999999 999999 999999 999999 999999 999999 999999 999999 999999 999999 999999 999999 999999 999999 999999 999999 999999 999999 999999 999999 999999 999999 999999 999999 999999 999999 999999 999999 999999 999999 999999 999999 999999 999999 999999 999999 999999 999999 999999 999999 999999 999999 999999 999999 999999 999999 999999 999999 999999 999999 999999 999999 999999 999999 999999 999999 999999 999999 999999 999999 999999 999999 999999 999999 999999 999999 999999 999999 999999 999999 999999 999999 999999 999999 999999 999999 999999 999999 999999 999999 999999 999999 999999 999999 999999 999999 999999 999999 999999 999999 999999 999999 999999 999999 999999 999999 999999 999999 999999 999999 999999 999999 999999 999999 999999 999999 999999 999999 999999 999999 999999 999999 999999 999999 999999 999999 999999 999999 999999 999999 999999 999999 999999 999999 999999 999999 999999 999999 999999 999999 999999 999999 0
EOF